 <VTKFile type="UnstructuredGrid"  version="0.1"   >
 <UnstructuredGrid>
 <Piece  NumberOfPoints="          1600 "  NumberOfCells="         1024 ">
 <Points>
 <DataArray  type="Float64" NumberOfComponents="3"  format="ascii" >
   0.0000000000000000        0.0000000000000000        0.0000000000000000     
   3.1250000000000000E-002   0.0000000000000000        0.0000000000000000     
   6.2500000000000000E-002   0.0000000000000000        0.0000000000000000     
   9.3750000000000000E-002   0.0000000000000000        0.0000000000000000     
  0.12500000000000000        0.0000000000000000        0.0000000000000000     
   0.0000000000000000        3.1250000000000000E-002   0.0000000000000000     
   3.1250000000000000E-002   3.1250000000000000E-002   0.0000000000000000     
   6.2500000000000000E-002   3.1250000000000000E-002   0.0000000000000000     
   9.3750000000000000E-002   3.1250000000000000E-002   0.0000000000000000     
  0.12500000000000000        3.1250000000000000E-002   0.0000000000000000     
   0.0000000000000000        6.2500000000000000E-002   0.0000000000000000     
   3.1250000000000000E-002   6.2500000000000000E-002   0.0000000000000000     
   6.2500000000000000E-002   6.2500000000000000E-002   0.0000000000000000     
   9.3750000000000000E-002   6.2500000000000000E-002   0.0000000000000000     
  0.12500000000000000        6.2500000000000000E-002   0.0000000000000000     
   0.0000000000000000        9.3750000000000000E-002   0.0000000000000000     
   3.1250000000000000E-002   9.3750000000000000E-002   0.0000000000000000     
   6.2500000000000000E-002   9.3750000000000000E-002   0.0000000000000000     
   9.3750000000000000E-002   9.3750000000000000E-002   0.0000000000000000     
  0.12500000000000000        9.3750000000000000E-002   0.0000000000000000     
   0.0000000000000000       0.12500000000000000        0.0000000000000000     
   3.1250000000000000E-002  0.12500000000000000        0.0000000000000000     
   6.2500000000000000E-002  0.12500000000000000        0.0000000000000000     
   9.3750000000000000E-002  0.12500000000000000        0.0000000000000000     
  0.12500000000000000       0.12500000000000000        0.0000000000000000     
  0.12500000000000000        0.0000000000000000        0.0000000000000000     
  0.15625000000000000        0.0000000000000000        0.0000000000000000     
  0.18750000000000000        0.0000000000000000        0.0000000000000000     
  0.21875000000000000        0.0000000000000000        0.0000000000000000     
  0.25000000000000000        0.0000000000000000        0.0000000000000000     
  0.12500000000000000        3.1250000000000000E-002   0.0000000000000000     
  0.15625000000000000        3.1250000000000000E-002   0.0000000000000000     
  0.18750000000000000        3.1250000000000000E-002   0.0000000000000000     
  0.21875000000000000        3.1250000000000000E-002   0.0000000000000000     
  0.25000000000000000        3.1250000000000000E-002   0.0000000000000000     
  0.12500000000000000        6.2500000000000000E-002   0.0000000000000000     
  0.15625000000000000        6.2500000000000000E-002   0.0000000000000000     
  0.18750000000000000        6.2500000000000000E-002   0.0000000000000000     
  0.21875000000000000        6.2500000000000000E-002   0.0000000000000000     
  0.25000000000000000        6.2500000000000000E-002   0.0000000000000000     
  0.12500000000000000        9.3750000000000000E-002   0.0000000000000000     
  0.15625000000000000        9.3750000000000000E-002   0.0000000000000000     
  0.18750000000000000        9.3750000000000000E-002   0.0000000000000000     
  0.21875000000000000        9.3750000000000000E-002   0.0000000000000000     
  0.25000000000000000        9.3750000000000000E-002   0.0000000000000000     
  0.12500000000000000       0.12500000000000000        0.0000000000000000     
  0.15625000000000000       0.12500000000000000        0.0000000000000000     
  0.18750000000000000       0.12500000000000000        0.0000000000000000     
  0.21875000000000000       0.12500000000000000        0.0000000000000000     
  0.25000000000000000       0.12500000000000000        0.0000000000000000     
  0.25000000000000000        0.0000000000000000        0.0000000000000000     
  0.28125000000000000        0.0000000000000000        0.0000000000000000     
  0.31250000000000000        0.0000000000000000        0.0000000000000000     
  0.34375000000000000        0.0000000000000000        0.0000000000000000     
  0.37500000000000000        0.0000000000000000        0.0000000000000000     
  0.25000000000000000        3.1250000000000000E-002   0.0000000000000000     
  0.28125000000000000        3.1250000000000000E-002   0.0000000000000000     
  0.31250000000000000        3.1250000000000000E-002   0.0000000000000000     
  0.34375000000000000        3.1250000000000000E-002   0.0000000000000000     
  0.37500000000000000        3.1250000000000000E-002   0.0000000000000000     
  0.25000000000000000        6.2500000000000000E-002   0.0000000000000000     
  0.28125000000000000        6.2500000000000000E-002   0.0000000000000000     
  0.31250000000000000        6.2500000000000000E-002   0.0000000000000000     
  0.34375000000000000        6.2500000000000000E-002   0.0000000000000000     
  0.37500000000000000        6.2500000000000000E-002   0.0000000000000000     
  0.25000000000000000        9.3750000000000000E-002   0.0000000000000000     
  0.28125000000000000        9.3750000000000000E-002   0.0000000000000000     
  0.31250000000000000        9.3750000000000000E-002   0.0000000000000000     
  0.34375000000000000        9.3750000000000000E-002   0.0000000000000000     
  0.37500000000000000        9.3750000000000000E-002   0.0000000000000000     
  0.25000000000000000       0.12500000000000000        0.0000000000000000     
  0.28125000000000000       0.12500000000000000        0.0000000000000000     
  0.31250000000000000       0.12500000000000000        0.0000000000000000     
  0.34375000000000000       0.12500000000000000        0.0000000000000000     
  0.37500000000000000       0.12500000000000000        0.0000000000000000     
  0.37500000000000000        0.0000000000000000        0.0000000000000000     
  0.40625000000000000        0.0000000000000000        0.0000000000000000     
  0.43750000000000000        0.0000000000000000        0.0000000000000000     
  0.46875000000000000        0.0000000000000000        0.0000000000000000     
  0.50000000000000000        0.0000000000000000        0.0000000000000000     
  0.37500000000000000        3.1250000000000000E-002   0.0000000000000000     
  0.40625000000000000        3.1250000000000000E-002   0.0000000000000000     
  0.43750000000000000        3.1250000000000000E-002   0.0000000000000000     
  0.46875000000000000        3.1250000000000000E-002   0.0000000000000000     
  0.50000000000000000        3.1250000000000000E-002   0.0000000000000000     
  0.37500000000000000        6.2500000000000000E-002   0.0000000000000000     
  0.40625000000000000        6.2500000000000000E-002   0.0000000000000000     
  0.43750000000000000        6.2500000000000000E-002   0.0000000000000000     
  0.46875000000000000        6.2500000000000000E-002   0.0000000000000000     
  0.50000000000000000        6.2500000000000000E-002   0.0000000000000000     
  0.37500000000000000        9.3750000000000000E-002   0.0000000000000000     
  0.40625000000000000        9.3750000000000000E-002   0.0000000000000000     
  0.43750000000000000        9.3750000000000000E-002   0.0000000000000000     
  0.46875000000000000        9.3750000000000000E-002   0.0000000000000000     
  0.50000000000000000        9.3750000000000000E-002   0.0000000000000000     
  0.37500000000000000       0.12500000000000000        0.0000000000000000     
  0.40625000000000000       0.12500000000000000        0.0000000000000000     
  0.43750000000000000       0.12500000000000000        0.0000000000000000     
  0.46875000000000000       0.12500000000000000        0.0000000000000000     
  0.50000000000000000       0.12500000000000000        0.0000000000000000     
  0.50000000000000000        0.0000000000000000        0.0000000000000000     
  0.53125000000000000        0.0000000000000000        0.0000000000000000     
  0.56250000000000000        0.0000000000000000        0.0000000000000000     
  0.59375000000000000        0.0000000000000000        0.0000000000000000     
  0.62500000000000000        0.0000000000000000        0.0000000000000000     
  0.50000000000000000        3.1250000000000000E-002   0.0000000000000000     
  0.53125000000000000        3.1250000000000000E-002   0.0000000000000000     
  0.56250000000000000        3.1250000000000000E-002   0.0000000000000000     
  0.59375000000000000        3.1250000000000000E-002   0.0000000000000000     
  0.62500000000000000        3.1250000000000000E-002   0.0000000000000000     
  0.50000000000000000        6.2500000000000000E-002   0.0000000000000000     
  0.53125000000000000        6.2500000000000000E-002   0.0000000000000000     
  0.56250000000000000        6.2500000000000000E-002   0.0000000000000000     
  0.59375000000000000        6.2500000000000000E-002   0.0000000000000000     
  0.62500000000000000        6.2500000000000000E-002   0.0000000000000000     
  0.50000000000000000        9.3750000000000000E-002   0.0000000000000000     
  0.53125000000000000        9.3750000000000000E-002   0.0000000000000000     
  0.56250000000000000        9.3750000000000000E-002   0.0000000000000000     
  0.59375000000000000        9.3750000000000000E-002   0.0000000000000000     
  0.62500000000000000        9.3750000000000000E-002   0.0000000000000000     
  0.50000000000000000       0.12500000000000000        0.0000000000000000     
  0.53125000000000000       0.12500000000000000        0.0000000000000000     
  0.56250000000000000       0.12500000000000000        0.0000000000000000     
  0.59375000000000000       0.12500000000000000        0.0000000000000000     
  0.62500000000000000       0.12500000000000000        0.0000000000000000     
  0.62500000000000000        0.0000000000000000        0.0000000000000000     
  0.65625000000000000        0.0000000000000000        0.0000000000000000     
  0.68750000000000000        0.0000000000000000        0.0000000000000000     
  0.71875000000000000        0.0000000000000000        0.0000000000000000     
  0.75000000000000000        0.0000000000000000        0.0000000000000000     
  0.62500000000000000        3.1250000000000000E-002   0.0000000000000000     
  0.65625000000000000        3.1250000000000000E-002   0.0000000000000000     
  0.68750000000000000        3.1250000000000000E-002   0.0000000000000000     
  0.71875000000000000        3.1250000000000000E-002   0.0000000000000000     
  0.75000000000000000        3.1250000000000000E-002   0.0000000000000000     
  0.62500000000000000        6.2500000000000000E-002   0.0000000000000000     
  0.65625000000000000        6.2500000000000000E-002   0.0000000000000000     
  0.68750000000000000        6.2500000000000000E-002   0.0000000000000000     
  0.71875000000000000        6.2500000000000000E-002   0.0000000000000000     
  0.75000000000000000        6.2500000000000000E-002   0.0000000000000000     
  0.62500000000000000        9.3750000000000000E-002   0.0000000000000000     
  0.65625000000000000        9.3750000000000000E-002   0.0000000000000000     
  0.68750000000000000        9.3750000000000000E-002   0.0000000000000000     
  0.71875000000000000        9.3750000000000000E-002   0.0000000000000000     
  0.75000000000000000        9.3750000000000000E-002   0.0000000000000000     
  0.62500000000000000       0.12500000000000000        0.0000000000000000     
  0.65625000000000000       0.12500000000000000        0.0000000000000000     
  0.68750000000000000       0.12500000000000000        0.0000000000000000     
  0.71875000000000000       0.12500000000000000        0.0000000000000000     
  0.75000000000000000       0.12500000000000000        0.0000000000000000     
  0.75000000000000000        0.0000000000000000        0.0000000000000000     
  0.78125000000000000        0.0000000000000000        0.0000000000000000     
  0.81250000000000000        0.0000000000000000        0.0000000000000000     
  0.84375000000000000        0.0000000000000000        0.0000000000000000     
  0.87500000000000000        0.0000000000000000        0.0000000000000000     
  0.75000000000000000        3.1250000000000000E-002   0.0000000000000000     
  0.78125000000000000        3.1250000000000000E-002   0.0000000000000000     
  0.81250000000000000        3.1250000000000000E-002   0.0000000000000000     
  0.84375000000000000        3.1250000000000000E-002   0.0000000000000000     
  0.87500000000000000        3.1250000000000000E-002   0.0000000000000000     
  0.75000000000000000        6.2500000000000000E-002   0.0000000000000000     
  0.78125000000000000        6.2500000000000000E-002   0.0000000000000000     
  0.81250000000000000        6.2500000000000000E-002   0.0000000000000000     
  0.84375000000000000        6.2500000000000000E-002   0.0000000000000000     
  0.87500000000000000        6.2500000000000000E-002   0.0000000000000000     
  0.75000000000000000        9.3750000000000000E-002   0.0000000000000000     
  0.78125000000000000        9.3750000000000000E-002   0.0000000000000000     
  0.81250000000000000        9.3750000000000000E-002   0.0000000000000000     
  0.84375000000000000        9.3750000000000000E-002   0.0000000000000000     
  0.87500000000000000        9.3750000000000000E-002   0.0000000000000000     
  0.75000000000000000       0.12500000000000000        0.0000000000000000     
  0.78125000000000000       0.12500000000000000        0.0000000000000000     
  0.81250000000000000       0.12500000000000000        0.0000000000000000     
  0.84375000000000000       0.12500000000000000        0.0000000000000000     
  0.87500000000000000       0.12500000000000000        0.0000000000000000     
  0.87500000000000000        0.0000000000000000        0.0000000000000000     
  0.90625000000000000        0.0000000000000000        0.0000000000000000     
  0.93750000000000000        0.0000000000000000        0.0000000000000000     
  0.96875000000000000        0.0000000000000000        0.0000000000000000     
   1.0000000000000000        0.0000000000000000        0.0000000000000000     
  0.87500000000000000        3.1250000000000000E-002   0.0000000000000000     
  0.90625000000000000        3.1250000000000000E-002   0.0000000000000000     
  0.93750000000000000        3.1250000000000000E-002   0.0000000000000000     
  0.96875000000000000        3.1250000000000000E-002   0.0000000000000000     
   1.0000000000000000        3.1250000000000000E-002   0.0000000000000000     
  0.87500000000000000        6.2500000000000000E-002   0.0000000000000000     
  0.90625000000000000        6.2500000000000000E-002   0.0000000000000000     
  0.93750000000000000        6.2500000000000000E-002   0.0000000000000000     
  0.96875000000000000        6.2500000000000000E-002   0.0000000000000000     
   1.0000000000000000        6.2500000000000000E-002   0.0000000000000000     
  0.87500000000000000        9.3750000000000000E-002   0.0000000000000000     
  0.90625000000000000        9.3750000000000000E-002   0.0000000000000000     
  0.93750000000000000        9.3750000000000000E-002   0.0000000000000000     
  0.96875000000000000        9.3750000000000000E-002   0.0000000000000000     
   1.0000000000000000        9.3750000000000000E-002   0.0000000000000000     
  0.87500000000000000       0.12500000000000000        0.0000000000000000     
  0.90625000000000000       0.12500000000000000        0.0000000000000000     
  0.93750000000000000       0.12500000000000000        0.0000000000000000     
  0.96875000000000000       0.12500000000000000        0.0000000000000000     
   1.0000000000000000       0.12500000000000000        0.0000000000000000     
   0.0000000000000000       0.12500000000000000        0.0000000000000000     
   3.1250000000000000E-002  0.12500000000000000        0.0000000000000000     
   6.2500000000000000E-002  0.12500000000000000        0.0000000000000000     
   9.3750000000000000E-002  0.12500000000000000        0.0000000000000000     
  0.12500000000000000       0.12500000000000000        0.0000000000000000     
   0.0000000000000000       0.15625000000000000        0.0000000000000000     
   3.1250000000000000E-002  0.15625000000000000        0.0000000000000000     
   6.2500000000000000E-002  0.15625000000000000        0.0000000000000000     
   9.3750000000000000E-002  0.15625000000000000        0.0000000000000000     
  0.12500000000000000       0.15625000000000000        0.0000000000000000     
   0.0000000000000000       0.18750000000000000        0.0000000000000000     
   3.1250000000000000E-002  0.18750000000000000        0.0000000000000000     
   6.2500000000000000E-002  0.18750000000000000        0.0000000000000000     
   9.3750000000000000E-002  0.18750000000000000        0.0000000000000000     
  0.12500000000000000       0.18750000000000000        0.0000000000000000     
   0.0000000000000000       0.21875000000000000        0.0000000000000000     
   3.1250000000000000E-002  0.21875000000000000        0.0000000000000000     
   6.2500000000000000E-002  0.21875000000000000        0.0000000000000000     
   9.3750000000000000E-002  0.21875000000000000        0.0000000000000000     
  0.12500000000000000       0.21875000000000000        0.0000000000000000     
   0.0000000000000000       0.25000000000000000        0.0000000000000000     
   3.1250000000000000E-002  0.25000000000000000        0.0000000000000000     
   6.2500000000000000E-002  0.25000000000000000        0.0000000000000000     
   9.3750000000000000E-002  0.25000000000000000        0.0000000000000000     
  0.12500000000000000       0.25000000000000000        0.0000000000000000     
  0.12500000000000000       0.12500000000000000        0.0000000000000000     
  0.15625000000000000       0.12500000000000000        0.0000000000000000     
  0.18750000000000000       0.12500000000000000        0.0000000000000000     
  0.21875000000000000       0.12500000000000000        0.0000000000000000     
  0.25000000000000000       0.12500000000000000        0.0000000000000000     
  0.12500000000000000       0.15625000000000000        0.0000000000000000     
  0.15625000000000000       0.15625000000000000        0.0000000000000000     
  0.18750000000000000       0.15625000000000000        0.0000000000000000     
  0.21875000000000000       0.15625000000000000        0.0000000000000000     
  0.25000000000000000       0.15625000000000000        0.0000000000000000     
  0.12500000000000000       0.18750000000000000        0.0000000000000000     
  0.15625000000000000       0.18750000000000000        0.0000000000000000     
  0.18750000000000000       0.18750000000000000        0.0000000000000000     
  0.21875000000000000       0.18750000000000000        0.0000000000000000     
  0.25000000000000000       0.18750000000000000        0.0000000000000000     
  0.12500000000000000       0.21875000000000000        0.0000000000000000     
  0.15625000000000000       0.21875000000000000        0.0000000000000000     
  0.18750000000000000       0.21875000000000000        0.0000000000000000     
  0.21875000000000000       0.21875000000000000        0.0000000000000000     
  0.25000000000000000       0.21875000000000000        0.0000000000000000     
  0.12500000000000000       0.25000000000000000        0.0000000000000000     
  0.15625000000000000       0.25000000000000000        0.0000000000000000     
  0.18750000000000000       0.25000000000000000        0.0000000000000000     
  0.21875000000000000       0.25000000000000000        0.0000000000000000     
  0.25000000000000000       0.25000000000000000        0.0000000000000000     
  0.25000000000000000       0.12500000000000000        0.0000000000000000     
  0.28125000000000000       0.12500000000000000        0.0000000000000000     
  0.31250000000000000       0.12500000000000000        0.0000000000000000     
  0.34375000000000000       0.12500000000000000        0.0000000000000000     
  0.37500000000000000       0.12500000000000000        0.0000000000000000     
  0.25000000000000000       0.15625000000000000        0.0000000000000000     
  0.28125000000000000       0.15625000000000000        0.0000000000000000     
  0.31250000000000000       0.15625000000000000        0.0000000000000000     
  0.34375000000000000       0.15625000000000000        0.0000000000000000     
  0.37500000000000000       0.15625000000000000        0.0000000000000000     
  0.25000000000000000       0.18750000000000000        0.0000000000000000     
  0.28125000000000000       0.18750000000000000        0.0000000000000000     
  0.31250000000000000       0.18750000000000000        0.0000000000000000     
  0.34375000000000000       0.18750000000000000        0.0000000000000000     
  0.37500000000000000       0.18750000000000000        0.0000000000000000     
  0.25000000000000000       0.21875000000000000        0.0000000000000000     
  0.28125000000000000       0.21875000000000000        0.0000000000000000     
  0.31250000000000000       0.21875000000000000        0.0000000000000000     
  0.34375000000000000       0.21875000000000000        0.0000000000000000     
  0.37500000000000000       0.21875000000000000        0.0000000000000000     
  0.25000000000000000       0.25000000000000000        0.0000000000000000     
  0.28125000000000000       0.25000000000000000        0.0000000000000000     
  0.31250000000000000       0.25000000000000000        0.0000000000000000     
  0.34375000000000000       0.25000000000000000        0.0000000000000000     
  0.37500000000000000       0.25000000000000000        0.0000000000000000     
  0.37500000000000000       0.12500000000000000        0.0000000000000000     
  0.40625000000000000       0.12500000000000000        0.0000000000000000     
  0.43750000000000000       0.12500000000000000        0.0000000000000000     
  0.46875000000000000       0.12500000000000000        0.0000000000000000     
  0.50000000000000000       0.12500000000000000        0.0000000000000000     
  0.37500000000000000       0.15625000000000000        0.0000000000000000     
  0.40625000000000000       0.15625000000000000        0.0000000000000000     
  0.43750000000000000       0.15625000000000000        0.0000000000000000     
  0.46875000000000000       0.15625000000000000        0.0000000000000000     
  0.50000000000000000       0.15625000000000000        0.0000000000000000     
  0.37500000000000000       0.18750000000000000        0.0000000000000000     
  0.40625000000000000       0.18750000000000000        0.0000000000000000     
  0.43750000000000000       0.18750000000000000        0.0000000000000000     
  0.46875000000000000       0.18750000000000000        0.0000000000000000     
  0.50000000000000000       0.18750000000000000        0.0000000000000000     
  0.37500000000000000       0.21875000000000000        0.0000000000000000     
  0.40625000000000000       0.21875000000000000        0.0000000000000000     
  0.43750000000000000       0.21875000000000000        0.0000000000000000     
  0.46875000000000000       0.21875000000000000        0.0000000000000000     
  0.50000000000000000       0.21875000000000000        0.0000000000000000     
  0.37500000000000000       0.25000000000000000        0.0000000000000000     
  0.40625000000000000       0.25000000000000000        0.0000000000000000     
  0.43750000000000000       0.25000000000000000        0.0000000000000000     
  0.46875000000000000       0.25000000000000000        0.0000000000000000     
  0.50000000000000000       0.25000000000000000        0.0000000000000000     
  0.50000000000000000       0.12500000000000000        0.0000000000000000     
  0.53125000000000000       0.12500000000000000        0.0000000000000000     
  0.56250000000000000       0.12500000000000000        0.0000000000000000     
  0.59375000000000000       0.12500000000000000        0.0000000000000000     
  0.62500000000000000       0.12500000000000000        0.0000000000000000     
  0.50000000000000000       0.15625000000000000        0.0000000000000000     
  0.53125000000000000       0.15625000000000000        0.0000000000000000     
  0.56250000000000000       0.15625000000000000        0.0000000000000000     
  0.59375000000000000       0.15625000000000000        0.0000000000000000     
  0.62500000000000000       0.15625000000000000        0.0000000000000000     
  0.50000000000000000       0.18750000000000000        0.0000000000000000     
  0.53125000000000000       0.18750000000000000        0.0000000000000000     
  0.56250000000000000       0.18750000000000000        0.0000000000000000     
  0.59375000000000000       0.18750000000000000        0.0000000000000000     
  0.62500000000000000       0.18750000000000000        0.0000000000000000     
  0.50000000000000000       0.21875000000000000        0.0000000000000000     
  0.53125000000000000       0.21875000000000000        0.0000000000000000     
  0.56250000000000000       0.21875000000000000        0.0000000000000000     
  0.59375000000000000       0.21875000000000000        0.0000000000000000     
  0.62500000000000000       0.21875000000000000        0.0000000000000000     
  0.50000000000000000       0.25000000000000000        0.0000000000000000     
  0.53125000000000000       0.25000000000000000        0.0000000000000000     
  0.56250000000000000       0.25000000000000000        0.0000000000000000     
  0.59375000000000000       0.25000000000000000        0.0000000000000000     
  0.62500000000000000       0.25000000000000000        0.0000000000000000     
  0.62500000000000000       0.12500000000000000        0.0000000000000000     
  0.65625000000000000       0.12500000000000000        0.0000000000000000     
  0.68750000000000000       0.12500000000000000        0.0000000000000000     
  0.71875000000000000       0.12500000000000000        0.0000000000000000     
  0.75000000000000000       0.12500000000000000        0.0000000000000000     
  0.62500000000000000       0.15625000000000000        0.0000000000000000     
  0.65625000000000000       0.15625000000000000        0.0000000000000000     
  0.68750000000000000       0.15625000000000000        0.0000000000000000     
  0.71875000000000000       0.15625000000000000        0.0000000000000000     
  0.75000000000000000       0.15625000000000000        0.0000000000000000     
  0.62500000000000000       0.18750000000000000        0.0000000000000000     
  0.65625000000000000       0.18750000000000000        0.0000000000000000     
  0.68750000000000000       0.18750000000000000        0.0000000000000000     
  0.71875000000000000       0.18750000000000000        0.0000000000000000     
  0.75000000000000000       0.18750000000000000        0.0000000000000000     
  0.62500000000000000       0.21875000000000000        0.0000000000000000     
  0.65625000000000000       0.21875000000000000        0.0000000000000000     
  0.68750000000000000       0.21875000000000000        0.0000000000000000     
  0.71875000000000000       0.21875000000000000        0.0000000000000000     
  0.75000000000000000       0.21875000000000000        0.0000000000000000     
  0.62500000000000000       0.25000000000000000        0.0000000000000000     
  0.65625000000000000       0.25000000000000000        0.0000000000000000     
  0.68750000000000000       0.25000000000000000        0.0000000000000000     
  0.71875000000000000       0.25000000000000000        0.0000000000000000     
  0.75000000000000000       0.25000000000000000        0.0000000000000000     
  0.75000000000000000       0.12500000000000000        0.0000000000000000     
  0.78125000000000000       0.12500000000000000        0.0000000000000000     
  0.81250000000000000       0.12500000000000000        0.0000000000000000     
  0.84375000000000000       0.12500000000000000        0.0000000000000000     
  0.87500000000000000       0.12500000000000000        0.0000000000000000     
  0.75000000000000000       0.15625000000000000        0.0000000000000000     
  0.78125000000000000       0.15625000000000000        0.0000000000000000     
  0.81250000000000000       0.15625000000000000        0.0000000000000000     
  0.84375000000000000       0.15625000000000000        0.0000000000000000     
  0.87500000000000000       0.15625000000000000        0.0000000000000000     
  0.75000000000000000       0.18750000000000000        0.0000000000000000     
  0.78125000000000000       0.18750000000000000        0.0000000000000000     
  0.81250000000000000       0.18750000000000000        0.0000000000000000     
  0.84375000000000000       0.18750000000000000        0.0000000000000000     
  0.87500000000000000       0.18750000000000000        0.0000000000000000     
  0.75000000000000000       0.21875000000000000        0.0000000000000000     
  0.78125000000000000       0.21875000000000000        0.0000000000000000     
  0.81250000000000000       0.21875000000000000        0.0000000000000000     
  0.84375000000000000       0.21875000000000000        0.0000000000000000     
  0.87500000000000000       0.21875000000000000        0.0000000000000000     
  0.75000000000000000       0.25000000000000000        0.0000000000000000     
  0.78125000000000000       0.25000000000000000        0.0000000000000000     
  0.81250000000000000       0.25000000000000000        0.0000000000000000     
  0.84375000000000000       0.25000000000000000        0.0000000000000000     
  0.87500000000000000       0.25000000000000000        0.0000000000000000     
  0.87500000000000000       0.12500000000000000        0.0000000000000000     
  0.90625000000000000       0.12500000000000000        0.0000000000000000     
  0.93750000000000000       0.12500000000000000        0.0000000000000000     
  0.96875000000000000       0.12500000000000000        0.0000000000000000     
   1.0000000000000000       0.12500000000000000        0.0000000000000000     
  0.87500000000000000       0.15625000000000000        0.0000000000000000     
  0.90625000000000000       0.15625000000000000        0.0000000000000000     
  0.93750000000000000       0.15625000000000000        0.0000000000000000     
  0.96875000000000000       0.15625000000000000        0.0000000000000000     
   1.0000000000000000       0.15625000000000000        0.0000000000000000     
  0.87500000000000000       0.18750000000000000        0.0000000000000000     
  0.90625000000000000       0.18750000000000000        0.0000000000000000     
  0.93750000000000000       0.18750000000000000        0.0000000000000000     
  0.96875000000000000       0.18750000000000000        0.0000000000000000     
   1.0000000000000000       0.18750000000000000        0.0000000000000000     
  0.87500000000000000       0.21875000000000000        0.0000000000000000     
  0.90625000000000000       0.21875000000000000        0.0000000000000000     
  0.93750000000000000       0.21875000000000000        0.0000000000000000     
  0.96875000000000000       0.21875000000000000        0.0000000000000000     
   1.0000000000000000       0.21875000000000000        0.0000000000000000     
  0.87500000000000000       0.25000000000000000        0.0000000000000000     
  0.90625000000000000       0.25000000000000000        0.0000000000000000     
  0.93750000000000000       0.25000000000000000        0.0000000000000000     
  0.96875000000000000       0.25000000000000000        0.0000000000000000     
   1.0000000000000000       0.25000000000000000        0.0000000000000000     
   0.0000000000000000       0.25000000000000000        0.0000000000000000     
   3.1250000000000000E-002  0.25000000000000000        0.0000000000000000     
   6.2500000000000000E-002  0.25000000000000000        0.0000000000000000     
   9.3750000000000000E-002  0.25000000000000000        0.0000000000000000     
  0.12500000000000000       0.25000000000000000        0.0000000000000000     
   0.0000000000000000       0.28125000000000000        0.0000000000000000     
   3.1250000000000000E-002  0.28125000000000000        0.0000000000000000     
   6.2500000000000000E-002  0.28125000000000000        0.0000000000000000     
   9.3750000000000000E-002  0.28125000000000000        0.0000000000000000     
  0.12500000000000000       0.28125000000000000        0.0000000000000000     
   0.0000000000000000       0.31250000000000000        0.0000000000000000     
   3.1250000000000000E-002  0.31250000000000000        0.0000000000000000     
   6.2500000000000000E-002  0.31250000000000000        0.0000000000000000     
   9.3750000000000000E-002  0.31250000000000000        0.0000000000000000     
  0.12500000000000000       0.31250000000000000        0.0000000000000000     
   0.0000000000000000       0.34375000000000000        0.0000000000000000     
   3.1250000000000000E-002  0.34375000000000000        0.0000000000000000     
   6.2500000000000000E-002  0.34375000000000000        0.0000000000000000     
   9.3750000000000000E-002  0.34375000000000000        0.0000000000000000     
  0.12500000000000000       0.34375000000000000        0.0000000000000000     
   0.0000000000000000       0.37500000000000000        0.0000000000000000     
   3.1250000000000000E-002  0.37500000000000000        0.0000000000000000     
   6.2500000000000000E-002  0.37500000000000000        0.0000000000000000     
   9.3750000000000000E-002  0.37500000000000000        0.0000000000000000     
  0.12500000000000000       0.37500000000000000        0.0000000000000000     
  0.12500000000000000       0.25000000000000000        0.0000000000000000     
  0.15625000000000000       0.25000000000000000        0.0000000000000000     
  0.18750000000000000       0.25000000000000000        0.0000000000000000     
  0.21875000000000000       0.25000000000000000        0.0000000000000000     
  0.25000000000000000       0.25000000000000000        0.0000000000000000     
  0.12500000000000000       0.28125000000000000        0.0000000000000000     
  0.15625000000000000       0.28125000000000000        0.0000000000000000     
  0.18750000000000000       0.28125000000000000        0.0000000000000000     
  0.21875000000000000       0.28125000000000000        0.0000000000000000     
  0.25000000000000000       0.28125000000000000        0.0000000000000000     
  0.12500000000000000       0.31250000000000000        0.0000000000000000     
  0.15625000000000000       0.31250000000000000        0.0000000000000000     
  0.18750000000000000       0.31250000000000000        0.0000000000000000     
  0.21875000000000000       0.31250000000000000        0.0000000000000000     
  0.25000000000000000       0.31250000000000000        0.0000000000000000     
  0.12500000000000000       0.34375000000000000        0.0000000000000000     
  0.15625000000000000       0.34375000000000000        0.0000000000000000     
  0.18750000000000000       0.34375000000000000        0.0000000000000000     
  0.21875000000000000       0.34375000000000000        0.0000000000000000     
  0.25000000000000000       0.34375000000000000        0.0000000000000000     
  0.12500000000000000       0.37500000000000000        0.0000000000000000     
  0.15625000000000000       0.37500000000000000        0.0000000000000000     
  0.18750000000000000       0.37500000000000000        0.0000000000000000     
  0.21875000000000000       0.37500000000000000        0.0000000000000000     
  0.25000000000000000       0.37500000000000000        0.0000000000000000     
  0.25000000000000000       0.25000000000000000        0.0000000000000000     
  0.28125000000000000       0.25000000000000000        0.0000000000000000     
  0.31250000000000000       0.25000000000000000        0.0000000000000000     
  0.34375000000000000       0.25000000000000000        0.0000000000000000     
  0.37500000000000000       0.25000000000000000        0.0000000000000000     
  0.25000000000000000       0.28125000000000000        0.0000000000000000     
  0.28125000000000000       0.28125000000000000        0.0000000000000000     
  0.31250000000000000       0.28125000000000000        0.0000000000000000     
  0.34375000000000000       0.28125000000000000        0.0000000000000000     
  0.37500000000000000       0.28125000000000000        0.0000000000000000     
  0.25000000000000000       0.31250000000000000        0.0000000000000000     
  0.28125000000000000       0.31250000000000000        0.0000000000000000     
  0.31250000000000000       0.31250000000000000        0.0000000000000000     
  0.34375000000000000       0.31250000000000000        0.0000000000000000     
  0.37500000000000000       0.31250000000000000        0.0000000000000000     
  0.25000000000000000       0.34375000000000000        0.0000000000000000     
  0.28125000000000000       0.34375000000000000        0.0000000000000000     
  0.31250000000000000       0.34375000000000000        0.0000000000000000     
  0.34375000000000000       0.34375000000000000        0.0000000000000000     
  0.37500000000000000       0.34375000000000000        0.0000000000000000     
  0.25000000000000000       0.37500000000000000        0.0000000000000000     
  0.28125000000000000       0.37500000000000000        0.0000000000000000     
  0.31250000000000000       0.37500000000000000        0.0000000000000000     
  0.34375000000000000       0.37500000000000000        0.0000000000000000     
  0.37500000000000000       0.37500000000000000        0.0000000000000000     
  0.37500000000000000       0.25000000000000000        0.0000000000000000     
  0.40625000000000000       0.25000000000000000        0.0000000000000000     
  0.43750000000000000       0.25000000000000000        0.0000000000000000     
  0.46875000000000000       0.25000000000000000        0.0000000000000000     
  0.50000000000000000       0.25000000000000000        0.0000000000000000     
  0.37500000000000000       0.28125000000000000        0.0000000000000000     
  0.40625000000000000       0.28125000000000000        0.0000000000000000     
  0.43750000000000000       0.28125000000000000        0.0000000000000000     
  0.46875000000000000       0.28125000000000000        0.0000000000000000     
  0.50000000000000000       0.28125000000000000        0.0000000000000000     
  0.37500000000000000       0.31250000000000000        0.0000000000000000     
  0.40625000000000000       0.31250000000000000        0.0000000000000000     
  0.43750000000000000       0.31250000000000000        0.0000000000000000     
  0.46875000000000000       0.31250000000000000        0.0000000000000000     
  0.50000000000000000       0.31250000000000000        0.0000000000000000     
  0.37500000000000000       0.34375000000000000        0.0000000000000000     
  0.40625000000000000       0.34375000000000000        0.0000000000000000     
  0.43750000000000000       0.34375000000000000        0.0000000000000000     
  0.46875000000000000       0.34375000000000000        0.0000000000000000     
  0.50000000000000000       0.34375000000000000        0.0000000000000000     
  0.37500000000000000       0.37500000000000000        0.0000000000000000     
  0.40625000000000000       0.37500000000000000        0.0000000000000000     
  0.43750000000000000       0.37500000000000000        0.0000000000000000     
  0.46875000000000000       0.37500000000000000        0.0000000000000000     
  0.50000000000000000       0.37500000000000000        0.0000000000000000     
  0.50000000000000000       0.25000000000000000        0.0000000000000000     
  0.53125000000000000       0.25000000000000000        0.0000000000000000     
  0.56250000000000000       0.25000000000000000        0.0000000000000000     
  0.59375000000000000       0.25000000000000000        0.0000000000000000     
  0.62500000000000000       0.25000000000000000        0.0000000000000000     
  0.50000000000000000       0.28125000000000000        0.0000000000000000     
  0.53125000000000000       0.28125000000000000        0.0000000000000000     
  0.56250000000000000       0.28125000000000000        0.0000000000000000     
  0.59375000000000000       0.28125000000000000        0.0000000000000000     
  0.62500000000000000       0.28125000000000000        0.0000000000000000     
  0.50000000000000000       0.31250000000000000        0.0000000000000000     
  0.53125000000000000       0.31250000000000000        0.0000000000000000     
  0.56250000000000000       0.31250000000000000        0.0000000000000000     
  0.59375000000000000       0.31250000000000000        0.0000000000000000     
  0.62500000000000000       0.31250000000000000        0.0000000000000000     
  0.50000000000000000       0.34375000000000000        0.0000000000000000     
  0.53125000000000000       0.34375000000000000        0.0000000000000000     
  0.56250000000000000       0.34375000000000000        0.0000000000000000     
  0.59375000000000000       0.34375000000000000        0.0000000000000000     
  0.62500000000000000       0.34375000000000000        0.0000000000000000     
  0.50000000000000000       0.37500000000000000        0.0000000000000000     
  0.53125000000000000       0.37500000000000000        0.0000000000000000     
  0.56250000000000000       0.37500000000000000        0.0000000000000000     
  0.59375000000000000       0.37500000000000000        0.0000000000000000     
  0.62500000000000000       0.37500000000000000        0.0000000000000000     
  0.62500000000000000       0.25000000000000000        0.0000000000000000     
  0.65625000000000000       0.25000000000000000        0.0000000000000000     
  0.68750000000000000       0.25000000000000000        0.0000000000000000     
  0.71875000000000000       0.25000000000000000        0.0000000000000000     
  0.75000000000000000       0.25000000000000000        0.0000000000000000     
  0.62500000000000000       0.28125000000000000        0.0000000000000000     
  0.65625000000000000       0.28125000000000000        0.0000000000000000     
  0.68750000000000000       0.28125000000000000        0.0000000000000000     
  0.71875000000000000       0.28125000000000000        0.0000000000000000     
  0.75000000000000000       0.28125000000000000        0.0000000000000000     
  0.62500000000000000       0.31250000000000000        0.0000000000000000     
  0.65625000000000000       0.31250000000000000        0.0000000000000000     
  0.68750000000000000       0.31250000000000000        0.0000000000000000     
  0.71875000000000000       0.31250000000000000        0.0000000000000000     
  0.75000000000000000       0.31250000000000000        0.0000000000000000     
  0.62500000000000000       0.34375000000000000        0.0000000000000000     
  0.65625000000000000       0.34375000000000000        0.0000000000000000     
  0.68750000000000000       0.34375000000000000        0.0000000000000000     
  0.71875000000000000       0.34375000000000000        0.0000000000000000     
  0.75000000000000000       0.34375000000000000        0.0000000000000000     
  0.62500000000000000       0.37500000000000000        0.0000000000000000     
  0.65625000000000000       0.37500000000000000        0.0000000000000000     
  0.68750000000000000       0.37500000000000000        0.0000000000000000     
  0.71875000000000000       0.37500000000000000        0.0000000000000000     
  0.75000000000000000       0.37500000000000000        0.0000000000000000     
  0.75000000000000000       0.25000000000000000        0.0000000000000000     
  0.78125000000000000       0.25000000000000000        0.0000000000000000     
  0.81250000000000000       0.25000000000000000        0.0000000000000000     
  0.84375000000000000       0.25000000000000000        0.0000000000000000     
  0.87500000000000000       0.25000000000000000        0.0000000000000000     
  0.75000000000000000       0.28125000000000000        0.0000000000000000     
  0.78125000000000000       0.28125000000000000        0.0000000000000000     
  0.81250000000000000       0.28125000000000000        0.0000000000000000     
  0.84375000000000000       0.28125000000000000        0.0000000000000000     
  0.87500000000000000       0.28125000000000000        0.0000000000000000     
  0.75000000000000000       0.31250000000000000        0.0000000000000000     
  0.78125000000000000       0.31250000000000000        0.0000000000000000     
  0.81250000000000000       0.31250000000000000        0.0000000000000000     
  0.84375000000000000       0.31250000000000000        0.0000000000000000     
  0.87500000000000000       0.31250000000000000        0.0000000000000000     
  0.75000000000000000       0.34375000000000000        0.0000000000000000     
  0.78125000000000000       0.34375000000000000        0.0000000000000000     
  0.81250000000000000       0.34375000000000000        0.0000000000000000     
  0.84375000000000000       0.34375000000000000        0.0000000000000000     
  0.87500000000000000       0.34375000000000000        0.0000000000000000     
  0.75000000000000000       0.37500000000000000        0.0000000000000000     
  0.78125000000000000       0.37500000000000000        0.0000000000000000     
  0.81250000000000000       0.37500000000000000        0.0000000000000000     
  0.84375000000000000       0.37500000000000000        0.0000000000000000     
  0.87500000000000000       0.37500000000000000        0.0000000000000000     
  0.87500000000000000       0.25000000000000000        0.0000000000000000     
  0.90625000000000000       0.25000000000000000        0.0000000000000000     
  0.93750000000000000       0.25000000000000000        0.0000000000000000     
  0.96875000000000000       0.25000000000000000        0.0000000000000000     
   1.0000000000000000       0.25000000000000000        0.0000000000000000     
  0.87500000000000000       0.28125000000000000        0.0000000000000000     
  0.90625000000000000       0.28125000000000000        0.0000000000000000     
  0.93750000000000000       0.28125000000000000        0.0000000000000000     
  0.96875000000000000       0.28125000000000000        0.0000000000000000     
   1.0000000000000000       0.28125000000000000        0.0000000000000000     
  0.87500000000000000       0.31250000000000000        0.0000000000000000     
  0.90625000000000000       0.31250000000000000        0.0000000000000000     
  0.93750000000000000       0.31250000000000000        0.0000000000000000     
  0.96875000000000000       0.31250000000000000        0.0000000000000000     
   1.0000000000000000       0.31250000000000000        0.0000000000000000     
  0.87500000000000000       0.34375000000000000        0.0000000000000000     
  0.90625000000000000       0.34375000000000000        0.0000000000000000     
  0.93750000000000000       0.34375000000000000        0.0000000000000000     
  0.96875000000000000       0.34375000000000000        0.0000000000000000     
   1.0000000000000000       0.34375000000000000        0.0000000000000000     
  0.87500000000000000       0.37500000000000000        0.0000000000000000     
  0.90625000000000000       0.37500000000000000        0.0000000000000000     
  0.93750000000000000       0.37500000000000000        0.0000000000000000     
  0.96875000000000000       0.37500000000000000        0.0000000000000000     
   1.0000000000000000       0.37500000000000000        0.0000000000000000     
   0.0000000000000000       0.37500000000000000        0.0000000000000000     
   3.1250000000000000E-002  0.37500000000000000        0.0000000000000000     
   6.2500000000000000E-002  0.37500000000000000        0.0000000000000000     
   9.3750000000000000E-002  0.37500000000000000        0.0000000000000000     
  0.12500000000000000       0.37500000000000000        0.0000000000000000     
   0.0000000000000000       0.40625000000000000        0.0000000000000000     
   3.1250000000000000E-002  0.40625000000000000        0.0000000000000000     
   6.2500000000000000E-002  0.40625000000000000        0.0000000000000000     
   9.3750000000000000E-002  0.40625000000000000        0.0000000000000000     
  0.12500000000000000       0.40625000000000000        0.0000000000000000     
   0.0000000000000000       0.43750000000000000        0.0000000000000000     
   3.1250000000000000E-002  0.43750000000000000        0.0000000000000000     
   6.2500000000000000E-002  0.43750000000000000        0.0000000000000000     
   9.3750000000000000E-002  0.43750000000000000        0.0000000000000000     
  0.12500000000000000       0.43750000000000000        0.0000000000000000     
   0.0000000000000000       0.46875000000000000        0.0000000000000000     
   3.1250000000000000E-002  0.46875000000000000        0.0000000000000000     
   6.2500000000000000E-002  0.46875000000000000        0.0000000000000000     
   9.3750000000000000E-002  0.46875000000000000        0.0000000000000000     
  0.12500000000000000       0.46875000000000000        0.0000000000000000     
   0.0000000000000000       0.50000000000000000        0.0000000000000000     
   3.1250000000000000E-002  0.50000000000000000        0.0000000000000000     
   6.2500000000000000E-002  0.50000000000000000        0.0000000000000000     
   9.3750000000000000E-002  0.50000000000000000        0.0000000000000000     
  0.12500000000000000       0.50000000000000000        0.0000000000000000     
  0.12500000000000000       0.37500000000000000        0.0000000000000000     
  0.15625000000000000       0.37500000000000000        0.0000000000000000     
  0.18750000000000000       0.37500000000000000        0.0000000000000000     
  0.21875000000000000       0.37500000000000000        0.0000000000000000     
  0.25000000000000000       0.37500000000000000        0.0000000000000000     
  0.12500000000000000       0.40625000000000000        0.0000000000000000     
  0.15625000000000000       0.40625000000000000        0.0000000000000000     
  0.18750000000000000       0.40625000000000000        0.0000000000000000     
  0.21875000000000000       0.40625000000000000        0.0000000000000000     
  0.25000000000000000       0.40625000000000000        0.0000000000000000     
  0.12500000000000000       0.43750000000000000        0.0000000000000000     
  0.15625000000000000       0.43750000000000000        0.0000000000000000     
  0.18750000000000000       0.43750000000000000        0.0000000000000000     
  0.21875000000000000       0.43750000000000000        0.0000000000000000     
  0.25000000000000000       0.43750000000000000        0.0000000000000000     
  0.12500000000000000       0.46875000000000000        0.0000000000000000     
  0.15625000000000000       0.46875000000000000        0.0000000000000000     
  0.18750000000000000       0.46875000000000000        0.0000000000000000     
  0.21875000000000000       0.46875000000000000        0.0000000000000000     
  0.25000000000000000       0.46875000000000000        0.0000000000000000     
  0.12500000000000000       0.50000000000000000        0.0000000000000000     
  0.15625000000000000       0.50000000000000000        0.0000000000000000     
  0.18750000000000000       0.50000000000000000        0.0000000000000000     
  0.21875000000000000       0.50000000000000000        0.0000000000000000     
  0.25000000000000000       0.50000000000000000        0.0000000000000000     
  0.25000000000000000       0.37500000000000000        0.0000000000000000     
  0.28125000000000000       0.37500000000000000        0.0000000000000000     
  0.31250000000000000       0.37500000000000000        0.0000000000000000     
  0.34375000000000000       0.37500000000000000        0.0000000000000000     
  0.37500000000000000       0.37500000000000000        0.0000000000000000     
  0.25000000000000000       0.40625000000000000        0.0000000000000000     
  0.28125000000000000       0.40625000000000000        0.0000000000000000     
  0.31250000000000000       0.40625000000000000        0.0000000000000000     
  0.34375000000000000       0.40625000000000000        0.0000000000000000     
  0.37500000000000000       0.40625000000000000        0.0000000000000000     
  0.25000000000000000       0.43750000000000000        0.0000000000000000     
  0.28125000000000000       0.43750000000000000        0.0000000000000000     
  0.31250000000000000       0.43750000000000000        0.0000000000000000     
  0.34375000000000000       0.43750000000000000        0.0000000000000000     
  0.37500000000000000       0.43750000000000000        0.0000000000000000     
  0.25000000000000000       0.46875000000000000        0.0000000000000000     
  0.28125000000000000       0.46875000000000000        0.0000000000000000     
  0.31250000000000000       0.46875000000000000        0.0000000000000000     
  0.34375000000000000       0.46875000000000000        0.0000000000000000     
  0.37500000000000000       0.46875000000000000        0.0000000000000000     
  0.25000000000000000       0.50000000000000000        0.0000000000000000     
  0.28125000000000000       0.50000000000000000        0.0000000000000000     
  0.31250000000000000       0.50000000000000000        0.0000000000000000     
  0.34375000000000000       0.50000000000000000        0.0000000000000000     
  0.37500000000000000       0.50000000000000000        0.0000000000000000     
  0.37500000000000000       0.37500000000000000        0.0000000000000000     
  0.40625000000000000       0.37500000000000000        0.0000000000000000     
  0.43750000000000000       0.37500000000000000        0.0000000000000000     
  0.46875000000000000       0.37500000000000000        0.0000000000000000     
  0.50000000000000000       0.37500000000000000        0.0000000000000000     
  0.37500000000000000       0.40625000000000000        0.0000000000000000     
  0.40625000000000000       0.40625000000000000        0.0000000000000000     
  0.43750000000000000       0.40625000000000000        0.0000000000000000     
  0.46875000000000000       0.40625000000000000        0.0000000000000000     
  0.50000000000000000       0.40625000000000000        0.0000000000000000     
  0.37500000000000000       0.43750000000000000        0.0000000000000000     
  0.40625000000000000       0.43750000000000000        0.0000000000000000     
  0.43750000000000000       0.43750000000000000        0.0000000000000000     
  0.46875000000000000       0.43750000000000000        0.0000000000000000     
  0.50000000000000000       0.43750000000000000        0.0000000000000000     
  0.37500000000000000       0.46875000000000000        0.0000000000000000     
  0.40625000000000000       0.46875000000000000        0.0000000000000000     
  0.43750000000000000       0.46875000000000000        0.0000000000000000     
  0.46875000000000000       0.46875000000000000        0.0000000000000000     
  0.50000000000000000       0.46875000000000000        0.0000000000000000     
  0.37500000000000000       0.50000000000000000        0.0000000000000000     
  0.40625000000000000       0.50000000000000000        0.0000000000000000     
  0.43750000000000000       0.50000000000000000        0.0000000000000000     
  0.46875000000000000       0.50000000000000000        0.0000000000000000     
  0.50000000000000000       0.50000000000000000        0.0000000000000000     
  0.50000000000000000       0.37500000000000000        0.0000000000000000     
  0.53125000000000000       0.37500000000000000        0.0000000000000000     
  0.56250000000000000       0.37500000000000000        0.0000000000000000     
  0.59375000000000000       0.37500000000000000        0.0000000000000000     
  0.62500000000000000       0.37500000000000000        0.0000000000000000     
  0.50000000000000000       0.40625000000000000        0.0000000000000000     
  0.53125000000000000       0.40625000000000000        0.0000000000000000     
  0.56250000000000000       0.40625000000000000        0.0000000000000000     
  0.59375000000000000       0.40625000000000000        0.0000000000000000     
  0.62500000000000000       0.40625000000000000        0.0000000000000000     
  0.50000000000000000       0.43750000000000000        0.0000000000000000     
  0.53125000000000000       0.43750000000000000        0.0000000000000000     
  0.56250000000000000       0.43750000000000000        0.0000000000000000     
  0.59375000000000000       0.43750000000000000        0.0000000000000000     
  0.62500000000000000       0.43750000000000000        0.0000000000000000     
  0.50000000000000000       0.46875000000000000        0.0000000000000000     
  0.53125000000000000       0.46875000000000000        0.0000000000000000     
  0.56250000000000000       0.46875000000000000        0.0000000000000000     
  0.59375000000000000       0.46875000000000000        0.0000000000000000     
  0.62500000000000000       0.46875000000000000        0.0000000000000000     
  0.50000000000000000       0.50000000000000000        0.0000000000000000     
  0.53125000000000000       0.50000000000000000        0.0000000000000000     
  0.56250000000000000       0.50000000000000000        0.0000000000000000     
  0.59375000000000000       0.50000000000000000        0.0000000000000000     
  0.62500000000000000       0.50000000000000000        0.0000000000000000     
  0.62500000000000000       0.37500000000000000        0.0000000000000000     
  0.65625000000000000       0.37500000000000000        0.0000000000000000     
  0.68750000000000000       0.37500000000000000        0.0000000000000000     
  0.71875000000000000       0.37500000000000000        0.0000000000000000     
  0.75000000000000000       0.37500000000000000        0.0000000000000000     
  0.62500000000000000       0.40625000000000000        0.0000000000000000     
  0.65625000000000000       0.40625000000000000        0.0000000000000000     
  0.68750000000000000       0.40625000000000000        0.0000000000000000     
  0.71875000000000000       0.40625000000000000        0.0000000000000000     
  0.75000000000000000       0.40625000000000000        0.0000000000000000     
  0.62500000000000000       0.43750000000000000        0.0000000000000000     
  0.65625000000000000       0.43750000000000000        0.0000000000000000     
  0.68750000000000000       0.43750000000000000        0.0000000000000000     
  0.71875000000000000       0.43750000000000000        0.0000000000000000     
  0.75000000000000000       0.43750000000000000        0.0000000000000000     
  0.62500000000000000       0.46875000000000000        0.0000000000000000     
  0.65625000000000000       0.46875000000000000        0.0000000000000000     
  0.68750000000000000       0.46875000000000000        0.0000000000000000     
  0.71875000000000000       0.46875000000000000        0.0000000000000000     
  0.75000000000000000       0.46875000000000000        0.0000000000000000     
  0.62500000000000000       0.50000000000000000        0.0000000000000000     
  0.65625000000000000       0.50000000000000000        0.0000000000000000     
  0.68750000000000000       0.50000000000000000        0.0000000000000000     
  0.71875000000000000       0.50000000000000000        0.0000000000000000     
  0.75000000000000000       0.50000000000000000        0.0000000000000000     
  0.75000000000000000       0.37500000000000000        0.0000000000000000     
  0.78125000000000000       0.37500000000000000        0.0000000000000000     
  0.81250000000000000       0.37500000000000000        0.0000000000000000     
  0.84375000000000000       0.37500000000000000        0.0000000000000000     
  0.87500000000000000       0.37500000000000000        0.0000000000000000     
  0.75000000000000000       0.40625000000000000        0.0000000000000000     
  0.78125000000000000       0.40625000000000000        0.0000000000000000     
  0.81250000000000000       0.40625000000000000        0.0000000000000000     
  0.84375000000000000       0.40625000000000000        0.0000000000000000     
  0.87500000000000000       0.40625000000000000        0.0000000000000000     
  0.75000000000000000       0.43750000000000000        0.0000000000000000     
  0.78125000000000000       0.43750000000000000        0.0000000000000000     
  0.81250000000000000       0.43750000000000000        0.0000000000000000     
  0.84375000000000000       0.43750000000000000        0.0000000000000000     
  0.87500000000000000       0.43750000000000000        0.0000000000000000     
  0.75000000000000000       0.46875000000000000        0.0000000000000000     
  0.78125000000000000       0.46875000000000000        0.0000000000000000     
  0.81250000000000000       0.46875000000000000        0.0000000000000000     
  0.84375000000000000       0.46875000000000000        0.0000000000000000     
  0.87500000000000000       0.46875000000000000        0.0000000000000000     
  0.75000000000000000       0.50000000000000000        0.0000000000000000     
  0.78125000000000000       0.50000000000000000        0.0000000000000000     
  0.81250000000000000       0.50000000000000000        0.0000000000000000     
  0.84375000000000000       0.50000000000000000        0.0000000000000000     
  0.87500000000000000       0.50000000000000000        0.0000000000000000     
  0.87500000000000000       0.37500000000000000        0.0000000000000000     
  0.90625000000000000       0.37500000000000000        0.0000000000000000     
  0.93750000000000000       0.37500000000000000        0.0000000000000000     
  0.96875000000000000       0.37500000000000000        0.0000000000000000     
   1.0000000000000000       0.37500000000000000        0.0000000000000000     
  0.87500000000000000       0.40625000000000000        0.0000000000000000     
  0.90625000000000000       0.40625000000000000        0.0000000000000000     
  0.93750000000000000       0.40625000000000000        0.0000000000000000     
  0.96875000000000000       0.40625000000000000        0.0000000000000000     
   1.0000000000000000       0.40625000000000000        0.0000000000000000     
  0.87500000000000000       0.43750000000000000        0.0000000000000000     
  0.90625000000000000       0.43750000000000000        0.0000000000000000     
  0.93750000000000000       0.43750000000000000        0.0000000000000000     
  0.96875000000000000       0.43750000000000000        0.0000000000000000     
   1.0000000000000000       0.43750000000000000        0.0000000000000000     
  0.87500000000000000       0.46875000000000000        0.0000000000000000     
  0.90625000000000000       0.46875000000000000        0.0000000000000000     
  0.93750000000000000       0.46875000000000000        0.0000000000000000     
  0.96875000000000000       0.46875000000000000        0.0000000000000000     
   1.0000000000000000       0.46875000000000000        0.0000000000000000     
  0.87500000000000000       0.50000000000000000        0.0000000000000000     
  0.90625000000000000       0.50000000000000000        0.0000000000000000     
  0.93750000000000000       0.50000000000000000        0.0000000000000000     
  0.96875000000000000       0.50000000000000000        0.0000000000000000     
   1.0000000000000000       0.50000000000000000        0.0000000000000000     
   0.0000000000000000       0.50000000000000000        0.0000000000000000     
   3.1250000000000000E-002  0.50000000000000000        0.0000000000000000     
   6.2500000000000000E-002  0.50000000000000000        0.0000000000000000     
   9.3750000000000000E-002  0.50000000000000000        0.0000000000000000     
  0.12500000000000000       0.50000000000000000        0.0000000000000000     
   0.0000000000000000       0.53125000000000000        0.0000000000000000     
   3.1250000000000000E-002  0.53125000000000000        0.0000000000000000     
   6.2500000000000000E-002  0.53125000000000000        0.0000000000000000     
   9.3750000000000000E-002  0.53125000000000000        0.0000000000000000     
  0.12500000000000000       0.53125000000000000        0.0000000000000000     
   0.0000000000000000       0.56250000000000000        0.0000000000000000     
   3.1250000000000000E-002  0.56250000000000000        0.0000000000000000     
   6.2500000000000000E-002  0.56250000000000000        0.0000000000000000     
   9.3750000000000000E-002  0.56250000000000000        0.0000000000000000     
  0.12500000000000000       0.56250000000000000        0.0000000000000000     
   0.0000000000000000       0.59375000000000000        0.0000000000000000     
   3.1250000000000000E-002  0.59375000000000000        0.0000000000000000     
   6.2500000000000000E-002  0.59375000000000000        0.0000000000000000     
   9.3750000000000000E-002  0.59375000000000000        0.0000000000000000     
  0.12500000000000000       0.59375000000000000        0.0000000000000000     
   0.0000000000000000       0.62500000000000000        0.0000000000000000     
   3.1250000000000000E-002  0.62500000000000000        0.0000000000000000     
   6.2500000000000000E-002  0.62500000000000000        0.0000000000000000     
   9.3750000000000000E-002  0.62500000000000000        0.0000000000000000     
  0.12500000000000000       0.62500000000000000        0.0000000000000000     
  0.12500000000000000       0.50000000000000000        0.0000000000000000     
  0.15625000000000000       0.50000000000000000        0.0000000000000000     
  0.18750000000000000       0.50000000000000000        0.0000000000000000     
  0.21875000000000000       0.50000000000000000        0.0000000000000000     
  0.25000000000000000       0.50000000000000000        0.0000000000000000     
  0.12500000000000000       0.53125000000000000        0.0000000000000000     
  0.15625000000000000       0.53125000000000000        0.0000000000000000     
  0.18750000000000000       0.53125000000000000        0.0000000000000000     
  0.21875000000000000       0.53125000000000000        0.0000000000000000     
  0.25000000000000000       0.53125000000000000        0.0000000000000000     
  0.12500000000000000       0.56250000000000000        0.0000000000000000     
  0.15625000000000000       0.56250000000000000        0.0000000000000000     
  0.18750000000000000       0.56250000000000000        0.0000000000000000     
  0.21875000000000000       0.56250000000000000        0.0000000000000000     
  0.25000000000000000       0.56250000000000000        0.0000000000000000     
  0.12500000000000000       0.59375000000000000        0.0000000000000000     
  0.15625000000000000       0.59375000000000000        0.0000000000000000     
  0.18750000000000000       0.59375000000000000        0.0000000000000000     
  0.21875000000000000       0.59375000000000000        0.0000000000000000     
  0.25000000000000000       0.59375000000000000        0.0000000000000000     
  0.12500000000000000       0.62500000000000000        0.0000000000000000     
  0.15625000000000000       0.62500000000000000        0.0000000000000000     
  0.18750000000000000       0.62500000000000000        0.0000000000000000     
  0.21875000000000000       0.62500000000000000        0.0000000000000000     
  0.25000000000000000       0.62500000000000000        0.0000000000000000     
  0.25000000000000000       0.50000000000000000        0.0000000000000000     
  0.28125000000000000       0.50000000000000000        0.0000000000000000     
  0.31250000000000000       0.50000000000000000        0.0000000000000000     
  0.34375000000000000       0.50000000000000000        0.0000000000000000     
  0.37500000000000000       0.50000000000000000        0.0000000000000000     
  0.25000000000000000       0.53125000000000000        0.0000000000000000     
  0.28125000000000000       0.53125000000000000        0.0000000000000000     
  0.31250000000000000       0.53125000000000000        0.0000000000000000     
  0.34375000000000000       0.53125000000000000        0.0000000000000000     
  0.37500000000000000       0.53125000000000000        0.0000000000000000     
  0.25000000000000000       0.56250000000000000        0.0000000000000000     
  0.28125000000000000       0.56250000000000000        0.0000000000000000     
  0.31250000000000000       0.56250000000000000        0.0000000000000000     
  0.34375000000000000       0.56250000000000000        0.0000000000000000     
  0.37500000000000000       0.56250000000000000        0.0000000000000000     
  0.25000000000000000       0.59375000000000000        0.0000000000000000     
  0.28125000000000000       0.59375000000000000        0.0000000000000000     
  0.31250000000000000       0.59375000000000000        0.0000000000000000     
  0.34375000000000000       0.59375000000000000        0.0000000000000000     
  0.37500000000000000       0.59375000000000000        0.0000000000000000     
  0.25000000000000000       0.62500000000000000        0.0000000000000000     
  0.28125000000000000       0.62500000000000000        0.0000000000000000     
  0.31250000000000000       0.62500000000000000        0.0000000000000000     
  0.34375000000000000       0.62500000000000000        0.0000000000000000     
  0.37500000000000000       0.62500000000000000        0.0000000000000000     
  0.37500000000000000       0.50000000000000000        0.0000000000000000     
  0.40625000000000000       0.50000000000000000        0.0000000000000000     
  0.43750000000000000       0.50000000000000000        0.0000000000000000     
  0.46875000000000000       0.50000000000000000        0.0000000000000000     
  0.50000000000000000       0.50000000000000000        0.0000000000000000     
  0.37500000000000000       0.53125000000000000        0.0000000000000000     
  0.40625000000000000       0.53125000000000000        0.0000000000000000     
  0.43750000000000000       0.53125000000000000        0.0000000000000000     
  0.46875000000000000       0.53125000000000000        0.0000000000000000     
  0.50000000000000000       0.53125000000000000        0.0000000000000000     
  0.37500000000000000       0.56250000000000000        0.0000000000000000     
  0.40625000000000000       0.56250000000000000        0.0000000000000000     
  0.43750000000000000       0.56250000000000000        0.0000000000000000     
  0.46875000000000000       0.56250000000000000        0.0000000000000000     
  0.50000000000000000       0.56250000000000000        0.0000000000000000     
  0.37500000000000000       0.59375000000000000        0.0000000000000000     
  0.40625000000000000       0.59375000000000000        0.0000000000000000     
  0.43750000000000000       0.59375000000000000        0.0000000000000000     
  0.46875000000000000       0.59375000000000000        0.0000000000000000     
  0.50000000000000000       0.59375000000000000        0.0000000000000000     
  0.37500000000000000       0.62500000000000000        0.0000000000000000     
  0.40625000000000000       0.62500000000000000        0.0000000000000000     
  0.43750000000000000       0.62500000000000000        0.0000000000000000     
  0.46875000000000000       0.62500000000000000        0.0000000000000000     
  0.50000000000000000       0.62500000000000000        0.0000000000000000     
  0.50000000000000000       0.50000000000000000        0.0000000000000000     
  0.53125000000000000       0.50000000000000000        0.0000000000000000     
  0.56250000000000000       0.50000000000000000        0.0000000000000000     
  0.59375000000000000       0.50000000000000000        0.0000000000000000     
  0.62500000000000000       0.50000000000000000        0.0000000000000000     
  0.50000000000000000       0.53125000000000000        0.0000000000000000     
  0.53125000000000000       0.53125000000000000        0.0000000000000000     
  0.56250000000000000       0.53125000000000000        0.0000000000000000     
  0.59375000000000000       0.53125000000000000        0.0000000000000000     
  0.62500000000000000       0.53125000000000000        0.0000000000000000     
  0.50000000000000000       0.56250000000000000        0.0000000000000000     
  0.53125000000000000       0.56250000000000000        0.0000000000000000     
  0.56250000000000000       0.56250000000000000        0.0000000000000000     
  0.59375000000000000       0.56250000000000000        0.0000000000000000     
  0.62500000000000000       0.56250000000000000        0.0000000000000000     
  0.50000000000000000       0.59375000000000000        0.0000000000000000     
  0.53125000000000000       0.59375000000000000        0.0000000000000000     
  0.56250000000000000       0.59375000000000000        0.0000000000000000     
  0.59375000000000000       0.59375000000000000        0.0000000000000000     
  0.62500000000000000       0.59375000000000000        0.0000000000000000     
  0.50000000000000000       0.62500000000000000        0.0000000000000000     
  0.53125000000000000       0.62500000000000000        0.0000000000000000     
  0.56250000000000000       0.62500000000000000        0.0000000000000000     
  0.59375000000000000       0.62500000000000000        0.0000000000000000     
  0.62500000000000000       0.62500000000000000        0.0000000000000000     
  0.62500000000000000       0.50000000000000000        0.0000000000000000     
  0.65625000000000000       0.50000000000000000        0.0000000000000000     
  0.68750000000000000       0.50000000000000000        0.0000000000000000     
  0.71875000000000000       0.50000000000000000        0.0000000000000000     
  0.75000000000000000       0.50000000000000000        0.0000000000000000     
  0.62500000000000000       0.53125000000000000        0.0000000000000000     
  0.65625000000000000       0.53125000000000000        0.0000000000000000     
  0.68750000000000000       0.53125000000000000        0.0000000000000000     
  0.71875000000000000       0.53125000000000000        0.0000000000000000     
  0.75000000000000000       0.53125000000000000        0.0000000000000000     
  0.62500000000000000       0.56250000000000000        0.0000000000000000     
  0.65625000000000000       0.56250000000000000        0.0000000000000000     
  0.68750000000000000       0.56250000000000000        0.0000000000000000     
  0.71875000000000000       0.56250000000000000        0.0000000000000000     
  0.75000000000000000       0.56250000000000000        0.0000000000000000     
  0.62500000000000000       0.59375000000000000        0.0000000000000000     
  0.65625000000000000       0.59375000000000000        0.0000000000000000     
  0.68750000000000000       0.59375000000000000        0.0000000000000000     
  0.71875000000000000       0.59375000000000000        0.0000000000000000     
  0.75000000000000000       0.59375000000000000        0.0000000000000000     
  0.62500000000000000       0.62500000000000000        0.0000000000000000     
  0.65625000000000000       0.62500000000000000        0.0000000000000000     
  0.68750000000000000       0.62500000000000000        0.0000000000000000     
  0.71875000000000000       0.62500000000000000        0.0000000000000000     
  0.75000000000000000       0.62500000000000000        0.0000000000000000     
  0.75000000000000000       0.50000000000000000        0.0000000000000000     
  0.78125000000000000       0.50000000000000000        0.0000000000000000     
  0.81250000000000000       0.50000000000000000        0.0000000000000000     
  0.84375000000000000       0.50000000000000000        0.0000000000000000     
  0.87500000000000000       0.50000000000000000        0.0000000000000000     
  0.75000000000000000       0.53125000000000000        0.0000000000000000     
  0.78125000000000000       0.53125000000000000        0.0000000000000000     
  0.81250000000000000       0.53125000000000000        0.0000000000000000     
  0.84375000000000000       0.53125000000000000        0.0000000000000000     
  0.87500000000000000       0.53125000000000000        0.0000000000000000     
  0.75000000000000000       0.56250000000000000        0.0000000000000000     
  0.78125000000000000       0.56250000000000000        0.0000000000000000     
  0.81250000000000000       0.56250000000000000        0.0000000000000000     
  0.84375000000000000       0.56250000000000000        0.0000000000000000     
  0.87500000000000000       0.56250000000000000        0.0000000000000000     
  0.75000000000000000       0.59375000000000000        0.0000000000000000     
  0.78125000000000000       0.59375000000000000        0.0000000000000000     
  0.81250000000000000       0.59375000000000000        0.0000000000000000     
  0.84375000000000000       0.59375000000000000        0.0000000000000000     
  0.87500000000000000       0.59375000000000000        0.0000000000000000     
  0.75000000000000000       0.62500000000000000        0.0000000000000000     
  0.78125000000000000       0.62500000000000000        0.0000000000000000     
  0.81250000000000000       0.62500000000000000        0.0000000000000000     
  0.84375000000000000       0.62500000000000000        0.0000000000000000     
  0.87500000000000000       0.62500000000000000        0.0000000000000000     
  0.87500000000000000       0.50000000000000000        0.0000000000000000     
  0.90625000000000000       0.50000000000000000        0.0000000000000000     
  0.93750000000000000       0.50000000000000000        0.0000000000000000     
  0.96875000000000000       0.50000000000000000        0.0000000000000000     
   1.0000000000000000       0.50000000000000000        0.0000000000000000     
  0.87500000000000000       0.53125000000000000        0.0000000000000000     
  0.90625000000000000       0.53125000000000000        0.0000000000000000     
  0.93750000000000000       0.53125000000000000        0.0000000000000000     
  0.96875000000000000       0.53125000000000000        0.0000000000000000     
   1.0000000000000000       0.53125000000000000        0.0000000000000000     
  0.87500000000000000       0.56250000000000000        0.0000000000000000     
  0.90625000000000000       0.56250000000000000        0.0000000000000000     
  0.93750000000000000       0.56250000000000000        0.0000000000000000     
  0.96875000000000000       0.56250000000000000        0.0000000000000000     
   1.0000000000000000       0.56250000000000000        0.0000000000000000     
  0.87500000000000000       0.59375000000000000        0.0000000000000000     
  0.90625000000000000       0.59375000000000000        0.0000000000000000     
  0.93750000000000000       0.59375000000000000        0.0000000000000000     
  0.96875000000000000       0.59375000000000000        0.0000000000000000     
   1.0000000000000000       0.59375000000000000        0.0000000000000000     
  0.87500000000000000       0.62500000000000000        0.0000000000000000     
  0.90625000000000000       0.62500000000000000        0.0000000000000000     
  0.93750000000000000       0.62500000000000000        0.0000000000000000     
  0.96875000000000000       0.62500000000000000        0.0000000000000000     
   1.0000000000000000       0.62500000000000000        0.0000000000000000     
   0.0000000000000000       0.62500000000000000        0.0000000000000000     
   3.1250000000000000E-002  0.62500000000000000        0.0000000000000000     
   6.2500000000000000E-002  0.62500000000000000        0.0000000000000000     
   9.3750000000000000E-002  0.62500000000000000        0.0000000000000000     
  0.12500000000000000       0.62500000000000000        0.0000000000000000     
   0.0000000000000000       0.65625000000000000        0.0000000000000000     
   3.1250000000000000E-002  0.65625000000000000        0.0000000000000000     
   6.2500000000000000E-002  0.65625000000000000        0.0000000000000000     
   9.3750000000000000E-002  0.65625000000000000        0.0000000000000000     
  0.12500000000000000       0.65625000000000000        0.0000000000000000     
   0.0000000000000000       0.68750000000000000        0.0000000000000000     
   3.1250000000000000E-002  0.68750000000000000        0.0000000000000000     
   6.2500000000000000E-002  0.68750000000000000        0.0000000000000000     
   9.3750000000000000E-002  0.68750000000000000        0.0000000000000000     
  0.12500000000000000       0.68750000000000000        0.0000000000000000     
   0.0000000000000000       0.71875000000000000        0.0000000000000000     
   3.1250000000000000E-002  0.71875000000000000        0.0000000000000000     
   6.2500000000000000E-002  0.71875000000000000        0.0000000000000000     
   9.3750000000000000E-002  0.71875000000000000        0.0000000000000000     
  0.12500000000000000       0.71875000000000000        0.0000000000000000     
   0.0000000000000000       0.75000000000000000        0.0000000000000000     
   3.1250000000000000E-002  0.75000000000000000        0.0000000000000000     
   6.2500000000000000E-002  0.75000000000000000        0.0000000000000000     
   9.3750000000000000E-002  0.75000000000000000        0.0000000000000000     
  0.12500000000000000       0.75000000000000000        0.0000000000000000     
  0.12500000000000000       0.62500000000000000        0.0000000000000000     
  0.15625000000000000       0.62500000000000000        0.0000000000000000     
  0.18750000000000000       0.62500000000000000        0.0000000000000000     
  0.21875000000000000       0.62500000000000000        0.0000000000000000     
  0.25000000000000000       0.62500000000000000        0.0000000000000000     
  0.12500000000000000       0.65625000000000000        0.0000000000000000     
  0.15625000000000000       0.65625000000000000        0.0000000000000000     
  0.18750000000000000       0.65625000000000000        0.0000000000000000     
  0.21875000000000000       0.65625000000000000        0.0000000000000000     
  0.25000000000000000       0.65625000000000000        0.0000000000000000     
  0.12500000000000000       0.68750000000000000        0.0000000000000000     
  0.15625000000000000       0.68750000000000000        0.0000000000000000     
  0.18750000000000000       0.68750000000000000        0.0000000000000000     
  0.21875000000000000       0.68750000000000000        0.0000000000000000     
  0.25000000000000000       0.68750000000000000        0.0000000000000000     
  0.12500000000000000       0.71875000000000000        0.0000000000000000     
  0.15625000000000000       0.71875000000000000        0.0000000000000000     
  0.18750000000000000       0.71875000000000000        0.0000000000000000     
  0.21875000000000000       0.71875000000000000        0.0000000000000000     
  0.25000000000000000       0.71875000000000000        0.0000000000000000     
  0.12500000000000000       0.75000000000000000        0.0000000000000000     
  0.15625000000000000       0.75000000000000000        0.0000000000000000     
  0.18750000000000000       0.75000000000000000        0.0000000000000000     
  0.21875000000000000       0.75000000000000000        0.0000000000000000     
  0.25000000000000000       0.75000000000000000        0.0000000000000000     
  0.25000000000000000       0.62500000000000000        0.0000000000000000     
  0.28125000000000000       0.62500000000000000        0.0000000000000000     
  0.31250000000000000       0.62500000000000000        0.0000000000000000     
  0.34375000000000000       0.62500000000000000        0.0000000000000000     
  0.37500000000000000       0.62500000000000000        0.0000000000000000     
  0.25000000000000000       0.65625000000000000        0.0000000000000000     
  0.28125000000000000       0.65625000000000000        0.0000000000000000     
  0.31250000000000000       0.65625000000000000        0.0000000000000000     
  0.34375000000000000       0.65625000000000000        0.0000000000000000     
  0.37500000000000000       0.65625000000000000        0.0000000000000000     
  0.25000000000000000       0.68750000000000000        0.0000000000000000     
  0.28125000000000000       0.68750000000000000        0.0000000000000000     
  0.31250000000000000       0.68750000000000000        0.0000000000000000     
  0.34375000000000000       0.68750000000000000        0.0000000000000000     
  0.37500000000000000       0.68750000000000000        0.0000000000000000     
  0.25000000000000000       0.71875000000000000        0.0000000000000000     
  0.28125000000000000       0.71875000000000000        0.0000000000000000     
  0.31250000000000000       0.71875000000000000        0.0000000000000000     
  0.34375000000000000       0.71875000000000000        0.0000000000000000     
  0.37500000000000000       0.71875000000000000        0.0000000000000000     
  0.25000000000000000       0.75000000000000000        0.0000000000000000     
  0.28125000000000000       0.75000000000000000        0.0000000000000000     
  0.31250000000000000       0.75000000000000000        0.0000000000000000     
  0.34375000000000000       0.75000000000000000        0.0000000000000000     
  0.37500000000000000       0.75000000000000000        0.0000000000000000     
  0.37500000000000000       0.62500000000000000        0.0000000000000000     
  0.40625000000000000       0.62500000000000000        0.0000000000000000     
  0.43750000000000000       0.62500000000000000        0.0000000000000000     
  0.46875000000000000       0.62500000000000000        0.0000000000000000     
  0.50000000000000000       0.62500000000000000        0.0000000000000000     
  0.37500000000000000       0.65625000000000000        0.0000000000000000     
  0.40625000000000000       0.65625000000000000        0.0000000000000000     
  0.43750000000000000       0.65625000000000000        0.0000000000000000     
  0.46875000000000000       0.65625000000000000        0.0000000000000000     
  0.50000000000000000       0.65625000000000000        0.0000000000000000     
  0.37500000000000000       0.68750000000000000        0.0000000000000000     
  0.40625000000000000       0.68750000000000000        0.0000000000000000     
  0.43750000000000000       0.68750000000000000        0.0000000000000000     
  0.46875000000000000       0.68750000000000000        0.0000000000000000     
  0.50000000000000000       0.68750000000000000        0.0000000000000000     
  0.37500000000000000       0.71875000000000000        0.0000000000000000     
  0.40625000000000000       0.71875000000000000        0.0000000000000000     
  0.43750000000000000       0.71875000000000000        0.0000000000000000     
  0.46875000000000000       0.71875000000000000        0.0000000000000000     
  0.50000000000000000       0.71875000000000000        0.0000000000000000     
  0.37500000000000000       0.75000000000000000        0.0000000000000000     
  0.40625000000000000       0.75000000000000000        0.0000000000000000     
  0.43750000000000000       0.75000000000000000        0.0000000000000000     
  0.46875000000000000       0.75000000000000000        0.0000000000000000     
  0.50000000000000000       0.75000000000000000        0.0000000000000000     
  0.50000000000000000       0.62500000000000000        0.0000000000000000     
  0.53125000000000000       0.62500000000000000        0.0000000000000000     
  0.56250000000000000       0.62500000000000000        0.0000000000000000     
  0.59375000000000000       0.62500000000000000        0.0000000000000000     
  0.62500000000000000       0.62500000000000000        0.0000000000000000     
  0.50000000000000000       0.65625000000000000        0.0000000000000000     
  0.53125000000000000       0.65625000000000000        0.0000000000000000     
  0.56250000000000000       0.65625000000000000        0.0000000000000000     
  0.59375000000000000       0.65625000000000000        0.0000000000000000     
  0.62500000000000000       0.65625000000000000        0.0000000000000000     
  0.50000000000000000       0.68750000000000000        0.0000000000000000     
  0.53125000000000000       0.68750000000000000        0.0000000000000000     
  0.56250000000000000       0.68750000000000000        0.0000000000000000     
  0.59375000000000000       0.68750000000000000        0.0000000000000000     
  0.62500000000000000       0.68750000000000000        0.0000000000000000     
  0.50000000000000000       0.71875000000000000        0.0000000000000000     
  0.53125000000000000       0.71875000000000000        0.0000000000000000     
  0.56250000000000000       0.71875000000000000        0.0000000000000000     
  0.59375000000000000       0.71875000000000000        0.0000000000000000     
  0.62500000000000000       0.71875000000000000        0.0000000000000000     
  0.50000000000000000       0.75000000000000000        0.0000000000000000     
  0.53125000000000000       0.75000000000000000        0.0000000000000000     
  0.56250000000000000       0.75000000000000000        0.0000000000000000     
  0.59375000000000000       0.75000000000000000        0.0000000000000000     
  0.62500000000000000       0.75000000000000000        0.0000000000000000     
  0.62500000000000000       0.62500000000000000        0.0000000000000000     
  0.65625000000000000       0.62500000000000000        0.0000000000000000     
  0.68750000000000000       0.62500000000000000        0.0000000000000000     
  0.71875000000000000       0.62500000000000000        0.0000000000000000     
  0.75000000000000000       0.62500000000000000        0.0000000000000000     
  0.62500000000000000       0.65625000000000000        0.0000000000000000     
  0.65625000000000000       0.65625000000000000        0.0000000000000000     
  0.68750000000000000       0.65625000000000000        0.0000000000000000     
  0.71875000000000000       0.65625000000000000        0.0000000000000000     
  0.75000000000000000       0.65625000000000000        0.0000000000000000     
  0.62500000000000000       0.68750000000000000        0.0000000000000000     
  0.65625000000000000       0.68750000000000000        0.0000000000000000     
  0.68750000000000000       0.68750000000000000        0.0000000000000000     
  0.71875000000000000       0.68750000000000000        0.0000000000000000     
  0.75000000000000000       0.68750000000000000        0.0000000000000000     
  0.62500000000000000       0.71875000000000000        0.0000000000000000     
  0.65625000000000000       0.71875000000000000        0.0000000000000000     
  0.68750000000000000       0.71875000000000000        0.0000000000000000     
  0.71875000000000000       0.71875000000000000        0.0000000000000000     
  0.75000000000000000       0.71875000000000000        0.0000000000000000     
  0.62500000000000000       0.75000000000000000        0.0000000000000000     
  0.65625000000000000       0.75000000000000000        0.0000000000000000     
  0.68750000000000000       0.75000000000000000        0.0000000000000000     
  0.71875000000000000       0.75000000000000000        0.0000000000000000     
  0.75000000000000000       0.75000000000000000        0.0000000000000000     
  0.75000000000000000       0.62500000000000000        0.0000000000000000     
  0.78125000000000000       0.62500000000000000        0.0000000000000000     
  0.81250000000000000       0.62500000000000000        0.0000000000000000     
  0.84375000000000000       0.62500000000000000        0.0000000000000000     
  0.87500000000000000       0.62500000000000000        0.0000000000000000     
  0.75000000000000000       0.65625000000000000        0.0000000000000000     
  0.78125000000000000       0.65625000000000000        0.0000000000000000     
  0.81250000000000000       0.65625000000000000        0.0000000000000000     
  0.84375000000000000       0.65625000000000000        0.0000000000000000     
  0.87500000000000000       0.65625000000000000        0.0000000000000000     
  0.75000000000000000       0.68750000000000000        0.0000000000000000     
  0.78125000000000000       0.68750000000000000        0.0000000000000000     
  0.81250000000000000       0.68750000000000000        0.0000000000000000     
  0.84375000000000000       0.68750000000000000        0.0000000000000000     
  0.87500000000000000       0.68750000000000000        0.0000000000000000     
  0.75000000000000000       0.71875000000000000        0.0000000000000000     
  0.78125000000000000       0.71875000000000000        0.0000000000000000     
  0.81250000000000000       0.71875000000000000        0.0000000000000000     
  0.84375000000000000       0.71875000000000000        0.0000000000000000     
  0.87500000000000000       0.71875000000000000        0.0000000000000000     
  0.75000000000000000       0.75000000000000000        0.0000000000000000     
  0.78125000000000000       0.75000000000000000        0.0000000000000000     
  0.81250000000000000       0.75000000000000000        0.0000000000000000     
  0.84375000000000000       0.75000000000000000        0.0000000000000000     
  0.87500000000000000       0.75000000000000000        0.0000000000000000     
  0.87500000000000000       0.62500000000000000        0.0000000000000000     
  0.90625000000000000       0.62500000000000000        0.0000000000000000     
  0.93750000000000000       0.62500000000000000        0.0000000000000000     
  0.96875000000000000       0.62500000000000000        0.0000000000000000     
   1.0000000000000000       0.62500000000000000        0.0000000000000000     
  0.87500000000000000       0.65625000000000000        0.0000000000000000     
  0.90625000000000000       0.65625000000000000        0.0000000000000000     
  0.93750000000000000       0.65625000000000000        0.0000000000000000     
  0.96875000000000000       0.65625000000000000        0.0000000000000000     
   1.0000000000000000       0.65625000000000000        0.0000000000000000     
  0.87500000000000000       0.68750000000000000        0.0000000000000000     
  0.90625000000000000       0.68750000000000000        0.0000000000000000     
  0.93750000000000000       0.68750000000000000        0.0000000000000000     
  0.96875000000000000       0.68750000000000000        0.0000000000000000     
   1.0000000000000000       0.68750000000000000        0.0000000000000000     
  0.87500000000000000       0.71875000000000000        0.0000000000000000     
  0.90625000000000000       0.71875000000000000        0.0000000000000000     
  0.93750000000000000       0.71875000000000000        0.0000000000000000     
  0.96875000000000000       0.71875000000000000        0.0000000000000000     
   1.0000000000000000       0.71875000000000000        0.0000000000000000     
  0.87500000000000000       0.75000000000000000        0.0000000000000000     
  0.90625000000000000       0.75000000000000000        0.0000000000000000     
  0.93750000000000000       0.75000000000000000        0.0000000000000000     
  0.96875000000000000       0.75000000000000000        0.0000000000000000     
   1.0000000000000000       0.75000000000000000        0.0000000000000000     
   0.0000000000000000       0.75000000000000000        0.0000000000000000     
   3.1250000000000000E-002  0.75000000000000000        0.0000000000000000     
   6.2500000000000000E-002  0.75000000000000000        0.0000000000000000     
   9.3750000000000000E-002  0.75000000000000000        0.0000000000000000     
  0.12500000000000000       0.75000000000000000        0.0000000000000000     
   0.0000000000000000       0.78125000000000000        0.0000000000000000     
   3.1250000000000000E-002  0.78125000000000000        0.0000000000000000     
   6.2500000000000000E-002  0.78125000000000000        0.0000000000000000     
   9.3750000000000000E-002  0.78125000000000000        0.0000000000000000     
  0.12500000000000000       0.78125000000000000        0.0000000000000000     
   0.0000000000000000       0.81250000000000000        0.0000000000000000     
   3.1250000000000000E-002  0.81250000000000000        0.0000000000000000     
   6.2500000000000000E-002  0.81250000000000000        0.0000000000000000     
   9.3750000000000000E-002  0.81250000000000000        0.0000000000000000     
  0.12500000000000000       0.81250000000000000        0.0000000000000000     
   0.0000000000000000       0.84375000000000000        0.0000000000000000     
   3.1250000000000000E-002  0.84375000000000000        0.0000000000000000     
   6.2500000000000000E-002  0.84375000000000000        0.0000000000000000     
   9.3750000000000000E-002  0.84375000000000000        0.0000000000000000     
  0.12500000000000000       0.84375000000000000        0.0000000000000000     
   0.0000000000000000       0.87500000000000000        0.0000000000000000     
   3.1250000000000000E-002  0.87500000000000000        0.0000000000000000     
   6.2500000000000000E-002  0.87500000000000000        0.0000000000000000     
   9.3750000000000000E-002  0.87500000000000000        0.0000000000000000     
  0.12500000000000000       0.87500000000000000        0.0000000000000000     
  0.12500000000000000       0.75000000000000000        0.0000000000000000     
  0.15625000000000000       0.75000000000000000        0.0000000000000000     
  0.18750000000000000       0.75000000000000000        0.0000000000000000     
  0.21875000000000000       0.75000000000000000        0.0000000000000000     
  0.25000000000000000       0.75000000000000000        0.0000000000000000     
  0.12500000000000000       0.78125000000000000        0.0000000000000000     
  0.15625000000000000       0.78125000000000000        0.0000000000000000     
  0.18750000000000000       0.78125000000000000        0.0000000000000000     
  0.21875000000000000       0.78125000000000000        0.0000000000000000     
  0.25000000000000000       0.78125000000000000        0.0000000000000000     
  0.12500000000000000       0.81250000000000000        0.0000000000000000     
  0.15625000000000000       0.81250000000000000        0.0000000000000000     
  0.18750000000000000       0.81250000000000000        0.0000000000000000     
  0.21875000000000000       0.81250000000000000        0.0000000000000000     
  0.25000000000000000       0.81250000000000000        0.0000000000000000     
  0.12500000000000000       0.84375000000000000        0.0000000000000000     
  0.15625000000000000       0.84375000000000000        0.0000000000000000     
  0.18750000000000000       0.84375000000000000        0.0000000000000000     
  0.21875000000000000       0.84375000000000000        0.0000000000000000     
  0.25000000000000000       0.84375000000000000        0.0000000000000000     
  0.12500000000000000       0.87500000000000000        0.0000000000000000     
  0.15625000000000000       0.87500000000000000        0.0000000000000000     
  0.18750000000000000       0.87500000000000000        0.0000000000000000     
  0.21875000000000000       0.87500000000000000        0.0000000000000000     
  0.25000000000000000       0.87500000000000000        0.0000000000000000     
  0.25000000000000000       0.75000000000000000        0.0000000000000000     
  0.28125000000000000       0.75000000000000000        0.0000000000000000     
  0.31250000000000000       0.75000000000000000        0.0000000000000000     
  0.34375000000000000       0.75000000000000000        0.0000000000000000     
  0.37500000000000000       0.75000000000000000        0.0000000000000000     
  0.25000000000000000       0.78125000000000000        0.0000000000000000     
  0.28125000000000000       0.78125000000000000        0.0000000000000000     
  0.31250000000000000       0.78125000000000000        0.0000000000000000     
  0.34375000000000000       0.78125000000000000        0.0000000000000000     
  0.37500000000000000       0.78125000000000000        0.0000000000000000     
  0.25000000000000000       0.81250000000000000        0.0000000000000000     
  0.28125000000000000       0.81250000000000000        0.0000000000000000     
  0.31250000000000000       0.81250000000000000        0.0000000000000000     
  0.34375000000000000       0.81250000000000000        0.0000000000000000     
  0.37500000000000000       0.81250000000000000        0.0000000000000000     
  0.25000000000000000       0.84375000000000000        0.0000000000000000     
  0.28125000000000000       0.84375000000000000        0.0000000000000000     
  0.31250000000000000       0.84375000000000000        0.0000000000000000     
  0.34375000000000000       0.84375000000000000        0.0000000000000000     
  0.37500000000000000       0.84375000000000000        0.0000000000000000     
  0.25000000000000000       0.87500000000000000        0.0000000000000000     
  0.28125000000000000       0.87500000000000000        0.0000000000000000     
  0.31250000000000000       0.87500000000000000        0.0000000000000000     
  0.34375000000000000       0.87500000000000000        0.0000000000000000     
  0.37500000000000000       0.87500000000000000        0.0000000000000000     
  0.37500000000000000       0.75000000000000000        0.0000000000000000     
  0.40625000000000000       0.75000000000000000        0.0000000000000000     
  0.43750000000000000       0.75000000000000000        0.0000000000000000     
  0.46875000000000000       0.75000000000000000        0.0000000000000000     
  0.50000000000000000       0.75000000000000000        0.0000000000000000     
  0.37500000000000000       0.78125000000000000        0.0000000000000000     
  0.40625000000000000       0.78125000000000000        0.0000000000000000     
  0.43750000000000000       0.78125000000000000        0.0000000000000000     
  0.46875000000000000       0.78125000000000000        0.0000000000000000     
  0.50000000000000000       0.78125000000000000        0.0000000000000000     
  0.37500000000000000       0.81250000000000000        0.0000000000000000     
  0.40625000000000000       0.81250000000000000        0.0000000000000000     
  0.43750000000000000       0.81250000000000000        0.0000000000000000     
  0.46875000000000000       0.81250000000000000        0.0000000000000000     
  0.50000000000000000       0.81250000000000000        0.0000000000000000     
  0.37500000000000000       0.84375000000000000        0.0000000000000000     
  0.40625000000000000       0.84375000000000000        0.0000000000000000     
  0.43750000000000000       0.84375000000000000        0.0000000000000000     
  0.46875000000000000       0.84375000000000000        0.0000000000000000     
  0.50000000000000000       0.84375000000000000        0.0000000000000000     
  0.37500000000000000       0.87500000000000000        0.0000000000000000     
  0.40625000000000000       0.87500000000000000        0.0000000000000000     
  0.43750000000000000       0.87500000000000000        0.0000000000000000     
  0.46875000000000000       0.87500000000000000        0.0000000000000000     
  0.50000000000000000       0.87500000000000000        0.0000000000000000     
  0.50000000000000000       0.75000000000000000        0.0000000000000000     
  0.53125000000000000       0.75000000000000000        0.0000000000000000     
  0.56250000000000000       0.75000000000000000        0.0000000000000000     
  0.59375000000000000       0.75000000000000000        0.0000000000000000     
  0.62500000000000000       0.75000000000000000        0.0000000000000000     
  0.50000000000000000       0.78125000000000000        0.0000000000000000     
  0.53125000000000000       0.78125000000000000        0.0000000000000000     
  0.56250000000000000       0.78125000000000000        0.0000000000000000     
  0.59375000000000000       0.78125000000000000        0.0000000000000000     
  0.62500000000000000       0.78125000000000000        0.0000000000000000     
  0.50000000000000000       0.81250000000000000        0.0000000000000000     
  0.53125000000000000       0.81250000000000000        0.0000000000000000     
  0.56250000000000000       0.81250000000000000        0.0000000000000000     
  0.59375000000000000       0.81250000000000000        0.0000000000000000     
  0.62500000000000000       0.81250000000000000        0.0000000000000000     
  0.50000000000000000       0.84375000000000000        0.0000000000000000     
  0.53125000000000000       0.84375000000000000        0.0000000000000000     
  0.56250000000000000       0.84375000000000000        0.0000000000000000     
  0.59375000000000000       0.84375000000000000        0.0000000000000000     
  0.62500000000000000       0.84375000000000000        0.0000000000000000     
  0.50000000000000000       0.87500000000000000        0.0000000000000000     
  0.53125000000000000       0.87500000000000000        0.0000000000000000     
  0.56250000000000000       0.87500000000000000        0.0000000000000000     
  0.59375000000000000       0.87500000000000000        0.0000000000000000     
  0.62500000000000000       0.87500000000000000        0.0000000000000000     
  0.62500000000000000       0.75000000000000000        0.0000000000000000     
  0.65625000000000000       0.75000000000000000        0.0000000000000000     
  0.68750000000000000       0.75000000000000000        0.0000000000000000     
  0.71875000000000000       0.75000000000000000        0.0000000000000000     
  0.75000000000000000       0.75000000000000000        0.0000000000000000     
  0.62500000000000000       0.78125000000000000        0.0000000000000000     
  0.65625000000000000       0.78125000000000000        0.0000000000000000     
  0.68750000000000000       0.78125000000000000        0.0000000000000000     
  0.71875000000000000       0.78125000000000000        0.0000000000000000     
  0.75000000000000000       0.78125000000000000        0.0000000000000000     
  0.62500000000000000       0.81250000000000000        0.0000000000000000     
  0.65625000000000000       0.81250000000000000        0.0000000000000000     
  0.68750000000000000       0.81250000000000000        0.0000000000000000     
  0.71875000000000000       0.81250000000000000        0.0000000000000000     
  0.75000000000000000       0.81250000000000000        0.0000000000000000     
  0.62500000000000000       0.84375000000000000        0.0000000000000000     
  0.65625000000000000       0.84375000000000000        0.0000000000000000     
  0.68750000000000000       0.84375000000000000        0.0000000000000000     
  0.71875000000000000       0.84375000000000000        0.0000000000000000     
  0.75000000000000000       0.84375000000000000        0.0000000000000000     
  0.62500000000000000       0.87500000000000000        0.0000000000000000     
  0.65625000000000000       0.87500000000000000        0.0000000000000000     
  0.68750000000000000       0.87500000000000000        0.0000000000000000     
  0.71875000000000000       0.87500000000000000        0.0000000000000000     
  0.75000000000000000       0.87500000000000000        0.0000000000000000     
  0.75000000000000000       0.75000000000000000        0.0000000000000000     
  0.78125000000000000       0.75000000000000000        0.0000000000000000     
  0.81250000000000000       0.75000000000000000        0.0000000000000000     
  0.84375000000000000       0.75000000000000000        0.0000000000000000     
  0.87500000000000000       0.75000000000000000        0.0000000000000000     
  0.75000000000000000       0.78125000000000000        0.0000000000000000     
  0.78125000000000000       0.78125000000000000        0.0000000000000000     
  0.81250000000000000       0.78125000000000000        0.0000000000000000     
  0.84375000000000000       0.78125000000000000        0.0000000000000000     
  0.87500000000000000       0.78125000000000000        0.0000000000000000     
  0.75000000000000000       0.81250000000000000        0.0000000000000000     
  0.78125000000000000       0.81250000000000000        0.0000000000000000     
  0.81250000000000000       0.81250000000000000        0.0000000000000000     
  0.84375000000000000       0.81250000000000000        0.0000000000000000     
  0.87500000000000000       0.81250000000000000        0.0000000000000000     
  0.75000000000000000       0.84375000000000000        0.0000000000000000     
  0.78125000000000000       0.84375000000000000        0.0000000000000000     
  0.81250000000000000       0.84375000000000000        0.0000000000000000     
  0.84375000000000000       0.84375000000000000        0.0000000000000000     
  0.87500000000000000       0.84375000000000000        0.0000000000000000     
  0.75000000000000000       0.87500000000000000        0.0000000000000000     
  0.78125000000000000       0.87500000000000000        0.0000000000000000     
  0.81250000000000000       0.87500000000000000        0.0000000000000000     
  0.84375000000000000       0.87500000000000000        0.0000000000000000     
  0.87500000000000000       0.87500000000000000        0.0000000000000000     
  0.87500000000000000       0.75000000000000000        0.0000000000000000     
  0.90625000000000000       0.75000000000000000        0.0000000000000000     
  0.93750000000000000       0.75000000000000000        0.0000000000000000     
  0.96875000000000000       0.75000000000000000        0.0000000000000000     
   1.0000000000000000       0.75000000000000000        0.0000000000000000     
  0.87500000000000000       0.78125000000000000        0.0000000000000000     
  0.90625000000000000       0.78125000000000000        0.0000000000000000     
  0.93750000000000000       0.78125000000000000        0.0000000000000000     
  0.96875000000000000       0.78125000000000000        0.0000000000000000     
   1.0000000000000000       0.78125000000000000        0.0000000000000000     
  0.87500000000000000       0.81250000000000000        0.0000000000000000     
  0.90625000000000000       0.81250000000000000        0.0000000000000000     
  0.93750000000000000       0.81250000000000000        0.0000000000000000     
  0.96875000000000000       0.81250000000000000        0.0000000000000000     
   1.0000000000000000       0.81250000000000000        0.0000000000000000     
  0.87500000000000000       0.84375000000000000        0.0000000000000000     
  0.90625000000000000       0.84375000000000000        0.0000000000000000     
  0.93750000000000000       0.84375000000000000        0.0000000000000000     
  0.96875000000000000       0.84375000000000000        0.0000000000000000     
   1.0000000000000000       0.84375000000000000        0.0000000000000000     
  0.87500000000000000       0.87500000000000000        0.0000000000000000     
  0.90625000000000000       0.87500000000000000        0.0000000000000000     
  0.93750000000000000       0.87500000000000000        0.0000000000000000     
  0.96875000000000000       0.87500000000000000        0.0000000000000000     
   1.0000000000000000       0.87500000000000000        0.0000000000000000     
   0.0000000000000000       0.87500000000000000        0.0000000000000000     
   3.1250000000000000E-002  0.87500000000000000        0.0000000000000000     
   6.2500000000000000E-002  0.87500000000000000        0.0000000000000000     
   9.3750000000000000E-002  0.87500000000000000        0.0000000000000000     
  0.12500000000000000       0.87500000000000000        0.0000000000000000     
   0.0000000000000000       0.90625000000000000        0.0000000000000000     
   3.1250000000000000E-002  0.90625000000000000        0.0000000000000000     
   6.2500000000000000E-002  0.90625000000000000        0.0000000000000000     
   9.3750000000000000E-002  0.90625000000000000        0.0000000000000000     
  0.12500000000000000       0.90625000000000000        0.0000000000000000     
   0.0000000000000000       0.93750000000000000        0.0000000000000000     
   3.1250000000000000E-002  0.93750000000000000        0.0000000000000000     
   6.2500000000000000E-002  0.93750000000000000        0.0000000000000000     
   9.3750000000000000E-002  0.93750000000000000        0.0000000000000000     
  0.12500000000000000       0.93750000000000000        0.0000000000000000     
   0.0000000000000000       0.96875000000000000        0.0000000000000000     
   3.1250000000000000E-002  0.96875000000000000        0.0000000000000000     
   6.2500000000000000E-002  0.96875000000000000        0.0000000000000000     
   9.3750000000000000E-002  0.96875000000000000        0.0000000000000000     
  0.12500000000000000       0.96875000000000000        0.0000000000000000     
   0.0000000000000000        1.0000000000000000        0.0000000000000000     
   3.1250000000000000E-002   1.0000000000000000        0.0000000000000000     
   6.2500000000000000E-002   1.0000000000000000        0.0000000000000000     
   9.3750000000000000E-002   1.0000000000000000        0.0000000000000000     
  0.12500000000000000        1.0000000000000000        0.0000000000000000     
  0.12500000000000000       0.87500000000000000        0.0000000000000000     
  0.15625000000000000       0.87500000000000000        0.0000000000000000     
  0.18750000000000000       0.87500000000000000        0.0000000000000000     
  0.21875000000000000       0.87500000000000000        0.0000000000000000     
  0.25000000000000000       0.87500000000000000        0.0000000000000000     
  0.12500000000000000       0.90625000000000000        0.0000000000000000     
  0.15625000000000000       0.90625000000000000        0.0000000000000000     
  0.18750000000000000       0.90625000000000000        0.0000000000000000     
  0.21875000000000000       0.90625000000000000        0.0000000000000000     
  0.25000000000000000       0.90625000000000000        0.0000000000000000     
  0.12500000000000000       0.93750000000000000        0.0000000000000000     
  0.15625000000000000       0.93750000000000000        0.0000000000000000     
  0.18750000000000000       0.93750000000000000        0.0000000000000000     
  0.21875000000000000       0.93750000000000000        0.0000000000000000     
  0.25000000000000000       0.93750000000000000        0.0000000000000000     
  0.12500000000000000       0.96875000000000000        0.0000000000000000     
  0.15625000000000000       0.96875000000000000        0.0000000000000000     
  0.18750000000000000       0.96875000000000000        0.0000000000000000     
  0.21875000000000000       0.96875000000000000        0.0000000000000000     
  0.25000000000000000       0.96875000000000000        0.0000000000000000     
  0.12500000000000000        1.0000000000000000        0.0000000000000000     
  0.15625000000000000        1.0000000000000000        0.0000000000000000     
  0.18750000000000000        1.0000000000000000        0.0000000000000000     
  0.21875000000000000        1.0000000000000000        0.0000000000000000     
  0.25000000000000000        1.0000000000000000        0.0000000000000000     
  0.25000000000000000       0.87500000000000000        0.0000000000000000     
  0.28125000000000000       0.87500000000000000        0.0000000000000000     
  0.31250000000000000       0.87500000000000000        0.0000000000000000     
  0.34375000000000000       0.87500000000000000        0.0000000000000000     
  0.37500000000000000       0.87500000000000000        0.0000000000000000     
  0.25000000000000000       0.90625000000000000        0.0000000000000000     
  0.28125000000000000       0.90625000000000000        0.0000000000000000     
  0.31250000000000000       0.90625000000000000        0.0000000000000000     
  0.34375000000000000       0.90625000000000000        0.0000000000000000     
  0.37500000000000000       0.90625000000000000        0.0000000000000000     
  0.25000000000000000       0.93750000000000000        0.0000000000000000     
  0.28125000000000000       0.93750000000000000        0.0000000000000000     
  0.31250000000000000       0.93750000000000000        0.0000000000000000     
  0.34375000000000000       0.93750000000000000        0.0000000000000000     
  0.37500000000000000       0.93750000000000000        0.0000000000000000     
  0.25000000000000000       0.96875000000000000        0.0000000000000000     
  0.28125000000000000       0.96875000000000000        0.0000000000000000     
  0.31250000000000000       0.96875000000000000        0.0000000000000000     
  0.34375000000000000       0.96875000000000000        0.0000000000000000     
  0.37500000000000000       0.96875000000000000        0.0000000000000000     
  0.25000000000000000        1.0000000000000000        0.0000000000000000     
  0.28125000000000000        1.0000000000000000        0.0000000000000000     
  0.31250000000000000        1.0000000000000000        0.0000000000000000     
  0.34375000000000000        1.0000000000000000        0.0000000000000000     
  0.37500000000000000        1.0000000000000000        0.0000000000000000     
  0.37500000000000000       0.87500000000000000        0.0000000000000000     
  0.40625000000000000       0.87500000000000000        0.0000000000000000     
  0.43750000000000000       0.87500000000000000        0.0000000000000000     
  0.46875000000000000       0.87500000000000000        0.0000000000000000     
  0.50000000000000000       0.87500000000000000        0.0000000000000000     
  0.37500000000000000       0.90625000000000000        0.0000000000000000     
  0.40625000000000000       0.90625000000000000        0.0000000000000000     
  0.43750000000000000       0.90625000000000000        0.0000000000000000     
  0.46875000000000000       0.90625000000000000        0.0000000000000000     
  0.50000000000000000       0.90625000000000000        0.0000000000000000     
  0.37500000000000000       0.93750000000000000        0.0000000000000000     
  0.40625000000000000       0.93750000000000000        0.0000000000000000     
  0.43750000000000000       0.93750000000000000        0.0000000000000000     
  0.46875000000000000       0.93750000000000000        0.0000000000000000     
  0.50000000000000000       0.93750000000000000        0.0000000000000000     
  0.37500000000000000       0.96875000000000000        0.0000000000000000     
  0.40625000000000000       0.96875000000000000        0.0000000000000000     
  0.43750000000000000       0.96875000000000000        0.0000000000000000     
  0.46875000000000000       0.96875000000000000        0.0000000000000000     
  0.50000000000000000       0.96875000000000000        0.0000000000000000     
  0.37500000000000000        1.0000000000000000        0.0000000000000000     
  0.40625000000000000        1.0000000000000000        0.0000000000000000     
  0.43750000000000000        1.0000000000000000        0.0000000000000000     
  0.46875000000000000        1.0000000000000000        0.0000000000000000     
  0.50000000000000000        1.0000000000000000        0.0000000000000000     
  0.50000000000000000       0.87500000000000000        0.0000000000000000     
  0.53125000000000000       0.87500000000000000        0.0000000000000000     
  0.56250000000000000       0.87500000000000000        0.0000000000000000     
  0.59375000000000000       0.87500000000000000        0.0000000000000000     
  0.62500000000000000       0.87500000000000000        0.0000000000000000     
  0.50000000000000000       0.90625000000000000        0.0000000000000000     
  0.53125000000000000       0.90625000000000000        0.0000000000000000     
  0.56250000000000000       0.90625000000000000        0.0000000000000000     
  0.59375000000000000       0.90625000000000000        0.0000000000000000     
  0.62500000000000000       0.90625000000000000        0.0000000000000000     
  0.50000000000000000       0.93750000000000000        0.0000000000000000     
  0.53125000000000000       0.93750000000000000        0.0000000000000000     
  0.56250000000000000       0.93750000000000000        0.0000000000000000     
  0.59375000000000000       0.93750000000000000        0.0000000000000000     
  0.62500000000000000       0.93750000000000000        0.0000000000000000     
  0.50000000000000000       0.96875000000000000        0.0000000000000000     
  0.53125000000000000       0.96875000000000000        0.0000000000000000     
  0.56250000000000000       0.96875000000000000        0.0000000000000000     
  0.59375000000000000       0.96875000000000000        0.0000000000000000     
  0.62500000000000000       0.96875000000000000        0.0000000000000000     
  0.50000000000000000        1.0000000000000000        0.0000000000000000     
  0.53125000000000000        1.0000000000000000        0.0000000000000000     
  0.56250000000000000        1.0000000000000000        0.0000000000000000     
  0.59375000000000000        1.0000000000000000        0.0000000000000000     
  0.62500000000000000        1.0000000000000000        0.0000000000000000     
  0.62500000000000000       0.87500000000000000        0.0000000000000000     
  0.65625000000000000       0.87500000000000000        0.0000000000000000     
  0.68750000000000000       0.87500000000000000        0.0000000000000000     
  0.71875000000000000       0.87500000000000000        0.0000000000000000     
  0.75000000000000000       0.87500000000000000        0.0000000000000000     
  0.62500000000000000       0.90625000000000000        0.0000000000000000     
  0.65625000000000000       0.90625000000000000        0.0000000000000000     
  0.68750000000000000       0.90625000000000000        0.0000000000000000     
  0.71875000000000000       0.90625000000000000        0.0000000000000000     
  0.75000000000000000       0.90625000000000000        0.0000000000000000     
  0.62500000000000000       0.93750000000000000        0.0000000000000000     
  0.65625000000000000       0.93750000000000000        0.0000000000000000     
  0.68750000000000000       0.93750000000000000        0.0000000000000000     
  0.71875000000000000       0.93750000000000000        0.0000000000000000     
  0.75000000000000000       0.93750000000000000        0.0000000000000000     
  0.62500000000000000       0.96875000000000000        0.0000000000000000     
  0.65625000000000000       0.96875000000000000        0.0000000000000000     
  0.68750000000000000       0.96875000000000000        0.0000000000000000     
  0.71875000000000000       0.96875000000000000        0.0000000000000000     
  0.75000000000000000       0.96875000000000000        0.0000000000000000     
  0.62500000000000000        1.0000000000000000        0.0000000000000000     
  0.65625000000000000        1.0000000000000000        0.0000000000000000     
  0.68750000000000000        1.0000000000000000        0.0000000000000000     
  0.71875000000000000        1.0000000000000000        0.0000000000000000     
  0.75000000000000000        1.0000000000000000        0.0000000000000000     
  0.75000000000000000       0.87500000000000000        0.0000000000000000     
  0.78125000000000000       0.87500000000000000        0.0000000000000000     
  0.81250000000000000       0.87500000000000000        0.0000000000000000     
  0.84375000000000000       0.87500000000000000        0.0000000000000000     
  0.87500000000000000       0.87500000000000000        0.0000000000000000     
  0.75000000000000000       0.90625000000000000        0.0000000000000000     
  0.78125000000000000       0.90625000000000000        0.0000000000000000     
  0.81250000000000000       0.90625000000000000        0.0000000000000000     
  0.84375000000000000       0.90625000000000000        0.0000000000000000     
  0.87500000000000000       0.90625000000000000        0.0000000000000000     
  0.75000000000000000       0.93750000000000000        0.0000000000000000     
  0.78125000000000000       0.93750000000000000        0.0000000000000000     
  0.81250000000000000       0.93750000000000000        0.0000000000000000     
  0.84375000000000000       0.93750000000000000        0.0000000000000000     
  0.87500000000000000       0.93750000000000000        0.0000000000000000     
  0.75000000000000000       0.96875000000000000        0.0000000000000000     
  0.78125000000000000       0.96875000000000000        0.0000000000000000     
  0.81250000000000000       0.96875000000000000        0.0000000000000000     
  0.84375000000000000       0.96875000000000000        0.0000000000000000     
  0.87500000000000000       0.96875000000000000        0.0000000000000000     
  0.75000000000000000        1.0000000000000000        0.0000000000000000     
  0.78125000000000000        1.0000000000000000        0.0000000000000000     
  0.81250000000000000        1.0000000000000000        0.0000000000000000     
  0.84375000000000000        1.0000000000000000        0.0000000000000000     
  0.87500000000000000        1.0000000000000000        0.0000000000000000     
  0.87500000000000000       0.87500000000000000        0.0000000000000000     
  0.90625000000000000       0.87500000000000000        0.0000000000000000     
  0.93750000000000000       0.87500000000000000        0.0000000000000000     
  0.96875000000000000       0.87500000000000000        0.0000000000000000     
   1.0000000000000000       0.87500000000000000        0.0000000000000000     
  0.87500000000000000       0.90625000000000000        0.0000000000000000     
  0.90625000000000000       0.90625000000000000        0.0000000000000000     
  0.93750000000000000       0.90625000000000000        0.0000000000000000     
  0.96875000000000000       0.90625000000000000        0.0000000000000000     
   1.0000000000000000       0.90625000000000000        0.0000000000000000     
  0.87500000000000000       0.93750000000000000        0.0000000000000000     
  0.90625000000000000       0.93750000000000000        0.0000000000000000     
  0.93750000000000000       0.93750000000000000        0.0000000000000000     
  0.96875000000000000       0.93750000000000000        0.0000000000000000     
   1.0000000000000000       0.93750000000000000        0.0000000000000000     
  0.87500000000000000       0.96875000000000000        0.0000000000000000     
  0.90625000000000000       0.96875000000000000        0.0000000000000000     
  0.93750000000000000       0.96875000000000000        0.0000000000000000     
  0.96875000000000000       0.96875000000000000        0.0000000000000000     
   1.0000000000000000       0.96875000000000000        0.0000000000000000     
  0.87500000000000000        1.0000000000000000        0.0000000000000000     
  0.90625000000000000        1.0000000000000000        0.0000000000000000     
  0.93750000000000000        1.0000000000000000        0.0000000000000000     
  0.96875000000000000        1.0000000000000000        0.0000000000000000     
   1.0000000000000000        1.0000000000000000        0.0000000000000000     
 </DataArray>
 </Points>
 <Cells>
 <DataArray  type="Int32"  Name="connectivity"  format="ascii">
           0           1           6           5
           1           2           7           6
           2           3           8           7
           3           4           9           8
           5           6          11          10
           6           7          12          11
           7           8          13          12
           8           9          14          13
          10          11          16          15
          11          12          17          16
          12          13          18          17
          13          14          19          18
          15          16          21          20
          16          17          22          21
          17          18          23          22
          18          19          24          23
          25          26          31          30
          26          27          32          31
          27          28          33          32
          28          29          34          33
          30          31          36          35
          31          32          37          36
          32          33          38          37
          33          34          39          38
          35          36          41          40
          36          37          42          41
          37          38          43          42
          38          39          44          43
          40          41          46          45
          41          42          47          46
          42          43          48          47
          43          44          49          48
          50          51          56          55
          51          52          57          56
          52          53          58          57
          53          54          59          58
          55          56          61          60
          56          57          62          61
          57          58          63          62
          58          59          64          63
          60          61          66          65
          61          62          67          66
          62          63          68          67
          63          64          69          68
          65          66          71          70
          66          67          72          71
          67          68          73          72
          68          69          74          73
          75          76          81          80
          76          77          82          81
          77          78          83          82
          78          79          84          83
          80          81          86          85
          81          82          87          86
          82          83          88          87
          83          84          89          88
          85          86          91          90
          86          87          92          91
          87          88          93          92
          88          89          94          93
          90          91          96          95
          91          92          97          96
          92          93          98          97
          93          94          99          98
         100         101         106         105
         101         102         107         106
         102         103         108         107
         103         104         109         108
         105         106         111         110
         106         107         112         111
         107         108         113         112
         108         109         114         113
         110         111         116         115
         111         112         117         116
         112         113         118         117
         113         114         119         118
         115         116         121         120
         116         117         122         121
         117         118         123         122
         118         119         124         123
         125         126         131         130
         126         127         132         131
         127         128         133         132
         128         129         134         133
         130         131         136         135
         131         132         137         136
         132         133         138         137
         133         134         139         138
         135         136         141         140
         136         137         142         141
         137         138         143         142
         138         139         144         143
         140         141         146         145
         141         142         147         146
         142         143         148         147
         143         144         149         148
         150         151         156         155
         151         152         157         156
         152         153         158         157
         153         154         159         158
         155         156         161         160
         156         157         162         161
         157         158         163         162
         158         159         164         163
         160         161         166         165
         161         162         167         166
         162         163         168         167
         163         164         169         168
         165         166         171         170
         166         167         172         171
         167         168         173         172
         168         169         174         173
         175         176         181         180
         176         177         182         181
         177         178         183         182
         178         179         184         183
         180         181         186         185
         181         182         187         186
         182         183         188         187
         183         184         189         188
         185         186         191         190
         186         187         192         191
         187         188         193         192
         188         189         194         193
         190         191         196         195
         191         192         197         196
         192         193         198         197
         193         194         199         198
         200         201         206         205
         201         202         207         206
         202         203         208         207
         203         204         209         208
         205         206         211         210
         206         207         212         211
         207         208         213         212
         208         209         214         213
         210         211         216         215
         211         212         217         216
         212         213         218         217
         213         214         219         218
         215         216         221         220
         216         217         222         221
         217         218         223         222
         218         219         224         223
         225         226         231         230
         226         227         232         231
         227         228         233         232
         228         229         234         233
         230         231         236         235
         231         232         237         236
         232         233         238         237
         233         234         239         238
         235         236         241         240
         236         237         242         241
         237         238         243         242
         238         239         244         243
         240         241         246         245
         241         242         247         246
         242         243         248         247
         243         244         249         248
         250         251         256         255
         251         252         257         256
         252         253         258         257
         253         254         259         258
         255         256         261         260
         256         257         262         261
         257         258         263         262
         258         259         264         263
         260         261         266         265
         261         262         267         266
         262         263         268         267
         263         264         269         268
         265         266         271         270
         266         267         272         271
         267         268         273         272
         268         269         274         273
         275         276         281         280
         276         277         282         281
         277         278         283         282
         278         279         284         283
         280         281         286         285
         281         282         287         286
         282         283         288         287
         283         284         289         288
         285         286         291         290
         286         287         292         291
         287         288         293         292
         288         289         294         293
         290         291         296         295
         291         292         297         296
         292         293         298         297
         293         294         299         298
         300         301         306         305
         301         302         307         306
         302         303         308         307
         303         304         309         308
         305         306         311         310
         306         307         312         311
         307         308         313         312
         308         309         314         313
         310         311         316         315
         311         312         317         316
         312         313         318         317
         313         314         319         318
         315         316         321         320
         316         317         322         321
         317         318         323         322
         318         319         324         323
         325         326         331         330
         326         327         332         331
         327         328         333         332
         328         329         334         333
         330         331         336         335
         331         332         337         336
         332         333         338         337
         333         334         339         338
         335         336         341         340
         336         337         342         341
         337         338         343         342
         338         339         344         343
         340         341         346         345
         341         342         347         346
         342         343         348         347
         343         344         349         348
         350         351         356         355
         351         352         357         356
         352         353         358         357
         353         354         359         358
         355         356         361         360
         356         357         362         361
         357         358         363         362
         358         359         364         363
         360         361         366         365
         361         362         367         366
         362         363         368         367
         363         364         369         368
         365         366         371         370
         366         367         372         371
         367         368         373         372
         368         369         374         373
         375         376         381         380
         376         377         382         381
         377         378         383         382
         378         379         384         383
         380         381         386         385
         381         382         387         386
         382         383         388         387
         383         384         389         388
         385         386         391         390
         386         387         392         391
         387         388         393         392
         388         389         394         393
         390         391         396         395
         391         392         397         396
         392         393         398         397
         393         394         399         398
         400         401         406         405
         401         402         407         406
         402         403         408         407
         403         404         409         408
         405         406         411         410
         406         407         412         411
         407         408         413         412
         408         409         414         413
         410         411         416         415
         411         412         417         416
         412         413         418         417
         413         414         419         418
         415         416         421         420
         416         417         422         421
         417         418         423         422
         418         419         424         423
         425         426         431         430
         426         427         432         431
         427         428         433         432
         428         429         434         433
         430         431         436         435
         431         432         437         436
         432         433         438         437
         433         434         439         438
         435         436         441         440
         436         437         442         441
         437         438         443         442
         438         439         444         443
         440         441         446         445
         441         442         447         446
         442         443         448         447
         443         444         449         448
         450         451         456         455
         451         452         457         456
         452         453         458         457
         453         454         459         458
         455         456         461         460
         456         457         462         461
         457         458         463         462
         458         459         464         463
         460         461         466         465
         461         462         467         466
         462         463         468         467
         463         464         469         468
         465         466         471         470
         466         467         472         471
         467         468         473         472
         468         469         474         473
         475         476         481         480
         476         477         482         481
         477         478         483         482
         478         479         484         483
         480         481         486         485
         481         482         487         486
         482         483         488         487
         483         484         489         488
         485         486         491         490
         486         487         492         491
         487         488         493         492
         488         489         494         493
         490         491         496         495
         491         492         497         496
         492         493         498         497
         493         494         499         498
         500         501         506         505
         501         502         507         506
         502         503         508         507
         503         504         509         508
         505         506         511         510
         506         507         512         511
         507         508         513         512
         508         509         514         513
         510         511         516         515
         511         512         517         516
         512         513         518         517
         513         514         519         518
         515         516         521         520
         516         517         522         521
         517         518         523         522
         518         519         524         523
         525         526         531         530
         526         527         532         531
         527         528         533         532
         528         529         534         533
         530         531         536         535
         531         532         537         536
         532         533         538         537
         533         534         539         538
         535         536         541         540
         536         537         542         541
         537         538         543         542
         538         539         544         543
         540         541         546         545
         541         542         547         546
         542         543         548         547
         543         544         549         548
         550         551         556         555
         551         552         557         556
         552         553         558         557
         553         554         559         558
         555         556         561         560
         556         557         562         561
         557         558         563         562
         558         559         564         563
         560         561         566         565
         561         562         567         566
         562         563         568         567
         563         564         569         568
         565         566         571         570
         566         567         572         571
         567         568         573         572
         568         569         574         573
         575         576         581         580
         576         577         582         581
         577         578         583         582
         578         579         584         583
         580         581         586         585
         581         582         587         586
         582         583         588         587
         583         584         589         588
         585         586         591         590
         586         587         592         591
         587         588         593         592
         588         589         594         593
         590         591         596         595
         591         592         597         596
         592         593         598         597
         593         594         599         598
         600         601         606         605
         601         602         607         606
         602         603         608         607
         603         604         609         608
         605         606         611         610
         606         607         612         611
         607         608         613         612
         608         609         614         613
         610         611         616         615
         611         612         617         616
         612         613         618         617
         613         614         619         618
         615         616         621         620
         616         617         622         621
         617         618         623         622
         618         619         624         623
         625         626         631         630
         626         627         632         631
         627         628         633         632
         628         629         634         633
         630         631         636         635
         631         632         637         636
         632         633         638         637
         633         634         639         638
         635         636         641         640
         636         637         642         641
         637         638         643         642
         638         639         644         643
         640         641         646         645
         641         642         647         646
         642         643         648         647
         643         644         649         648
         650         651         656         655
         651         652         657         656
         652         653         658         657
         653         654         659         658
         655         656         661         660
         656         657         662         661
         657         658         663         662
         658         659         664         663
         660         661         666         665
         661         662         667         666
         662         663         668         667
         663         664         669         668
         665         666         671         670
         666         667         672         671
         667         668         673         672
         668         669         674         673
         675         676         681         680
         676         677         682         681
         677         678         683         682
         678         679         684         683
         680         681         686         685
         681         682         687         686
         682         683         688         687
         683         684         689         688
         685         686         691         690
         686         687         692         691
         687         688         693         692
         688         689         694         693
         690         691         696         695
         691         692         697         696
         692         693         698         697
         693         694         699         698
         700         701         706         705
         701         702         707         706
         702         703         708         707
         703         704         709         708
         705         706         711         710
         706         707         712         711
         707         708         713         712
         708         709         714         713
         710         711         716         715
         711         712         717         716
         712         713         718         717
         713         714         719         718
         715         716         721         720
         716         717         722         721
         717         718         723         722
         718         719         724         723
         725         726         731         730
         726         727         732         731
         727         728         733         732
         728         729         734         733
         730         731         736         735
         731         732         737         736
         732         733         738         737
         733         734         739         738
         735         736         741         740
         736         737         742         741
         737         738         743         742
         738         739         744         743
         740         741         746         745
         741         742         747         746
         742         743         748         747
         743         744         749         748
         750         751         756         755
         751         752         757         756
         752         753         758         757
         753         754         759         758
         755         756         761         760
         756         757         762         761
         757         758         763         762
         758         759         764         763
         760         761         766         765
         761         762         767         766
         762         763         768         767
         763         764         769         768
         765         766         771         770
         766         767         772         771
         767         768         773         772
         768         769         774         773
         775         776         781         780
         776         777         782         781
         777         778         783         782
         778         779         784         783
         780         781         786         785
         781         782         787         786
         782         783         788         787
         783         784         789         788
         785         786         791         790
         786         787         792         791
         787         788         793         792
         788         789         794         793
         790         791         796         795
         791         792         797         796
         792         793         798         797
         793         794         799         798
         800         801         806         805
         801         802         807         806
         802         803         808         807
         803         804         809         808
         805         806         811         810
         806         807         812         811
         807         808         813         812
         808         809         814         813
         810         811         816         815
         811         812         817         816
         812         813         818         817
         813         814         819         818
         815         816         821         820
         816         817         822         821
         817         818         823         822
         818         819         824         823
         825         826         831         830
         826         827         832         831
         827         828         833         832
         828         829         834         833
         830         831         836         835
         831         832         837         836
         832         833         838         837
         833         834         839         838
         835         836         841         840
         836         837         842         841
         837         838         843         842
         838         839         844         843
         840         841         846         845
         841         842         847         846
         842         843         848         847
         843         844         849         848
         850         851         856         855
         851         852         857         856
         852         853         858         857
         853         854         859         858
         855         856         861         860
         856         857         862         861
         857         858         863         862
         858         859         864         863
         860         861         866         865
         861         862         867         866
         862         863         868         867
         863         864         869         868
         865         866         871         870
         866         867         872         871
         867         868         873         872
         868         869         874         873
         875         876         881         880
         876         877         882         881
         877         878         883         882
         878         879         884         883
         880         881         886         885
         881         882         887         886
         882         883         888         887
         883         884         889         888
         885         886         891         890
         886         887         892         891
         887         888         893         892
         888         889         894         893
         890         891         896         895
         891         892         897         896
         892         893         898         897
         893         894         899         898
         900         901         906         905
         901         902         907         906
         902         903         908         907
         903         904         909         908
         905         906         911         910
         906         907         912         911
         907         908         913         912
         908         909         914         913
         910         911         916         915
         911         912         917         916
         912         913         918         917
         913         914         919         918
         915         916         921         920
         916         917         922         921
         917         918         923         922
         918         919         924         923
         925         926         931         930
         926         927         932         931
         927         928         933         932
         928         929         934         933
         930         931         936         935
         931         932         937         936
         932         933         938         937
         933         934         939         938
         935         936         941         940
         936         937         942         941
         937         938         943         942
         938         939         944         943
         940         941         946         945
         941         942         947         946
         942         943         948         947
         943         944         949         948
         950         951         956         955
         951         952         957         956
         952         953         958         957
         953         954         959         958
         955         956         961         960
         956         957         962         961
         957         958         963         962
         958         959         964         963
         960         961         966         965
         961         962         967         966
         962         963         968         967
         963         964         969         968
         965         966         971         970
         966         967         972         971
         967         968         973         972
         968         969         974         973
         975         976         981         980
         976         977         982         981
         977         978         983         982
         978         979         984         983
         980         981         986         985
         981         982         987         986
         982         983         988         987
         983         984         989         988
         985         986         991         990
         986         987         992         991
         987         988         993         992
         988         989         994         993
         990         991         996         995
         991         992         997         996
         992         993         998         997
         993         994         999         998
        1000        1001        1006        1005
        1001        1002        1007        1006
        1002        1003        1008        1007
        1003        1004        1009        1008
        1005        1006        1011        1010
        1006        1007        1012        1011
        1007        1008        1013        1012
        1008        1009        1014        1013
        1010        1011        1016        1015
        1011        1012        1017        1016
        1012        1013        1018        1017
        1013        1014        1019        1018
        1015        1016        1021        1020
        1016        1017        1022        1021
        1017        1018        1023        1022
        1018        1019        1024        1023
        1025        1026        1031        1030
        1026        1027        1032        1031
        1027        1028        1033        1032
        1028        1029        1034        1033
        1030        1031        1036        1035
        1031        1032        1037        1036
        1032        1033        1038        1037
        1033        1034        1039        1038
        1035        1036        1041        1040
        1036        1037        1042        1041
        1037        1038        1043        1042
        1038        1039        1044        1043
        1040        1041        1046        1045
        1041        1042        1047        1046
        1042        1043        1048        1047
        1043        1044        1049        1048
        1050        1051        1056        1055
        1051        1052        1057        1056
        1052        1053        1058        1057
        1053        1054        1059        1058
        1055        1056        1061        1060
        1056        1057        1062        1061
        1057        1058        1063        1062
        1058        1059        1064        1063
        1060        1061        1066        1065
        1061        1062        1067        1066
        1062        1063        1068        1067
        1063        1064        1069        1068
        1065        1066        1071        1070
        1066        1067        1072        1071
        1067        1068        1073        1072
        1068        1069        1074        1073
        1075        1076        1081        1080
        1076        1077        1082        1081
        1077        1078        1083        1082
        1078        1079        1084        1083
        1080        1081        1086        1085
        1081        1082        1087        1086
        1082        1083        1088        1087
        1083        1084        1089        1088
        1085        1086        1091        1090
        1086        1087        1092        1091
        1087        1088        1093        1092
        1088        1089        1094        1093
        1090        1091        1096        1095
        1091        1092        1097        1096
        1092        1093        1098        1097
        1093        1094        1099        1098
        1100        1101        1106        1105
        1101        1102        1107        1106
        1102        1103        1108        1107
        1103        1104        1109        1108
        1105        1106        1111        1110
        1106        1107        1112        1111
        1107        1108        1113        1112
        1108        1109        1114        1113
        1110        1111        1116        1115
        1111        1112        1117        1116
        1112        1113        1118        1117
        1113        1114        1119        1118
        1115        1116        1121        1120
        1116        1117        1122        1121
        1117        1118        1123        1122
        1118        1119        1124        1123
        1125        1126        1131        1130
        1126        1127        1132        1131
        1127        1128        1133        1132
        1128        1129        1134        1133
        1130        1131        1136        1135
        1131        1132        1137        1136
        1132        1133        1138        1137
        1133        1134        1139        1138
        1135        1136        1141        1140
        1136        1137        1142        1141
        1137        1138        1143        1142
        1138        1139        1144        1143
        1140        1141        1146        1145
        1141        1142        1147        1146
        1142        1143        1148        1147
        1143        1144        1149        1148
        1150        1151        1156        1155
        1151        1152        1157        1156
        1152        1153        1158        1157
        1153        1154        1159        1158
        1155        1156        1161        1160
        1156        1157        1162        1161
        1157        1158        1163        1162
        1158        1159        1164        1163
        1160        1161        1166        1165
        1161        1162        1167        1166
        1162        1163        1168        1167
        1163        1164        1169        1168
        1165        1166        1171        1170
        1166        1167        1172        1171
        1167        1168        1173        1172
        1168        1169        1174        1173
        1175        1176        1181        1180
        1176        1177        1182        1181
        1177        1178        1183        1182
        1178        1179        1184        1183
        1180        1181        1186        1185
        1181        1182        1187        1186
        1182        1183        1188        1187
        1183        1184        1189        1188
        1185        1186        1191        1190
        1186        1187        1192        1191
        1187        1188        1193        1192
        1188        1189        1194        1193
        1190        1191        1196        1195
        1191        1192        1197        1196
        1192        1193        1198        1197
        1193        1194        1199        1198
        1200        1201        1206        1205
        1201        1202        1207        1206
        1202        1203        1208        1207
        1203        1204        1209        1208
        1205        1206        1211        1210
        1206        1207        1212        1211
        1207        1208        1213        1212
        1208        1209        1214        1213
        1210        1211        1216        1215
        1211        1212        1217        1216
        1212        1213        1218        1217
        1213        1214        1219        1218
        1215        1216        1221        1220
        1216        1217        1222        1221
        1217        1218        1223        1222
        1218        1219        1224        1223
        1225        1226        1231        1230
        1226        1227        1232        1231
        1227        1228        1233        1232
        1228        1229        1234        1233
        1230        1231        1236        1235
        1231        1232        1237        1236
        1232        1233        1238        1237
        1233        1234        1239        1238
        1235        1236        1241        1240
        1236        1237        1242        1241
        1237        1238        1243        1242
        1238        1239        1244        1243
        1240        1241        1246        1245
        1241        1242        1247        1246
        1242        1243        1248        1247
        1243        1244        1249        1248
        1250        1251        1256        1255
        1251        1252        1257        1256
        1252        1253        1258        1257
        1253        1254        1259        1258
        1255        1256        1261        1260
        1256        1257        1262        1261
        1257        1258        1263        1262
        1258        1259        1264        1263
        1260        1261        1266        1265
        1261        1262        1267        1266
        1262        1263        1268        1267
        1263        1264        1269        1268
        1265        1266        1271        1270
        1266        1267        1272        1271
        1267        1268        1273        1272
        1268        1269        1274        1273
        1275        1276        1281        1280
        1276        1277        1282        1281
        1277        1278        1283        1282
        1278        1279        1284        1283
        1280        1281        1286        1285
        1281        1282        1287        1286
        1282        1283        1288        1287
        1283        1284        1289        1288
        1285        1286        1291        1290
        1286        1287        1292        1291
        1287        1288        1293        1292
        1288        1289        1294        1293
        1290        1291        1296        1295
        1291        1292        1297        1296
        1292        1293        1298        1297
        1293        1294        1299        1298
        1300        1301        1306        1305
        1301        1302        1307        1306
        1302        1303        1308        1307
        1303        1304        1309        1308
        1305        1306        1311        1310
        1306        1307        1312        1311
        1307        1308        1313        1312
        1308        1309        1314        1313
        1310        1311        1316        1315
        1311        1312        1317        1316
        1312        1313        1318        1317
        1313        1314        1319        1318
        1315        1316        1321        1320
        1316        1317        1322        1321
        1317        1318        1323        1322
        1318        1319        1324        1323
        1325        1326        1331        1330
        1326        1327        1332        1331
        1327        1328        1333        1332
        1328        1329        1334        1333
        1330        1331        1336        1335
        1331        1332        1337        1336
        1332        1333        1338        1337
        1333        1334        1339        1338
        1335        1336        1341        1340
        1336        1337        1342        1341
        1337        1338        1343        1342
        1338        1339        1344        1343
        1340        1341        1346        1345
        1341        1342        1347        1346
        1342        1343        1348        1347
        1343        1344        1349        1348
        1350        1351        1356        1355
        1351        1352        1357        1356
        1352        1353        1358        1357
        1353        1354        1359        1358
        1355        1356        1361        1360
        1356        1357        1362        1361
        1357        1358        1363        1362
        1358        1359        1364        1363
        1360        1361        1366        1365
        1361        1362        1367        1366
        1362        1363        1368        1367
        1363        1364        1369        1368
        1365        1366        1371        1370
        1366        1367        1372        1371
        1367        1368        1373        1372
        1368        1369        1374        1373
        1375        1376        1381        1380
        1376        1377        1382        1381
        1377        1378        1383        1382
        1378        1379        1384        1383
        1380        1381        1386        1385
        1381        1382        1387        1386
        1382        1383        1388        1387
        1383        1384        1389        1388
        1385        1386        1391        1390
        1386        1387        1392        1391
        1387        1388        1393        1392
        1388        1389        1394        1393
        1390        1391        1396        1395
        1391        1392        1397        1396
        1392        1393        1398        1397
        1393        1394        1399        1398
        1400        1401        1406        1405
        1401        1402        1407        1406
        1402        1403        1408        1407
        1403        1404        1409        1408
        1405        1406        1411        1410
        1406        1407        1412        1411
        1407        1408        1413        1412
        1408        1409        1414        1413
        1410        1411        1416        1415
        1411        1412        1417        1416
        1412        1413        1418        1417
        1413        1414        1419        1418
        1415        1416        1421        1420
        1416        1417        1422        1421
        1417        1418        1423        1422
        1418        1419        1424        1423
        1425        1426        1431        1430
        1426        1427        1432        1431
        1427        1428        1433        1432
        1428        1429        1434        1433
        1430        1431        1436        1435
        1431        1432        1437        1436
        1432        1433        1438        1437
        1433        1434        1439        1438
        1435        1436        1441        1440
        1436        1437        1442        1441
        1437        1438        1443        1442
        1438        1439        1444        1443
        1440        1441        1446        1445
        1441        1442        1447        1446
        1442        1443        1448        1447
        1443        1444        1449        1448
        1450        1451        1456        1455
        1451        1452        1457        1456
        1452        1453        1458        1457
        1453        1454        1459        1458
        1455        1456        1461        1460
        1456        1457        1462        1461
        1457        1458        1463        1462
        1458        1459        1464        1463
        1460        1461        1466        1465
        1461        1462        1467        1466
        1462        1463        1468        1467
        1463        1464        1469        1468
        1465        1466        1471        1470
        1466        1467        1472        1471
        1467        1468        1473        1472
        1468        1469        1474        1473
        1475        1476        1481        1480
        1476        1477        1482        1481
        1477        1478        1483        1482
        1478        1479        1484        1483
        1480        1481        1486        1485
        1481        1482        1487        1486
        1482        1483        1488        1487
        1483        1484        1489        1488
        1485        1486        1491        1490
        1486        1487        1492        1491
        1487        1488        1493        1492
        1488        1489        1494        1493
        1490        1491        1496        1495
        1491        1492        1497        1496
        1492        1493        1498        1497
        1493        1494        1499        1498
        1500        1501        1506        1505
        1501        1502        1507        1506
        1502        1503        1508        1507
        1503        1504        1509        1508
        1505        1506        1511        1510
        1506        1507        1512        1511
        1507        1508        1513        1512
        1508        1509        1514        1513
        1510        1511        1516        1515
        1511        1512        1517        1516
        1512        1513        1518        1517
        1513        1514        1519        1518
        1515        1516        1521        1520
        1516        1517        1522        1521
        1517        1518        1523        1522
        1518        1519        1524        1523
        1525        1526        1531        1530
        1526        1527        1532        1531
        1527        1528        1533        1532
        1528        1529        1534        1533
        1530        1531        1536        1535
        1531        1532        1537        1536
        1532        1533        1538        1537
        1533        1534        1539        1538
        1535        1536        1541        1540
        1536        1537        1542        1541
        1537        1538        1543        1542
        1538        1539        1544        1543
        1540        1541        1546        1545
        1541        1542        1547        1546
        1542        1543        1548        1547
        1543        1544        1549        1548
        1550        1551        1556        1555
        1551        1552        1557        1556
        1552        1553        1558        1557
        1553        1554        1559        1558
        1555        1556        1561        1560
        1556        1557        1562        1561
        1557        1558        1563        1562
        1558        1559        1564        1563
        1560        1561        1566        1565
        1561        1562        1567        1566
        1562        1563        1568        1567
        1563        1564        1569        1568
        1565        1566        1571        1570
        1566        1567        1572        1571
        1567        1568        1573        1572
        1568        1569        1574        1573
        1575        1576        1581        1580
        1576        1577        1582        1581
        1577        1578        1583        1582
        1578        1579        1584        1583
        1580        1581        1586        1585
        1581        1582        1587        1586
        1582        1583        1588        1587
        1583        1584        1589        1588
        1585        1586        1591        1590
        1586        1587        1592        1591
        1587        1588        1593        1592
        1588        1589        1594        1593
        1590        1591        1596        1595
        1591        1592        1597        1596
        1592        1593        1598        1597
        1593        1594        1599        1598
 </DataArray>
 <DataArray  type="Int32"  Name="offsets"  format="ascii"> 
           4
           8
          12
          16
          20
          24
          28
          32
          36
          40
          44
          48
          52
          56
          60
          64
          68
          72
          76
          80
          84
          88
          92
          96
         100
         104
         108
         112
         116
         120
         124
         128
         132
         136
         140
         144
         148
         152
         156
         160
         164
         168
         172
         176
         180
         184
         188
         192
         196
         200
         204
         208
         212
         216
         220
         224
         228
         232
         236
         240
         244
         248
         252
         256
         260
         264
         268
         272
         276
         280
         284
         288
         292
         296
         300
         304
         308
         312
         316
         320
         324
         328
         332
         336
         340
         344
         348
         352
         356
         360
         364
         368
         372
         376
         380
         384
         388
         392
         396
         400
         404
         408
         412
         416
         420
         424
         428
         432
         436
         440
         444
         448
         452
         456
         460
         464
         468
         472
         476
         480
         484
         488
         492
         496
         500
         504
         508
         512
         516
         520
         524
         528
         532
         536
         540
         544
         548
         552
         556
         560
         564
         568
         572
         576
         580
         584
         588
         592
         596
         600
         604
         608
         612
         616
         620
         624
         628
         632
         636
         640
         644
         648
         652
         656
         660
         664
         668
         672
         676
         680
         684
         688
         692
         696
         700
         704
         708
         712
         716
         720
         724
         728
         732
         736
         740
         744
         748
         752
         756
         760
         764
         768
         772
         776
         780
         784
         788
         792
         796
         800
         804
         808
         812
         816
         820
         824
         828
         832
         836
         840
         844
         848
         852
         856
         860
         864
         868
         872
         876
         880
         884
         888
         892
         896
         900
         904
         908
         912
         916
         920
         924
         928
         932
         936
         940
         944
         948
         952
         956
         960
         964
         968
         972
         976
         980
         984
         988
         992
         996
        1000
        1004
        1008
        1012
        1016
        1020
        1024
        1028
        1032
        1036
        1040
        1044
        1048
        1052
        1056
        1060
        1064
        1068
        1072
        1076
        1080
        1084
        1088
        1092
        1096
        1100
        1104
        1108
        1112
        1116
        1120
        1124
        1128
        1132
        1136
        1140
        1144
        1148
        1152
        1156
        1160
        1164
        1168
        1172
        1176
        1180
        1184
        1188
        1192
        1196
        1200
        1204
        1208
        1212
        1216
        1220
        1224
        1228
        1232
        1236
        1240
        1244
        1248
        1252
        1256
        1260
        1264
        1268
        1272
        1276
        1280
        1284
        1288
        1292
        1296
        1300
        1304
        1308
        1312
        1316
        1320
        1324
        1328
        1332
        1336
        1340
        1344
        1348
        1352
        1356
        1360
        1364
        1368
        1372
        1376
        1380
        1384
        1388
        1392
        1396
        1400
        1404
        1408
        1412
        1416
        1420
        1424
        1428
        1432
        1436
        1440
        1444
        1448
        1452
        1456
        1460
        1464
        1468
        1472
        1476
        1480
        1484
        1488
        1492
        1496
        1500
        1504
        1508
        1512
        1516
        1520
        1524
        1528
        1532
        1536
        1540
        1544
        1548
        1552
        1556
        1560
        1564
        1568
        1572
        1576
        1580
        1584
        1588
        1592
        1596
        1600
        1604
        1608
        1612
        1616
        1620
        1624
        1628
        1632
        1636
        1640
        1644
        1648
        1652
        1656
        1660
        1664
        1668
        1672
        1676
        1680
        1684
        1688
        1692
        1696
        1700
        1704
        1708
        1712
        1716
        1720
        1724
        1728
        1732
        1736
        1740
        1744
        1748
        1752
        1756
        1760
        1764
        1768
        1772
        1776
        1780
        1784
        1788
        1792
        1796
        1800
        1804
        1808
        1812
        1816
        1820
        1824
        1828
        1832
        1836
        1840
        1844
        1848
        1852
        1856
        1860
        1864
        1868
        1872
        1876
        1880
        1884
        1888
        1892
        1896
        1900
        1904
        1908
        1912
        1916
        1920
        1924
        1928
        1932
        1936
        1940
        1944
        1948
        1952
        1956
        1960
        1964
        1968
        1972
        1976
        1980
        1984
        1988
        1992
        1996
        2000
        2004
        2008
        2012
        2016
        2020
        2024
        2028
        2032
        2036
        2040
        2044
        2048
        2052
        2056
        2060
        2064
        2068
        2072
        2076
        2080
        2084
        2088
        2092
        2096
        2100
        2104
        2108
        2112
        2116
        2120
        2124
        2128
        2132
        2136
        2140
        2144
        2148
        2152
        2156
        2160
        2164
        2168
        2172
        2176
        2180
        2184
        2188
        2192
        2196
        2200
        2204
        2208
        2212
        2216
        2220
        2224
        2228
        2232
        2236
        2240
        2244
        2248
        2252
        2256
        2260
        2264
        2268
        2272
        2276
        2280
        2284
        2288
        2292
        2296
        2300
        2304
        2308
        2312
        2316
        2320
        2324
        2328
        2332
        2336
        2340
        2344
        2348
        2352
        2356
        2360
        2364
        2368
        2372
        2376
        2380
        2384
        2388
        2392
        2396
        2400
        2404
        2408
        2412
        2416
        2420
        2424
        2428
        2432
        2436
        2440
        2444
        2448
        2452
        2456
        2460
        2464
        2468
        2472
        2476
        2480
        2484
        2488
        2492
        2496
        2500
        2504
        2508
        2512
        2516
        2520
        2524
        2528
        2532
        2536
        2540
        2544
        2548
        2552
        2556
        2560
        2564
        2568
        2572
        2576
        2580
        2584
        2588
        2592
        2596
        2600
        2604
        2608
        2612
        2616
        2620
        2624
        2628
        2632
        2636
        2640
        2644
        2648
        2652
        2656
        2660
        2664
        2668
        2672
        2676
        2680
        2684
        2688
        2692
        2696
        2700
        2704
        2708
        2712
        2716
        2720
        2724
        2728
        2732
        2736
        2740
        2744
        2748
        2752
        2756
        2760
        2764
        2768
        2772
        2776
        2780
        2784
        2788
        2792
        2796
        2800
        2804
        2808
        2812
        2816
        2820
        2824
        2828
        2832
        2836
        2840
        2844
        2848
        2852
        2856
        2860
        2864
        2868
        2872
        2876
        2880
        2884
        2888
        2892
        2896
        2900
        2904
        2908
        2912
        2916
        2920
        2924
        2928
        2932
        2936
        2940
        2944
        2948
        2952
        2956
        2960
        2964
        2968
        2972
        2976
        2980
        2984
        2988
        2992
        2996
        3000
        3004
        3008
        3012
        3016
        3020
        3024
        3028
        3032
        3036
        3040
        3044
        3048
        3052
        3056
        3060
        3064
        3068
        3072
        3076
        3080
        3084
        3088
        3092
        3096
        3100
        3104
        3108
        3112
        3116
        3120
        3124
        3128
        3132
        3136
        3140
        3144
        3148
        3152
        3156
        3160
        3164
        3168
        3172
        3176
        3180
        3184
        3188
        3192
        3196
        3200
        3204
        3208
        3212
        3216
        3220
        3224
        3228
        3232
        3236
        3240
        3244
        3248
        3252
        3256
        3260
        3264
        3268
        3272
        3276
        3280
        3284
        3288
        3292
        3296
        3300
        3304
        3308
        3312
        3316
        3320
        3324
        3328
        3332
        3336
        3340
        3344
        3348
        3352
        3356
        3360
        3364
        3368
        3372
        3376
        3380
        3384
        3388
        3392
        3396
        3400
        3404
        3408
        3412
        3416
        3420
        3424
        3428
        3432
        3436
        3440
        3444
        3448
        3452
        3456
        3460
        3464
        3468
        3472
        3476
        3480
        3484
        3488
        3492
        3496
        3500
        3504
        3508
        3512
        3516
        3520
        3524
        3528
        3532
        3536
        3540
        3544
        3548
        3552
        3556
        3560
        3564
        3568
        3572
        3576
        3580
        3584
        3588
        3592
        3596
        3600
        3604
        3608
        3612
        3616
        3620
        3624
        3628
        3632
        3636
        3640
        3644
        3648
        3652
        3656
        3660
        3664
        3668
        3672
        3676
        3680
        3684
        3688
        3692
        3696
        3700
        3704
        3708
        3712
        3716
        3720
        3724
        3728
        3732
        3736
        3740
        3744
        3748
        3752
        3756
        3760
        3764
        3768
        3772
        3776
        3780
        3784
        3788
        3792
        3796
        3800
        3804
        3808
        3812
        3816
        3820
        3824
        3828
        3832
        3836
        3840
        3844
        3848
        3852
        3856
        3860
        3864
        3868
        3872
        3876
        3880
        3884
        3888
        3892
        3896
        3900
        3904
        3908
        3912
        3916
        3920
        3924
        3928
        3932
        3936
        3940
        3944
        3948
        3952
        3956
        3960
        3964
        3968
        3972
        3976
        3980
        3984
        3988
        3992
        3996
        4000
        4004
        4008
        4012
        4016
        4020
        4024
        4028
        4032
        4036
        4040
        4044
        4048
        4052
        4056
        4060
        4064
        4068
        4072
        4076
        4080
        4084
        4088
        4092
        4096
 </DataArray>
 <DataArray  type="UInt8"  Name="types"  format="ascii">
 9
 9
 9
 9
 9
 9
 9
 9
 9
 9
 9
 9
 9
 9
 9
 9
 9
 9
 9
 9
 9
 9
 9
 9
 9
 9
 9
 9
 9
 9
 9
 9
 9
 9
 9
 9
 9
 9
 9
 9
 9
 9
 9
 9
 9
 9
 9
 9
 9
 9
 9
 9
 9
 9
 9
 9
 9
 9
 9
 9
 9
 9
 9
 9
 9
 9
 9
 9
 9
 9
 9
 9
 9
 9
 9
 9
 9
 9
 9
 9
 9
 9
 9
 9
 9
 9
 9
 9
 9
 9
 9
 9
 9
 9
 9
 9
 9
 9
 9
 9
 9
 9
 9
 9
 9
 9
 9
 9
 9
 9
 9
 9
 9
 9
 9
 9
 9
 9
 9
 9
 9
 9
 9
 9
 9
 9
 9
 9
 9
 9
 9
 9
 9
 9
 9
 9
 9
 9
 9
 9
 9
 9
 9
 9
 9
 9
 9
 9
 9
 9
 9
 9
 9
 9
 9
 9
 9
 9
 9
 9
 9
 9
 9
 9
 9
 9
 9
 9
 9
 9
 9
 9
 9
 9
 9
 9
 9
 9
 9
 9
 9
 9
 9
 9
 9
 9
 9
 9
 9
 9
 9
 9
 9
 9
 9
 9
 9
 9
 9
 9
 9
 9
 9
 9
 9
 9
 9
 9
 9
 9
 9
 9
 9
 9
 9
 9
 9
 9
 9
 9
 9
 9
 9
 9
 9
 9
 9
 9
 9
 9
 9
 9
 9
 9
 9
 9
 9
 9
 9
 9
 9
 9
 9
 9
 9
 9
 9
 9
 9
 9
 9
 9
 9
 9
 9
 9
 9
 9
 9
 9
 9
 9
 9
 9
 9
 9
 9
 9
 9
 9
 9
 9
 9
 9
 9
 9
 9
 9
 9
 9
 9
 9
 9
 9
 9
 9
 9
 9
 9
 9
 9
 9
 9
 9
 9
 9
 9
 9
 9
 9
 9
 9
 9
 9
 9
 9
 9
 9
 9
 9
 9
 9
 9
 9
 9
 9
 9
 9
 9
 9
 9
 9
 9
 9
 9
 9
 9
 9
 9
 9
 9
 9
 9
 9
 9
 9
 9
 9
 9
 9
 9
 9
 9
 9
 9
 9
 9
 9
 9
 9
 9
 9
 9
 9
 9
 9
 9
 9
 9
 9
 9
 9
 9
 9
 9
 9
 9
 9
 9
 9
 9
 9
 9
 9
 9
 9
 9
 9
 9
 9
 9
 9
 9
 9
 9
 9
 9
 9
 9
 9
 9
 9
 9
 9
 9
 9
 9
 9
 9
 9
 9
 9
 9
 9
 9
 9
 9
 9
 9
 9
 9
 9
 9
 9
 9
 9
 9
 9
 9
 9
 9
 9
 9
 9
 9
 9
 9
 9
 9
 9
 9
 9
 9
 9
 9
 9
 9
 9
 9
 9
 9
 9
 9
 9
 9
 9
 9
 9
 9
 9
 9
 9
 9
 9
 9
 9
 9
 9
 9
 9
 9
 9
 9
 9
 9
 9
 9
 9
 9
 9
 9
 9
 9
 9
 9
 9
 9
 9
 9
 9
 9
 9
 9
 9
 9
 9
 9
 9
 9
 9
 9
 9
 9
 9
 9
 9
 9
 9
 9
 9
 9
 9
 9
 9
 9
 9
 9
 9
 9
 9
 9
 9
 9
 9
 9
 9
 9
 9
 9
 9
 9
 9
 9
 9
 9
 9
 9
 9
 9
 9
 9
 9
 9
 9
 9
 9
 9
 9
 9
 9
 9
 9
 9
 9
 9
 9
 9
 9
 9
 9
 9
 9
 9
 9
 9
 9
 9
 9
 9
 9
 9
 9
 9
 9
 9
 9
 9
 9
 9
 9
 9
 9
 9
 9
 9
 9
 9
 9
 9
 9
 9
 9
 9
 9
 9
 9
 9
 9
 9
 9
 9
 9
 9
 9
 9
 9
 9
 9
 9
 9
 9
 9
 9
 9
 9
 9
 9
 9
 9
 9
 9
 9
 9
 9
 9
 9
 9
 9
 9
 9
 9
 9
 9
 9
 9
 9
 9
 9
 9
 9
 9
 9
 9
 9
 9
 9
 9
 9
 9
 9
 9
 9
 9
 9
 9
 9
 9
 9
 9
 9
 9
 9
 9
 9
 9
 9
 9
 9
 9
 9
 9
 9
 9
 9
 9
 9
 9
 9
 9
 9
 9
 9
 9
 9
 9
 9
 9
 9
 9
 9
 9
 9
 9
 9
 9
 9
 9
 9
 9
 9
 9
 9
 9
 9
 9
 9
 9
 9
 9
 9
 9
 9
 9
 9
 9
 9
 9
 9
 9
 9
 9
 9
 9
 9
 9
 9
 9
 9
 9
 9
 9
 9
 9
 9
 9
 9
 9
 9
 9
 9
 9
 9
 9
 9
 9
 9
 9
 9
 9
 9
 9
 9
 9
 9
 9
 9
 9
 9
 9
 9
 9
 9
 9
 9
 9
 9
 9
 9
 9
 9
 9
 9
 9
 9
 9
 9
 9
 9
 9
 9
 9
 9
 9
 9
 9
 9
 9
 9
 9
 9
 9
 9
 9
 9
 9
 9
 9
 9
 9
 9
 9
 9
 9
 9
 9
 9
 9
 9
 9
 9
 9
 9
 9
 9
 9
 9
 9
 9
 9
 9
 9
 9
 9
 9
 9
 9
 9
 9
 9
 9
 9
 9
 9
 9
 9
 9
 9
 9
 9
 9
 9
 9
 9
 9
 9
 9
 9
 9
 9
 9
 9
 9
 9
 9
 9
 9
 9
 9
 9
 9
 9
 9
 9
 9
 9
 9
 9
 9
 9
 9
 9
 9
 9
 9
 9
 9
 9
 9
 9
 9
 9
 9
 9
 9
 9
 9
 9
 9
 9
 9
 9
 9
 9
 9
 9
 9
 9
 9
 9
 9
 9
 9
 9
 9
 9
 9
 9
 9
 9
 9
 9
 9
 9
 9
 9
 9
 9
 9
 9
 9
 9
 9
 9
 9
 9
 9
 9
 9
 9
 9
 9
 9
 9
 9
 9
 9
 9
 9
 9
 9
 9
 9
 9
 9
 9
 9
 9
 9
 9
 9
 9
 9
 9
 9
 9
 9
 9
 9
 9
 9
 9
 9
 9
 9
 9
 9
 9
 9
 9
 9
 9
 9
 9
 9
 9
 9
 9
 9
 9
 9
 9
 9
 9
 9
 9
 9
 9
 9
 9
 9
 9
 9
 9
 9
 9
 9
 9
 9
 9
 9
 9
 9
 9
 9
 9
 9
 9
 9
 9
 9
 9
 9
 9
 9
 9
 9
 9
 9
 9
 9
 9
 9
 9
 9
 9
 9
 9
 9
 9
 9
 9
 9
 9
 9
 </DataArray>
 </Cells> 
 <PointData>
 <DataArray  type="Float64" Name="disp" NumberOfComponents="3" format="ascii">
   0.0000000000000000        0.0000000000000000        0.0000000000000000     
   6.0960105123714099E-003   3.7904573234752727E-003   0.0000000000000000     
   1.1666087317207523E-002   7.3239078806555946E-003   0.0000000000000000     
   1.6710230414508340E-002   1.0600351671540964E-002   0.0000000000000000     
   2.1228439804273861E-002   1.3619788696131382E-002   0.0000000000000000     
   0.0000000000000000        0.0000000000000000        0.0000000000000000     
   4.8912035538547505E-003   3.0220742438020632E-003   0.0000000000000000     
   9.5736993360790584E-003   6.0604945014086841E-003   0.0000000000000000     
   1.4047487346672929E-002   9.1152607728198637E-003   0.0000000000000000     
   1.8312567585636357E-002   1.2186373058035598E-002   0.0000000000000000     
   0.0000000000000000        0.0000000000000000        0.0000000000000000     
   3.9536077525757808E-003   2.4250051989530169E-003   0.0000000000000000     
   7.9106587673044501E-003   5.0628103826609351E-003   0.0000000000000000     
   1.1871153044186006E-002   7.9134155511237543E-003   0.0000000000000000     
   1.5835090583220447E-002   1.0976820704341476E-002   0.0000000000000000     
   0.0000000000000000        0.0000000000000000        0.0000000000000000     
   3.2832231085345035E-003   1.9992501889281328E-003   0.0000000000000000     
   6.6769656108836943E-003   4.3308555244123467E-003   0.0000000000000000     
   1.0181227507047573E-002   6.9948160064526406E-003   0.0000000000000000     
   1.3796008797026138E-002   9.9911316350490172E-003   0.0000000000000000     
   0.0000000000000000        0.0000000000000000        0.0000000000000000     
   2.8800496217309167E-003   1.7448092137274120E-003   0.0000000000000000     
   5.8726198668167928E-003   3.8646299266629201E-003   0.0000000000000000     
   8.9777107352576289E-003   6.3594621388065233E-003   0.0000000000000000     
   1.2195322227053423E-002   9.2293058501582235E-003   0.0000000000000000     
   2.1228439804273861E-002   1.3619788696131382E-002   0.0000000000000000     
   2.5433518490693200E-002   1.6612778836027867E-002   0.0000000000000000     
   2.9538269477955466E-002   1.9809881972831424E-002   0.0000000000000000     
   3.3542692766060665E-002   2.3211098106542063E-002   0.0000000000000000     
   3.7446788355008795E-002   2.6816427237159782E-002   0.0000000000000000     
   1.8312567585636357E-002   1.2186373058035598E-002   0.0000000000000000     
   2.2407183621460811E-002   1.5341995998621905E-002   0.0000000000000000     
   2.6369579022637760E-002   1.8650294236144793E-002   0.0000000000000000     
   3.0199753789167203E-002   2.2111267770604268E-002   0.0000000000000000     
   3.3897707921049139E-002   2.5724916602000329E-002   0.0000000000000000     
   1.5835090583220447E-002   1.0976820704341476E-002   0.0000000000000000     
   1.9730771672824259E-002   1.4211599710233346E-002   0.0000000000000000     
   2.3486496601413918E-002   1.7576326436718612E-002   0.0000000000000000     
   2.7102265368989423E-002   2.1071000883797278E-002   0.0000000000000000     
   3.0578077975550771E-002   2.4695623051469339E-002   0.0000000000000000     
   1.3796008797026138E-002   9.9911316350490172E-003   0.0000000000000000     
   1.7404282644783539E-002   1.3221589970862190E-002   0.0000000000000000     
   2.0889022214283938E-002   1.6587978574552881E-002   0.0000000000000000     
   2.4250227505527317E-002   2.0090297446121088E-002   0.0000000000000000     
   2.7487898518513694E-002   2.3728546585566810E-002   0.0000000000000000     
   1.2195322227053423E-002   9.2293058501582235E-003   0.0000000000000000     
   1.5427716537338659E-002   1.2371966780508441E-002   0.0000000000000000     
   1.8577155861247821E-002   1.5685250649647601E-002   0.0000000000000000     
   2.1643640198780904E-002   1.9169157457575702E-002   0.0000000000000000     
   2.4627169549937912E-002   2.2823687204292748E-002   0.0000000000000000     
   3.7446788355008795E-002   2.6816427237159782E-002   0.0000000000000000     
   4.1255392536295031E-002   3.0621384901587313E-002   0.0000000000000000     
   4.4973341601414550E-002   3.4621486636727414E-002   0.0000000000000000     
   4.8600635550367359E-002   3.8816732442580076E-002   0.0000000000000000     
   5.2137274383153451E-002   4.3207122319145294E-002   0.0000000000000000     
   3.3897707921049139E-002   2.5724916602000329E-002   0.0000000000000000     
   3.7486616797680054E-002   2.9520598472430156E-002   0.0000000000000000     
   4.0989655798456454E-002   3.3527671123990944E-002   0.0000000000000000     
   4.4406824923378337E-002   3.7746134556682680E-002   0.0000000000000000     
   4.7738124172445696E-002   4.2175988770505379E-002   0.0000000000000000     
   3.0578077975550771E-002   2.4695623051469339E-002   0.0000000000000000     
   3.3943099765950953E-002   2.8495436149410139E-002   0.0000000000000000     
   3.7226496085042950E-002   3.2515683387295054E-002   0.0000000000000000     
   4.0428266932826779E-002   3.6756364765124047E-002   0.0000000000000000     
   4.3548412309302426E-002   4.1217480282897137E-002   0.0000000000000000     
   2.7487898518513694E-002   2.3728546585566810E-002   0.0000000000000000     
   3.0624841441107720E-002   2.7545897932527281E-002   0.0000000000000000     
   3.3683862461174045E-002   3.1585523426639728E-002   0.0000000000000000     
   3.6664961578712685E-002   3.5847423067904158E-002   0.0000000000000000     
   3.9568138793723617E-002   4.0331596856320574E-002   0.0000000000000000     
   2.4627169549937912E-002   2.2823687204292748E-002   0.0000000000000000     
   2.7531841823150351E-002   2.6671983821781570E-002   0.0000000000000000     
   3.0361754926849723E-002   3.0737191242024998E-002   0.0000000000000000     
   3.3116908861036042E-002   3.5019309465023032E-002   0.0000000000000000     
   3.5797303625709292E-002   3.9518338490775670E-002   0.0000000000000000     
   5.2137274383153451E-002   4.3207122319145294E-002   0.0000000000000000     
   5.5578179830258347E-002   4.7797065962599847E-002   0.0000000000000000     
   5.8918273622167575E-002   5.2590973069120486E-002   0.0000000000000000     
   6.2157555758881114E-002   5.7588843638707206E-002   0.0000000000000000     
   6.5296026240398986E-002   6.2790677671360012E-002   0.0000000000000000     
   4.7738124172445696E-002   4.2175988770505379E-002   0.0000000000000000     
   5.0979035326060948E-002   4.6809642204823435E-002   0.0000000000000000     
   5.4125040164626520E-002   5.1639503299001258E-002   0.0000000000000000     
   5.7176138688142378E-002   5.6665572053038848E-002   0.0000000000000000     
   6.0132330896608563E-002   6.1887848466936193E-002   0.0000000000000000     
   4.3548412309302426E-002   4.1217480282897137E-002   0.0000000000000000     
   4.6583493672730333E-002   4.5884933796114871E-002   0.0000000000000000     
   4.9530072481370938E-002   5.0744629160277784E-002   0.0000000000000000     
   5.2388148735224252E-002   5.5796566375385867E-002   0.0000000000000000     
   5.5157722434290270E-002   6.1040745441439156E-002   0.0000000000000000     
   3.9568138793723617E-002   4.0331596856320574E-002   0.0000000000000000     
   4.2391554870266468E-002   4.5022940736474143E-002   0.0000000000000000     
   4.5133370572400841E-002   4.9906350652950050E-002   0.0000000000000000     
   4.7793585900126723E-002   5.4981826605748303E-002   0.0000000000000000     
   5.0372200853444113E-002   6.0249368594868916E-002   0.0000000000000000     
   3.5797303625709292E-002   3.9518338490775670E-002   0.0000000000000000     
   3.8403218918669393E-002   4.4223663025901243E-002   0.0000000000000000     
   4.0934934437716224E-002   4.9124667777018065E-002   0.0000000000000000     
   4.3392450182849790E-002   5.4221352744126129E-002   0.0000000000000000     
   4.5775766154070099E-002   5.9513717927225450E-002   0.0000000000000000     
   6.5296026240398986E-002   6.2790677671360012E-002   0.0000000000000000     
   6.8340562337724217E-002   6.8182946028119043E-002   0.0000000000000000     
   7.1298041321859837E-002   7.3752119570024435E-002   0.0000000000000000     
   7.4168463192805886E-002   7.9498198297076217E-002   0.0000000000000000     
   7.6951827950562338E-002   8.5421182209274332E-002   0.0000000000000000     
   6.0132330896608563E-002   6.1887848466936193E-002   0.0000000000000000     
   6.2999530853446478E-002   6.7299170697140365E-002   0.0000000000000000     
   6.5783652622077596E-002   7.2892376900098435E-002   0.0000000000000000     
   6.8484696202501943E-002   7.8667467075810404E-002   0.0000000000000000     
   7.1102661594719452E-002   8.4624441224276287E-002   0.0000000000000000     
   5.5157722434290270E-002   6.1040745441439156E-002   0.0000000000000000     
   5.7843555701050292E-002   6.6473448497477924E-002   0.0000000000000000     
   6.0450410657985579E-002   7.2090957682542423E-002   0.0000000000000000     
   6.2978287305096151E-002   7.7893272996632720E-002   0.0000000000000000     
   6.5427185642382008E-002   8.3880394439748776E-002   0.0000000000000000     
   5.0372200853444113E-002   6.0249368594868916E-002   0.0000000000000000     
   5.2872636880535603E-002   6.5705779429131667E-002   0.0000000000000000     
   5.5298315429583751E-002   7.1347861917356398E-002   0.0000000000000000     
   5.7649236500588528E-002   7.7175616059543123E-002   0.0000000000000000     
   5.9925400093549991E-002   8.3189041855691828E-002   0.0000000000000000     
   4.5775766154070099E-002   5.9513717927225450E-002   0.0000000000000000     
   4.8086774391902440E-002   6.4996163492101647E-002   0.0000000000000000     
   5.0327366936872106E-002   7.0663089604540374E-002   0.0000000000000000     
   5.2497543788979098E-002   7.6514496264541640E-002   0.0000000000000000     
   5.4597304948223416E-002   8.2550383472105429E-002   0.0000000000000000     
   7.6951827950562338E-002   8.5421182209274332E-002   0.0000000000000000     
   7.9634203849087148E-002   9.1509584640756494E-002   0.0000000000000000     
   8.2201659142338276E-002   9.7751918925660375E-002   0.0000000000000000     
   8.4654193830315722E-002  0.10414818506398593        0.0000000000000000     
   8.6991807913019498E-002  0.11069838305573321        0.0000000000000000     
   7.1102661594719452E-002   8.4624441224276287E-002   0.0000000000000000     
   7.3621043091520386E-002   9.0747209303908782E-002   0.0000000000000000     
   7.6023334985694885E-002   9.7019681273120592E-002   0.0000000000000000     
   7.8309537277243005E-002  0.10344185713191176        0.0000000000000000     
   8.0479649966164718E-002  0.11001373688028224        0.0000000000000000     
   6.5427185642382008E-002   8.3880394439748776E-002   0.0000000000000000     
   6.7779834812261353E-002   9.0033348380666831E-002   0.0000000000000000     
   7.0018963957152458E-002   9.6333161188163097E-002   0.0000000000000000     
   7.2144573077055241E-002  0.10277983286223757        0.0000000000000000     
   7.4156662171969756E-002  0.10937336340289028        0.0000000000000000     
   5.9925400093549991E-002   8.3189041855691828E-002   0.0000000000000000     
   6.2110579011310119E-002   8.9368001871030681E-002   0.0000000000000000     
   6.4188546056710941E-002   9.5692358670787875E-002   0.0000000000000000     
   6.6159301229752429E-002  0.10216211225496341        0.0000000000000000     
   6.8022844530434612E-002  0.10877726262355727        0.0000000000000000     
   5.4597304948223416E-002   8.2550383472105429E-002   0.0000000000000000     
   5.6613275688666635E-002   8.8751169775000333E-002   0.0000000000000000     
   5.8532081284370353E-002   9.5097273720994940E-002   0.0000000000000000     
   6.0353721735334584E-002  0.10158869531008925        0.0000000000000000     
   6.2078197041559306E-002  0.10822543454228328        0.0000000000000000     
   8.6991807913019498E-002  0.11069838305573321        0.0000000000000000     
   8.9246682386992529E-002  0.11740768851046185        0.0000000000000000     
   9.1450998248777782E-002  0.12428127703773151        0.0000000000000000     
   9.3604755498375256E-002  0.13131914863754224        0.0000000000000000     
   9.5707954135784964E-002  0.13852130330989396        0.0000000000000000     
   8.0479649966164718E-002  0.11001373688028224        0.0000000000000000     
   8.2579869478271714E-002  0.11674148972596771        0.0000000000000000     
   8.4656392239375683E-002  0.12363128487670379        0.0000000000000000     
   8.6709218249476638E-002  0.13068312233249046        0.0000000000000000     
   8.8738347508574567E-002  0.13789700209332775        0.0000000000000000     
   7.4156662171969756E-002  0.10937336340289028        0.0000000000000000     
   7.6108253066673903E-002  0.11612093306010267        0.0000000000000000     
   7.8052367585945678E-002  0.12302972208385622        0.0000000000000000     
   7.9989005729785012E-002  0.13009973047415097        0.0000000000000000     
   8.1918167498191932E-002  0.13733095823098690        0.0000000000000000     
   6.8022844530434612E-002  0.10877726262355727        0.0000000000000000     
   6.9831833152199166E-002  0.11554601851286671        0.0000000000000000     
   7.1638924288487754E-002  0.12247658865918883        0.0000000000000000     
   7.3444117939300377E-002  0.12956897306252368        0.0000000000000000     
   7.5247414104637089E-002  0.13682317172287128        0.0000000000000000     
   6.2078197041559306E-002  0.10822543454228328        0.0000000000000000     
   6.3750609734847447E-002  0.11501674608425980        0.0000000000000000     
   6.5416062347001952E-002  0.12197188460270157        0.0000000000000000     
   6.7074554878022802E-002  0.12909085009760865        0.0000000000000000     
   6.8726087327909996E-002  0.13637364256898105        0.0000000000000000     
   9.5707954135784964E-002  0.13852130330989396        0.0000000000000000     
   9.7723577804727027E-002  0.14582436323456827        0.0000000000000000     
   9.9614610148921603E-002  0.15316495059134669        0.0000000000000000     
  0.10138105116836869       0.16054306538022922        0.0000000000000000     
  0.10302290086306827       0.16795870760121581        0.0000000000000000     
   8.8738347508574567E-002  0.13789700209332775        0.0000000000000000     
   9.0669405410234855E-002  0.14522181124672176        0.0000000000000000     
   9.2428017348022834E-002  0.15260643688017861        0.0000000000000000     
   9.4014183321938588E-002  0.16005087899369821        0.0000000000000000     
   9.5427903331982047E-002  0.16755513758728069        0.0000000000000000     
   8.1918167498191932E-002  0.13733095823098690        0.0000000000000000     
   8.3745078316141017E-002  0.14467943558696952        0.0000000000000000     
   8.5374963608606899E-002  0.15210119277470449        0.0000000000000000     
   8.6807823375589510E-002  0.15959622979419177        0.0000000000000000     
   8.8043657617088905E-002  0.16716454664543137        0.0000000000000000     
   7.5247414104637089E-002  0.13682317172287128        0.0000000000000000     
   7.6950596522445583E-002  0.14419723625531156        0.0000000000000000     
   7.8455448930673716E-002  0.15164921827492439        0.0000000000000000     
   7.9761971329321488E-002  0.15917911778170979        0.0000000000000000     
   8.0870163718388871E-002  0.16678693477566783        0.0000000000000000     
   6.8726087327909996E-002  0.13637364256898105        0.0000000000000000     
   7.0285960029148539E-002  0.14377521325174786        0.0000000000000000     
   7.1669473314223353E-002  0.15125051338083831        0.0000000000000000     
   7.2876627183134479E-002  0.15879954295625234        0.0000000000000000     
   7.3907421635881904E-002  0.16642230197799004        0.0000000000000000     
   0.0000000000000000        0.0000000000000000        0.0000000000000000     
   2.8800496217309167E-003   1.7448092137274120E-003   0.0000000000000000     
   5.8726198668167928E-003   3.8646299266629201E-003   0.0000000000000000     
   8.9777107352576289E-003   6.3594621388065233E-003   0.0000000000000000     
   1.2195322227053423E-002   9.2293058501582235E-003   0.0000000000000000     
   0.0000000000000000        0.0000000000000000        0.0000000000000000     
   2.6102661658068860E-003   1.5889751179624031E-003   0.0000000000000000     
   5.2896617768989750E-003   3.5567700959141476E-003   0.0000000000000000     
   8.0381868332762667E-003   5.9033849338552338E-003   0.0000000000000000     
   1.0855841334938761E-002   8.6288196317856596E-003   0.0000000000000000     
   0.0000000000000000        0.0000000000000000        0.0000000000000000     
   2.3400516144042776E-003   1.4590407462446563E-003   0.0000000000000000     
   4.7201315829254707E-003   3.2999125386675250E-003   0.0000000000000000     
   7.1402399055635786E-003   5.5226153772686059E-003   0.0000000000000000     
   9.6003765823186021E-003   8.1271492620479009E-003   0.0000000000000000     
   0.0000000000000000        0.0000000000000000        0.0000000000000000     
   2.0694059675230910E-003   1.3550060985741709E-003   0.0000000000000000     
   4.1640292848962781E-003   3.0940572549230513E-003   0.0000000000000000     
   6.2838699521195656E-003   5.2171534690466405E-003   0.0000000000000000     
   8.4289279691929491E-003   7.7242947409449387E-003   0.0000000000000000     
   0.0000000000000000        0.0000000000000000        0.0000000000000000     
   1.7983292251633257E-003   1.2768711749509478E-003   0.0000000000000000     
   3.6213548828114006E-003   2.9392042446807266E-003   0.0000000000000000     
   5.4690769729442250E-003   4.9869992091893375E-003   0.0000000000000000     
   7.3414954955617999E-003   7.4202560684767790E-003   0.0000000000000000     
   1.2195322227053423E-002   9.2293058501582235E-003   0.0000000000000000     
   1.5427716537338659E-002   1.2371966780508441E-002   0.0000000000000000     
   1.8577155861247821E-002   1.5685250649647601E-002   0.0000000000000000     
   2.1643640198780904E-002   1.9169157457575702E-002   0.0000000000000000     
   2.4627169549937912E-002   2.2823687204292748E-002   0.0000000000000000     
   1.0855841334938761E-002   8.6288196317856596E-003   0.0000000000000000     
   1.3689213034779213E-002   1.1650808026715207E-002   0.0000000000000000     
   1.6484889685690382E-002   1.4887083955653651E-002   0.0000000000000000     
   1.9242871287672273E-002   1.8337647418600989E-002   0.0000000000000000     
   2.1963157840724879E-002   2.2002498415557230E-002   0.0000000000000000     
   9.6003765823186021E-003   8.1271492620479009E-003   0.0000000000000000     
   1.2076911821394804E-002   1.1046191597025601E-002   0.0000000000000000     
   1.4546215830996446E-002   1.4212419786221907E-002   0.0000000000000000     
   1.7008288611123530E-002   1.7625833829636815E-002   0.0000000000000000     
   1.9463130161776056E-002   2.1286433727270331E-002   0.0000000000000000     
   8.4289279691929491E-003   7.7242947409449387E-003   0.0000000000000000     
   1.0590812897185432E-002   1.0558117491439624E-002   0.0000000000000000     
   1.2761134297166004E-002   1.3661258141352372E-002   0.0000000000000000     
   1.4939892169134677E-002   1.7033716690683182E-002   0.0000000000000000     
   1.7127086513091444E-002   2.0675493139432059E-002   0.0000000000000000     
   7.3414954955617999E-003   7.4202560684767790E-003   0.0000000000000000     
   9.2309162621510912E-003   1.0186585709957275E-002   0.0000000000000000     
   1.1129645084199063E-002   1.3233599021045046E-002   0.0000000000000000     
   1.3037681961705712E-002   1.6561296001740094E-002   0.0000000000000000     
   1.4955026894671045E-002   2.0169676652042414E-002   0.0000000000000000     
   2.4627169549937912E-002   2.2823687204292748E-002   0.0000000000000000     
   2.7531841823150351E-002   2.6671983821781570E-002   0.0000000000000000     
   3.0361754926849723E-002   3.0737191242024998E-002   0.0000000000000000     
   3.3116908861036042E-002   3.5019309465023032E-002   0.0000000000000000     
   3.5797303625709292E-002   3.9518338490775670E-002   0.0000000000000000     
   2.1963157840724879E-002   2.2002498415557230E-002   0.0000000000000000     
   2.4629352768355275E-002   2.5879793407927492E-002   0.0000000000000000     
   2.7225059494070551E-002   2.9967688857116911E-002   0.0000000000000000     
   2.9750278017870689E-002   3.4266184763125485E-002   0.0000000000000000     
   3.2205008339755703E-002   3.8775281125953194E-002   0.0000000000000000     
   1.9463130161776056E-002   2.1286433727270331E-002   0.0000000000000000     
   2.1882626132998934E-002   2.5175426281719544E-002   0.0000000000000000     
   2.4238662174837066E-002   2.9274018295581544E-002   0.0000000000000000     
   2.6531238287290461E-002   3.3582209768856328E-002   0.0000000000000000     
   2.8760354470359108E-002   3.8100000701543901E-002   0.0000000000000000     
   1.7127086513091444E-002   2.0675493139432059E-002   0.0000000000000000     
   1.9291661917081315E-002   2.4558882443157723E-002   0.0000000000000000     
   2.1402562969149275E-002   2.8656179557418900E-002   0.0000000000000000     
   2.3459789669295343E-002   3.2967384482215575E-002   0.0000000000000000     
   2.5463342017519510E-002   3.7492497217547771E-002   0.0000000000000000     
   1.4955026894671045E-002   2.0169676652042414E-002   0.0000000000000000     
   1.6856460120602417E-002   2.4030161892242032E-002   0.0000000000000000     
   1.8716761877007188E-002   2.8114172642628974E-002   0.0000000000000000     
   2.0535932163885350E-002   3.2421708903203242E-002   0.0000000000000000     
   2.2313970981236914E-002   3.6952770673964824E-002   0.0000000000000000     
   3.5797303625709292E-002   3.9518338490775670E-002   0.0000000000000000     
   3.8403218918669393E-002   4.4223663025901243E-002   0.0000000000000000     
   4.0934934437716224E-002   4.9124667777018065E-002   0.0000000000000000     
   4.3392450182849790E-002   5.4221352744126129E-002   0.0000000000000000     
   4.5775766154070099E-002   5.9513717927225450E-002   0.0000000000000000     
   3.2205008339755703E-002   3.8775281125953194E-002   0.0000000000000000     
   3.4591102959246452E-002   4.3489895092161064E-002   0.0000000000000000     
   3.6910414375863808E-002   4.8404943808310057E-002   0.0000000000000000     
   3.9162942589607765E-002   5.3520427274400192E-002   0.0000000000000000     
   4.1348687600478322E-002   5.8836345490431430E-002   0.0000000000000000     
   2.8760354470359108E-002   3.8100000701543901E-002   0.0000000000000000     
   3.0927824133305054E-002   4.2824431363018473E-002   0.0000000000000000     
   3.3035460685390337E-002   4.7752542022654276E-002   0.0000000000000000     
   3.5083264126614958E-002   5.2884332680451299E-002   0.0000000000000000     
   3.7071234456978915E-002   5.8219803336409533E-002   0.0000000000000000     
   2.5463342017519510E-002   3.7492497217547771E-002   0.0000000000000000     
   2.7413382440845201E-002   4.2227271838473482E-002   0.0000000000000000     
   2.9310073366295812E-002   4.7167462420050710E-002   0.0000000000000000     
   3.1153414793871369E-002   5.2313068962279469E-002   0.0000000000000000     
   3.2943406723571850E-002   5.7664091465159752E-002   0.0000000000000000     
   2.2313970981236914E-002   3.6952770673964824E-002   0.0000000000000000     
   2.4047777881866874E-002   4.1698416518526085E-002   0.0000000000000000     
   2.5734252418580236E-002   4.6649705000499385E-002   0.0000000000000000     
   2.7373394591376988E-002   5.1806636119884716E-002   0.0000000000000000     
   2.8965204400257141E-002   5.7169209876682087E-002   0.0000000000000000     
   4.5775766154070099E-002   5.9513717927225450E-002   0.0000000000000000     
   4.8086774391902440E-002   6.4996163492101647E-002   0.0000000000000000     
   5.0327366936872106E-002   7.0663089604540374E-002   0.0000000000000000     
   5.2497543788979098E-002   7.6514496264541640E-002   0.0000000000000000     
   5.4597304948223416E-002   8.2550383472105429E-002   0.0000000000000000     
   4.1348687600478322E-002   5.8836345490431430E-002   0.0000000000000000     
   4.3468205587210339E-002   6.4343876813184167E-002   0.0000000000000000     
   4.5522052728538653E-002   7.0034199599438671E-002   0.0000000000000000     
   4.7510229024463259E-002   7.5907313849194968E-002   0.0000000000000000     
   4.9432734474984176E-002   8.1963219562453088E-002   0.0000000000000000     
   3.7071234456978915E-002   5.8219803336409533E-002   0.0000000000000000     
   3.8999167818518837E-002   6.3748195519175474E-002   0.0000000000000000     
   4.0866860353271355E-002   6.9458750757395576E-002   0.0000000000000000     
   4.2674312061236487E-002   7.5351469051069847E-002   0.0000000000000000     
   4.4421522942414200E-002   8.1426350400198300E-002   0.0000000000000000     
   3.2943406723571850E-002   5.7664091465159752E-002   0.0000000000000000     
   3.4679661085827922E-002   6.3209119610075623E-002   0.0000000000000000     
   3.6361789811070223E-002   6.8936743078411133E-002   0.0000000000000000     
   3.7989792899298741E-002   7.4846961870166276E-002   0.0000000000000000     
   3.9563670350513495E-002   8.0939775985341064E-002   0.0000000000000000     
   2.8965204400257141E-002   5.7169209876682087E-002   0.0000000000000000     
   3.0509685389137592E-002   6.2726649085884573E-002   0.0000000000000000     
   3.2006841101935225E-002   6.8468176562485300E-002   0.0000000000000000     
   3.3456671538650049E-002   7.4393792306484213E-002   0.0000000000000000     
   3.4859176699282055E-002   8.0503496317881368E-002   0.0000000000000000     
   5.4597304948223416E-002   8.2550383472105429E-002   0.0000000000000000     
   5.6613275688666635E-002   8.8751169775000333E-002   0.0000000000000000     
   5.8532081284370353E-002   9.5097273720994940E-002   0.0000000000000000     
   6.0353721735334584E-002  0.10158869531008925        0.0000000000000000     
   6.2078197041559306E-002  0.10822543454228328        0.0000000000000000     
   4.9432734474984176E-002   8.1963219562453088E-002   0.0000000000000000     
   5.1279332789850703E-002   8.8183361715777925E-002   0.0000000000000000     
   5.3039787678812178E-002   9.4549185285734430E-002   0.0000000000000000     
   5.4714099141868616E-002  0.10106069027232260        0.0000000000000000     
   5.6302267179019989E-002  0.10771787667554247        0.0000000000000000     
   4.4421522942414200E-002   8.1426350400198300E-002   0.0000000000000000     
   4.6100158260382149E-002   8.7665087316565610E-002   0.0000000000000000     
   4.7701883278717903E-002   9.4049372311956481E-002   0.0000000000000000     
   4.9226697997421472E-002  0.10057920538637097        0.0000000000000000     
   5.0674602416492867E-002  0.10725458653980899        0.0000000000000000     
   3.9563670350513495E-002   8.0939775985341064E-002   0.0000000000000000     
   4.1075752100260925E-002   8.7196346577363373E-002   0.0000000000000000     
   4.2518368084087474E-002   9.3597834799661120E-002   0.0000000000000000     
   4.3891518301993143E-002  0.10014424065223429        0.0000000000000000     
   4.5195202753977926E-002  0.10683556413508292        0.0000000000000000     
   3.4859176699282055E-002   8.0503496317881368E-002   0.0000000000000000     
   3.6206114309487079E-002   8.6777139498171244E-002   0.0000000000000000     
   3.7489242094920938E-002   9.3194572748848348E-002   0.0000000000000000     
   3.8708560055583638E-002   9.9755796069912667E-002   0.0000000000000000     
   3.9864068191475172E-002  0.10646080946136421        0.0000000000000000     
   6.2078197041559306E-002  0.10822543454228328        0.0000000000000000     
   6.3750609734847447E-002  0.11501674608425980        0.0000000000000000     
   6.5416062347001952E-002  0.12197188460270157        0.0000000000000000     
   6.7074554878022802E-002  0.12909085009760865        0.0000000000000000     
   6.8726087327909996E-002  0.13637364256898105        0.0000000000000000     
   5.6302267179019989E-002  0.10771787667554247        0.0000000000000000     
   5.7839817530412958E-002  0.11453117583909896        0.0000000000000000     
   5.9362275936194191E-002  0.12151101910669715        0.0000000000000000     
   6.0869642396363673E-002  0.12865740647833701        0.0000000000000000     
   6.2361916910921397E-002  0.13597033795401856        0.0000000000000000     
   5.0674602416492867E-002  0.10725458653980899        0.0000000000000000     
   5.2074691254689907E-002  0.11408736784220119        0.0000000000000000     
   5.3456059230770438E-002  0.12108940136347815        0.0000000000000000     
   5.4818706344734458E-002  0.12826068710363986        0.0000000000000000     
   5.6162632596581955E-002  0.13560122506268629        0.0000000000000000     
   4.5195202753977926E-002  0.10683556413508292        0.0000000000000000     
   4.6455230907678294E-002  0.11368532209356648        0.0000000000000000     
   4.7697412230730700E-002  0.12070703137304457        0.0000000000000000     
   4.8921746723135165E-002  0.12790069197351714        0.0000000000000000     
   5.0128234384891675E-002  0.13526630389498426        0.0000000000000000     
   3.9864068191475172E-002  0.10646080946136421        0.0000000000000000     
   4.0981436489378097E-002  0.11332503859319486        0.0000000000000000     
   4.2086334936074971E-002  0.12036390913539644        0.0000000000000000     
   4.3178763531565786E-002  0.12757742108796896        0.0000000000000000     
   4.4258722275850551E-002  0.13496557445091245        0.0000000000000000     
   6.8726087327909996E-002  0.13637364256898105        0.0000000000000000     
   7.0285960029148539E-002  0.14377521325174786        0.0000000000000000     
   7.1669473314223353E-002  0.15125051338083831        0.0000000000000000     
   7.2876627183134479E-002  0.15879954295625234        0.0000000000000000     
   7.3907421635881904E-002  0.16642230197799004        0.0000000000000000     
   6.2361916910921397E-002  0.13597033795401856        0.0000000000000000     
   6.3773280747763908E-002  0.14339953904645858        0.0000000000000000     
   6.5037915174787742E-002  0.15089473526837396        0.0000000000000000     
   6.6155820191992870E-002  0.15845592661976471        0.0000000000000000     
   6.7126995799379308E-002  0.16608311310063079        0.0000000000000000     
   5.6162632596581955E-002  0.13560122506268629        0.0000000000000000     
   5.7434670589805788E-002  0.14305638610962393        0.0000000000000000     
   5.8581652927898797E-002  0.15057154111345925        0.0000000000000000     
   5.9603579610860997E-002  0.15814669007419219        0.0000000000000000     
   6.0500450638692374E-002  0.16578183299182278        0.0000000000000000     
   5.0128234384891675E-002  0.13526630389498426        0.0000000000000000     
   5.1270129555274158E-002  0.14274575444124385        0.0000000000000000     
   5.2300686573556555E-002  0.15028093091609407        0.0000000000000000     
   5.3219905439738854E-002  0.15787183331953480        0.0000000000000000     
   5.4027786153821068E-002  0.16551846165156608        0.0000000000000000     
   4.4258722275850551E-002  0.13496557445091245        0.0000000000000000     
   4.5279657644169025E-002  0.14246764404131843        0.0000000000000000     
   4.6195016111761009E-002  0.15002290467627849        0.0000000000000000     
   4.7004797678626462E-002  0.15763135635579253        0.0000000000000000     
   4.7709002344765411E-002  0.16529299907986061        0.0000000000000000     
   0.0000000000000000        0.0000000000000000        0.0000000000000000     
   1.7983292251633257E-003   1.2768711749509478E-003   0.0000000000000000     
   3.6213548828114006E-003   2.9392042446807266E-003   0.0000000000000000     
   5.4690769729442250E-003   4.9869992091893375E-003   0.0000000000000000     
   7.3414954955617999E-003   7.4202560684767790E-003   0.0000000000000000     
   0.0000000000000000        0.0000000000000000        0.0000000000000000     
   1.5350696154582191E-003   1.2175496025848163E-003   0.0000000000000000     
   3.0994333295741852E-003   2.8208714245259742E-003   0.0000000000000000     
   4.6930911423478990E-003   4.8099654658234738E-003   0.0000000000000000     
   6.3160430537793589E-003   7.1848317264773150E-003   0.0000000000000000     
   0.0000000000000000        0.0000000000000000        0.0000000000000000     
   1.2878753665410076E-003   1.1699550086856077E-003   0.0000000000000000     
   2.6055895780879813E-003   2.7245767110442168E-003   0.0000000000000000     
   3.9531426346409212E-003   4.6638651070758270E-003   0.0000000000000000     
   5.3305345361998263E-003   6.9878201967804371E-003   0.0000000000000000     
   0.0000000000000000        0.0000000000000000        0.0000000000000000     
   1.0567464784116908E-003   1.1340873932533220E-003   0.0000000000000000     
   2.1398236283527881E-003   2.6503201042354539E-003   0.0000000000000000     
   3.2492314498232915E-003   4.5486981329463947E-003   0.0000000000000000     
   4.3849699428232013E-003   6.8292214793861470E-003   0.0000000000000000     
   0.0000000000000000        0.0000000000000000        0.0000000000000000     
   8.4168295107026937E-004   1.1099467562879590E-003   0.0000000000000000     
   1.7021354803686069E-003   2.5981016040996859E-003   0.0000000000000000     
   2.5813575878950120E-003   4.4644645434351810E-003   0.0000000000000000     
   3.4793492736494851E-003   6.7090355742944457E-003   0.0000000000000000     
   7.3414954955617999E-003   7.4202560684767790E-003   0.0000000000000000     
   9.2309162621510912E-003   1.0186585709957275E-002   0.0000000000000000     
   1.1129645084199063E-002   1.3233599021045046E-002   0.0000000000000000     
   1.3037681961705712E-002   1.6561296001740094E-002   0.0000000000000000     
   1.4955026894671045E-002   2.0169676652042414E-002   0.0000000000000000     
   6.3160430537793589E-003   7.1848317264773150E-003   0.0000000000000000     
   7.9556294992659347E-003   9.8958786299972491E-003   0.0000000000000000     
   9.5991909142049935E-003   1.2893514599893029E-002   0.0000000000000000     
   1.1246727298596538E-002   1.6177739636164656E-002   0.0000000000000000     
   1.2898238652440563E-002   1.9748553738812128E-002   0.0000000000000000     
   5.3305345361998263E-003   6.9878201967804371E-003   0.0000000000000000     
   6.7233601915041097E-003   9.6502786289782393E-003   0.0000000000000000     
   8.1172145092931851E-003   1.2605077052489424E-002   0.0000000000000000     
   9.5120974895670507E-003   1.5852215467313989E-002   0.0000000000000000     
   1.0908009132325706E-002   1.9391693873451937E-002   0.0000000000000000     
   4.3849699428232013E-003   6.8292214793861470E-003   0.0000000000000000     
   5.5341083388656155E-003   9.4497857069002471E-003   0.0000000000000000     
   6.6837158694636328E-003   1.2368286378834229E-002   0.0000000000000000     
   7.8337925346172541E-003   1.5584723495188094E-002   0.0000000000000000     
   8.9843383343264759E-003   1.9099097055961845E-002   0.0000000000000000     
   3.4793492736494851E-003   6.7090355742944457E-003   0.0000000000000000     
   4.3878739413504512E-003   9.2943998637632710E-003   0.0000000000000000     
   5.2986949947163384E-003   1.2183142578927447E-002   0.0000000000000000     
   6.2118124337471447E-003   1.5375263719786975E-002   0.0000000000000000     
   7.1272262584428699E-003   1.8870763286341852E-002   0.0000000000000000     
   1.4955026894671045E-002   2.0169676652042414E-002   0.0000000000000000     
   1.6856460120602417E-002   2.4030161892242032E-002   0.0000000000000000     
   1.8716761877007188E-002   2.8114172642628974E-002   0.0000000000000000     
   2.0535932163885350E-002   3.2421708903203242E-002   0.0000000000000000     
   2.2313970981236914E-002   3.6952770673964824E-002   0.0000000000000000     
   1.2898238652440563E-002   1.9748553738812128E-002   0.0000000000000000     
   1.4537337735708976E-002   2.3579918373805488E-002   0.0000000000000000     
   1.6147637308373677E-002   2.7645795007114778E-002   0.0000000000000000     
   1.7729137370434675E-002   3.1946183638740001E-002   0.0000000000000000     
   1.9281837921891958E-002   3.6481084268681171E-002   0.0000000000000000     
   1.0908009132325706E-002   1.9391693873451937E-002   0.0000000000000000     
   1.2294611754547720E-002   2.3198805632681101E-002   0.0000000000000000     
   1.3661567673211654E-002   2.7248844106779323E-002   0.0000000000000000     
   1.5008876888317509E-002   3.1541809295746591E-002   0.0000000000000000     
   1.6336539399865287E-002   3.6077701199582909E-002   0.0000000000000000     
   8.9843383343264759E-003   1.9099097055961845E-002   0.0000000000000000     
   1.0128282177118645E-002   2.2886823668868878E-002   0.0000000000000000     
   1.1258552971521108E-002   2.6923319941622594E-002   0.0000000000000000     
   1.2375150717533864E-002   3.1208585874222993E-002   0.0000000000000000     
   1.3478075415156913E-002   3.5742621466670080E-002   0.0000000000000000     
   7.1272262584428699E-003   1.8870763286341852E-002   0.0000000000000000     
   8.0383490034217561E-003   2.2643972482368817E-002   0.0000000000000000     
   8.9385932033020435E-003   2.6669222511644608E-002   0.0000000000000000     
   9.8279588580837303E-003   3.0946513374169218E-002   0.0000000000000000     
   1.0706445967766820E-002   3.5475845069942648E-002   0.0000000000000000     
   2.2313970981236914E-002   3.6952770673964824E-002   0.0000000000000000     
   2.4047777881866874E-002   4.1698416518526085E-002   0.0000000000000000     
   2.5734252418580236E-002   4.6649705000499385E-002   0.0000000000000000     
   2.7373394591376988E-002   5.1806636119884716E-002   0.0000000000000000     
   2.8965204400257141E-002   5.7169209876682087E-002   0.0000000000000000     
   1.9281837921891958E-002   3.6481084268681171E-002   0.0000000000000000     
   2.0799417104010003E-002   4.1236007714631165E-002   0.0000000000000000     
   2.2275553058053288E-002   4.6196464794282931E-002   0.0000000000000000     
   2.3710245784021797E-002   5.1362455507636476E-002   0.0000000000000000     
   2.5103495281915546E-002   5.6733979854691759E-002   0.0000000000000000     
   1.6336539399865287E-002   3.6077701199582909E-002   0.0000000000000000     
   1.7636706754914504E-002   4.0838187738243617E-002   0.0000000000000000     
   1.8901530500524660E-002   4.5804936831684039E-002   0.0000000000000000     
   2.0131010636695760E-002   5.0977948479904181E-002   0.0000000000000000     
   2.1325147163427798E-002   5.6357222682904017E-002   0.0000000000000000     
   1.3478075415156913E-002   3.5742621466670080E-002   0.0000000000000000     
   1.4559646834580369E-002   4.0504956589363442E-002   0.0000000000000000     
   1.5612184745994354E-002   4.5475121112702695E-002   0.0000000000000000     
   1.6635689149398870E-002   5.0653115036687839E-002   0.0000000000000000     
   1.7630160044793914E-002   5.6038938361318874E-002   0.0000000000000000     
   1.0706445967766820E-002   3.5475845069942648E-002   0.0000000000000000     
   1.1568237343007604E-002   4.0236314267990639E-002   0.0000000000000000     
   1.2407515794462375E-002   4.5207017637338906E-002   0.0000000000000000     
   1.3224281322131133E-002   5.0387955177987463E-002   0.0000000000000000     
   1.4018533926013880E-002   5.5779126889936297E-002   0.0000000000000000     
   2.8965204400257141E-002   5.7169209876682087E-002   0.0000000000000000     
   3.0509685389137592E-002   6.2726649085884573E-002   0.0000000000000000     
   3.2006841101935225E-002   6.8468176562485300E-002   0.0000000000000000     
   3.3456671538650049E-002   7.4393792306484213E-002   0.0000000000000000     
   3.4859176699282055E-002   8.0503496317881368E-002   0.0000000000000000     
   2.5103495281915546E-002   5.6733979854691759E-002   0.0000000000000000     
   2.6455810398416369E-002   6.2301218384527859E-002   0.0000000000000000     
   2.7767699980206111E-002   6.8054351646223823E-002   0.0000000000000000     
   2.9039164027284778E-002   7.3993379639779672E-002   0.0000000000000000     
   3.0270202539652364E-002   8.0118302365195362E-002   0.0000000000000000     
   2.1325147163427798E-002   5.6357222682904017E-002   0.0000000000000000     
   2.2484605783632754E-002   6.1933261943930999E-002   0.0000000000000000     
   2.3610052200222588E-002   6.7696568766232521E-002   0.0000000000000000     
   2.4701486413197301E-002   7.3647143149808553E-002   0.0000000000000000     
   2.5758908422556896E-002   7.9784985094659172E-002   0.0000000000000000     
   1.7630160044793914E-002   5.6038938361318874E-002   0.0000000000000000     
   1.8596071544786756E-002   6.1622779764093971E-002   0.0000000000000000     
   1.9533897761984657E-002   6.7394827922511308E-002   0.0000000000000000     
   2.0443638696387628E-002   7.3355082836570926E-002   0.0000000000000000     
   2.1325294347995658E-002   7.9503544506272769E-002   0.0000000000000000     
   1.4018533926013880E-002   5.5779126889936297E-002   0.0000000000000000     
   1.4790207681878357E-002   6.1369771845016789E-002   0.0000000000000000     
   1.5539236665492312E-002   6.7149129115060255E-002   0.0000000000000000     
   1.6265620876855742E-002   7.3117198700066735E-002   0.0000000000000000     
   1.6969360315968650E-002   7.9273980600036181E-002   0.0000000000000000     
   3.4859176699282055E-002   8.0503496317881368E-002   0.0000000000000000     
   3.6206114309487079E-002   8.6777139498171244E-002   0.0000000000000000     
   3.7489242094920938E-002   9.3194572748848348E-002   0.0000000000000000     
   3.8708560055583638E-002   9.9755796069912667E-002   0.0000000000000000     
   3.9864068191475172E-002  0.10646080946136421        0.0000000000000000     
   3.0270202539652364E-002   8.0118302365195362E-002   0.0000000000000000     
   3.1451810439461374E-002   8.6407458523957564E-002   0.0000000000000000     
   3.2574982648864312E-002   9.2839186817552946E-002   0.0000000000000000     
   3.3639719167861189E-002   9.9413487245981466E-002   0.0000000000000000     
   3.4646019996452004E-002  0.10613035980924318        0.0000000000000000     
   2.5758908422556896E-002   7.9784985094659172E-002   0.0000000000000000     
   2.6773406041584600E-002   8.6087296099690749E-002   0.0000000000000000     
   2.7736067083563656E-002   9.2531277663809780E-002   0.0000000000000000     
   2.8646891548494053E-002   9.9116929787016209E-002   0.0000000000000000     
   2.9505879436375799E-002  0.10584425246931012        0.0000000000000000     
   2.1325294347995658E-002   7.9503544506272769E-002   0.0000000000000000     
   2.2170901115856765E-002   8.5816652225370771E-002   0.0000000000000000     
   2.2972495399018952E-002   9.2270845287618822E-002   0.0000000000000000     
   2.3730077197482217E-002   9.8866123693016880E-002   0.0000000000000000     
   2.4443646511246565E-002  0.10560248744156500        0.0000000000000000     
   1.6969360315968650E-002   7.9273980600036181E-002   0.0000000000000000     
   1.7644295662277862E-002   8.5595526900997629E-002   0.0000000000000000     
   1.8284267595230209E-002   9.2057889688980071E-002   0.0000000000000000     
   1.8889276114825687E-002   9.8661068963983495E-002   0.0000000000000000     
   1.9459321221064300E-002  0.10540506472600787        0.0000000000000000     
   3.9864068191475172E-002  0.10646080946136421        0.0000000000000000     
   4.0981436489378097E-002  0.11332503859319486        0.0000000000000000     
   4.2086334936074971E-002  0.12036390913539644        0.0000000000000000     
   4.3178763531565786E-002  0.12757742108796896        0.0000000000000000     
   4.4258722275850551E-002  0.13496557445091245        0.0000000000000000     
   3.4646019996452004E-002  0.10613035980924318        0.0000000000000000     
   3.5620062470561140E-002  0.11300711325747506        0.0000000000000000     
   3.6588023926113003E-002  0.12006105634081413        0.0000000000000000     
   3.7549904363107595E-002  0.12729218905926043        0.0000000000000000     
   3.8505703781544907E-002  0.13470051141281389        0.0000000000000000     
   2.9505879436375799E-002  0.10584425246931012        0.0000000000000000     
   3.0337863321999191E-002  0.11273214200279590        0.0000000000000000     
   3.1167675780154537E-002  0.11979949467957808        0.0000000000000000     
   3.1995316810841827E-002  0.12704631049965667        0.0000000000000000     
   3.2820786414061082E-002  0.13447258946303162        0.0000000000000000     
   2.4443646511246565E-002  0.10560248744156500        0.0000000000000000     
   2.5134839043692257E-002  0.11250012482915740        0.0000000000000000     
   2.5825290498199573E-002  0.11957922415168830        0.0000000000000000     
   2.6515000874768498E-002  0.12683978540915769        0.0000000000000000     
   2.7203970173399046E-002  0.13428180860156555        0.0000000000000000     
   1.9459321221064300E-002  0.10540506472600787        0.0000000000000000     
   2.0010989635640342E-002  0.11231106173655955        0.0000000000000000     
   2.0560868080248106E-002  0.11940024475714475        0.0000000000000000     
   2.1108956554887599E-002  0.12667261378776351        0.0000000000000000     
   2.1655255059558818E-002  0.13412816882841577        0.0000000000000000     
   4.4258722275850551E-002  0.13496557445091245        0.0000000000000000     
   4.5279657644169025E-002  0.14246764404131843        0.0000000000000000     
   4.6195016111761009E-002  0.15002290467627849        0.0000000000000000     
   4.7004797678626462E-002  0.15763135635579253        0.0000000000000000     
   4.7709002344765411E-002  0.16529299907986061        0.0000000000000000     
   3.8505703781544907E-002  0.13470051141281389        0.0000000000000000     
   3.9407660039704244E-002  0.14222318088747748        0.0000000000000000     
   4.0208010995864872E-002  0.14979735496925395        0.0000000000000000     
   4.0906756650026799E-002  0.15742303365814334        0.0000000000000000     
   4.1503897002190031E-002  0.16510021695414562        0.0000000000000000     
   3.2820786414061082E-002  0.13447258946303162        0.0000000000000000     
   3.3598541925093650E-002  0.14201349095735077        0.0000000000000000     
   3.4283040679220909E-002  0.14960417437026191        0.0000000000000000     
   3.4874282676442873E-002  0.15724463970176505        0.0000000000000000     
   3.5372267916759535E-002  0.16493488695186023        0.0000000000000000     
   2.7203970173399046E-002  0.13428180860156555        0.0000000000000000     
   2.7852303300337247E-002  0.14183857425093835        0.0000000000000000     
   2.8420105161829124E-002  0.14944336287930246        0.0000000000000000     
   2.8907375757874686E-002  0.15709617448665780        0.0000000000000000     
   2.9314115088473942E-002  0.16479700907300446        0.0000000000000000     
   2.1655255059558818E-002  0.13412816882841577        0.0000000000000000     
   2.2168944165435030E-002  0.14169843076824024        0.0000000000000000     
   2.2619204443689506E-002  0.14931492049637549        0.0000000000000000     
   2.3006035894322239E-002  0.15697763801282150        0.0000000000000000     
   2.3329438517333236E-002  0.16468658331757829        0.0000000000000000     
   0.0000000000000000        0.0000000000000000        0.0000000000000000     
   8.4168295107026937E-004   1.1099467562879590E-003   0.0000000000000000     
   1.7021354803686069E-003   2.5981016040996859E-003   0.0000000000000000     
   2.5813575878950120E-003   4.4644645434351810E-003   0.0000000000000000     
   3.4793492736494851E-003   6.7090355742944457E-003   0.0000000000000000     
   0.0000000000000000        0.0000000000000000        0.0000000000000000     
   6.3380463143580400E-004   1.0939542520165490E-003   0.0000000000000000     
   1.2780150775510608E-003   2.5620520881403184E-003   0.0000000000000000     
   1.9326313383457704E-003   4.4042935083713096E-003   0.0000000000000000     
   2.5976534138199333E-003   6.6206785127095203E-003   0.0000000000000000     
   0.0000000000000000        0.0000000000000000        0.0000000000000000     
   4.2423136642735554E-004   1.0825310346661229E-003   0.0000000000000000     
   8.5295236331577452E-004   2.5363024338607583E-003   0.0000000000000000     
   1.2861629906652571E-003   4.3613141975839048E-003   0.0000000000000000     
   1.7238632484758030E-003   6.5575663258355633E-003   0.0000000000000000     
   0.0000000000000000        0.0000000000000000        0.0000000000000000     
   2.1296315604492420E-004   1.0756771042366808E-003   0.0000000000000000     
   4.2694733766274781E-004   2.5208526412610027E-003   0.0000000000000000     
   6.4195254485347104E-004   4.3355266110729658E-003   0.0000000000000000     
   8.5797877761709356E-004   6.5196990136725703E-003   0.0000000000000000     
   0.0000000000000000        0.0000000000000000        0.0000000000000000     
   2.8850985728072487E-013   1.0733924607282226E-003   0.0000000000000000     
   5.9198067454968584E-013   2.5157027103410545E-003   0.0000000000000000     
   9.1041269575237171E-013   4.3269307488384944E-003   0.0000000000000000     
   1.2438056227331851E-012   6.5070765762205449E-003   0.0000000000000000     
   3.4793492736494851E-003   6.7090355742944457E-003   0.0000000000000000     
   4.3878739413504512E-003   9.2943998637632710E-003   0.0000000000000000     
   5.2986949947163384E-003   1.2183142578927447E-002   0.0000000000000000     
   6.2118124337471447E-003   1.5375263719786975E-002   0.0000000000000000     
   7.1272262584428699E-003   1.8870763286341852E-002   0.0000000000000000     
   2.5976534138199333E-003   6.6206785127095203E-003   0.0000000000000000     
   3.2700875676509185E-003   9.1781715980439570E-003   0.0000000000000000     
   3.9469400635160955E-003   1.2043737261263622E-002   0.0000000000000000     
   4.6282109014154646E-003   1.5217375502368517E-002   0.0000000000000000     
   5.3139000813490246E-003   1.8699086321358638E-002   0.0000000000000000     
   1.7238632484758030E-003   6.5575663258355633E-003   0.0000000000000000     
   2.1661797864593155E-003   9.0951514082189544E-003   0.0000000000000000     
   2.6132392543276981E-003   1.1944162034337307E-002   0.0000000000000000     
   3.0650416520809510E-003   1.5104598204190618E-002   0.0000000000000000     
   3.5215869797190738E-003   1.8576459917778891E-002   0.0000000000000000     
   8.5797877761709356E-004   6.5196990136725703E-003   0.0000000000000000     
   1.0761505977756433E-003   9.0453392942882651E-003   0.0000000000000000     
   1.2975925671511472E-003   1.1884416898148504E-002   0.0000000000000000     
   1.5223046857436046E-003   1.5036931825253281E-002   0.0000000000000000     
   1.7502869535530171E-003   1.8502884075602598E-002   0.0000000000000000     
   1.2438056227331851E-012   6.5070765762205449E-003   0.0000000000000000     
   1.5999013095249759E-012   9.0287352562518873E-003   0.0000000000000000     
   1.9864413120049967E-012   1.1864501852697208E-002   0.0000000000000000     
   2.4034256098444569E-012   1.5014376365556501E-002   0.0000000000000000     
   2.8508543182398371E-012   1.8478358794829768E-002   0.0000000000000000     
   7.1272262584428699E-003   1.8870763286341852E-002   0.0000000000000000     
   8.0383490034217561E-003   2.2643972482368817E-002   0.0000000000000000     
   8.9385932033020435E-003   2.6669222511644608E-002   0.0000000000000000     
   9.8279588580837303E-003   3.0946513374169218E-002   0.0000000000000000     
   1.0706445967766820E-002   3.5475845069942648E-002   0.0000000000000000     
   5.3139000813490246E-003   1.8699086321358638E-002   0.0000000000000000     
   5.9971509620411435E-003   2.2461722409249270E-002   0.0000000000000000     
   6.6711069022161824E-003   2.6478136457055674E-002   0.0000000000000000     
   7.3357679018741439E-003   3.0748328464777871E-002   0.0000000000000000     
   7.9911339610150255E-003   3.5272298432415854E-002   0.0000000000000000     
   3.5215869797190738E-003   1.8576459917778891E-002   0.0000000000000000     
   3.9770267815608966E-003   2.2331543785578573E-002   0.0000000000000000     
   4.4255126019252470E-003   2.6341646418066137E-002   0.0000000000000000     
   4.8670444408121264E-003   3.0606767815241576E-002   0.0000000000000000     
   5.3016222982215358E-003   3.5126907977104896E-002   0.0000000000000000     
   1.7502869535530171E-003   1.8502884075602598E-002   0.0000000000000000     
   1.9779764619810175E-003   2.2253436611356741E-002   0.0000000000000000     
   2.2018103024292390E-003   2.6259752394675984E-002   0.0000000000000000     
   2.4217884748976830E-003   3.0521831425560333E-002   0.0000000000000000     
   2.6379109793863488E-003   3.5039673704009788E-002   0.0000000000000000     
   2.8508543182398371E-012   1.8478358794829768E-002   0.0000000000000000     
   3.3015060954197373E-012   2.2227400886583759E-002   0.0000000000000000     
   3.7281581359398241E-012   2.6232454386885217E-002   0.0000000000000000     
   4.1308113478194172E-012   3.0493519295734139E-002   0.0000000000000000     
   4.5094661511868583E-012   3.5010595613130524E-002   0.0000000000000000     
   1.0706445967766820E-002   3.5475845069942648E-002   0.0000000000000000     
   1.1568237343007604E-002   4.0236314267990639E-002   0.0000000000000000     
   1.2407515794462375E-002   4.5207017637338906E-002   0.0000000000000000     
   1.3224281322131133E-002   5.0387955177987463E-002   0.0000000000000000     
   1.4018533926013880E-002   5.5779126889936297E-002   0.0000000000000000     
   7.9911339610150255E-003   3.5272298432415854E-002   0.0000000000000000     
   8.6337843014845008E-003   4.0029509848875232E-002   0.0000000000000000     
   9.2602981451282412E-003   4.4999426203061611E-002   0.0000000000000000     
   9.8706754919462465E-003   5.0182047494975013E-002   0.0000000000000000     
   1.0464916341938519E-002   5.5577373724615443E-002   0.0000000000000000     
   5.3016222982215358E-003   3.5126907977104896E-002   0.0000000000000000     
   5.7275937312993583E-003   3.9881792406767244E-002   0.0000000000000000     
   6.1433062971914853E-003   4.4851146607339784E-002   0.0000000000000000     
   6.5487599958979131E-003   5.0034970578822495E-002   0.0000000000000000     
   6.9439548274186427E-003   5.5433264321215418E-002   0.0000000000000000     
   2.6379109793863488E-003   3.5039673704009788E-002   0.0000000000000000     
   2.8496656324521752E-003   3.9793161941666697E-002   0.0000000000000000     
   3.0565402506521015E-003   4.4762178850173411E-002   0.0000000000000000     
   3.2585348339861289E-003   4.9946724429529916E-002   0.0000000000000000     
   3.4556493824542556E-003   5.5346798679736235E-002   0.0000000000000000     
   4.5094661511868583E-012   3.5010595613130524E-002   0.0000000000000000     
   4.9429503459069712E-012   3.9763618453573582E-002   0.0000000000000000     
   5.5100942255095764E-012   4.4732522931562484E-002   0.0000000000000000     
   6.2108955402751659E-012   4.9917309047097250E-002   0.0000000000000000     
   7.0453556183514010E-012   5.5317976800177887E-002   0.0000000000000000     
   1.4018533926013880E-002   5.5779126889936297E-002   0.0000000000000000     
   1.4790207681878357E-002   6.1369771845016789E-002   0.0000000000000000     
   1.5539236665492312E-002   6.7149129115060255E-002   0.0000000000000000     
   1.6265620876855742E-002   7.3117198700066735E-002   0.0000000000000000     
   1.6969360315968650E-002   7.9273980600036181E-002   0.0000000000000000     
   1.0464916341938519E-002   5.5577373724615443E-002   0.0000000000000000     
   1.1042423196038518E-002   6.1173534905145446E-002   0.0000000000000000     
   1.1602598555179713E-002   6.6958661049727614E-002   0.0000000000000000     
   1.2145442419362098E-002   7.2932752158361924E-002   0.0000000000000000     
   1.2670954788585681E-002   7.9095808231048392E-002   0.0000000000000000     
   6.9439548274186427E-003   5.5433264321215418E-002   0.0000000000000000     
   7.3281270883981736E-003   6.1033365662925984E-002   0.0000000000000000     
   7.7005130754810025E-003   6.6822612432361664E-002   0.0000000000000000     
   8.0611127886671321E-003   7.2801004629522478E-002   0.0000000000000000     
   8.4099262279565563E-003   7.8968542254408386E-002   0.0000000000000000     
   3.4556493824542556E-003   5.5346798679736235E-002   0.0000000000000000     
   3.6473193589573278E-003   6.0949264118358389E-002   0.0000000000000000     
   3.8329802263961884E-003   6.6740983262962433E-002   0.0000000000000000     
   4.0126319847708387E-003   7.2721956113548342E-002   0.0000000000000000     
   4.1862746340812773E-003   7.8892182670116162E-002   0.0000000000000000     
   7.0453556183514010E-012   5.5317976800177887E-002   0.0000000000000000     
   7.7159782469610194E-012   6.0921230271442667E-002   0.0000000000000000     
   7.9252673217469760E-012   6.6713773541529908E-002   0.0000000000000000     
   7.6732223277132389E-012   7.2695606610439598E-002   0.0000000000000000     
   6.9598437256457313E-012   7.8866729478171721E-002   0.0000000000000000     
   1.6969360315968650E-002   7.9273980600036181E-002   0.0000000000000000     
   1.7644295662277862E-002   8.5595526900997629E-002   0.0000000000000000     
   1.8284267595230209E-002   9.2057889688980071E-002   0.0000000000000000     
   1.8889276114825687E-002   9.8661068963983495E-002   0.0000000000000000     
   1.9459321221064300E-002  0.10540506472600787        0.0000000000000000     
   1.2670954788585681E-002   7.9095808231048392E-002   0.0000000000000000     
   1.3175035395628093E-002   8.5423706608392602E-002   0.0000000000000000     
   1.3653583973266969E-002   9.1892324631000138E-002   0.0000000000000000     
   1.4106600521502314E-002   9.8501662298871015E-002   0.0000000000000000     
   1.4534085040334124E-002  0.10525171961200522        0.0000000000000000     
   8.4099262279565563E-003   7.8968542254408386E-002   0.0000000000000000     
   8.7445660306876491E-003   8.5300977829376928E-002   0.0000000000000000     
   9.0626448341987811E-003   9.1774063876785633E-002   0.0000000000000000     
   9.3641626384899455E-003   9.8387800396634473E-002   0.0000000000000000     
   9.6491194435611508E-003  0.10514218738892346        0.0000000000000000     
   4.1862746340812773E-003   7.8892182670116162E-002   0.0000000000000000     
   4.3528875674565346E-003   8.5227340563950635E-002   0.0000000000000000     
   4.5114501780256378E-003   9.1703107426336528E-002   0.0000000000000000     
   4.6619624657885878E-003   9.8319483257273868E-002   0.0000000000000000     
   4.8044244307453828E-003  0.10507646805676263        0.0000000000000000     
   6.9598437256457313E-012   7.8866729478171721E-002   0.0000000000000000     
   5.9347446661889292E-012   8.5202794812113666E-002   0.0000000000000000     
   4.7475407936523051E-012   9.1679455279652836E-002   0.0000000000000000     
   3.3982340324947152E-012   9.8296710880789173E-002   0.0000000000000000     
   1.8868209945843706E-012  0.10505456161552273        0.0000000000000000     
   1.9459321221064300E-002  0.10540506472600787        0.0000000000000000     
   2.0010989635640342E-002  0.11231106173655955        0.0000000000000000     
   2.0560868080248106E-002  0.11940024475714475        0.0000000000000000     
   2.1108956554887599E-002  0.12667261378776351        0.0000000000000000     
   2.1655255059558818E-002  0.13412816882841577        0.0000000000000000     
   1.4534085040334124E-002  0.10525171961200522        0.0000000000000000     
   1.4947106303733838E-002  0.11216442394144027        0.0000000000000000     
   1.5356733085672902E-002  0.11926170265821373        0.0000000000000000     
   1.5762965386151316E-002  0.12654355576232559        0.0000000000000000     
   1.6165803205169076E-002  0.13400998325377589        0.0000000000000000     
   9.6491194435611508E-003  0.10514218738892346        0.0000000000000000     
   9.9239802538631499E-003  0.11205968266023750        0.0000000000000000     
   1.0195210073846711E-002  0.11916274401716152        0.0000000000000000     
   1.0462808903511827E-002  0.12645137145969554        0.0000000000000000     
   1.0726776742858503E-002  0.13392556498783953        0.0000000000000000     
   4.8044244307453828E-003  0.10507646805676263        0.0000000000000000     
   4.9416114860282804E-003  0.11199683789295126        0.0000000000000000     
   5.0762990447695304E-003  0.11910336883398813        0.0000000000000000     
   5.2084871069691370E-003  0.12639606087987326        0.0000000000000000     
   5.3381756726270969E-003  0.13387491403060667        0.0000000000000000     
   1.8868209945843706E-012  0.10505456161552273        0.0000000000000000     
   2.2922440855166482E-013  0.11197588963958152        0.0000000000000000     
  -1.5586351653773534E-012  0.11908357710869355        0.0000000000000000     
  -3.4767581608835529E-012  0.12637762402285885        0.0000000000000000     
  -5.5251432769243269E-012  0.13385803038207739        0.0000000000000000     
   2.1655255059558818E-002  0.13412816882841577        0.0000000000000000     
   2.2168944165435030E-002  0.14169843076824024        0.0000000000000000     
   2.2619204443689506E-002  0.14931492049637549        0.0000000000000000     
   2.3006035894322239E-002  0.15697763801282150        0.0000000000000000     
   2.3329438517333236E-002  0.16468658331757829        0.0000000000000000     
   1.6165803205169076E-002  0.13400998325377589        0.0000000000000000     
   1.6544445612284128E-002  0.14159101850665909        0.0000000000000000     
   1.6878091677054414E-002  0.14921669489506986        0.0000000000000000     
   1.7166741399479931E-002  0.15688701241900815        0.0000000000000000     
   1.7410394779560679E-002  0.16460197107847396        0.0000000000000000     
   1.0726776742858503E-002  0.13392556498783953        0.0000000000000000     
   1.0974788732781657E-002  0.14151429546359776        0.0000000000000000     
   1.1194520014176213E-002  0.14914653374897449        0.0000000000000000     
   1.1385970587042167E-002  0.15682227984396979        0.0000000000000000     
   1.1549140451379522E-002  0.16454153374858357        0.0000000000000000     
   5.3381756726270969E-003  0.13387491403060667        0.0000000000000000     
   5.4599735269276160E-003  0.14146826163905610        0.0000000000000000     
   5.5684894550549003E-003  0.14910443705808935        0.0000000000000000     
   5.6637234570089496E-003  0.15678344028770633        0.0000000000000000     
   5.7456755327897659E-003  0.16450527132790715        0.0000000000000000     
  -5.5251432769243269E-012  0.13385803038207739        0.0000000000000000     
  -5.2779957054188698E-012  0.14145291703303423        0.0000000000000000     
  -3.0952183090876551E-013  0.14909040482241437        0.0000000000000000     
   9.3802807589558196E-012  0.15677049375021790        0.0000000000000000     
   2.3791410681817116E-011  0.16449318381644473        0.0000000000000000     
   0.0000000000000000        0.0000000000000000        0.0000000000000000     
   2.8850985728072487E-013   1.0733924607282226E-003   0.0000000000000000     
   5.9198067454968584E-013   2.5157027103410545E-003   0.0000000000000000     
   9.1041269575237171E-013   4.3269307488384944E-003   0.0000000000000000     
   1.2438056227331851E-012   6.5070765762205449E-003   0.0000000000000000     
   0.0000000000000000        0.0000000000000000        0.0000000000000000     
  -2.1296315547731347E-004   1.0756771041454114E-003   0.0000000000000000     
  -4.2694733649843491E-004   2.5208526411085565E-003   0.0000000000000000     
  -6.4195254306336424E-004   4.3355266108894355E-003   0.0000000000000000     
  -8.5797877517210155E-004   6.5196990134880478E-003   0.0000000000000000     
   0.0000000000000000        0.0000000000000000        0.0000000000000000     
  -4.2423136588797190E-004   1.0825310344929106E-003   0.0000000000000000     
  -8.5295236221040720E-004   2.5363024335711545E-003   0.0000000000000000     
  -1.2861629889673058E-003   4.3613141972347318E-003   0.0000000000000000     
  -1.7238632461586676E-003   6.5575663254836408E-003   0.0000000000000000     
   0.0000000000000000        0.0000000000000000        0.0000000000000000     
  -6.3380463094346541E-004   1.0939542517707196E-003   0.0000000000000000     
  -1.2780150765439361E-003   2.5620520877288476E-003   0.0000000000000000     
  -1.9326313368014120E-003   4.4042935078743841E-003   0.0000000000000000     
  -2.5976534117158933E-003   6.6206785122073274E-003   0.0000000000000000     
   0.0000000000000000        0.0000000000000000        0.0000000000000000     
  -8.4168295064379400E-004   1.1099467559788395E-003   0.0000000000000000     
  -1.7021354794990217E-003   2.5981016035816363E-003   0.0000000000000000     
  -2.5813575865656830E-003   4.4644645428083916E-003   0.0000000000000000     
  -3.4793492718437785E-003   6.7090355736591032E-003   0.0000000000000000     
   1.2438056227331851E-012   6.5070765762205449E-003   0.0000000000000000     
   1.5999013095249759E-012   9.0287352562518873E-003   0.0000000000000000     
   1.9864413120049967E-012   1.1864501852697208E-002   0.0000000000000000     
   2.4034256098444569E-012   1.5014376365556501E-002   0.0000000000000000     
   2.8508543182398371E-012   1.8478358794829768E-002   0.0000000000000000     
  -8.5797877517210155E-004   6.5196990134880478E-003   0.0000000000000000     
  -1.0761505946313911E-003   9.0453392941188520E-003   0.0000000000000000     
  -1.2975925632479775E-003   1.1884416897996302E-002   0.0000000000000000     
  -1.5223046810218599E-003   1.5036931825120402E-002   0.0000000000000000     
  -1.7502869479530405E-003   1.8502884075491152E-002   0.0000000000000000     
  -1.7238632461586676E-003   6.5575663254836408E-003   0.0000000000000000     
  -2.1661797834817147E-003   9.0951514078981902E-003   0.0000000000000000     
  -2.6132392506336677E-003   1.1944162034058681E-002   0.0000000000000000     
  -3.0650416476145272E-003   1.5104598203965116E-002   0.0000000000000000     
  -3.5215869744242923E-003   1.8576459917617492E-002   0.0000000000000000     
  -2.5976534117158933E-003   6.6206785122073274E-003   0.0000000000000000     
  -3.2700875649510695E-003   9.1781715975899035E-003   0.0000000000000000     
  -3.9469400601706301E-003   1.2043737260884337E-002   0.0000000000000000     
  -4.6282108973745737E-003   1.5217375502090631E-002   0.0000000000000000     
  -5.3139000765629035E-003   1.8699086321208785E-002   0.0000000000000000     
  -3.4793492718437785E-003   6.7090355736591032E-003   0.0000000000000000     
  -4.3878739390394552E-003   9.2943998631939920E-003   0.0000000000000000     
  -5.2986949918588638E-003   1.2183142578473277E-002   0.0000000000000000     
  -6.2118124303020021E-003   1.5375263719496959E-002   0.0000000000000000     
  -7.1272262543688718E-003   1.8870763286265038E-002   0.0000000000000000     
   2.8508543182398371E-012   1.8478358794829768E-002   0.0000000000000000     
   3.3015060954197373E-012   2.2227400886583759E-002   0.0000000000000000     
   3.7281581359398241E-012   2.6232454386885217E-002   0.0000000000000000     
   4.1308113478194172E-012   3.0493519295734139E-002   0.0000000000000000     
   4.5094661511868583E-012   3.5010595613130524E-002   0.0000000000000000     
  -1.7502869479530405E-003   1.8502884075491152E-002   0.0000000000000000     
  -1.9779764555016518E-003   2.2253436611299322E-002   0.0000000000000000     
  -2.2018102951278304E-003   2.6259752394735672E-002   0.0000000000000000     
  -2.4217884668315767E-003   3.0521831425800217E-002   0.0000000000000000     
  -2.6379109706128889E-003   3.5039673704492950E-002   0.0000000000000000     
  -3.5215869744242923E-003   1.8576459917617492E-002   0.0000000000000000     
  -3.9770267754524694E-003   2.2331543785543095E-002   0.0000000000000000     
  -4.4255125950885613E-003   2.6341646418269186E-002   0.0000000000000000     
  -4.8670444333325713E-003   3.0606767815795789E-002   0.0000000000000000     
  -5.3016222901844934E-003   3.5126907978122887E-002   0.0000000000000000     
  -5.3139000765629035E-003   1.8699086321208785E-002   0.0000000000000000     
  -5.9971509565509467E-003   2.2461722409315071E-002   0.0000000000000000     
  -6.6711068961540368E-003   2.6478136457485757E-002   0.0000000000000000     
  -7.3357678953721688E-003   3.0748328465720853E-002   0.0000000000000000     
  -7.9911339542053459E-003   3.5272298434020348E-002   0.0000000000000000     
  -7.1272262543688718E-003   1.8870763286265038E-002   0.0000000000000000     
  -8.0383489987970839E-003   2.2643972482615266E-002   0.0000000000000000     
  -8.9385931983242510E-003   2.6669222512385387E-002   0.0000000000000000     
  -9.8279588529503747E-003   3.0946513375575413E-002   0.0000000000000000     
  -1.0706445962675450E-002   3.5475845072185333E-002   0.0000000000000000     
   4.5094661511868583E-012   3.5010595613130524E-002   0.0000000000000000     
   4.9429503459069712E-012   3.9763618453573582E-002   0.0000000000000000     
   5.5100942255095764E-012   4.4732522931562484E-002   0.0000000000000000     
   6.2108955402751659E-012   4.9917309047097250E-002   0.0000000000000000     
   7.0453556183514010E-012   5.5317976800177887E-002   0.0000000000000000     
  -2.6379109706128889E-003   3.5039673704492950E-002   0.0000000000000000     
  -2.8496656228598470E-003   3.9793161942497726E-002   0.0000000000000000     
  -3.0565402399605293E-003   4.4762178851498392E-002   0.0000000000000000     
  -3.2585348219149354E-003   4.9946724431494956E-002   0.0000000000000000     
  -3.4556493687230676E-003   5.5346798682487403E-002   0.0000000000000000     
  -5.3016222901844934E-003   3.5126907978122887E-002   0.0000000000000000     
  -5.7275937225877496E-003   3.9881792408448968E-002   0.0000000000000000     
  -6.1433062874857560E-003   4.4851146609972470E-002   0.0000000000000000     
  -6.5487599848785133E-003   5.0034970582693433E-002   0.0000000000000000     
  -6.9439548147660190E-003   5.5433264326611817E-002   0.0000000000000000     
  -7.9911339542053459E-003   3.5272298434020348E-002   0.0000000000000000     
  -8.6337842942407587E-003   4.0029509851427308E-002   0.0000000000000000     
  -9.2602981370655865E-003   4.4999426206984751E-002   0.0000000000000000     
  -9.8706754826798377E-003   5.0182047500692703E-002   0.0000000000000000     
  -1.0464916331083502E-002   5.5577373732551130E-002   0.0000000000000000     
  -1.0706445962675450E-002   3.5475845072185333E-002   0.0000000000000000     
  -1.1568237337818870E-002   4.0236314271432733E-002   0.0000000000000000     
  -1.2407515788700021E-002   4.5207017642535201E-002   0.0000000000000000     
  -1.3224281315318906E-002   5.0387955185492737E-002   0.0000000000000000     
  -1.4018533917675519E-002   5.5779126900305336E-002   0.0000000000000000     
   7.0453556183514010E-012   5.5317976800177887E-002   0.0000000000000000     
   7.7159782469610194E-012   6.0921230271442667E-002   0.0000000000000000     
   7.9252673217469760E-012   6.6713773541529908E-002   0.0000000000000000     
   7.6732223277132389E-012   7.2695606610439598E-002   0.0000000000000000     
   6.9598437256457313E-012   7.8866729478171721E-002   0.0000000000000000     
  -3.4556493687230676E-003   5.5346798682487403E-002   0.0000000000000000     
  -3.6473193438763276E-003   6.0949264122098237E-002   0.0000000000000000     
  -3.8329802108661268E-003   6.6740983267949888E-002   0.0000000000000000     
  -4.0126319696924652E-003   7.2721956120042383E-002   0.0000000000000000     
  -4.1862746203553411E-003   7.8892182678375694E-002   0.0000000000000000     
  -6.9439548147660190E-003   5.5433264326611817E-002   0.0000000000000000     
  -7.3281270743700468E-003   6.1033365670244470E-002   0.0000000000000000     
  -7.7005130609123619E-003   6.6822612442108159E-002   0.0000000000000000     
  -8.0611127743929721E-003   7.2801004642202946E-002   0.0000000000000000     
  -8.4099262148118730E-003   7.8968542270528769E-002   0.0000000000000000     
  -1.0464916331083502E-002   5.5577373732551130E-002   0.0000000000000000     
  -1.1042423183765176E-002   6.1173534915881386E-002   0.0000000000000000     
  -1.1602598542213443E-002   6.6958661064004762E-002   0.0000000000000000     
  -1.2145442406428302E-002   7.2932752176921259E-002   0.0000000000000000     
  -1.2670954776409752E-002   7.9095808254630889E-002   0.0000000000000000     
  -1.4018533917675519E-002   5.5779126900305336E-002   0.0000000000000000     
  -1.4790207672061718E-002   6.1369771859008979E-002   0.0000000000000000     
  -1.5539236654769358E-002   6.7149129133639657E-002   0.0000000000000000     
  -1.6265620865798448E-002   7.3117198724197363E-002   0.0000000000000000     
  -1.6969360305148978E-002   7.9273980630682098E-002   0.0000000000000000     
   6.9598437256457313E-012   7.8866729478171721E-002   0.0000000000000000     
   5.9347446661889292E-012   8.5202794812113666E-002   0.0000000000000000     
   4.7475407936523051E-012   9.1679455279652836E-002   0.0000000000000000     
   3.3982340324947152E-012   9.8296710880789173E-002   0.0000000000000000     
   1.8868209945843706E-012  0.10505456161552273        0.0000000000000000     
  -4.1862746203553411E-003   7.8892182678375694E-002   0.0000000000000000     
  -4.3528875557096967E-003   8.5227340573647725E-002   0.0000000000000000     
  -4.5114501686104730E-003   9.1703107436556255E-002   0.0000000000000000     
  -4.6619624590576681E-003   9.8319483267101299E-002   0.0000000000000000     
  -4.8044244270512865E-003  0.10507646806528290        0.0000000000000000     
  -8.4099262148118730E-003   7.8968542270528769E-002   0.0000000000000000     
  -8.7445660193087721E-003   8.5300977848334375E-002   0.0000000000000000     
  -9.0626448250233742E-003   9.1774063896868485E-002   0.0000000000000000     
  -9.3641626319556793E-003   9.8387800416131099E-002   0.0000000000000000     
  -9.6491194401056926E-003  0.10514218740612220        0.0000000000000000     
  -1.2670954776409752E-002   7.9095808254630889E-002   0.0000000000000000     
  -1.3175035384862477E-002   8.5423706636173657E-002   0.0000000000000000     
  -1.3653583964491159E-002   9.1892324660589539E-002   0.0000000000000000     
  -1.4106600515295799E-002   9.8501662327878561E-002   0.0000000000000000     
  -1.4534085037276394E-002  0.10525171963804070        0.0000000000000000     
  -1.6969360305148978E-002   7.9273980630682098E-002   0.0000000000000000     
  -1.7644295652370818E-002   8.5595526937165559E-002   0.0000000000000000     
  -1.8284267587013833E-002   9.2057889727719416E-002   0.0000000000000000     
  -1.8889276109078028E-002   9.8661069002343685E-002   0.0000000000000000     
  -1.9459321218563395E-002  0.10540506476103835        0.0000000000000000     
   1.8868209945843706E-012  0.10505456161552273        0.0000000000000000     
   2.2922440855166482E-013  0.11197588963958152        0.0000000000000000     
  -1.5586351653773534E-012  0.11908357710869355        0.0000000000000000     
  -3.4767581608835529E-012  0.12637762402285885        0.0000000000000000     
  -5.5251432769243269E-012  0.13385803038207739        0.0000000000000000     
  -4.8044244270512865E-003  0.10507646806528290        0.0000000000000000     
  -4.9416114856250968E-003  0.11199683790023154        0.0000000000000000     
  -5.0762990478128702E-003  0.11910336884107776        0.0000000000000000     
  -5.2084871136146077E-003  0.12639606088782163        0.0000000000000000     
  -5.3381756830303065E-003  0.13387491404046303        0.0000000000000000     
  -9.6491194401056926E-003  0.10514218740612220        0.0000000000000000     
  -9.9239802536257634E-003  0.11205968267500456        0.0000000000000000     
  -1.0195210076668253E-002  0.11916274403094078        0.0000000000000000     
  -1.0462808909233160E-002  0.12645137147393098        0.0000000000000000     
  -1.0726776751320484E-002  0.13392556500397509        0.0000000000000000     
  -1.4534085037276394E-002  0.10525171963804070        0.0000000000000000     
  -1.4947106303772781E-002  0.11216442396390051        0.0000000000000000     
  -1.5356733088124791E-002  0.11926170267828262        0.0000000000000000     
  -1.5762965390332419E-002  0.12654355578118698        0.0000000000000000     
  -1.6165803210395673E-002  0.13400998327261354        0.0000000000000000     
  -1.9459321218563395E-002  0.10540506476103835        0.0000000000000000     
  -2.0010989636066144E-002  0.11231106176691949        0.0000000000000000     
  -2.0560868082182476E-002  0.11940024478310322        0.0000000000000000     
  -2.1108956556912386E-002  0.12667261380958950        0.0000000000000000     
  -2.1655255060255882E-002  0.13412816884637838        0.0000000000000000     
  -5.5251432769243269E-012  0.13385803038207739        0.0000000000000000     
  -5.2779957054188698E-012  0.14145291703303423        0.0000000000000000     
  -3.0952183090876551E-013  0.14909040482241437        0.0000000000000000     
   9.3802807589558196E-012  0.15677049375021790        0.0000000000000000     
   2.3791410681817116E-011  0.16449318381644473        0.0000000000000000     
  -5.3381756830303065E-003  0.13387491404046303        0.0000000000000000     
  -5.4599735364565007E-003  0.14146826164455364        0.0000000000000000     
  -5.5684894542897215E-003  0.14910443704564499        0.0000000000000000     
  -5.6637234365299657E-003  0.15678344024373711        0.0000000000000000     
  -5.7456754831772400E-003  0.16450527123882994        0.0000000000000000     
  -1.0726776751320484E-002  0.13392556500397509        0.0000000000000000     
  -1.0974788739229217E-002  0.14151429547263600        0.0000000000000000     
  -1.1194520009258364E-002  0.14914653373147654        0.0000000000000000     
  -1.1385970561407917E-002  0.15682227978049668        0.0000000000000000     
  -1.1549140395677882E-002  0.16454153361969648        0.0000000000000000     
  -1.6165803210395673E-002  0.13400998327261354        0.0000000000000000     
  -1.6544445613596151E-002  0.14159101851728129        0.0000000000000000     
  -1.6878091665215450E-002  0.14921669487990896        0.0000000000000000     
  -1.7166741365253570E-002  0.15688701236049668        0.0000000000000000     
  -1.7410394713710517E-002  0.16460197095904433        0.0000000000000000     
  -2.1655255060255882E-002  0.13412816884637838        0.0000000000000000     
  -2.2168944159557301E-002  0.14169843077848943        0.0000000000000000     
  -2.2619204422160980E-002  0.14931492049094233        0.0000000000000000     
  -2.3006035848066930E-002  0.15697763798373701        0.0000000000000000     
  -2.3329438437275144E-002  0.16468658325687352        0.0000000000000000     
   0.0000000000000000        0.0000000000000000        0.0000000000000000     
  -8.4168295064379400E-004   1.1099467559788395E-003   0.0000000000000000     
  -1.7021354794990217E-003   2.5981016035816363E-003   0.0000000000000000     
  -2.5813575865656830E-003   4.4644645428083916E-003   0.0000000000000000     
  -3.4793492718437785E-003   6.7090355736591032E-003   0.0000000000000000     
   0.0000000000000000        0.0000000000000000        0.0000000000000000     
  -1.0567464780643528E-003   1.1340873928939864E-003   0.0000000000000000     
  -2.1398236276483837E-003   2.6503201036326635E-003   0.0000000000000000     
  -3.2492314487520945E-003   4.5486981322160301E-003   0.0000000000000000     
  -4.3849699413754826E-003   6.8292214786440878E-003   0.0000000000000000     
   0.0000000000000000        0.0000000000000000        0.0000000000000000     
  -1.2878753662805362E-003   1.1699550082928782E-003   0.0000000000000000     
  -2.6055895775647436E-003   2.7245767103850713E-003   0.0000000000000000     
  -3.9531426338526212E-003   4.6638651062765784E-003   0.0000000000000000     
  -5.3305345351441708E-003   6.9878201959674008E-003   0.0000000000000000     
   0.0000000000000000        0.0000000000000000        0.0000000000000000     
  -1.5350696152923453E-003   1.2175496021755142E-003   0.0000000000000000     
  -3.0994333292481001E-003   2.8208714238388594E-003   0.0000000000000000     
  -4.6930911418672653E-003   4.8099654649900354E-003   0.0000000000000000     
  -6.3160430531498382E-003   7.1848317256290439E-003   0.0000000000000000     
   0.0000000000000000        0.0000000000000000        0.0000000000000000     
  -1.7983292250997795E-003   1.2768711745418946E-003   0.0000000000000000     
  -3.6213548826984541E-003   2.9392042439940289E-003   0.0000000000000000     
  -5.4690769727960241E-003   4.9869992083564013E-003   0.0000000000000000     
  -7.3414954953924891E-003   7.4202560676290144E-003   0.0000000000000000     
  -3.4793492718437785E-003   6.7090355736591032E-003   0.0000000000000000     
  -4.3878739390394552E-003   9.2943998631939920E-003   0.0000000000000000     
  -5.2986949918588638E-003   1.2183142578473277E-002   0.0000000000000000     
  -6.2118124303020021E-003   1.5375263719496959E-002   0.0000000000000000     
  -7.1272262543688718E-003   1.8870763286265038E-002   0.0000000000000000     
  -4.3849699413754826E-003   6.8292214786440878E-003   0.0000000000000000     
  -5.5341083370201742E-003   9.4497857062429101E-003   0.0000000000000000     
  -6.6837158671877893E-003   1.2368286378338571E-002   0.0000000000000000     
  -7.8337925318783339E-003   1.5584723494931072E-002   0.0000000000000000     
  -8.9843383310917978E-003   1.9099097056020416E-002   0.0000000000000000     
  -5.3305345351441708E-003   6.9878201959674008E-003   0.0000000000000000     
  -6.7233601901665269E-003   9.6502786282691190E-003   0.0000000000000000     
  -8.1172145076468319E-003   1.2605077051993303E-002   0.0000000000000000     
  -9.5120974875850840E-003   1.5852215467139961E-002   0.0000000000000000     
  -1.0908009129981281E-002   1.9391693873709089E-002   0.0000000000000000     
  -6.3160430531498382E-003   7.1848317256290439E-003   0.0000000000000000     
  -7.9556294984785142E-003   9.8958786292726135E-003   0.0000000000000000     
  -9.5991909132359873E-003   1.2893514599437474E-002   0.0000000000000000     
  -1.1246727297422257E-002   1.6177739636123623E-002   0.0000000000000000     
  -1.2898238651037322E-002   1.9748553739331064E-002   0.0000000000000000     
  -7.3414954953924891E-003   7.4202560676290144E-003   0.0000000000000000     
  -9.2309162619561361E-003   1.0186585709253397E-002   0.0000000000000000     
  -1.1129645083955258E-002   1.3233599020671076E-002   0.0000000000000000     
  -1.3037681961389852E-002   1.6561296001882053E-002   0.0000000000000000     
  -1.4955026894259919E-002   2.0169676652886329E-002   0.0000000000000000     
  -7.1272262543688718E-003   1.8870763286265038E-002   0.0000000000000000     
  -8.0383489987970839E-003   2.2643972482615266E-002   0.0000000000000000     
  -8.9385931983242510E-003   2.6669222512385387E-002   0.0000000000000000     
  -9.8279588529503747E-003   3.0946513375575413E-002   0.0000000000000000     
  -1.0706445962675450E-002   3.5475845072185333E-002   0.0000000000000000     
  -8.9843383310917978E-003   1.9099097056020416E-002   0.0000000000000000     
  -1.0128282173502562E-002   2.2886823669371618E-002   0.0000000000000000     
  -1.1258552967785000E-002   2.6923319942749702E-002   0.0000000000000000     
  -1.2375150713939112E-002   3.1208585876154663E-002   0.0000000000000000     
  -1.3478075411964895E-002   3.5742621469586511E-002   0.0000000000000000     
  -1.0908009129981281E-002   1.9391693873709089E-002   0.0000000000000000     
  -1.2294611751979066E-002   2.3198805633512079E-002   0.0000000000000000     
  -1.3661567670722073E-002   2.7248844108360322E-002   0.0000000000000000     
  -1.5008876886210307E-002   3.1541809298253815E-002   0.0000000000000000     
  -1.6336539398443765E-002   3.6077701203192564E-002   0.0000000000000000     
  -1.2898238651037322E-002   1.9748553739331064E-002   0.0000000000000000     
  -1.4537337734226590E-002   2.3579918375036653E-002   0.0000000000000000     
  -1.6147637307135473E-002   2.7645795009217260E-002   0.0000000000000000     
  -1.7729137369763961E-002   3.1946183641872877E-002   0.0000000000000000     
  -1.9281837922112070E-002   3.6481084273003506E-002   0.0000000000000000     
  -1.4955026894259919E-002   2.0169676652886329E-002   0.0000000000000000     
  -1.6856460120245137E-002   2.4030161893945332E-002   0.0000000000000000     
  -1.8716761877025190E-002   2.8114172645320505E-002   0.0000000000000000     
  -2.0535932164600076E-002   3.2421708907011834E-002   0.0000000000000000     
  -2.2313970982969798E-002   3.6952770679019316E-002   0.0000000000000000     
  -1.0706445962675450E-002   3.5475845072185333E-002   0.0000000000000000     
  -1.1568237337818870E-002   4.0236314271432733E-002   0.0000000000000000     
  -1.2407515788700021E-002   4.5207017642535201E-002   0.0000000000000000     
  -1.3224281315318906E-002   5.0387955185492737E-002   0.0000000000000000     
  -1.4018533917675519E-002   5.5779126900305336E-002   0.0000000000000000     
  -1.3478075411964895E-002   3.5742621469586511E-002   0.0000000000000000     
  -1.4559646831636274E-002   4.0504956593690661E-002   0.0000000000000000     
  -1.5612184742727178E-002   4.5475121119112567E-002   0.0000000000000000     
  -1.6635689145237609E-002   5.0653115045852196E-002   0.0000000000000000     
  -1.7630160039167560E-002   5.6038938373909580E-002   0.0000000000000000     
  -1.6336539398443765E-002   3.6077701203192564E-002   0.0000000000000000     
  -1.7636706754007154E-002   4.0838187743426499E-002   0.0000000000000000     
  -1.8901530499485179E-002   4.5804936839205557E-002   0.0000000000000000     
  -2.0131010634877839E-002   5.0977948490529723E-002   0.0000000000000000     
  -2.1325147160185125E-002   5.6357222697399012E-002   0.0000000000000000     
  -1.9281837922112070E-002   3.6481084273003506E-002   0.0000000000000000     
  -2.0799417104931505E-002   4.1236007720640240E-002   0.0000000000000000     
  -2.2275553058974020E-002   4.6196464802814176E-002   0.0000000000000000     
  -2.3710245784239584E-002   5.1362455519525313E-002   0.0000000000000000     
  -2.5103495280728225E-002   5.6733979870773651E-002   0.0000000000000000     
  -2.2313970982969798E-002   3.6952770679019316E-002   0.0000000000000000     
  -2.4047777884409340E-002   4.1698416525331877E-002   0.0000000000000000     
  -2.5734252421193697E-002   4.6649705009938425E-002   0.0000000000000000     
  -2.7373394593322862E-002   5.1806636132838951E-002   0.0000000000000000     
  -2.8965204400796838E-002   5.7169209894033471E-002   0.0000000000000000     
  -1.4018533917675519E-002   5.5779126900305336E-002   0.0000000000000000     
  -1.4790207672061718E-002   6.1369771859008979E-002   0.0000000000000000     
  -1.5539236654769358E-002   6.7149129133639657E-002   0.0000000000000000     
  -1.6265620865798448E-002   7.3117198724197363E-002   0.0000000000000000     
  -1.6969360305148978E-002   7.9273980630682098E-002   0.0000000000000000     
  -1.7630160039167560E-002   5.6038938373909580E-002   0.0000000000000000     
  -1.8596071537618501E-002   6.1622779781050643E-002   0.0000000000000000     
  -1.9533897753691899E-002   6.7394827945041327E-002   0.0000000000000000     
  -2.0443638687387754E-002   7.3355082865881618E-002   0.0000000000000000     
  -2.1325294338706072E-002   7.9503544543571530E-002   0.0000000000000000     
  -2.1325147160185125E-002   5.6357222697399012E-002   0.0000000000000000     
  -2.2484605778794360E-002   6.1933261963429742E-002   0.0000000000000000     
  -2.3610052194092842E-002   6.7696568792238204E-002   0.0000000000000000     
  -2.4701486406080570E-002   7.3647143183824398E-002   0.0000000000000000     
  -2.5758908414757548E-002   7.9784985138188311E-002   0.0000000000000000     
  -2.5103495280728225E-002   5.6733979870773651E-002   0.0000000000000000     
  -2.6455810395589290E-002   6.2301218406146289E-002   0.0000000000000000     
  -2.7767699975972181E-002   6.8054351675230274E-002   0.0000000000000000     
  -2.9039164021876888E-002   7.3993379678025661E-002   0.0000000000000000     
  -3.0270202533303415E-002   8.0118302414532452E-002   0.0000000000000000     
  -2.8965204400796838E-002   5.7169209894033471E-002   0.0000000000000000     
  -3.0509685388003298E-002   6.2726649109200255E-002   0.0000000000000000     
  -3.2006841099329920E-002   6.8468176594017577E-002   0.0000000000000000     
  -3.3456671534776709E-002   7.4393792348485491E-002   0.0000000000000000     
  -3.4859176694343665E-002   8.0503496372603942E-002   0.0000000000000000     
  -1.6969360305148978E-002   7.9273980630682098E-002   0.0000000000000000     
  -1.7644295652370818E-002   8.5595526937165559E-002   0.0000000000000000     
  -1.8284267587013833E-002   9.2057889727719416E-002   0.0000000000000000     
  -1.8889276109078028E-002   9.8661069002343685E-002   0.0000000000000000     
  -1.9459321218563395E-002  0.10540506476103835        0.0000000000000000     
  -2.1325294338706072E-002   7.9503544543571530E-002   0.0000000000000000     
  -2.2170901106968299E-002   8.5816652269518887E-002   0.0000000000000000     
  -2.2972495391495901E-002   9.2270845335131552E-002   0.0000000000000000     
  -2.3730077192288878E-002   9.8866123740409442E-002   0.0000000000000000     
  -2.4443646509347237E-002  0.10560248748535266        0.0000000000000000     
  -2.5758908414757548E-002   7.9784985138188311E-002   0.0000000000000000     
  -2.6773406033789433E-002   8.6087296151442450E-002   0.0000000000000000     
  -2.7736067076841873E-002   9.2531277719699309E-002   0.0000000000000000     
  -2.8646891543914886E-002   9.9116929842958904E-002   0.0000000000000000     
  -2.9505879435008462E-002  0.10584425252122116        0.0000000000000000     
  -3.0270202533303415E-002   8.0118302414532452E-002   0.0000000000000000     
  -3.1451810432834217E-002   8.6407458582936261E-002   0.0000000000000000     
  -3.2574982643051760E-002   9.2839186881422758E-002   0.0000000000000000     
  -3.3639719163956035E-002   9.9413487309991971E-002   0.0000000000000000     
  -3.4646019995547062E-002  0.10613035986864384        0.0000000000000000     
  -3.4859176694343665E-002   8.0503496372603942E-002   0.0000000000000000     
  -3.6206114304102650E-002   8.6777139564000280E-002   0.0000000000000000     
  -3.7489242090125538E-002   9.3194572820301871E-002   0.0000000000000000     
  -3.8708560052412348E-002   9.9755796141508674E-002   0.0000000000000000     
  -3.9864068190963053E-002  0.10646080952762073        0.0000000000000000     
  -1.9459321218563395E-002  0.10540506476103835        0.0000000000000000     
  -2.0010989636066144E-002  0.11231106176691949        0.0000000000000000     
  -2.0560868082182476E-002  0.11940024478310322        0.0000000000000000     
  -2.1108956556912386E-002  0.12667261380958950        0.0000000000000000     
  -2.1655255060255882E-002  0.13412816884637838        0.0000000000000000     
  -2.4443646509347237E-002  0.10560248748535266        0.0000000000000000     
  -2.5134839044576106E-002  0.11250012486721780        0.0000000000000000     
  -2.5825290499880648E-002  0.11957922418326146        0.0000000000000000     
  -2.6515000875260847E-002  0.12683978543348373        0.0000000000000000     
  -2.7203970170716713E-002  0.13428180861788452        0.0000000000000000     
  -2.9505879435008462E-002  0.10584425252122116        0.0000000000000000     
  -3.0337863323372929E-002  0.11273214204795176        0.0000000000000000     
  -3.1167675782258642E-002  0.11979949471661623        0.0000000000000000     
  -3.1995316811665599E-002  0.12704631052721460        0.0000000000000000     
  -3.2820786411593791E-002  0.13447258947974683        0.0000000000000000     
  -3.4646019995547062E-002  0.10613035986864384        0.0000000000000000     
  -3.5620062472456610E-002  0.11300711330912137        0.0000000000000000     
  -3.6588023929316468E-002  0.12006105638316748        0.0000000000000000     
  -3.7549904366126638E-002  0.12729218909078213        0.0000000000000000     
  -3.8505703782887112E-002  0.13470051143196535        0.0000000000000000     
  -3.9864068190963053E-002  0.10646080952762073        0.0000000000000000     
  -4.0981436491827145E-002  0.11332503865072668        0.0000000000000000     
  -4.2086334941054127E-002  0.12036390918291522        0.0000000000000000     
  -4.3178763538643965E-002  0.12757742112418635        0.0000000000000000     
  -4.4258722284596673E-002  0.13496557447454008        0.0000000000000000     
  -2.1655255060255882E-002  0.13412816884637838        0.0000000000000000     
  -2.2168944159557301E-002  0.14169843077848943        0.0000000000000000     
  -2.2619204422160980E-002  0.14931492049094233        0.0000000000000000     
  -2.3006035848066930E-002  0.15697763798373701        0.0000000000000000     
  -2.3329438437275144E-002  0.16468658325687352        0.0000000000000000     
  -2.7203970170716713E-002  0.13428180861788452        0.0000000000000000     
  -2.7852303289326582E-002  0.14183857426047977        0.0000000000000000     
  -2.8420105134168788E-002  0.14944336288528545        0.0000000000000000     
  -2.8907375705243342E-002  0.15709617449230157        0.0000000000000000     
  -2.9314115002550236E-002  0.16479700908152803        0.0000000000000000     
  -3.2820786411593791E-002  0.13447258947974683        0.0000000000000000     
  -3.3598541915117928E-002  0.14201349096747154        0.0000000000000000     
  -3.4283040655312721E-002  0.14960417438364729        0.0000000000000000     
  -3.4874282632178170E-002  0.15724463972827407        0.0000000000000000     
  -3.5372267845714268E-002  0.16493488700135192        0.0000000000000000     
  -3.8505703782887112E-002  0.13470051143196535        0.0000000000000000     
  -3.9407660036931337E-002  0.14222318089946473        0.0000000000000000     
  -4.0208010985592776E-002  0.14979735498602781        0.0000000000000000     
  -4.0906756628871402E-002  0.15742303369165461        0.0000000000000000     
  -4.1503896966767241E-002  0.16510021701634514        0.0000000000000000     
  -4.4258722284596673E-002  0.13496557447454008        0.0000000000000000     
  -4.5279657654766825E-002  0.14246764405645929        0.0000000000000000     
  -4.6195016125008946E-002  0.15002290469242696        0.0000000000000000     
  -4.7004797695323057E-002  0.15763135638244313        0.0000000000000000     
  -4.7709002365709144E-002  0.16529299912650774        0.0000000000000000     
   0.0000000000000000        0.0000000000000000        0.0000000000000000     
  -1.7983292250997795E-003   1.2768711745418946E-003   0.0000000000000000     
  -3.6213548826984541E-003   2.9392042439940289E-003   0.0000000000000000     
  -5.4690769727960241E-003   4.9869992083564013E-003   0.0000000000000000     
  -7.3414954953924891E-003   7.4202560676290144E-003   0.0000000000000000     
   0.0000000000000000        0.0000000000000000        0.0000000000000000     
  -2.0694059675681114E-003   1.3550060981798685E-003   0.0000000000000000     
  -4.1640292850079015E-003   3.0940572542621156E-003   0.0000000000000000     
  -6.2838699523193693E-003   5.2171534682467404E-003   0.0000000000000000     
  -8.4289279695025140E-003   7.7242947401337421E-003   0.0000000000000000     
   0.0000000000000000        0.0000000000000000        0.0000000000000000     
  -2.3400516145626153E-003   1.4590407458772861E-003   0.0000000000000000     
  -4.7201315832685383E-003   3.2999125380546567E-003   0.0000000000000000     
  -7.1402399061177690E-003   5.5226153765321126E-003   0.0000000000000000     
  -9.6003765831103073E-003   8.1271492613096529E-003   0.0000000000000000     
   0.0000000000000000        0.0000000000000000        0.0000000000000000     
  -2.6102661660832908E-003   1.5889751176341464E-003   0.0000000000000000     
  -5.2896617774803659E-003   3.5567700953716532E-003   0.0000000000000000     
  -8.0381868341912258E-003   5.9033849332125214E-003   0.0000000000000000     
  -1.0855841336215871E-002   8.6288196311567495E-003   0.0000000000000000     
   0.0000000000000000        0.0000000000000000        0.0000000000000000     
  -2.8800496221301369E-003   1.7448092134504495E-003   0.0000000000000000     
  -5.8726198676433833E-003   3.8646299262131050E-003   0.0000000000000000     
  -8.9777107365397388E-003   6.3594621382879650E-003   0.0000000000000000     
  -1.2195322228819205E-002   9.2293058496750319E-003   0.0000000000000000     
  -7.3414954953924891E-003   7.4202560676290144E-003   0.0000000000000000     
  -9.2309162619561361E-003   1.0186585709253397E-002   0.0000000000000000     
  -1.1129645083955258E-002   1.3233599020671076E-002   0.0000000000000000     
  -1.3037681961389852E-002   1.6561296001882053E-002   0.0000000000000000     
  -1.4955026894259919E-002   2.0169676652886329E-002   0.0000000000000000     
  -8.4289279695025140E-003   7.7242947401337421E-003   0.0000000000000000     
  -1.0590812897604440E-002   1.0558117490793053E-002   0.0000000000000000     
  -1.2761134297672257E-002   1.3661258141094609E-002   0.0000000000000000     
  -1.4939892169705961E-002   1.7033716691038408E-002   0.0000000000000000     
  -1.7127086513705550E-002   2.0675493140624446E-002   0.0000000000000000     
  -9.6003765831103073E-003   8.1271492613096529E-003   0.0000000000000000     
  -1.2076911822428475E-002   1.1046191596473172E-002   0.0000000000000000     
  -1.4546215832254596E-002   1.4212419786108566E-002   0.0000000000000000     
  -1.7008288612588671E-002   1.7625833830215838E-002   0.0000000000000000     
  -1.9463130163430688E-002   2.1286433728794969E-002   0.0000000000000000     
  -1.0855841336215871E-002   8.6288196311567495E-003   0.0000000000000000     
  -1.3689213036428241E-002   1.1650808026293752E-002   0.0000000000000000     
  -1.6484889687702276E-002   1.4887083955712949E-002   0.0000000000000000     
  -1.9242871290037974E-002   1.8337647419414325E-002   0.0000000000000000     
  -2.1963157843435343E-002   2.2002498417397900E-002   0.0000000000000000     
  -1.2195322228819205E-002   9.2293058496750319E-003   0.0000000000000000     
  -1.5427716539603738E-002   1.2371966780254795E-002   0.0000000000000000     
  -1.8577155864015298E-002   1.5685250649907750E-002   0.0000000000000000     
  -2.1643640202053883E-002   1.9169157458633897E-002   0.0000000000000000     
  -2.4627169553719502E-002   2.2823687206433237E-002   0.0000000000000000     
  -1.4955026894259919E-002   2.0169676652886329E-002   0.0000000000000000     
  -1.6856460120245137E-002   2.4030161893945332E-002   0.0000000000000000     
  -1.8716761877025190E-002   2.8114172645320505E-002   0.0000000000000000     
  -2.0535932164600076E-002   3.2421708907011834E-002   0.0000000000000000     
  -2.2313970982969798E-002   3.6952770679019316E-002   0.0000000000000000     
  -1.7127086513705550E-002   2.0675493140624446E-002   0.0000000000000000     
  -1.9291661917875541E-002   2.4558882445345747E-002   0.0000000000000000     
  -2.1402562970420456E-002   2.8656179560695307E-002   0.0000000000000000     
  -2.3459789671340284E-002   3.2967384486673128E-002   0.0000000000000000     
  -2.5463342020635028E-002   3.7492497223279221E-002   0.0000000000000000     
  -1.9463130163430688E-002   2.1286433728794969E-002   0.0000000000000000     
  -2.1882626134958637E-002   2.5175426284345496E-002   0.0000000000000000     
  -2.4238662177350472E-002   2.9274018299366909E-002   0.0000000000000000     
  -2.6531238290606204E-002   3.3582209773859228E-002   0.0000000000000000     
  -2.8760354474725826E-002   3.8100000707822421E-002   0.0000000000000000     
  -2.1963157843435343E-002   2.2002498417397900E-002   0.0000000000000000     
  -2.4629352771494417E-002   2.5879793410944596E-002   0.0000000000000000     
  -2.7225059497815250E-002   2.9967688861335329E-002   0.0000000000000000     
  -2.9750278022397842E-002   3.4266184768570108E-002   0.0000000000000000     
  -3.2205008345242196E-002   3.8775281132648935E-002   0.0000000000000000     
  -2.4627169553719502E-002   2.2823687206433237E-002   0.0000000000000000     
  -2.7531841827482886E-002   2.6671983825143030E-002   0.0000000000000000     
  -3.0361754931814783E-002   3.0737191246600550E-002   0.0000000000000000     
  -3.3116908866715193E-002   3.5019309470805789E-002   0.0000000000000000     
  -3.5797303632184120E-002   3.9518338497758751E-002   0.0000000000000000     
  -2.2313970982969798E-002   3.6952770679019316E-002   0.0000000000000000     
  -2.4047777884409340E-002   4.1698416525331877E-002   0.0000000000000000     
  -2.5734252421193697E-002   4.6649705009938425E-002   0.0000000000000000     
  -2.7373394593322862E-002   5.1806636132838951E-002   0.0000000000000000     
  -2.8965204400796838E-002   5.7169209894033471E-002   0.0000000000000000     
  -2.5463342020635028E-002   3.7492497223279221E-002   0.0000000000000000     
  -2.7413382444808353E-002   4.2227271845984390E-002   0.0000000000000000     
  -2.9310073370363909E-002   4.7167462430259460E-002   0.0000000000000000     
  -3.1153414797301705E-002   5.2313068976104417E-002   0.0000000000000000     
  -3.2943406725621738E-002   5.7664091483519267E-002   0.0000000000000000     
  -2.8760354474725826E-002   3.8100000707822421E-002   0.0000000000000000     
  -3.0927824138496242E-002   4.2824431371080759E-002   0.0000000000000000     
  -3.3035460690704364E-002   4.7752542033458439E-002   0.0000000000000000     
  -3.5083264131350170E-002   5.2884332694955474E-002   0.0000000000000000     
  -3.7071234460433672E-002   5.8219803355571857E-002   0.0000000000000000     
  -3.2205008345242196E-002   3.8775281132648935E-002   0.0000000000000000     
  -3.4591102965473013E-002   4.3489895100620977E-002   0.0000000000000000     
  -3.6910414382215026E-002   4.8404943819535362E-002   0.0000000000000000     
  -3.9162942595468250E-002   5.3520427289392117E-002   0.0000000000000000     
  -4.1348687605232665E-002   5.8836345510191228E-002   0.0000000000000000     
  -3.5797303632184120E-002   3.9518338497758751E-002   0.0000000000000000     
  -3.8403218925738669E-002   4.4223663034605037E-002   0.0000000000000000     
  -4.0934934444895946E-002   4.9124667788490235E-002   0.0000000000000000     
  -4.3392450189655950E-002   5.4221352759414351E-002   0.0000000000000000     
  -4.5775766160018681E-002   5.9513717947377393E-002   0.0000000000000000     
  -2.8965204400796838E-002   5.7169209894033471E-002   0.0000000000000000     
  -3.0509685388003298E-002   6.2726649109200255E-002   0.0000000000000000     
  -3.2006841099329920E-002   6.8468176594017577E-002   0.0000000000000000     
  -3.3456671534776709E-002   7.4393792348485491E-002   0.0000000000000000     
  -3.4859176694343665E-002   8.0503496372603942E-002   0.0000000000000000     
  -3.2943406725621738E-002   5.7664091483519267E-002   0.0000000000000000     
  -3.4679661086208680E-002   6.3209119634755645E-002   0.0000000000000000     
  -3.6361789809947240E-002   6.8936743112065157E-002   0.0000000000000000     
  -3.7989792896837404E-002   7.4846961915447832E-002   0.0000000000000000     
  -3.9563670346879166E-002   8.0939776044903655E-002   0.0000000000000000     
  -3.7071234460433672E-002   5.8219803355571857E-002   0.0000000000000000     
  -3.8999167820377767E-002   6.3748195544976446E-002   0.0000000000000000     
  -4.0866860353605317E-002   6.9458750792838073E-002   0.0000000000000000     
  -4.2674312060116328E-002   7.5351469099156743E-002   0.0000000000000000     
  -4.4421522939910786E-002   8.1426350463932443E-002   0.0000000000000000     
  -4.1348687605232665E-002   5.8836345510191228E-002   0.0000000000000000     
  -4.3468205590510532E-002   6.4343876839862632E-002   0.0000000000000000     
  -4.5522052730304144E-002   7.0034199636336308E-002   0.0000000000000000     
  -4.7510229024613472E-002   7.5907313899612180E-002   0.0000000000000000     
  -4.9432734473438537E-002   8.1963219629690318E-002   0.0000000000000000     
  -4.5775766160018681E-002   5.9513717947377393E-002   0.0000000000000000     
  -4.8086774396606996E-002   6.4996163519414257E-002   0.0000000000000000     
  -5.0327366940043715E-002   7.0663089642559837E-002   0.0000000000000000     
  -5.2497543790328852E-002   7.6514496316814173E-002   0.0000000000000000     
  -5.4597304947462399E-002   8.2550383542177252E-002   0.0000000000000000     
  -3.4859176694343665E-002   8.0503496372603942E-002   0.0000000000000000     
  -3.6206114304102650E-002   8.6777139564000280E-002   0.0000000000000000     
  -3.7489242090125538E-002   9.3194572820301871E-002   0.0000000000000000     
  -3.8708560052412348E-002   9.9755796141508674E-002   0.0000000000000000     
  -3.9864068190963053E-002  0.10646080952762073        0.0000000000000000     
  -3.9563670346879166E-002   8.0939776044903655E-002   0.0000000000000000     
  -4.1075752096012712E-002   8.7196346649440440E-002   0.0000000000000000     
  -4.2518368080178212E-002   9.3597834878066014E-002   0.0000000000000000     
  -4.3891518299375674E-002  0.10014424073078036        0.0000000000000000     
  -4.5195202753605085E-002  0.10683556420758350        0.0000000000000000     
  -4.4421522939910786E-002   8.1426350463932443E-002   0.0000000000000000     
  -4.6100158256982382E-002   8.7665087394062591E-002   0.0000000000000000     
  -4.7701883275324743E-002   9.4049372396444550E-002   0.0000000000000000     
  -4.9226697994937875E-002  0.10057920547107831        0.0000000000000000     
  -5.0674602415821793E-002  0.10725458661796392        0.0000000000000000     
  -4.9432734473438537E-002   8.1963219629690318E-002   0.0000000000000000     
  -5.1279332787011654E-002   8.8183361797866733E-002   0.0000000000000000     
  -5.3039787675565137E-002   9.4549185375437481E-002   0.0000000000000000     
  -5.4714099139098978E-002  0.10106069036240255        0.0000000000000000     
  -5.6302267177613198E-002  0.10771787675876195        0.0000000000000000     
  -5.4597304947462399E-002   8.2550383542177252E-002   0.0000000000000000     
  -5.6613275686100528E-002   8.8751169860852852E-002   0.0000000000000000     
  -5.8532081280899373E-002   9.5097273815044792E-002   0.0000000000000000     
  -6.0353721731858954E-002  0.10158869540475304        0.0000000000000000     
  -6.2078197038979273E-002  0.10822543462997761        0.0000000000000000     
  -3.9864068190963053E-002  0.10646080952762073        0.0000000000000000     
  -4.0981436491827145E-002  0.11332503865072668        0.0000000000000000     
  -4.2086334941054127E-002  0.12036390918291522        0.0000000000000000     
  -4.3178763538643965E-002  0.12757742112418635        0.0000000000000000     
  -4.4258722284596673E-002  0.13496557447454008        0.0000000000000000     
  -4.5195202753605085E-002  0.10683556420758350        0.0000000000000000     
  -4.6455230910314310E-002  0.11368532215649729        0.0000000000000000     
  -4.7697412236951238E-002  0.12070703142554358        0.0000000000000000     
  -4.8921746733515840E-002  0.12790069201472237        0.0000000000000000     
  -5.0128234400008118E-002  0.13526630392403369        0.0000000000000000     
  -5.0674602415821793E-002  0.10725458661796392        0.0000000000000000     
  -5.2074691256747845E-002  0.11408736791016287        0.0000000000000000     
  -5.3456059236487413E-002  0.12108940142073668        0.0000000000000000     
  -5.4818706355040499E-002  0.12826068714968539        0.0000000000000000     
  -5.6162632612407080E-002  0.13560122509700898        0.0000000000000000     
  -5.6302267177613198E-002  0.10771787675876195        0.0000000000000000     
  -5.7839817531127775E-002  0.11453117591172338        0.0000000000000000     
  -5.9362275939662680E-002  0.12151101916849449        0.0000000000000000     
  -6.0869642403217947E-002  0.12865740652907534        0.0000000000000000     
  -6.2361916921793568E-002  0.13597033799346589        0.0000000000000000     
  -6.2078197038979273E-002  0.10822543462997761        0.0000000000000000     
  -6.3750609733454061E-002  0.11501674616117884        0.0000000000000000     
  -6.5416062346477025E-002  0.12197188466881706        0.0000000000000000     
  -6.7074554878048184E-002  0.12909085015289229        0.0000000000000000     
  -6.8726087328167568E-002  0.13637364261340448        0.0000000000000000     
  -4.4258722284596673E-002  0.13496557447454008        0.0000000000000000     
  -4.5279657654766825E-002  0.14246764405645929        0.0000000000000000     
  -4.6195016125008946E-002  0.15002290469242696        0.0000000000000000     
  -4.7004797695323057E-002  0.15763135638244313        0.0000000000000000     
  -4.7709002365709144E-002  0.16529299912650774        0.0000000000000000     
  -5.0128234400008118E-002  0.13526630392403369        0.0000000000000000     
  -5.1270129577922686E-002  0.14274575446003729        0.0000000000000000     
  -5.2300686608754136E-002  0.15028093092929298        0.0000000000000000     
  -5.3219905492502453E-002  0.15787183333180080        0.0000000000000000     
  -5.4027786229167651E-002  0.16551846166756068        0.0000000000000000     
  -5.6162632612407080E-002  0.13560122509700898        0.0000000000000000     
  -5.7434670615697292E-002  0.14305638613178073        0.0000000000000000     
  -5.8581652972021274E-002  0.15057154112307400        0.0000000000000000     
  -5.9603579681378978E-002  0.15814669007088875        0.0000000000000000     
  -6.0500450743770424E-002  0.16578183297522500        0.0000000000000000     
  -6.2361916921793568E-002  0.13597033799346589        0.0000000000000000     
  -6.3773280768090634E-002  0.14339953907168965        0.0000000000000000     
  -6.5037915214810324E-002  0.15089473527377001        0.0000000000000000     
  -6.6155820261952603E-002  0.15845592659970698        0.0000000000000000     
  -6.7126995909517470E-002  0.16608311304950063        0.0000000000000000     
  -6.8726087328167568E-002  0.13637364261340448        0.0000000000000000     
  -7.0285960035102735E-002  0.14377521327976397        0.0000000000000000     
  -7.1669473337121328E-002  0.15125051338138099        0.0000000000000000     
  -7.2876627234223335E-002  0.15879954291825554        0.0000000000000000     
  -7.3907421726408767E-002  0.16642230189038765        0.0000000000000000     
   0.0000000000000000        0.0000000000000000        0.0000000000000000     
  -2.8800496221301369E-003   1.7448092134504495E-003   0.0000000000000000     
  -5.8726198676433833E-003   3.8646299262131050E-003   0.0000000000000000     
  -8.9777107365397388E-003   6.3594621382879650E-003   0.0000000000000000     
  -1.2195322228819205E-002   9.2293058496750319E-003   0.0000000000000000     
   0.0000000000000000        0.0000000000000000        0.0000000000000000     
  -3.2832231090484500E-003   1.9992501887190111E-003   0.0000000000000000     
  -6.6769656119427352E-003   4.3308555240840017E-003   0.0000000000000000     
  -1.0181227508682857E-002   6.9948160060949727E-003   0.0000000000000000     
  -1.3796008799268815E-002   9.9911316347519232E-003   0.0000000000000000     
   0.0000000000000000        0.0000000000000000        0.0000000000000000     
  -3.9536077531835256E-003   2.4250051988326453E-003   0.0000000000000000     
  -7.9106587685635697E-003   5.0628103824893363E-003   0.0000000000000000     
  -1.1871153046140131E-002   7.9134155509700699E-003   0.0000000000000000     
  -1.5835090585913213E-002   1.0976820704274852E-002   0.0000000000000000     
   0.0000000000000000        0.0000000000000000        0.0000000000000000     
  -4.8912035545353640E-003   3.0220742437913517E-003   0.0000000000000000     
  -9.5736993375058841E-003   6.0604945014291070E-003   0.0000000000000000     
  -1.4047487348911560E-002   9.1152607729132629E-003   0.0000000000000000     
  -1.8312567588752399E-002   1.2186373058243823E-002   0.0000000000000000     
   0.0000000000000000        0.0000000000000000        0.0000000000000000     
  -6.0960105131039636E-003   3.7904573235951321E-003   0.0000000000000000     
  -1.1666087318769679E-002   7.3239078809033149E-003   0.0000000000000000     
  -1.6710230416997145E-002   1.0600351671924546E-002   0.0000000000000000     
  -2.1228439807786367E-002   1.3619788696658829E-002   0.0000000000000000     
  -1.2195322228819205E-002   9.2293058496750319E-003   0.0000000000000000     
  -1.5427716539603738E-002   1.2371966780254795E-002   0.0000000000000000     
  -1.8577155864015298E-002   1.5685250649907750E-002   0.0000000000000000     
  -2.1643640202053883E-002   1.9169157458633897E-002   0.0000000000000000     
  -2.4627169553719502E-002   2.2823687206433237E-002   0.0000000000000000     
  -1.3796008799268815E-002   9.9911316347519232E-003   0.0000000000000000     
  -1.7404282647656543E-002   1.3221589970814768E-002   0.0000000000000000     
  -2.0889022217801981E-002   1.6587978575043426E-002   0.0000000000000000     
  -2.4250227509705125E-002   2.0090297447437896E-002   0.0000000000000000     
  -2.7487898523365979E-002   2.3728546587998178E-002   0.0000000000000000     
  -1.5835090585913213E-002   1.0976820704274852E-002   0.0000000000000000     
  -1.9730771676288242E-002   1.4211599710432149E-002   0.0000000000000000     
  -2.3486496605670641E-002   1.7576326437470424E-002   0.0000000000000000     
  -2.7102265374060429E-002   2.1071000885389681E-002   0.0000000000000000     
  -3.0578077981457581E-002   2.4695623054189923E-002   0.0000000000000000     
  -1.8312567588752399E-002   1.2186373058243823E-002   0.0000000000000000     
  -2.2407183625498827E-002   1.5341995999106932E-002   0.0000000000000000     
  -2.6369579027621295E-002   1.8650294237188742E-002   0.0000000000000000     
  -3.0199753795119785E-002   2.2111267772489254E-002   0.0000000000000000     
  -3.3897707927994312E-002   2.5724916605008467E-002   0.0000000000000000     
  -2.1228439807786367E-002   1.3619788696658829E-002   0.0000000000000000     
  -2.5433518495288306E-002   1.6612778836839124E-002   0.0000000000000000     
  -2.9538269483653914E-002   1.9809881974198383E-002   0.0000000000000000     
  -3.3542692772883208E-002   2.3211098108736616E-002   0.0000000000000000     
  -3.7446788362976172E-002   2.6816427240453820E-002   0.0000000000000000     
  -2.4627169553719502E-002   2.2823687206433237E-002   0.0000000000000000     
  -2.7531841827482886E-002   2.6671983825143030E-002   0.0000000000000000     
  -3.0361754931814783E-002   3.0737191246600550E-002   0.0000000000000000     
  -3.3116908866715193E-002   3.5019309470805789E-002   0.0000000000000000     
  -3.5797303632184120E-002   3.9518338497758751E-002   0.0000000000000000     
  -2.7487898523365979E-002   2.3728546587998178E-002   0.0000000000000000     
  -3.0624841446637647E-002   2.7545897936200943E-002   0.0000000000000000     
  -3.3683862467373246E-002   3.1585523431522884E-002   0.0000000000000000     
  -3.6664961585572760E-002   3.5847423073963998E-002   0.0000000000000000     
  -3.9568138801236219E-002   4.0331596863524291E-002   0.0000000000000000     
  -3.0578077981457581E-002   2.4695623054189923E-002   0.0000000000000000     
  -3.3943099772672305E-002   2.8495436153378465E-002   0.0000000000000000     
  -3.7226496092514806E-002   3.2515683392462656E-002   0.0000000000000000     
  -4.0428266940985044E-002   3.6756364771442493E-002   0.0000000000000000     
  -4.3548412318083068E-002   4.1217480290317972E-002   0.0000000000000000     
  -3.3897707927994312E-002   2.5724916605008467E-002   0.0000000000000000     
  -3.7486616805586875E-002   2.9520598476675597E-002   0.0000000000000000     
  -4.0989655807239456E-002   3.3527671129419859E-002   0.0000000000000000     
  -4.4406824932952053E-002   3.7746134563241267E-002   0.0000000000000000     
  -4.7738124182724689E-002   4.2175988778139821E-002   0.0000000000000000     
  -3.7446788362976172E-002   2.6816427240453820E-002   0.0000000000000000     
  -4.1255392545381339E-002   3.0621384906092331E-002   0.0000000000000000     
  -4.4973341611547202E-002   3.4621486642394499E-002   0.0000000000000000     
  -4.8600635561473780E-002   3.8816732449360319E-002   0.0000000000000000     
  -5.2137274395161061E-002   4.3207122326989797E-002   0.0000000000000000     
  -3.5797303632184120E-002   3.9518338497758751E-002   0.0000000000000000     
  -3.8403218925738669E-002   4.4223663034605037E-002   0.0000000000000000     
  -4.0934934444895946E-002   4.9124667788490235E-002   0.0000000000000000     
  -4.3392450189655950E-002   5.4221352759414351E-002   0.0000000000000000     
  -4.5775766160018681E-002   5.9513717947377393E-002   0.0000000000000000     
  -3.9568138801236219E-002   4.0331596863524291E-002   0.0000000000000000     
  -4.2391554878278948E-002   4.5022940745356468E-002   0.0000000000000000     
  -4.5133370580616304E-002   4.9906350664613248E-002   0.0000000000000000     
  -4.7793585908248309E-002   5.4981826621294652E-002   0.0000000000000000     
  -5.0372200861174943E-002   6.0249368615400652E-002   0.0000000000000000     
  -4.3548412318083068E-002   4.1217480290317972E-002   0.0000000000000000     
  -4.6583493682079591E-002   4.5884933805198778E-002   0.0000000000000000     
  -4.9530072491245351E-002   5.0744629172194619E-002   0.0000000000000000     
  -5.2388148745580350E-002   5.5796566391305480E-002   0.0000000000000000     
  -5.5157722445084593E-002   6.1040745462531368E-002   0.0000000000000000     
  -4.7738124182724689E-002   4.2175988778139821E-002   0.0000000000000000     
  -5.0979035337140606E-002   4.6809642214131995E-002   0.0000000000000000     
  -5.4125040176783074E-002   5.1639503311234361E-002   0.0000000000000000     
  -5.7176138701652085E-002   5.6665572069446862E-002   0.0000000000000000     
  -6.0132330911747661E-002   6.1887848488769520E-002   0.0000000000000000     
  -5.2137274395161061E-002   4.3207122326989797E-002   0.0000000000000000     
  -5.5578179843461979E-002   4.7797065972156105E-002   0.0000000000000000     
  -5.8918273637229464E-002   5.2590973081732433E-002   0.0000000000000000     
  -6.2157555776463515E-002   5.7588843655718772E-002   0.0000000000000000     
  -6.5296026261164125E-002   6.2790677694115116E-002   0.0000000000000000     
  -4.5775766160018681E-002   5.9513717947377393E-002   0.0000000000000000     
  -4.8086774396606996E-002   6.4996163519414257E-002   0.0000000000000000     
  -5.0327366940043715E-002   7.0663089642559837E-002   0.0000000000000000     
  -5.2497543790328852E-002   7.6514496316814173E-002   0.0000000000000000     
  -5.4597304947462399E-002   8.2550383542177252E-002   0.0000000000000000     
  -5.0372200861174943E-002   6.0249368615400652E-002   0.0000000000000000     
  -5.2872636887441100E-002   6.5705779457036442E-002   0.0000000000000000     
  -5.5298315435091699E-002   7.1347861956307185E-002   0.0000000000000000     
  -5.7649236504126712E-002   7.7175616113212858E-002   0.0000000000000000     
  -5.9925400094546173E-002   8.3189041927753504E-002   0.0000000000000000     
  -5.5157722445084593E-002   6.1040745462531368E-002   0.0000000000000000     
  -5.7843555711786808E-002   6.6473448526134418E-002   0.0000000000000000     
  -6.0450410667715726E-002   7.2090957722376725E-002   0.0000000000000000     
  -6.2978287312871320E-002   7.7893273051258358E-002   0.0000000000000000     
  -6.5427185647253625E-002   8.3880394512779302E-002   0.0000000000000000     
  -6.0132330911747661E-002   6.1887848488769520E-002   0.0000000000000000     
  -6.2999530869644105E-002   6.7299170726708157E-002   0.0000000000000000     
  -6.5783652637915788E-002   7.2892376940768527E-002   0.0000000000000000     
  -6.8484696216562682E-002   7.8667467130950700E-002   0.0000000000000000     
  -7.1102661605584774E-002   8.4624441297254632E-002   0.0000000000000000     
  -6.5296026261164125E-002   6.2790677694115116E-002   0.0000000000000000     
  -6.8340562361013019E-002   6.8182946058757674E-002   0.0000000000000000     
  -7.1298041345691898E-002   7.3752119611482578E-002   0.0000000000000000     
  -7.4168463215200750E-002   7.9498198352289870E-002   0.0000000000000000     
  -7.6951827969539588E-002   8.5421182281179509E-002   0.0000000000000000     
  -5.4597304947462399E-002   8.2550383542177252E-002   0.0000000000000000     
  -5.6613275686100528E-002   8.8751169860852852E-002   0.0000000000000000     
  -5.8532081280899373E-002   9.5097273815044792E-002   0.0000000000000000     
  -6.0353721731858954E-002  0.10158869540475304        0.0000000000000000     
  -6.2078197038979273E-002  0.10822543462997761        0.0000000000000000     
  -5.9925400094546173E-002   8.3189041927753504E-002   0.0000000000000000     
  -6.2110579009851043E-002   8.9368001959442112E-002   0.0000000000000000     
  -6.4188546053542295E-002   9.5692358767791669E-002   0.0000000000000000     
  -6.6159301225619957E-002  0.10216211235280219        0.0000000000000000     
  -6.8022844526083995E-002  0.10877726271447370        0.0000000000000000     
  -6.5427185647253625E-002   8.3880394512779302E-002   0.0000000000000000     
  -6.7779834813865222E-002   9.0033348470055577E-002   0.0000000000000000     
  -7.0018963955708724E-002   9.6333161286203312E-002   0.0000000000000000     
  -7.2144573072784046E-002  0.10277983296122245        0.0000000000000000     
  -7.4156662165091314E-002  0.10937336349511302        0.0000000000000000     
  -7.1102661605584774E-002   8.4624441297254632E-002   0.0000000000000000     
  -7.3621043098143074E-002   9.0747209392693318E-002   0.0000000000000000     
  -7.6023334987398591E-002   9.7019681370279678E-002   0.0000000000000000     
  -7.8309537273351285E-002  0.10344185723001378        0.0000000000000000     
  -8.0479649956001181E-002  0.11001373697189556        0.0000000000000000     
  -7.6951827969539588E-002   8.5421182281179509E-002   0.0000000000000000     
  -7.9634203862684591E-002   9.1509584727355264E-002   0.0000000000000000     
  -8.2201659148611952E-002   9.7751919020020811E-002   0.0000000000000000     
  -8.4654193827321617E-002  0.10414818515917619        0.0000000000000000     
  -8.6991807898813639E-002  0.11069838314482139        0.0000000000000000     
  -6.2078197038979273E-002  0.10822543462997761        0.0000000000000000     
  -6.3750609733454061E-002  0.11501674616117884        0.0000000000000000     
  -6.5416062346477025E-002  0.12197188466881706        0.0000000000000000     
  -6.7074554878048184E-002  0.12909085015289229        0.0000000000000000     
  -6.8726087328167568E-002  0.13637364261340448        0.0000000000000000     
  -6.8022844526083995E-002  0.10877726271447370        0.0000000000000000     
  -6.9831833147452019E-002  0.11554601859296111        0.0000000000000000     
  -7.1638924282241542E-002  0.12247658872841939        0.0000000000000000     
  -7.3444117930452607E-002  0.12956897312084859        0.0000000000000000     
  -7.5247414092085213E-002  0.13682317177024861        0.0000000000000000     
  -7.4156662165091314E-002  0.10937336349511302        0.0000000000000000     
  -7.6108253056846903E-002  0.11612093314150204        0.0000000000000000     
  -7.8052367572267314E-002  0.12302972215401657        0.0000000000000000     
  -7.9989005711352562E-002  0.13009973053265658        0.0000000000000000     
  -8.1918167474102646E-002  0.13733095827742206        0.0000000000000000     
  -8.0479649956001181E-002  0.11001373697189556        0.0000000000000000     
  -8.2579869461638727E-002  0.11674148980680167        0.0000000000000000     
  -8.4656392216554327E-002  0.12363128494560859        0.0000000000000000     
  -8.6709218220748022E-002  0.13068312238831634        0.0000000000000000     
  -8.8738347474219825E-002  0.13789700213492492        0.0000000000000000     
  -8.6991807898813639E-002  0.11069838314482139        0.0000000000000000     
  -8.9246682361827478E-002  0.11740768858885994        0.0000000000000000     
  -9.1450998215102622E-002  0.12428127710319543        0.0000000000000000     
  -9.3604755458639069E-002  0.13131914868782785        0.0000000000000000     
  -9.5707954092436820E-002  0.13852130334275720        0.0000000000000000     
  -6.8726087328167568E-002  0.13637364261340448        0.0000000000000000     
  -7.0285960035102735E-002  0.14377521327976397        0.0000000000000000     
  -7.1669473337121328E-002  0.15125051338138099        0.0000000000000000     
  -7.2876627234223335E-002  0.15879954291825554        0.0000000000000000     
  -7.3907421726408767E-002  0.16642230189038765        0.0000000000000000     
  -7.5247414092085213E-002  0.13682317177024861        0.0000000000000000     
  -7.6950596511297667E-002  0.14419723628580419        0.0000000000000000     
  -7.8455448932248345E-002  0.15164921827670005        0.0000000000000000     
  -7.9761971354937219E-002  0.15917911774293619        0.0000000000000000     
  -8.0870163779364318E-002  0.16678693468451264        0.0000000000000000     
  -8.1918167474102646E-002  0.13733095827742206        0.0000000000000000     
  -8.3745078291239589E-002  0.14467943561961075        0.0000000000000000     
  -8.5374963593485509E-002  0.15210119279052034        0.0000000000000000     
  -8.6807823380840324E-002  0.15959622979015087        0.0000000000000000     
  -8.8043657653304103E-002  0.16716454661850219        0.0000000000000000     
  -8.8738347474219825E-002  0.13789700213492492        0.0000000000000000     
  -9.0669405374928458E-002  0.14522181128118367        0.0000000000000000     
  -9.2428017320832723E-002  0.15260643692284179        0.0000000000000000     
  -9.4014183311932606E-002  0.16005087905989937        0.0000000000000000     
  -9.5427903348228135E-002  0.16755513769235633        0.0000000000000000     
  -9.5707954092436820E-002  0.13852130334275720        0.0000000000000000     
  -9.7723577762364316E-002  0.14582436327052292        0.0000000000000000     
  -9.9614610114290097E-002  0.15316495067366445        0.0000000000000000     
 -0.10138105114821414       0.16054306555218187        0.0000000000000000     
 -0.10302290086413640       0.16795870790607506        0.0000000000000000     
 </DataArray>
 <DataArray  type="Float64" Name="stress" NumberOfComponents="3" format="ascii">
   13416743453.831860        4025023036.1495576        2894001752.5829525     
   11766501899.558346        1890193583.4637451        1715845959.2804620     
   10313620848.990631        413232476.46392775        810746205.58335125     
   9058100302.1287136       -405860284.84989738        178702491.49162197     
   7999940258.9725962       -567084700.47772694       -180285182.99472663     
   10540077235.347630        3162023170.6042886        2225650144.1721482     
   9667583682.1686649        1589441065.1092343        1446680027.6725123     
   8943776221.6296577        512479268.41402483        863172176.90389860     
   8368654853.7306032       -68862219.481340408        475126591.86630696     
   7942219578.4715014       -154583398.57685995        282543272.55973524     
   8338045443.1634369        2501413632.9490314        1712200767.9327257     
   8021603394.2951431        1424569925.6095698        1275629515.3257926     
   7805173027.0009556        681098490.18380308        956926754.57552183     
   7688754341.2808800        270999326.67173243        756092485.68191373     
   7672347337.1349087        194272435.07335567        673126708.64496994     
   6810648077.2792826        2043194423.1837847        1353653623.8646836     
   6828561035.9377718        1395580164.9647508        1202694422.2403011     
   6897811265.1045256        919090141.77326298        1092009938.5982220     
   7018398764.7795429        613724353.60932064        1021600172.9384458     
   7190323534.9628229        479482800.47292423        991465125.26097453     
   5957885137.6951637        1787365541.3085492        1150008711.9680228     
   6088456607.0965538        1502471783.1747782        1227874748.4160383     
   6221690935.9403639        1226454223.1824036        1268421728.9719982     
   6357588124.2265921        959312861.33142519        1271649653.6359029     
   6496148171.9552412        701047697.62184453        1237558522.4077523     
   7999940258.9725962       -567084700.47772694       -180285182.99472663     
   7917620050.8477955       -199388119.62181664       -78461310.410055801     
   7793655193.5057774        29492963.843368530       -9108802.7871054150     
   7628045686.9465389        119558549.91782188        27772339.874119632     
   7420791531.1700840        70808638.601551533        32182117.573625665     
   7942219578.4715014       -154583398.57685995        282543272.55973524     
   7739770759.6621132        16799267.135895252        281048994.55024976     
   7513849853.4040041        109941641.35290003        264922669.08583939     
   7264456859.6971684        124843724.07415533        234164296.16650593     
   6991591778.5416050        61505515.299658298        188773875.79225099     
   7672347337.1349087        194272435.07335567        673126708.64496994     
   7400739386.2317924        184632029.22021341        589515602.10456514     
   7123831909.6484423        157326537.76629686        509111765.61603987     
   6841624907.3848600        112355960.71160388        431915199.17938823     
   6554118379.4410467        49720298.056138754        357925902.79461378     
   7190323534.9628229        479482800.47292423        991465125.26097453     
   6900525930.5568285        304110166.63114023        846938512.25289786     
   6623601362.2390938        171647653.08355713        723458486.80349565     
   6359549830.0096207        82095259.830174923        621025048.91276836     
   6108371333.8684063        35452986.870996952        539638198.58071506     
   6496148171.9552412        701047697.62184453        1237558522.4077523     
   6239130392.6372242        375233679.36867428        1053317724.9952427     
   6013158211.1759586        152904987.30468130        907962832.64820695     
   5818231627.5714455        34061621.429866552        801493845.36664581     
   5654350641.8236895        18703581.744230032        733910763.15055680     
   7420791531.1700840        70808638.601551533        32182117.573625665     
   7219404825.0412149       -20287638.361042976        15599710.320672268     
   7030581493.0478477       -69506001.538628578        2750712.1964230714     
   6854321535.1899843       -76846450.931204796       -6364876.7991192024     
   6690624951.4676275       -42308986.538756847       -11747056.665959517     
   6991591778.5416050        61505515.299658298        188773875.79225099     
   6808787606.2461586        1725479.7837610245        181093569.83872163     
   6633987323.9932213       -31374922.257103920        176747286.60219041     
   6467190931.7827854       -37795690.822952509        175735026.08265680     
   6308398429.6148643       -17536825.913771629        178056788.28012103     
   6554118379.4410467        49720298.056138754        357925902.79461378     
   6388755636.9455738        20914172.776914835        353828300.03201640     
   6226837300.3996096        3589400.6627235413        352665333.57470387     
   6068363369.8031588       -2254018.2864327431        354437003.42268246     
   5913333845.1562138        3383915.9294431210        359143309.57595098     
   6108371333.8684063        35452986.870996952        539638198.58071506     
   5959308917.1394558        37278440.618403196        533803900.90055007     
   5809131422.2670212        35386967.220853567        530504853.11396235     
   5657838849.2510986        29778566.678354263        529741055.22095996     
   5505431198.0916929        20453238.990900278        531512507.22153836     
   5654350641.8236895        18703581.744230032        733910763.15055680     
   5520447446.8278122        50818283.308233500        721020372.44432473     
   5380869689.5954514        64017777.417295933        710265845.21996975     
   5235617370.1266108        58302064.071417809        701647181.47748542     
   5084690488.4212828        33671143.270591259        695164381.21687973     
   6690624951.4676275       -42308986.538756847       -11747056.665959517     
   6508726554.3327579       -3442383.7359921932       -6661332.6595833264     
   6320719518.7331944        15062090.851138115        2601225.8731449130     
   6126603844.6689463        13204437.222651243        16040618.932233848     
   5926379532.1400185       -9015344.6214478016        33656846.517684437     
   6308398429.6148643       -17536825.913771629        178056788.28012103     
   6132687130.2702293        4159259.2554898262        173105860.04967037     
   5953266133.9027214        13489687.681831121        172699830.43154937     
   5770135440.5123291        10454459.365225792        176838699.42575097     
   5583295050.0990601       -4946425.6943004131        185522467.03227711     
   5913333845.1562138        3383915.9294431210        359143309.57595098     
   5744861255.2760162        8224966.9674749374        346954494.12412268     
   5575077909.8147459        8696832.7352631092        339678641.37058240     
   5403983808.7723999        4799513.2328071594        337315751.31533718     
   5231578952.1489811       -3466991.5398938656        339865823.95838481     
   5505431198.0916929        20453238.990900278        531512507.22153836     
   5345248929.3501158        8754739.3999531269        514884569.56376994     
   5186154846.4692736        683526.01144790649        503537658.69025886     
   5028148949.4491634       -3760401.1746098995        497471774.60100484     
   4871231238.2897911       -4577042.1582217216        496686917.29601300     
   5084690488.4212828        33671143.270591259        695164381.21687973     
   4933850152.4925241        5748576.5529222488        676896086.36860895     
   4786496943.8663025       -10550232.489614010        664276882.39056778     
   4642630862.5426226       -15225283.857020617        657306769.28275025     
   4502251908.5214796       -8276577.5492877960        655985747.04516160     
   5926379532.1400185       -9015344.6214478016        33656846.517684437     
   5754022621.6919127       -26372855.035062313        34826805.499367826     
   5585468009.5807467       -31056037.658885479        38890387.828612998     
   5420715695.8065014       -23064892.492962599        45847593.505410023     
   5259765680.3691978       -2399419.5372483730        55698422.529765628     
   5583295050.0990601       -4946425.6943004131        185522467.03227711     
   5420806118.2699404       -14875793.934503317        187392663.31876627     
   5260817704.9433107       -16470100.499736547        192245802.38613123     
   5103329810.1191692       -9729345.3900034428        200081884.23437983     
   4948342433.7975273        5346471.3947243690        210900908.86350131     
   5231578952.1489811       -3466991.5398938656        339865823.95838481     
   5079213197.3197670       -5891658.0924191475        340917514.40949732     
   4928046181.1586037       -4320529.0847685337        345041467.07481009     
   4778077903.6654940        1246395.4830565453        352237681.95432049     
   4629308364.8404360        10809115.611053705        362506159.04803485     
   4871231238.2897911       -4577042.1582217216        496686917.29601300     
   4729243858.8414001        579552.49121093750        495401358.77156550     
   4587153438.2266293        5392676.5860292912        497277381.89464200     
   4444959976.4454641        9862330.1262078285        502314986.66524178     
   4302663473.4979124        13988513.111762524        510514173.08336443     
   4502251908.5214796       -8276577.5492877960        655985747.04516160     
   4370898102.8348455        4537837.8163907528        650844196.40497601     
   4238139476.1473794        12669516.512632847        648953546.84563363     
   4103976028.4590869        16118458.539453983        650313798.36714113     
   3968407759.7699647        14884663.896840334        654924950.96948898     
   5259765680.3691978       -2399419.5372483730        55698422.529765628     
   5040370987.8704920        1776812.5519473553        48909313.087282993     
   4817862455.6624374       -4426421.0566525459        39876547.141558357     
   4592240083.7450962       -21009120.362892628        28600124.692594916     
   4363503872.1184158       -47971285.366929293        15080045.740377946     
   4948342433.7975273        5346471.3947243690        210900908.86350131     
   4723835618.0556011       -36124.269398927689        199706219.82222337     
   4497090318.5653963       -12880332.427757978        189028668.11710143     
   4268106535.3269243       -33186153.080346823        178868253.74812368     
   4036884268.3401890       -60953586.227155447        169224976.71529868     
   4629308364.8404360        10809115.611053705        362506159.04803485     
   4407577408.2535534       -1765913.0868899822        347927139.02919161     
   4184483323.8794489       -18884701.075576305        336626050.18589467     
   3960026111.7181306       -40547248.354967594        328602892.51813203     
   3734205771.7696009       -66753554.925080061        323857666.02590966     
   4302663473.4979124        13988513.111762524        510514173.08336443     
   4091596358.4643426       -3412553.9005343914        493572070.70817643     
   3880041471.6046057       -22439527.000052929        482668693.34792835     
   3667998812.9187059       -43092406.186774254        477804041.00261223     
   3455468382.4066434       -65371191.460720301        478978113.67223370     
   3968407759.7699647        14884663.896840334        654924950.96948898     
   3775892468.6879740       -4976046.7103211880        636641014.85918713     
   3583764761.7408757       -23544810.201178074        627156597.60321546     
   3392024638.9286556       -40821626.575772762        626471699.20157051     
   3200672100.2513256       -56806495.834065437        634586319.65425110     
   4363503872.1184158       -47971285.366929293        15080045.740377946     
   4268073947.5760164       -42495915.839830637        19964923.360112820     
   4170776971.5819502       -43244051.151592016        48615416.235353589     
   4071612944.1362262       -50215691.302214384        101031524.36609833     
   3970581865.2388358       -63410836.291748285        177213247.75234768     
   4036884268.3401890       -60953586.227155447        169224976.71529868     
   3998996717.1198792       -35586217.208833218        176905357.33031434     
   3960139553.4512610       -13450889.684886456        200493025.36270967     
   3920312777.3343358        5452396.3447148800        239987980.81244564     
   3879516388.7691021        21123640.879942656        295390223.67956769     
   3734205771.7696009       -66753554.925080061        323857666.02590966     
   3731408228.6195526       -28229895.991109610        335380561.80679476     
   3728538512.0245409        10053184.792991400        354952417.16691118     
   3725596621.9845819        48095687.427265644        382573232.10624045     
   3722582558.4996734        85897611.911701918        418243006.62480623     
   3455468382.4066434       -65371191.460720301        478978113.67223370     
   3465308482.0750256       -20426952.186644316        495390536.78956270     
   3475973847.3018126        27268172.282102346        511993591.64798415     
   3487464478.0869904        77714181.945507884        528787278.24748486     
   3499780374.4305725        130911076.80356431        545771596.58806705     
   3200672100.2513256       -56806495.834065437        634586319.65425110     
   3200697477.4863105       -12177385.795437098        656935282.27860773     
   3202445559.2830472        38194072.782370925        671616548.80590832     
   3205916345.6415386        94307879.899361253        678630119.23615420     
   3211109836.5617847        156164035.55553746        677975993.56934166     
   3970581865.2388358       -63410836.291748285        177213247.75234768     
   3720867082.5499282       -98408966.870817423        149707270.91814241     
   3488053719.8058214       -77069030.967217684        78268608.878998220     
   3272141777.0064850        608971.41894865036       -37102738.365081653     
   3073131254.1519632        134625040.28783286       -196406770.81411195     
   3879516388.7691021        21123640.879942656        295390223.67956769     
   3530048223.4746342       -40116074.652409077        269883802.43623906     
   3191895103.3435531       -63638972.973459840        217632445.53665125     
   2865057028.3758831       -49445054.083172321        138636152.98078048     
   2549533998.5715904        2465682.0184148550        32894924.768633872     
   3722582558.4996734        85897611.911701918        418243006.62480623     
   3322468866.4529872        13148668.182096720        388218703.72739643     
   2928083844.7882905       -40504707.607532501        348637214.72238821     
   2539427493.5055757       -75062515.457221746        299498539.60976052     
   2156499812.6048617       -90524755.366909742        240802678.38953409     
   3499780374.4305725        130911076.80356431        545771596.58806705     
   3098129011.4849839        61385261.632680774        504711974.79161102     
   2696619944.1399837       -7666234.8695656061        471282916.43620902     
   2295253172.3955746       -76243412.703184366        445484421.52186739     
   1894028696.2517624       -144346271.86815226        427316490.04859060     
   3211109836.5617847        156164035.55553746        677975993.56934166     
   2857028658.5706296        104593705.69937289        619363615.62887156     
   2497503401.3986654        34876445.240510225        585569550.67811906     
   2132534065.0458889       -52987745.821049213        576593798.71708381     
   1762120649.5123158       -158998867.48528576        592436359.74579263     
   5957885137.6951637        1787365541.3085492        1150008711.9680228     
   6088456607.0965538        1502471783.1747782        1227874748.4160383     
   6221690935.9403639        1226454223.1824036        1268421728.9719982     
   6357588124.2265921        959312861.33142519        1271649653.6359029     
   6496148171.9552412        701047697.62184453        1237558522.4077523     
   5434447000.9620075        1630334100.2886024        1033525061.8838642     
   5489861524.3823977        1372620728.5312741        1113885078.8630800     
   5547434322.0087156        1122101604.1270356        1167478719.5082493     
   5607165393.8409595        878776727.07588720        1194305983.8193705     
   5669054739.8791323        642646097.37782907        1194366871.7964458     
   4895024043.6307411        1468507213.0892224        936461703.25332940     
   4905432134.0930119        1247019381.6152008        1018727017.9878384     
   4917493913.5247173        1031043846.7059627        1084778635.9463091     
   4931209381.9258585        820580608.36150801        1134616557.1287405     
   4946578539.2964344        615629666.58183730        1168240781.5351341     
   4339616265.7013636        1301884879.7104092        858818636.07641828     
   4335168436.2283945        1125667742.4265580        942400565.79031384     
   4331869710.4883709        953280950.91918492        1020321478.2861785     
   4329720088.4812899        784724505.18828893        1092581373.5640130     
   4328719570.2071505        619998405.23387003        1159180251.6238170     
   3768223667.1738749        1130467100.1521623        800595860.35313129     
   3779070430.7885489        1008565810.9653471        884905722.27050519     
   3790561712.8996744        888812916.76670253        974107246.52785742     
   3802697513.5072522        771208417.55622935        1068200433.1251874     
   3815477832.6112809        655752313.33392704        1167185282.0624952     
   6496148171.9552412        701047697.62184453        1237558522.4077523     
   6239130392.6372242        375233679.36867428        1053317724.9952427     
   6013158211.1759586        152904987.30468130        907962832.64820695     
   5818231627.5714455        34061621.429866552        801493845.36664581     
   5654350641.8236895        18703581.744230032        733910763.15055680     
   5669054739.8791323        642646097.37782907        1194366871.7964458     
   5518750729.5368147        382881042.71751833        1073523547.5412185     
   5392677619.9019089        203885657.08190703        980639764.29578233     
   5290835410.9744129        105659940.47099352        915715522.06013668     
   5213224102.7543259        88203892.884778976        878750820.83428407     
   4946578539.2964344        615629666.58183730        1168240781.5351341     
   4871770114.9135847        412548120.60951567        1102844450.4296207     
   4814377894.0888033        267520586.49741411        1054481296.2782166     
   4774401876.8220844        180547064.24553180        1023151319.0809220     
   4751842063.1134348        151627553.85387015        1008854518.8377365     
   4328719570.2071505        619998405.23387003        1159180251.6238170     
   4298188548.7675343        464234913.04466748        1141280433.6604509     
   4278259033.7366409        343809775.55120623        1129487428.5955110     
   4268931025.1144695        258722992.75348425        1123801236.4289985     
   4270204522.9010177        208974564.65150356        1124221857.1609130     
   3815477832.6112809        655752313.33392704        1167185282.0624952     
   3798006031.0986619        537941420.02297199        1188831497.2337079     
   3784321038.8454213        432753224.24327934        1205658161.2476652     
   3774422855.8515582        340187725.99484777        1217665274.1043673     
   3768311482.1170759        260244925.27767897        1224852835.8038132     
   5654350641.8236895        18703581.744230032        733910763.15055680     
   5520447446.8278122        50818283.308233500        721020372.44432473     
   5380869689.5954514        64017777.417295933        710265845.21996975     
   5235617370.1266108        58302064.071417809        701647181.47748542     
   5084690488.4212828        33671143.270591259        695164381.21687973     
   5213224102.7543259        88203892.884778976        878750820.83428407     
   5077381335.9054737        86519162.312100649        855129138.98151231     
   4939224649.4055834        77121366.235961199        835679484.25304341     
   4798754043.2546568        60010504.656364441        820401856.64887810     
   4655969517.4526882        35186577.573305368        809296256.16901505     
   4751842063.1134348        151627553.85387015        1008854518.8377365     
   4619877334.8185463        117888674.26658726        978422295.52144337     
   4488959329.4580641        87638871.127329588        954198262.97188139     
   4359088047.0319901        60878144.436098337        936182421.18905210     
   4230263487.5403237        37606494.192889452        924374770.17295086     
   4270204522.9010177        208974564.65150356        1124221857.1609130     
   4147935443.5670295        144926819.17169857        1090899842.0641184     
   4030073729.7528930        95570292.091401577        1065822181.3764839     
   3916619381.4586105        60904983.410618782        1048988875.0980082     
   3807572398.6841779        40930893.129339457        1040399923.2286900     
   3768311482.1170759        260244925.27767897        1224852835.8038132     
   3661555662.1509252        167633597.02743411        1192561778.6095366     
   3562567850.2900715        100915629.12818229        1170551239.4668479     
   3471348046.5345173        60091021.579924822        1158821218.3757451     
   3387896250.8842583        45159774.382656455        1157371715.3362291     
   5084690488.4212828        33671143.270591259        695164381.21687973     
   4933850152.4925241        5748576.5529222488        676896086.36860895     
   4786496943.8663025       -10550232.489614010        664276882.39056778     
   4642630862.5426226       -15225283.857020617        657306769.28275025     
   4502251908.5214796       -8276577.5492877960        655985747.04516160     
   4655969517.4526882        35186577.573305368        809296256.16901505     
   4521111072.2566385        13070925.309539318        795421992.73570168     
   4388784426.2528448       -605396.31338143349        786852343.35258067     
   4258989579.4413071       -5842387.2954459190        783587308.01964974     
   4131726531.8220210       -2640047.6366639137        785626886.73690164     
   4230263487.5403237        37606494.192889452        924374770.17295086     
   4110402713.5911622        21002490.537272215        913779988.69259822     
   3992118410.7239733        9653390.4882268906        908145344.44239795     
   3875410578.9387541        3559194.0457468033        907470837.42234969     
   3760279218.2355032        2719901.2098357677        911756467.63245273     
   3807572398.6841779        40930893.129339457        1040399923.2286900     
   3701725076.4960861        29543272.236129522        1031970074.2392980     
   3596498897.2796826        20226127.915205717        1028155885.6600194     
   3491893861.0349660        12979460.166571140        1028957357.4908566     
   3387909967.7619328        7803268.9902238846        1034374489.7318074     
   3387896250.8842583        45159774.382656455        1157371715.3362291     
   3295078160.9714189        38693270.406107664        1149992249.3757980     
   3201925885.9199815        31112815.967569947        1146883967.0054445     
   3108439425.7299438        22418411.067028642        1148046868.2251689     
   3014618780.4013071        12610055.704491735        1153480953.0349717     
   4502251908.5214796       -8276577.5492877960        655985747.04516160     
   4370898102.8348455        4537837.8163907528        650844196.40497601     
   4238139476.1473794        12669516.512632847        648953546.84563363     
   4103976028.4590869        16118458.539453983        650313798.36714113     
   3968407759.7699647        14884663.896840334        654924950.96948898     
   4131726531.8220210       -2640047.6366639137        785626886.73690164     
   4007709611.7968946        4263629.5299351215        779168320.84564531     
   3882959243.7198944        8722479.8569591045        776466628.58218050     
   3757475427.5910177        10736503.344386816        777521809.94651306     
   3631258163.4102635        10305699.992228031        782333864.93863595     
   3760279218.2355032        2719901.2098357677        911756467.63245273     
   3645044819.7203169        4146530.9318995476        904764154.93056667     
   3529748346.1022067        5366243.6442172527        902034688.40342283     
   3414389797.3811722        6379039.3467895985        903568068.05102229     
   3298969173.5572114        7184918.0396120548        909364293.87336969     
   3387909967.7619328        7803268.9902238846        1034374489.7318074     
   3282903726.6051102        4186542.0222699642        1027631698.6597378     
   3178506783.2943149        2600807.8744145632        1025657726.3093605     
   3074719137.8295522        3046066.5466585159        1028452572.6806762     
   2971540790.2108150        5522318.0389975309        1036016237.7736906     
   3014618780.4013071        12610055.704491735        1153480953.0349717     
   2921286332.4512744        4383662.8010523319        1147770952.0331638     
   2829234555.2962241        426172.54755604267        1147335742.2999976     
   2738463448.9361553        737584.94399869442        1152175323.8354743     
   2648973013.3710666        5317899.9903703928        1162289696.6395919     
   3968407759.7699647        14884663.896840334        654924950.96948898     
   3775892468.6879740       -4976046.7103211880        636641014.85918713     
   3583764761.7408757       -23544810.201178074        627156597.60321546     
   3392024638.9286556       -40821626.575772762        626471699.20157051     
   3200672100.2513256       -56806495.834065437        634586319.65425110     
   3631258163.4102635        10305699.992228031        782333864.93863595     
   3461515744.6655941       -4184436.6976609230        765359370.46037805     
   3291846255.0924363       -18431476.149182081        755863588.02174735     
   3122249694.6907940       -32435418.362329721        753846517.62273455     
   2952726063.4606519       -46196263.337117553        759308159.26335502     
   3298969173.5572114        7184918.0396120548        909364293.87336969     
   3148225893.3935728       -3066764.8598949909        893332143.56988025     
   2997240887.4380732       -14124200.398947120        883457898.49131346     
   2846014155.6907034       -25987388.577558875        879741558.63767326     
   2694545698.1514692       -38656329.395713925        882183124.00895298     
   2971540790.2108150        5522318.0389975309        1036016237.7736906     
   2836022914.8719139       -1623031.1970176697        1020559334.1876980     
   2699948658.7777762       -10622982.950495362        1009939529.0119289     
   2563318021.9283934       -21477537.221457124        1004156822.2463876     
   2426131004.3237720       -34186694.009870529        1003211213.8910630     
   2648973013.3710666        5317899.9903703928        1162289696.6395919     
   2524906809.1006155        146764.29096257687        1147040942.3138261     
   2399969569.1115460       -7927823.8038343191        1135308479.5835881     
   2274161293.4038606       -18905864.294018984        1127092308.4488683     
   2147481981.9775636       -32787357.179577112        1122392428.9096627     
   3200672100.2513256       -56806495.834065437        634586319.65425110     
   3200697477.4863105       -12177385.795437098        656935282.27860773     
   3202445559.2830472        38194072.782370925        671616548.80590832     
   3205916345.6415386        94307879.899361253        678630119.23615420     
   3211109836.5617847        156164035.55553746        677975993.56934166     
   2952726063.4606519       -46196263.337117553        759308159.26335502     
   2934008212.2795138       -12000648.692395568        781744228.06049013     
   2917007360.8970604        27918298.614612818        799837854.64856851     
   2901723509.3132930        73560578.583906412        813589039.02758443     
   2888156657.5282216        124926191.21551299        822997781.19754136     
   2694545698.1514692       -38656329.395713925        882183124.00895298     
   2666585343.9484854       -12043992.526629448        904699643.42195821     
   2640336284.7811222        20272661.127858520        926198974.51390254     
   2615798520.6493835        58293631.567762256        946681117.28478503     
   2592972051.5532637        102018918.79306185        966146071.73461425     
   2426131004.3237720       -34186694.009870529        1003211213.8910630     
   2398428872.4932218       -12307417.298144221        1025801528.3630250     
   2372432330.9352388        15257160.322131276        1050699908.4019229     
   2348141379.6498013        48507038.850898266        1077906354.0077603     
   2325556018.6369281        87442218.288208127        1107420865.1805396     
   2147481981.9775636       -32787357.179577112        1122392428.9096627     
   2129538797.9137406       -12790923.006899357        1145049882.8836732     
   2113295499.3594012        12871796.197405934        1173340656.3126242     
   2098752086.3145597        44200800.433357477        1207264749.1965082     
   2085908558.7792017        81196089.700930595        1246822161.5353265     
   3211109836.5617847        156164035.55553746        677975993.56934166     
   2857028658.5706296        104593705.69937289        619363615.62887156     
   2497503401.3986654        34876445.240510225        585569550.67811906     
   2132534065.0458889       -52987745.821049213        576593798.71708381     
   1762120649.5123158       -158998867.48528576        592436359.74579263     
   2888156657.5282216        124926191.21551299        822997781.19754136     
   2595534193.8241663        88586201.708284616        765455215.38929653     
   2298564674.1259670        37756025.553891897        726855576.73165786     
   1997248098.4336092       -27564337.247690201        707198865.22461665     
   1691584466.7471089       -107374886.69641423        706485080.86817396     
   2592972051.5532637        102018918.79306185        966146071.73461425     
   2345021485.4531188        75873224.629821420        910953178.44302571     
   2093820886.5454788        38894087.774930477        868827826.46292281     
   1839370254.8303421       -8918491.7716171741        839770015.79429865     
   1581669590.3077157       -67564514.009805262        823779746.43716431     
   2325556018.6369281        87442218.288208127        1107420865.1805396     
   2105490533.4574828        66454774.463984966        1055857504.7900500     
   1883272038.6571991        38290631.903627992        1011486299.8719170     
   1658900534.2360761        2949790.6071476936        974307250.42614973     
   1432376020.1941195       -39567749.425453961        944320356.45274246     
   2085908558.7792017        81196089.700930595        1246822161.5353265     
   1876941337.8372579        60330851.210761666        1200168194.4303651     
   1666918130.4611356        35945657.939998806        1154830996.9586446     
   1455838936.6508226        8040509.8886100650        1110810569.1201551     
   1243703756.4063392       -23384592.943357944        1068106910.9149182     
   3768223667.1738749        1130467100.1521623        800595860.35313129     
   3779070430.7885489        1008565810.9653471        884905722.27050519     
   3790561712.8996744        888812916.76670253        974107246.52785742     
   3802697513.5072522        771208417.55622935        1068200433.1251874     
   3815477832.6112809        655752313.33392704        1167185282.0624952     
   3207924535.1300478        962377360.53901434        756674579.37721527     
   3235894659.8975825        868128878.35454845        853077255.10288835     
   3263613116.6228323        773041502.69580007        951378667.75947225     
   3291079905.3057971        677115233.56276894        1051578817.3469660     
   3318295025.9464774        580350070.95545411        1153677703.8653717     
   2685797156.6516562        805739146.99549687        721935996.44241786     
   2722339427.1175733        736578107.17703736        829385935.01453102     
   2757733843.0024686        663590885.42184114        935741685.10848773     
   2791980404.3063440        586777481.72990847        1041003246.7242879     
   2825079111.0291977        506137896.10123909        1145170619.8619313     
   2201841531.7386994        660552459.52160978        696380111.54873872     
   2238404732.4485207        613913497.43281305        813831762.00543356     
   2272923892.0385842        560461064.94482601        927196298.57490432     
   2305399010.5088906        500195162.05764818        1036473721.2571515     
   2335830087.8594408        433115788.77128071        1141664030.0521739     
   1756057660.3911781        526817298.11735344        680006924.69617820     
   1784090575.8904254        500135049.12187594        806414736.07559562     
   1809183263.7311792        463652041.26475453        925742508.15872180     
   1831335723.9134398        417368274.54598862        1037990240.9455565     
   1850547956.4372070        361283748.96557862        1143157934.4361005     
   3815477832.6112809        655752313.33392704        1167185282.0624952     
   3798006031.0986619        537941420.02297199        1188831497.2337079     
   3784321038.8454213        432753224.24327934        1205658161.2476652     
   3774422855.8515582        340187725.99484777        1217665274.1043673     
   3768311482.1170759        260244925.27767897        1224852835.8038132     
   3318295025.9464774        580350070.95545411        1153677703.8653717     
   3293808249.1062050        473287676.99198687        1181954511.7915325     
   3273010505.9487457        378522061.97122645        1207174313.0811803     
   3255901796.4740977        296053225.89317203        1229337107.7343149     
   3242482120.6822610        225881168.75782144        1248442895.7509363     
   2825079111.0291977        506137896.10123909        1145170619.8619313     
   2798613200.3491073        411334753.93160963        1179963949.0370460     
   2775738547.7752609        328502472.11612988        1213462816.0963900     
   2756455153.3076601        257641050.65480125        1245667221.0399618     
   2740763016.9463043        198750489.54762232        1276577163.8677638     
   2335830087.8594408        433115788.77128071        1141664030.0521739     
   2312420884.8273659        352082650.84183913        1182859808.9702480     
   2292505164.3249688        282694454.67799121        1224523670.2932937     
   2276082926.3522501        224951200.27973950        1266655614.0213087     
   2263154170.9092112        178852887.64708161        1309255640.1542954     
   1850547956.4372070        361283748.96557862        1143157934.4361005     
   1835231302.5409813        295531367.72267544        1190642091.5911393     
   1823310355.5978680        241098009.65681052        1240356875.6718910     
   1814785115.6078668        197983674.76798618        1292302286.6783562     
   1809655582.5709755        166188363.05619878        1346478324.6105330     
   3768311482.1170759        260244925.27767897        1224852835.8038132     
   3661555662.1509252        167633597.02743411        1192561778.6095366     
   3562567850.2900715        100915629.12818229        1170551239.4668479     
   3471348046.5345173        60091021.579924822        1158821218.3757451     
   3387896250.8842583        45159774.382656455        1157371715.3362291     
   3242482120.6822610        225881168.75782144        1248442895.7509363     
   3164826491.1453233        151345938.16510320        1231529686.9838605     
   3093311023.0900774        97277912.511357069        1222549314.8820872     
   3027935716.5165205        63677091.796575069        1221501779.4456148     
   2968700571.4246550        50543476.020764947        1228387080.6744456     
   2740763016.9463043        198750489.54762232        1276577163.8677638     
   2685499916.7349086        140279058.28132915        1273142649.1336808     
   2634749131.3815947        96848676.541981339        1275293289.6786160     
   2588510660.8863649        68459344.329578876        1283029085.5025661     
   2546784505.2492194        55111061.644121528        1296350036.6055324     
   2263154170.9092112        178852887.64708161        1309255640.1542954     
   2223575938.9196811        134432957.37611139        1317400665.0589983     
   2186882175.1646280        99627921.220062137        1328783163.8564327     
   2153072879.6440506        74437779.178933263        1343403136.5465963     
   2122148052.3579519        58862531.252730489        1361260583.1294916     
   1809655582.5709755        166188363.05619878        1346478324.6105330     
   1779054557.6996408        133807635.44944829        1364303734.7598128     
   1749710154.4391756        105615646.54559791        1383018937.4155376     
   1721622372.7895794        81612396.344643950        1402623932.5777082     
   1694791212.7508526        61797884.846588135        1423118720.2463226     
   3387896250.8842583        45159774.382656455        1157371715.3362291     
   3295078160.9714189        38693270.406107664        1149992249.3757980     
   3201925885.9199815        31112815.967569947        1146883967.0054445     
   3108439425.7299438        22418411.067028642        1148046868.2251689     
   3014618780.4013071        12610055.704491735        1153480953.0349717     
   2968700571.4246550        50543476.020764947        1228387080.6744456     
   2885956749.4434333        39967395.761862993        1220052701.0397794     
   2803409121.0906625        30045294.264468312        1216144938.4429746     
   2721057686.3663459        20777171.528584599        1216663792.8840344     
   2638902445.2704802        12163027.554205298        1221609264.3629572     
   2546784505.2492194        55111061.644121528        1296350036.6055324     
   2474559046.7647138        40558633.772396564        1287679518.5248575     
   2403060160.6757102        28428113.885683417        1283591050.9298301     
   2332287846.9822106        18719501.983980179        1284084633.8204508     
   2262242105.6842141        11432798.067287564        1289160267.1967175     
   2122148052.3579519        58862531.252730489        1361260583.1294916     
   2060885052.9352601        40466984.437709808        1352872701.8310356     
   2000879004.6751230        26261274.831206441        1349222304.4660110     
   1942129907.5775404        16245402.433218837        1350309391.0344164     
   1884637761.6425111        10419367.243740916        1356133961.5362561     
   1694791212.7508526        61797884.846588135        1423118720.2463226     
   1644934767.9550729        39692447.757801712        1415632250.9583113     
   1596865653.0888994        23544777.101036429        1413038699.0515146     
   1550583868.1523314        13354872.876288950        1415338064.5259345     
   1506089413.1453674        9122735.0835555196        1422530347.3815713     
   3014618780.4013071        12610055.704491735        1153480953.0349717     
   2921286332.4512744        4383662.8010523319        1147770952.0331638     
   2829234555.2962241        426172.54755604267        1147335742.2999976     
   2738463448.9361553        737584.94399869442        1152175323.8354743     
   2648973013.3710666        5317899.9903703928        1162289696.6395919     
   2638902445.2704802        12163027.554205298        1221609264.3629572     
   2559495619.2047434        6197029.4859925508        1216723268.6869817     
   2481094987.2449131        3585011.7708085775        1216752868.9990733     
   2403700549.3910012        4326974.4086769819        1221698065.2992399     
   2327312305.6429987        8422917.3995816708        1231558857.5874767     
   2262242105.6842141        11432798.067287564        1289160267.1967175     
   2195734629.2725658        7419313.1652277708        1284778054.0426610     
   2129958870.2777576        5844886.3193109035        1284952241.5961030     
   2064914828.6997969        6709517.5295449495        1289682829.8570459     
   2000602504.5386758        10013206.795914888        1298969818.8254864     
   1884637761.6425111        10419367.243740916        1356133961.5362561     
   1830003362.6547463        8050513.8387744427        1351935308.1002028     
   1775826204.3947549        7205796.1930574179        1351933860.0910788     
   1722106286.8625398        7885214.3065897226        1356129617.5088818     
   1668843610.0580997        10088768.179376125        1364522580.3536134     
   1506089413.1453674        9122735.0835555196        1422530347.3815713     
   1462301819.3512843        8090631.5066298246        1418195030.8596084     
   1418696989.5959058        7667741.3920512795        1417697724.4840055     
   1375274923.8792336        7854064.7398292422        1421038428.2547567     
   1332035622.2012639        8649601.5499497652        1428217142.1718636     
   2648973013.3710666        5317899.9903703928        1162289696.6395919     
   2524906809.1006155        146764.29096257687        1147040942.3138261     
   2399969569.1115460       -7927823.8038343191        1135308479.5835881     
   2274161293.4038606       -18905864.294018984        1127092308.4488683     
   2147481981.9775636       -32787357.179577112        1122392428.9096627     
   2327312305.6429987        8422917.3995816708        1231558857.5874767     
   2213092314.3748279        1678031.7711706161        1214095821.9526551     
   2098201532.7172732       -7302821.8218472004        1201053677.7846000     
   1982639960.6703341       -18519643.379484773        1192432425.0833163     
   1866407598.2340086       -31972432.901742697        1188232063.8488066     
   2000602504.5386758        10013206.795914888        1298969818.8254864     
   1898813297.3335023        2469942.5567181110        1279526121.4323673     
   1796553545.0681791       -6641805.2163159847        1265407915.3772690     
   1693823247.7426999       -17322036.523195982        1256615200.6601970     
   1590622405.3570704       -29570751.363916695        1253147977.2811470     
   1668843610.0580997        10088768.179376125        1364522580.3536134     
   1582069757.9766443        2522496.6476104856        1343331840.7529709     
   1495025606.1642659       -5944773.9872308373        1328371192.3616028     
   1407711154.6209707       -15313043.725125730        1319640635.1795096     
   1320126403.3467498       -25582312.566106975        1317140169.2066929     
   1332035622.2012639        8649601.5499497652        1428217142.1718636     
   1262861696.3042440        1835694.0438285470        1405512979.9144659     
   1193617716.0055375       -5211728.1345802546        1389943508.7375975     
   1124303681.3051376       -12492664.985301733        1381508728.6412535     
   1054919592.2030495       -20007116.508314550        1380208639.6254320     
   2147481981.9775636       -32787357.179577112        1122392428.9096627     
   2129538797.9137406       -12790923.006899357        1145049882.8836732     
   2113295499.3594012        12871796.197405934        1173340656.3126242     
   2098752086.3145597        44200800.433357477        1207264749.1965082     
   2085908558.7792017        81196089.700930595        1246822161.5353265     
   1866407598.2340086       -31972432.901742697        1188232063.8488066     
   1861065444.4391978       -10861093.451216936        1213707088.3170676     
   1857249289.6361670        15336909.305233240        1242984607.7039731     
   1854959133.8249254        46621575.367652655        1276064622.0095325     
   1854194977.0054717        82992904.736027062        1312947131.2337387     
   1590622405.3570704       -29570751.363916695        1253147977.2811470     
   1592650354.5847323       -8913784.8095237613        1281237704.6396687     
   1596030416.2864735        16250223.325133383        1311299102.3805490     
   1600762590.4622939        45921273.040055573        1343332170.5037885     
   1606846877.1121945        80099364.335249364        1377336909.0093889     
   1320126403.3467498       -25582312.566106975        1317140169.2066929     
   1324293528.3503432       -6948997.0818097591        1347641731.8514791     
   1329638879.3103156        15611738.257084012        1378284140.3423431     
   1336162456.2266614        42099893.450558066        1409067394.6792748     
   1343864259.0993829        72515468.498612940        1439991494.8622799     
   1054919592.2030495       -20007116.508314550        1380208639.6254320     
   1055994965.7360411       -4966730.2680497766        1412919169.9525063     
   1058074678.7076993        13421454.101102769        1443939721.5893641     
   1061158731.1180300        35157436.599159718        1473270294.5359979     
   1065247122.9670289        60241217.226117194        1500910888.7924168     
   2085908558.7792017        81196089.700930595        1246822161.5353265     
   1876941337.8372579        60330851.210761666        1200168194.4303651     
   1666918130.4611356        35945657.939998806        1154830996.9586446     
   1455838936.6508226        8040509.8886100650        1110810569.1201551     
   1243703756.4063392       -23384592.943357944        1068106910.9149182     
   1854194977.0054717        82992904.736027062        1312947131.2337387     
   1652108612.7082076        59645623.203489006        1261191816.8730984     
   1448943316.2383413        32701901.095614731        1213985478.6925960     
   1244699087.5958734        2161738.4123997092        1171328116.6922219     
   1039375926.7808112       -31974864.846136510        1133219730.8720005     
   1606846877.1121945        80099364.335249364        1377336909.0093889     
   1420876245.3078873        57040502.514820158        1320453477.3649089     
   1233803735.5925589        30308714.324323237        1271351228.4474711     
   1045629347.9662123       -96000.236234366894        1230030162.2570579     
   856353082.42884326       -34173641.166860461        1196490278.7936842     
   1343864259.0993829        72515468.498612940        1439991494.8622799     
   1183244235.6363087        52515489.144781351        1377953175.9058127     
   1021499388.5237900        28766097.626134694        1326928246.2232778     
   858629717.76184344        1267293.9427243471        1286916705.8146677     
   694635223.35045087       -29980921.905508369        1257918554.6799958     
   1065247122.9670289        60241217.226117194        1500910888.7924168     
   939212583.69346583        46070583.093363255        1433690912.4957967     
   812030275.03204179        28074051.001071453        1380716532.0200109     
   683700196.98276329        6251620.9492627680        1341987747.3650513     
   554222349.54562092       -19396707.062080890        1317504558.5309191     
   1756057660.3911781        526817298.11735344        680006924.69617820     
   1784090575.8904254        500135049.12187594        806414736.07559562     
   1809183263.7311792        463652041.26475453        925742508.15872180     
   1831335723.9134398        417368274.54598862        1037990240.9455565     
   1850547956.4372070        361283748.96557862        1143157934.4361005     
   1326280560.7301855        397884168.21905565        669697816.58801615     
   1339559062.2219007        375548625.90960777        791852493.59904194     
   1350632392.9722600        345862514.46230674        908734574.51148105     
   1359500552.9812632        308825833.87715232        1020344059.3253340     
   1366163542.2489107        264438584.15414521        1126680948.0406010     
   890345250.87681508        267103575.26304451        662334167.92753255     
   894033461.78301263        250663976.66623032        781093276.97349358     
   896251558.86499178        229323998.65535426        896387233.11857307     
   896999542.12275207        203083641.23041597        1008216036.3627710     
   896277411.55629373        171942904.39141589        1116579686.7060883     
   448251730.83106691        134475519.24932006        657915978.71472752     
   447513774.57376105        125481101.39174391        774137086.19895017     
   446040761.40937394        114036493.84389682        888700483.97999668     
   443832691.33790588        100141696.60577938        1001606172.0578671     
   440889564.35935599        83796709.677389935        1112854150.4325609     
  0.59294098934821593       0.17788229680446480        656443248.94960093     
  0.59414600071363177        8.6148510486444493E-002   770983921.27541256     
  0.60540716213091528        2.7934877396621705E-002   885674327.09575295     
  0.62672427343966564        3.2413374868760225E-003   1000514466.4106222     
  0.65809756339462677        1.2068219592152152E-002   1115504339.2200201     
   1850547956.4372070        361283748.96557862        1143157934.4361005     
   1835231302.5409813        295531367.72267544        1190642091.5911393     
   1823310355.5978680        241098009.65681052        1240356875.6718910     
   1814785115.6078668        197983674.76798618        1292302286.6783562     
   1809655582.5709755        166188363.05619878        1346478324.6105330     
   1366163542.2489107        264438584.15414521        1126680948.0406010     
   1360364426.9357722        216830810.75819024        1182042311.5063255     
   1357112091.8373675        177712304.74467802        1238307014.3763392     
   1356406536.9536946        147083066.11360812        1295475056.6506419     
   1358247762.2847548        124943094.86497968        1353546438.3292346     
   896277411.55629373        171942904.39141589        1116579686.7060883     
   896203584.76503360        141342063.82404658        1178827841.9543893     
   897827611.45012712        116400734.84452325        1240652049.0855558     
   901149491.61157441        97118917.452845812        1302052308.0995884     
   906169225.24937510        83496611.649013489        1363028618.9964879     
   440889564.35935599        83796709.677389935        1112854150.4325609     
   442748776.02876425        69065126.920243949        1180998682.9353297     
   445456914.43614703        57163299.956345871        1247391979.7995405     
   449013979.58150494        48091228.785698652        1312034041.0251949     
   453419971.46483743        41848913.408299208        1374924866.6122923     
  0.65809756339462677        1.2068219592152152E-002   1115504339.2200201     
  0.72696457370330558        4.6781040007887742E-002   1188554834.4491475     
  0.79542756167213302        8.0147292763133537E-002   1258526806.5182941     
  0.86348682003569588       0.11216743322280198        1325420255.4274607     
  0.93114138194777119       0.14283910592788759        1389235181.1766465     
   1809655582.5709755        166188363.05619878        1346478324.6105330     
   1779054557.6996408        133807635.44944829        1364303734.7598128     
   1749710154.4391756        105615646.54559791        1383018937.4155376     
   1721622372.7895794        81612396.344643950        1402623932.5777082     
   1694791212.7508526        61797884.846588135        1423118720.2463226     
   1358247762.2847548        124943094.86497968        1353546438.3292346     
   1332900091.6009667        99938478.561655343        1372699537.4164360     
   1308494887.1308584        78075416.303927302        1393301706.1483607     
   1285032148.8744283        59353908.091795504        1415352944.5250082     
   1262511876.8316770        43773953.925257862        1438853252.5463820     
   906169225.24937510        83496611.649013489        1363028618.9964879     
   887672843.43393183        66347487.053351521        1383142892.3915544     
   869804772.43497717        51292731.845985562        1405265512.5696228     
   852565012.25251126        38332346.026916444        1429396479.5306950     
   835953562.88653433        27466329.596142560        1455535793.2747703     
   453419971.46483743        41848913.408299208        1374924866.6122923     
   443372813.19853526        33034660.924540520        1395633799.6851678     
   433639810.35153228        25267593.171777382        1418910356.6793253     
   424220962.92382753        18547710.150008202        1444754537.5947661     
   415116270.91542047        12875011.859233350        1473166342.4314883     
  0.93114138194777119       0.14283910592788759        1389235181.1766465     
  0.89477804744308020       0.17522110136462804        1410172259.2972765     
  0.88052280668236760       0.28129708955932481        1434236238.4774685     
  0.88837666046763863       0.46106919221222920        1461427118.7172208     
  0.91833775016659780       0.71453346902287440        1491744900.0165348     
   1694791212.7508526        61797884.846588135        1423118720.2463226     
   1644934767.9550729        39692447.757801712        1415632250.9583113     
   1596865653.0888994        23544777.101036429        1413038699.0515146     
   1550583868.1523314        13354872.876288950        1415338064.5259345     
   1506089413.1453674        9122735.0835555196        1422530347.3815713     
   1262511876.8316770        43773953.925257862        1438853252.5463820     
   1226698154.6333542        27668459.615554035        1435009535.6077001     
   1192224929.8939879        16031290.169039309        1435690393.4137502     
   1159092202.6135805        8862445.5857191682        1440895825.9645312     
   1127299972.7921305        6161925.8655926585        1450625833.2600443     
   835953562.88653433        27466329.596142560        1455535793.2747703     
   813130155.75285280        17045055.805670500        1454813524.1363301     
   791200413.60748065        9602665.3095637560        1458247487.1061368     
   770164336.45042014        5139158.1078283191        1465837682.1841903     
   750021924.28167105        3654534.2004639208        1477584109.3704915     
   415116270.91542047        12875011.859233350        1473166342.4314883     
   404230771.31356782        7822236.3281490207        1475044216.5442007     
   393792104.22937912        4258902.5226123035        1480709980.1286764     
   383800269.66285205        2185010.4426133931        1490163633.1849151     
   374255267.61399066        1600560.0881676823        1503405175.7129149     
  0.91833775016659780       0.71453346902287440        1491744900.0165348     
   1.3155007303258468        1.1829950251996579        1495701612.8313124     
   1.7596804279275113        1.8081779320170739        1503077872.4813683     
   2.2508757106356079        2.5900804966900166        1513873678.9667025     
   2.7890877794125433        3.5287046407583356        1528089032.2873127     
   1506089413.1453674        9122735.0835555196        1422530347.3815713     
   1462301819.3512843        8090631.5066298246        1418195030.8596084     
   1418696989.5959058        7667741.3920512795        1417697724.4840055     
   1375274923.8792336        7854064.7398292422        1421038428.2547567     
   1332035622.2012639        8649601.5499497652        1428217142.1718636     
   1127299972.7921305        6161925.8655926585        1450625833.2600443     
   1093725213.4828532        5167629.2376930118        1447091716.2948864     
   1060287527.2235653        4630242.7764239311        1447566891.0296009     
   1026986914.0142707        4549766.4817976952        1452051357.4641886     
   993823373.85496497        4926200.3538025618        1460545115.5986462     
   750021924.28167105        3654534.2004639208        1477584109.3704915     
   727149375.32438827        2844857.2817435563        1474797885.8086371     
   704368208.42838299        2339787.2339491546        1476192235.5001705     
   681678423.59365237        2139324.0570694506        1481767158.4450917     
   659080020.82019997        2243467.7511173785        1491522654.6434042     
   374255267.61399066        1600560.0881676823        1503405175.7129149     
   362574304.87589151        1122315.6387874186        1501313539.4008617     
   350939033.21035522        796374.76461651921        1503573757.8957140     
   339349452.61737943        622737.46564653516        1510185831.1974719     
   327805563.09696740        601403.74189102650        1521149759.3061330     
   2.7890877794125433        3.5287046407583356        1528089032.2873127     
   2.1373604351594766        4.3088176799437763        1526638677.0715621     
   1.5694846750074980        5.3684356525214838        1529711458.2162347     
   1.0854511772007867        6.7075281798614430        1537307375.7213259     
  0.68526905761589418        8.3261249543294387        1549426429.5868411     
   1332035622.2012639        8649601.5499497652        1428217142.1718636     
   1262861696.3042440        1835694.0438285470        1405512979.9144659     
   1193617716.0055375       -5211728.1345802546        1389943508.7375975     
   1124303681.3051376       -12492664.985301733        1381508728.6412535     
   1054919592.2030495       -20007116.508314550        1380208639.6254320     
   993823373.85496497        4926200.3538025618        1460545115.5986462     
   943399873.26074183        252853.22234666348        1438813576.0104136     
   892923831.78819263       -4595630.1701977849        1423876773.9496531     
   842395249.43730938       -9619249.8238546252        1415734709.4163623     
   791814126.20809305       -14818005.738622934        1414387382.4105484     
   659080020.82019997        2243467.7511173785        1491522654.6434042     
   626435649.66290677       -580707.76542744040        1470784170.1682541     
   593756251.15064108       -3521641.1318808198        1456500469.6675208     
   561041825.28340471       -6579332.3482371569        1448671553.1412029     
   528292372.06119365       -9753781.4145076275        1447297420.5893073     
   327805563.09696740        601403.74189102650        1521149759.3061330     
   311969025.51073319       -664988.91950695217        1501424762.3879852     
   296114974.09288204       -1989761.0196293890        1487814595.8911996     
   280243408.84342319       -3372912.5584443808        1480319259.8157761     
   264354329.76234493       -4814443.5359887630        1478938754.1617165     
  0.68526905761589418        8.3261249543294387        1549426429.5868411     
  0.80422500161212840        9.7601148774716879        1530735352.6696115     
  0.61492015691842772        10.166569532203546        1517819152.6206911     
  0.11736868345345242        9.5455343835304038        1510677829.4400761     
 -0.68844463097328035        7.8969611527635157        1509311383.1277735     
   1054919592.2030495       -20007116.508314550        1380208639.6254320     
   1055994965.7360411       -4966730.2680497766        1412919169.9525063     
   1058074678.7076993        13421454.101102769        1443939721.5893641     
   1061158731.1180300        35157436.599159718        1473270294.5359979     
   1065247122.9670289        60241217.226117194        1500910888.7924168     
   791814126.20809305       -14818005.738622934        1414387382.4105484     
   788291153.34558439       -4836567.2654815912        1448482583.7900305     
   785521435.17100132        7655720.1674104929        1481898023.8094549     
   783504971.68434465        22658856.560059428        1514633702.4688120     
   782241762.88561797        40172841.912472010        1546689619.7681115     
   528292372.06119365       -9753781.4145076275        1447297420.5893073     
   523057388.03219956       -3965390.1397935450        1482484360.8120067     
   518324573.94039220        3496900.9255419075        1518001757.0047956     
   514093929.78577185        12633091.781502843        1553849609.1676800     
   510365455.56833529        23443182.428073615        1590027917.3006611     
   264354329.76234493       -4814443.5359887630        1478938754.1617165     
   260293669.79589161       -2353198.8909665942        1514924501.0184267     
   256484095.01587534        944996.37550911307        1552250921.1753876     
   252925605.42230383        5080142.2634693682        1590918014.6326010     
   249618201.01517487        10052238.772904456        1630925781.3900626     
 -0.68844463097328035        7.8969611527635157        1509311383.1277735     
  -1.3633520137011073        6.4809529995404933        1545803004.4092975     
  -1.6025543987068556        6.5172941448350077        1584645516.3212287     
  -1.4060546683003010        8.0059749809478085        1625838918.8635678     
 -0.77385716882158029        10.946983795635999        1669383212.0363114     
   1065247122.9670289        60241217.226117194        1500910888.7924168     
   939212583.69346583        46070583.093363255        1433690912.4957967     
   812030275.03204179        28074051.001071453        1380716532.0200109     
   683700196.98276329        6251620.9492627680        1341987747.3650513     
   554222349.54562092       -19396707.062080890        1317504558.5309191     
   782241762.88561797        40172841.912472010        1546689619.7681115     
   693149412.38778734        31174931.259548873        1481559215.4980774     
   603196233.46866930        19307592.535668254        1429406578.2778156     
   512382226.12826198        4570825.7408260405        1390231708.1073287     
   420707390.36657107       -13035369.124967158        1364034604.9866090     
   510365455.56833529        23443182.428073615        1590027917.3006611     
   454592925.92893982        18531284.879797190        1527321849.5182056     
   398246508.83482754        11706429.149128050        1476325720.0144696     
   341326204.28599727        2968615.2360687107        1437039528.7894547     
   283832012.28245068       -7682156.8593812585        1409463275.8431566     
   249618201.01517487        10052238.772904456        1630925781.3900626     
   223543124.31691936        8139643.9540902451        1570978814.5561838     
   197181101.13051575        5270560.8414482772        1521473957.2299724     
   170532131.45596644        1444989.4349873587        1482411209.4114320     
   143596215.29326713       -3337070.2653076276        1453790571.1005483     
 -0.77385716882158029        10.946983795635999        1669383212.0363114     
   7.5517234864697809        8.4824240351502258        1612530110.6120131     
   10.355731794065260       -12.387378965989996        1564851289.9243271     
   7.6381624926057370       -51.662442398703689        1526346749.9732509     
 -0.60098464666351958       -109.34276112744685        1497016490.7587888     
  0.59294098934821593       0.17788229680446480        656443248.94960093     
  0.59414600071363177        8.6148510486444493E-002   770983921.27541256     
  0.60540716213091528        2.7934877396621705E-002   885674327.09575295     
  0.62672427343966564        3.2413374868760225E-003   1000514466.4106222     
  0.65809756339462677        1.2068219592152152E-002   1115504339.2200201     
  -448251729.66416073       -134475518.89924821        657915978.63621747     
  -447513773.40029389       -125481101.20598777        774137086.12876606     
  -446040760.21136254       -114036493.76251265        888700483.91691184     
  -443832690.09736681       -100141696.56882311        1001606172.0006549     
  -440889563.05830681       -83796709.624918997        1112854150.3799949     
  -890345249.76683640       -267103574.93005094        662334167.77864146     
  -894033460.66582644       -250663976.47945181        781093276.83876991     
  -896251557.72474360       -229323998.56194362        896387232.99556410     
  -896999540.94358790       -203083641.17752635        1008216036.2490240     
  -896277410.32235980       -171942904.32620049        1116579686.5991495     
  -1326280559.7150860       -397884167.91452581        669697816.37687337     
  -1339559061.2024517       -375548625.73424363        791852493.40542495     
  -1350632391.9347363       -345862514.37035817        908734574.33171058     
  -1359500551.9119396       -308825833.82286918        1020344059.1557299     
  -1366163541.1340623       -264438584.09177703        1126680947.8774836     
  -1756057659.5089097       -526817297.85267293        680006924.43091261     
  -1784090575.0101697       -500135048.97036338        806414735.82873023     
  -1809183262.8413403       -463652041.18775588        925742507.92535031     
  -1831335723.0024214       -417368274.50485063        1037990240.7207726     
  -1850547955.4934137       -361283748.92164826        1143157934.2149978     
  0.65809756339462677        1.2068219592152152E-002   1115504339.2200201     
  0.72696457370330558        4.6781040007887742E-002   1188554834.4491475     
  0.79542756167213302        8.0147292763133537E-002   1258526806.5182941     
  0.86348682003569588       0.11216743322280198        1325420255.4274607     
  0.93114138194777119       0.14283910592788759        1389235181.1766465     
  -440889563.05830681       -83796709.624918997        1112854150.3799949     
  -442748774.59198385       -69065126.797143832        1180998682.8652210     
  -445456912.86016005       -57163299.751031205        1247391979.7100713     
  -449013977.86283433       -48091228.486579552        1312034040.9145460     
  -453419969.60000730       -41848913.003790304        1374924866.4786453     
  -896277410.32235980       -171942904.32620049        1116579686.5991495     
  -896203583.40256798       -141342063.68856069        1178827841.8173640     
  -897827609.95136917       -116400734.61289701        1240652048.9148080     
  -901149489.96876276       -97118917.099209160        1302052307.8914814     
  -906169223.45474911       -83496611.147496432        1363028618.7473836     
  -1366163541.1340623       -264438584.09177703        1126680947.8774836     
  -1360364425.7047870       -216830810.62746707        1182042311.3055770     
  -1357112090.4781997       -177712304.50544918        1238307014.1325045     
  -1356406535.4542983       -147083065.72571957        1295475056.3582664     
  -1358247760.6330850       -124943094.28828138        1353546437.9828625     
  -1850547955.4934137       -361283748.92164826        1143157934.2149978     
  -1835231301.4986415       -295531367.61386490        1190642091.3298600     
  -1823310354.4406507       -241098009.42868620        1240356875.3631611     
  -1814785114.3194425       -197983674.36611468        1292302286.3149011     
  -1809655581.1350143       -166188362.42614394        1346478324.1850803     
  0.93114138194777119       0.14283910592788759        1389235181.1766465     
  0.89477804744308020       0.17522110136462804        1410172259.2972765     
  0.88052280668236760       0.28129708955932481        1434236238.4774685     
  0.88837666046763863       0.46106919221222920        1461427118.7172208     
  0.91833775016659780       0.71453346902287440        1491744900.0165348     
  -453419969.60000730       -41848913.003790304        1374924866.4786453     
  -443372811.41484857       -33034660.423499301        1395633799.5657401     
  -433639808.61334485       -25267592.455391645        1418910356.5603120     
  -424220961.19549531       -18547709.099465072        1444754537.4623616     
  -415116269.16130078       -12875010.355721667        1473166342.2718868     
  -906169223.45474911       -83496611.147496432        1363028618.7473836     
  -887672841.76830995       -66347486.435371667        1383142892.1608868     
  -869804770.87128770       -51292731.021304429        1405265512.3297832     
  -852565010.76368284       -38332344.905294865        1429396479.2540722     
  -835953561.44549489       -27466328.087341815        1455535792.9337533     
  -1358247760.6330850       -124943094.28828138        1353546437.9828625     
  -1332900090.1656053       -99938477.860394776        1372699537.0827172     
  -1308494885.8933055       -78075415.416441143        1393301705.7858808     
  -1285032147.8161852       -59353906.956419408        1415352944.0923531     
  -1262511875.9342456       -43773952.480332255        1438853252.0021341     
  -1809655581.1350143       -166188362.42614394        1346478324.1850803     
  -1779054556.6067343       -133807634.69856608        1364303734.3312309     
  -1749710153.6793966       -105615645.64079583        1383018936.9286053     
  -1721622372.3530030       -81612395.252837181        1402623931.9772041     
  -1694791212.6275499       -61797883.534683824        1423118719.4770277     
  0.91833775016659780       0.71453346902287440        1491744900.0165348     
   1.3155007303258468        1.1829950251996579        1495701612.8313124     
   1.7596804279275113        1.8081779320170739        1503077872.4813683     
   2.2508757106356079        2.5900804966900166        1513873678.9667025     
   2.7890877794125433        3.5287046407583356        1528089032.2873127     
  -415116269.16130078       -12875010.355721667        1473166342.2718868     
  -404230768.75782853       -7822233.9469789565        1475044216.4214425     
  -393792100.78110904       -4258898.9607459903        1480709980.0620465     
  -383800265.23113966       -2185005.3970157057        1490163633.1937006     
  -374255262.10792691       -1600553.2558037639        1503405175.8164036     
  -835953561.44549489       -27466328.087341815        1455535792.9337533     
  -813130153.44779563       -17045053.461945325        1454813523.8653569     
  -791200410.35061657       -9602661.8382818103        1458247486.9437819     
  -770164332.15395987       -5139153.2163591087        1465837682.1690249     
  -750021918.85782385       -3654527.5961727500        1477584109.5410914     
  -1262511875.9342456       -43773952.480332255        1438853252.0021341     
  -1226698152.7544014       -27668457.361903667        1435009535.1630552     
  -1192224926.9488459       -16031286.824437559        1435690393.1265681     
  -1159092198.5175807       -8862440.8679398298        1440895825.8926749     
  -1127299967.4606054       -6161919.4924066663        1450625833.4613695     
  -1694791212.6275499       -61797883.534683824        1423118719.4770277     
  -1644934766.6776447       -39692445.646852732        1415632250.3145373     
  -1596865650.5757937       -23544773.919206858        1413038698.6104100     
  -1550583864.3220029       -13354868.351759553        1415338064.3646457     
  -1506089407.9162719       -9122728.9445093274        1422530347.5772443     
   2.7890877794125433        3.5287046407583356        1528089032.2873127     
   2.1373604351594766        4.3088176799437763        1526638677.0715621     
   1.5694846750074980        5.3684356525214838        1529711458.2162347     
   1.0854511772007867        6.7075281798614430        1537307375.7213259     
  0.68526905761589418        8.3261249543294387        1549426429.5868411     
  -374255262.10792691       -1600553.2558037639        1503405175.8164036     
  -362574300.66200268       -1122307.3488787115        1501313539.7082272     
  -350939030.12851858       -796364.48342142999        1503573758.4393301     
  -339349450.50747335       -622724.65942662954        1510185832.0097113     
  -327805561.79886842       -601387.87689967453        1521149760.4193656     
  -750021918.85782385       -3654527.5961727500        1477584109.5410914     
  -727149371.08894742       -2844849.2948545814        1474797886.3781536     
  -704368205.22879696       -2339777.3559558392        1476192236.5333507     
  -681678421.27737236       -2139311.7794786990        1481767160.0066810     
  -659080019.23467326       -2243452.5654178262        1491522656.7981453     
  -1127299967.4606054       -6161919.4924066663        1450625833.4613695     
  -1093725209.1434727       -5167621.5291045904        1447091717.0813386     
  -1060287523.7313503       -4630233.2491703629        1447566892.4982963     
  -1026986911.2242424       -4549754.6526179910        1452051359.7122464     
  -993823371.62214684       -4926185.7394399643        1460545118.7231839     
  -1506089407.9162719       -9122728.9445093274        1422530347.5772443     
  -1462301814.8255765       -8090624.0516231656        1418195031.8177838     
  -1418696985.6361840       -7667732.1630777121        1417697726.3341677     
  -1375274920.3480871       -7854053.2788518071        1421038431.1263983     
  -1332035618.9612911       -8649587.3989632726        1428217146.1944766     
  0.68526905761589418        8.3261249543294387        1549426429.5868411     
  0.80422500161212840        9.7601148774716879        1530735352.6696115     
  0.61492015691842772        10.166569532203546        1517819152.6206911     
  0.11736868345345242        9.5455343835304038        1510677829.4400761     
 -0.68844463097328035        7.8969611527635157        1509311383.1277735     
  -327805561.79886842       -601387.87689967453        1521149760.4193656     
  -311969024.05864108        665007.55428384244        1501424762.9305952     
  -296114973.02850944        1989780.6184812188        1487814595.8212972     
  -280243408.70847505        3372931.3156883121        1480319259.0914702     
  -264354331.09852910        4814459.6459345818        1478938752.7411106     
  -659080019.23467326       -2243452.5654178262        1491522656.7981453     
  -626435648.12699878        580725.58680614829        1470784171.2690246     
  -593756250.13125920        3521660.0325801671        1456500469.6305361     
  -561041825.24745035        6579350.7719194293        1448671551.8826797     
  -528292373.47557384        9753797.8048149645        1447297418.0254591     
  -993823371.62214684       -4926185.7394399643        1460545118.7231839     
  -943399871.40084565       -252836.14231204987        1438813577.6848962     
  -892923830.69332111        4595648.4088922143        1423876774.0484071     
  -842395249.49956250        9619267.9142095447        1415734707.8137143     
  -791814127.81958032        14818022.373607606        1414387378.9808125     
  -1332035618.9612911       -8649587.3989632726        1428217146.1944766     
  -1262861693.8801889       -1835677.6330924630        1405512982.1782155     
  -1193617714.7146969        5211745.7474125028        1389943509.0749123     
  -1124303681.4648175        12492682.742541492        1381508726.8845654     
  -1054919594.1305439        20007133.352316439        1380208635.6071770     
 -0.68844463097328035        7.8969611527635157        1509311383.1277735     
  -1.3633520137011073        6.4809529995404933        1545803004.4092975     
  -1.6025543987068556        6.5172941448350077        1584645516.3212287     
  -1.4060546683003010        8.0059749809478085        1625838918.8635678     
 -0.77385716882158029        10.946983795635999        1669383212.0363114     
  -264354331.09852910        4814459.6459345818        1478938752.7411106     
  -260293672.22998768        2353212.3371036947        1514924500.4085755     
  -256484098.09090716       -944984.06992776692        1552250921.5312438     
  -252925608.68127626       -5080129.5751251429        1590918016.1091199     
  -249618204.00110364       -10052224.178518102        1630925784.1421945     
  -528292373.47557384        9753797.8048149645        1447297418.0254591     
  -523057389.84988004        3965404.1672623754        1482484359.3861787     
  -518324576.11879939       -3496889.1190006435        1518001757.0269012     
  -514093932.28233165       -12633082.053975165        1553849610.9476261     
  -510365458.34047711       -23443174.637659788        1590027921.1483543     
  -791814127.81958032        14818022.373607606        1414387378.9808125     
  -788291154.22302437        4836581.9714462757        1448482581.3421054     
  -785521435.68623817       -7655708.6299462914        1481898022.8081975     
  -783504972.20922041       -22658849.430568695        1514633703.3790934     
  -782241763.79197764       -40172840.430438757        1546689623.0547872     
  -1054919594.1305439        20007133.352316439        1380208635.6071770     
  -1055994965.3494157        4966745.7496678233        1412919166.2763598     
  -1058074676.7932199       -13421442.602757335        1443939718.8751373     
  -1061158728.4619447       -35157431.704916775        1473270293.4035177     
  -1065247120.3556020       -60241221.556851506        1500910889.8614924     
 -0.77385716882158029        10.946983795635999        1669383212.0363114     
   7.5517234864697809        8.4824240351502258        1612530110.6120131     
   10.355731794065260       -12.387378965989996        1564851289.9243271     
   7.6381624926057370       -51.662442398703689        1526346749.9732509     
 -0.60098464666351958       -109.34276112744685        1497016490.7587888     
  -249618204.00110364       -10052224.178518102        1630925784.1421945     
  -223543109.67442524       -8139630.8846226782        1570978807.8390396     
  -197181075.01168227       -5270569.8038455620        1521473941.0097017     
  -170532100.01288459       -1445040.9362228587        1482411183.6541862     
  -143596184.67802781        3336955.7182677984        1453790535.7724881     
  -510365458.34047711       -23443174.637659788        1590027921.1483543     
  -454592910.19210154       -18531275.239121005        1527321840.1335800     
  -398246475.85003167       -11706421.861599833        1476325697.3298326     
  -341326155.31426972       -2968614.5051048398        1437039492.7371154     
  -283831948.58481401        7682146.8303671479        1409463226.3554258     
  -782241763.79197764       -40172840.430438757        1546689623.0547872     
  -693149394.00130737       -31174924.581074804        1481559207.4956331     
  -603196192.15931547       -19307568.560637593        1429406558.8847172     
  -512382158.26599270       -4570772.3690947890        1390231677.2220435     
  -420707292.32133877        13035463.993548274        1364034562.5076022     
  -1065247120.3556020       -60241221.556851506        1500910889.8614924     
  -939212561.10204601       -46070578.910498530        1433690909.9252043     
  -812030223.93952847       -28074009.900939882        1380716525.6743600     
  -683700108.86804926       -6251514.5281778872        1341987737.1089630     
  -554222215.88760424        19396907.207807183        1317504544.2290106     
  -1756057659.5089097       -526817297.85267293        680006924.43091261     
  -1784090575.0101697       -500135048.97036338        806414735.82873023     
  -1809183262.8413403       -463652041.18775588        925742507.92535031     
  -1831335723.0024214       -417368274.50485063        1037990240.7207726     
  -1850547955.4934137       -361283748.92164826        1143157934.2149978     
  -2201841531.0161152       -660552459.30483460        696380111.24059677     
  -2238404731.7318735       -613913497.29808509        813831761.72157073     
  -2272923891.3196068       -560461064.86458504        927196298.31002641     
  -2305399009.7793150       -500195162.00433409        1036473721.0059643     
  -2335830087.1109982       -433115788.71733242        1141664029.8093834     
  -2685797156.1045117       -805739146.83135355        721935996.10576296     
  -2722339426.5813999       -736578107.06415355        829385934.70415211     
  -2757733842.4723272       -663590885.34375000        935741684.81870198     
  -2791980403.7772927       -586777481.67014241        1041003246.4494127     
  -2825079110.4962964       -506137896.04333138        1145170619.5962849     
  -3207924534.7740989       -962377360.43222964        756674579.02641118     
  -3235894659.5587468       -868128878.26856828        853077254.77647376     
  -3263613116.2994976       -773041502.62525010        951378667.45137632     
  -3291079904.9963512       -677115233.50227547        1051578817.0511198     
  -3318295025.6493087       -580350070.89964426        1153677703.5757027     
  -3768223667.0248756       -1130467100.1074626        800595860.00254142     
  -3779070430.6639147       -1008565810.9113290        884905721.93853617     
  -3790561712.8011208       -888812916.70908594        974107246.20805025     
  -3802697513.4364929       -771208417.50073290        1068200432.8110840     
  -3815477832.5700331       -655752313.28627050        1167185281.7476370     
  -1850547955.4934137       -361283748.92164826        1143157934.2149978     
  -1835231301.4986415       -295531367.61386490        1190642091.3298600     
  -1823310354.4406507       -241098009.42868620        1240356875.3631611     
  -1814785114.3194425       -197983674.36611468        1292302286.3149011     
  -1809655581.1350143       -166188362.42614394        1346478324.1850803     
  -2335830087.1109982       -433115788.71733242        1141664029.8093834     
  -2312420883.9979992       -352082650.72727889        1182859808.7018137     
  -2292505163.3956742       -282694454.43947625        1224523669.9939184     
  -2276082925.3040247       -224951199.85392624        1266655613.6856968     
  -2263154169.7230501       -178852886.97062433        1309255639.7771499     
  -2825079110.4962964       -506137896.04333138        1145170619.5962849     
  -2798613199.7472534       -411334753.81566173        1179963948.7634075     
  -2775738547.0827799       -328502471.86989021        1213462815.8114390     
  -2756455152.5028758       -257641050.20601737        1245667220.7403796     
  -2740763016.0075412       -198750488.82404244        1276577163.5502295     
  -3318295025.6493087       -580350070.89964426        1153677703.5757027     
  -3293808248.7464075       -473287676.87901425        1181954511.5146406     
  -3273010505.5019712       -378522061.71992958        1207174312.8157225     
  -3255901795.9159985       -296053225.42239237        1229337107.4789488     
  -3242482119.9884877       -225881167.98639739        1248442895.5043199     
  -3815477832.5700331       -655752313.28627050        1167185281.7476370     
  -3798006030.9954596       -537941419.91733658        1188831496.9555142     
  -3784321038.6532450       -432753223.98959422        1205658161.0067699     
  -3774422855.5433874       -340187725.50304449        1217665273.9014058     
  -3768311481.6658878       -260244924.45768678        1224852835.6394210     
  -1809655581.1350143       -166188362.42614394        1346478324.1850803     
  -1779054556.6067343       -133807634.69856608        1364303734.3312309     
  -1749710153.6793966       -105615645.64079583        1383018936.9286053     
  -1721622372.3530030       -81612395.252837181        1402623931.9772041     
  -1694791212.6275499       -61797883.534683824        1423118719.4770277     
  -2263154169.7230501       -178852886.97062433        1309255639.7771499     
  -2223575938.2057056       -134432956.60077012        1317400664.6943893     
  -2186882174.9212132       -99627920.340424061        1328783163.4653144     
  -2153072879.8695769       -74437778.189600468        1343403136.0899231     
  -2122148053.0507972       -58862530.148292661        1361260582.5682182     
  -2740763016.0075412       -198750488.82404244        1276577163.5502295     
  -2685499916.3512421       -140279057.46693850        1273142648.8346608     
  -2634749131.5597100       -96848675.659057260        1275293289.3752375     
  -2588510661.6329460       -68459343.400402546        1283029085.1719596     
  -2546784506.5709481       -55111060.690971136        1296350036.2248273     
  -3242482119.9884877       -225881167.98639739        1248442895.5043199     
  -3164826491.0433469       -151345937.29708052        1231529686.7520449     
  -3093311023.5948873       -97277911.596694946        1222549314.6583765     
  -3027935717.6431046       -63677090.885241270        1221501779.2233140     
  -2968700573.1880050       -50543475.162722826        1228387080.4468565     
  -3768311481.6658878       -260244924.45768678        1224852835.6394210     
  -3661555662.2820187       -167633596.09119117        1192561778.4465423     
  -3562567851.0267425       -100915628.15333426        1170551239.3147302     
  -3471348047.9000587       -60091020.644118547        1158821218.2439840     
  -3387896252.9019656       -45159773.563542366        1157371715.2343063     
  -1694791212.6275499       -61797883.534683824        1423118719.4770277     
  -1644934766.6776447       -39692445.646852732        1415632250.3145373     
  -1596865650.5757937       -23544773.919206858        1413038698.6104100     
  -1550583864.3220029       -13354868.351759553        1415338064.3646457     
  -1506089407.9162719       -9122728.9445093274        1422530347.5772443     
  -2122148053.0507972       -58862530.148292661        1361260582.5682182     
  -2060885052.3050437       -40466982.577497005        1352872701.5401003     
  -2000879002.6551869       -26261271.993021727        1349222304.5082028     
  -1942129904.1012206       -16245398.394852638        1350309391.4725242     
  -1884637756.6431541       -10419361.783006787        1356133962.4330685     
  -2546784506.5709481       -55111060.690971136        1296350036.2248273     
  -2474559046.6354704       -40558632.119052410        1287679518.5419393     
  -2403060159.0437250       -28428111.359572291        1283591051.3931282     
  -2332287843.7957115       -18719498.412530065        1284084634.7783961     
  -2262242100.8914266       -11432793.277925491        1289160268.6977401     
  -2968700573.1880050       -50543475.162722826        1228387080.4468565     
  -2885956749.6689243       -39967394.271514535        1220052701.3200562     
  -2803409119.7414150       -30045292.018873215        1216144939.2651899     
  -2721057683.4054699       -20777168.404784918        1216663794.2822583     
  -2638902440.6610966       -12163023.429262280        1221609266.3712623     
  -3387896252.9019656       -45159773.563542366        1157371715.2343063     
  -3295078161.4054060       -38693269.034885645        1149992249.8744485     
  -3201925884.7482524       -31112813.970916510        1146883968.1243849     
  -3108439422.9305029       -22418408.371626139        1148046869.9841127     
  -3014618775.9521570       -12610052.237016082        1153480955.4536312     
  -1506089407.9162719       -9122728.9445093274        1422530347.5772443     
  -1462301814.8255765       -8090624.0516231656        1418195031.8177838     
  -1418696985.6361840       -7667732.1630777121        1417697726.3341677     
  -1375274920.3480871       -7854053.2788518071        1421038431.1263983     
  -1332035618.9612911       -8649587.3989632726        1428217146.1944766     
  -1884637756.6431541       -10419361.783006787        1356133962.4330685     
  -1830003358.0991101       -8050507.1858059168        1351935309.9319732     
  -1775826200.1122060       -7205787.7790728807        1351933862.9566112     
  -1722106282.6824403       -7885203.5627974272        1356129621.5069847     
  -1668843605.8098149       -10088754.536989927        1364522585.5830898     
  -2262242100.8914266       -11432793.277925491        1289160268.6977401     
  -2195734624.7514968       -7419307.3336395025        1284778056.6898639     
  -2129958865.8245497       -5844878.7659593821        1284952245.4576099     
  -2064914824.1105785       -6709507.5748717785        1289682835.0009785     
  -2000602499.6095917       -10013193.760395765        1298969825.3199646     
  -2638902440.6610966       -12163023.429262280        1221609266.3712623     
  -2559495614.7827492       -6197024.4951411486        1216723272.0914581     
  -2481094982.7732148       -3585005.1237398386        1216752873.8371620     
  -2403700544.6325068       -4326965.3150914907        1221698071.6083775     
  -2327312300.3606200       -8422905.0691754818        1231558865.4050970     
  -3014618775.9521570       -12610052.237016082        1153480955.4536312     
  -2921286328.1928501       -4383658.6702857018        1147770956.1367536     
  -2829234550.9582052       -426166.85242748260        1147335748.0952702     
  -2738463444.2482204       -737576.78343760967        1152175331.3291824     
  -2648973008.0629010       -5317888.4633309841        1162289705.8384898     
  -1332035618.9612911       -8649587.3989632726        1428217146.1944766     
  -1262861693.8801889       -1835677.6330924630        1405512982.1782155     
  -1193617714.7146969        5211745.7474125028        1389943509.0749123     
  -1124303681.4648175        12492682.742541492        1381508726.8845654     
  -1054919594.1305439        20007133.352316439        1380208635.6071770     
  -1668843605.8098149       -10088754.536989927        1364522585.5830898     
  -1582069754.9082353       -2522480.7666553259        1343331843.7445123     
  -1495025604.6346700        5944790.9102968574        1328371193.0077009     
  -1407711154.9891229        15313060.493857443        1319640633.3726540     
  -1320126405.9715881        25582327.984040856        1317140164.8393743     
  -2000602499.6095917       -10013193.760395765        1298969825.3199646     
  -1898813293.7766523       -2469927.2523227930        1279526125.1612620     
  -1796553543.2841358        6641821.4543405771        1265407916.2931368     
  -1693823248.1320403        17322052.359593272        1256615198.7155800     
  -1590622408.3203714        29570765.463433504        1253147972.4285982     
  -2327312300.3606200       -8422905.0691754818        1231558865.4050970     
  -2213092310.4854441       -1678017.0901074409        1214095826.4284656     
  -2098201530.6630917        7302837.3795335293        1201053678.9312150     
  -1982639960.8935742        18519658.339732289        1192432422.9133439     
  -1866407601.1768830        31972445.790517688        1188232058.3748536     
  -2648973008.0629010       -5317888.4633309841        1162289705.8384898     
  -2524906805.0346041       -146750.27999603748        1147040947.5461190     
  -2399969566.7715440        7927838.6858788729        1135308480.9219387     
  -2274161293.2737222        18905878.434295774        1127092305.9659431     
  -2147481984.5411320        32787368.965270638        1122392422.6781371     
  -1054919594.1305439        20007133.352316439        1380208635.6071770     
  -1055994965.3494157        4966745.7496678233        1412919166.2763598     
  -1058074676.7932199       -13421442.602757335        1443939718.8751373     
  -1061158728.4619447       -35157431.704916775        1473270293.4035177     
  -1065247120.3556020       -60241221.556851506        1500910889.8614924     
  -1320126405.9715881        25582327.984040856        1317140164.8393743     
  -1324293527.4448206        6949011.5575157404        1347641726.9915154     
  -1329638875.3907731       -15611726.444743276        1378284135.2085228     
  -1336162449.8094563       -42099886.022770762        1409067389.4903970     
  -1343864250.7008631       -72515467.176544070        1439991489.8371348     
  -1590622408.3203714        29570765.463433504        1253147972.4285982     
  -1592650353.9471939        8913798.0432940125        1281237698.7746060     
  -1596030412.2945411       -16250211.778604090        1311299095.3207424     
  -1600762583.3624122       -45921264.002241433        1343332162.0670092     
  -1606846867.1508098       -80099358.627637267        1377336899.0134113     
  -1866407601.1768830        31972445.790517688        1188232058.3748536     
  -1861065444.8565381        10861105.206970572        1213707081.6256235     
  -1857249287.5045173       -15336898.604315400        1242984599.2117925     
  -1854959129.1208227       -46621565.643356800        1276064611.1333573     
  -1854194969.7054517       -82992895.910145044        1312947117.3903196     
  -2147481984.5411320        32787368.965270638        1122392422.6781371     
  -2129538800.1728606        12790933.048552155        1145049875.5445733     
  -2113295501.0207105       -12871786.921907902        1173340646.8816745     
  -2098752087.0846825       -44200790.946104169        1207264736.6894400     
  -2085908558.3647780       -81196079.024047852        1246822144.9678676     
  -1065247120.3556020       -60241221.556851506        1500910889.8614924     
  -939212561.10204601       -46070578.910498530        1433690909.9252043     
  -812030223.93952847       -28074009.900939882        1380716525.6743600     
  -683700108.86804926       -6251514.5281778872        1341987737.1089630     
  -554222215.88760424        19396907.207807183        1317504544.2290106     
  -1343864250.7008631       -72515467.176544070        1439991489.8371348     
  -1183244209.3265378       -52515481.375142217        1377953173.6025803     
  -1021499338.6605029       -28766064.601373434        1326928245.6627746     
  -858629638.70275867       -1267216.8552349210        1286916706.0177200     
  -694635109.45330358        29981061.863260418        1257918554.6674109     
  -1606846867.1508098       -80099358.627637267        1377336899.0134113     
  -1420876221.9148517       -57040493.148927569        1320453473.0937958     
  -1233803696.0044351       -30308692.088694751        1271351228.0782342     
  -1045629289.4195591        96044.553073883057        1230030163.9667273     
  -856353002.16022921        34173716.776359141        1196490280.7592621     
  -1854194969.7054517       -82992895.910145044        1312947117.3903196     
  -1652108598.8669927       -59645614.231863678        1261191808.3988552     
  -1448943295.9713326       -32701892.362905324        1213985472.9207430     
  -1244699061.0184608       -2161730.3032475710        1171328110.9559767     
  -1039375894.0083888        31974871.947084308        1133219722.5045807     
  -2085908558.3647780       -81196079.024047852        1246822144.9678676     
  -1876941340.1829557       -60330844.623942971        1200168179.5177517     
  -1666918138.5611851       -35945665.424000084        1154830980.1902957     
  -1455838953.4994550       -8040541.4241960645        1110810546.9854953     
  -1243703784.9977765        23384527.375434339        1068106879.9033505     
  -3768223667.0248756       -1130467100.1074626        800595860.00254142     
  -3779070430.6639147       -1008565810.9113290        884905721.93853617     
  -3790561712.8011208       -888812916.70908594        974107246.20805025     
  -3802697513.4364929       -771208417.50073290        1068200432.8110840     
  -3815477832.5700331       -655752313.28627050        1167185281.7476370     
  -4339616265.7735872       -1301884879.7320762        858818635.73810208     
  -4335168436.3329592       -1125667742.4179118        942400565.46434915     
  -4331869710.6282921       -953280950.89028406        1020321477.9680440     
  -4329720088.6595850       -784724505.14919305        1092581373.2491868     
  -4328719570.4268408       -619998405.19463849        1159180251.3077767     
  -4895024043.9369736       -1468507213.1810920        936461702.93704128     
  -4905432134.4340267       -1247019381.6541018        1018727017.6761149     
  -4917493913.9048357       -1031043846.7062941        1084778635.6365645     
  -4931209382.3493996       -820580608.33766997        1134616556.8183899     
  -4946578539.7677183       -615629666.54822779        1168240781.2215908     
  -5434447001.5150375       -1630334100.4545114        1033525061.5993595     
  -5489861524.9671211       -1372620728.6198993        1113885078.5738335     
  -5547434322.6307526       -1122101604.1571159        1167478719.2136111     
  -5607165394.5059328       -878776727.06616247        1194305983.5186930     
  -5669054740.5926628       -642646097.34703684        1194366871.4890788     
  -5957885138.5077772       -1787365541.5523334        1150008711.7250562     
  -6088456607.9322395       -1502471783.3153043        1227874748.1575038     
  -6221690936.8060436       -1226454223.2427497        1268421728.6991842     
  -6357588125.1291895       -959312861.33467138        1271649653.3500965     
  -6496148172.9016781       -701047697.59106708        1237558522.1102409     
  -3815477832.5700331       -655752313.28627050        1167185281.7476370     
  -3798006030.9954596       -537941419.91733658        1188831496.9555142     
  -3784321038.6532450       -432753223.98959422        1205658161.0067699     
  -3774422855.5433874       -340187725.50304449        1217665273.9014058     
  -3768311481.6658878       -260244924.45768678        1224852835.6394210     
  -4328719570.4268408       -619998405.19463849        1159180251.3077767     
  -4298188548.9270964       -464234912.94714272        1141280433.4111488     
  -4278259033.8147902       -343809775.32444549        1129487428.4108365     
  -4268931025.0899267       -258722992.32655001        1123801236.3068395     
  -4270204522.7525024       -208974563.95345283        1124221857.0991583     
  -4946578539.7677183       -615629666.54822779        1168240781.2215908     
  -4871770115.3344116       -412548120.51965189        1102844450.2061956     
  -4814377894.4436274       -267520586.29948425        1054481296.1400511     
  -4774401877.0953674       -180547063.88772535        1023151319.0231591     
  -4751842063.2896290       -151627553.28437376        1008854518.8555186     
  -5669054740.5926628       -642646097.34703684        1194366871.4890788     
  -5518750730.2174082       -382881042.63486528        1073523547.3406528     
  -5392677620.5397577       -203885656.91471148        980639764.19441473     
  -5290835411.5597115       -105659940.18657088        915715522.05036438     
  -5213224103.2772732       -88203892.450449705        878750820.90850139     
  -6496148172.9016781       -701047697.59106708        1237558522.1102409     
  -6239130393.5760832       -375233679.29278255        1053317724.8145219     
  -6013158212.1031780       -152904987.17012405        907962832.57392716     
  -5818231628.4829597       -34061621.223089457        801493845.38845479     
  -5654350642.7154274       -18703581.451677799        733910763.25810695     
  -3768311481.6658878       -260244924.45768678        1224852835.6394210     
  -3661555662.2820187       -167633596.09119117        1192561778.4465423     
  -3562567851.0267425       -100915628.15333426        1170551239.3147302     
  -3471348047.9000587       -60091020.644118547        1158821218.2439840     
  -3387896252.9019656       -45159773.563542366        1157371715.2343063     
  -4270204522.7525024       -208974563.95345283        1124221857.0991583     
  -4147935443.9681993       -144926818.40630507        1090899841.9781015     
  -4030073730.7261353       -95570291.333285332        1065822181.2930852     
  -3916619383.0263090       -60904982.734392405        1048988875.0441093     
  -3807572400.8687220       -40930892.609627724        1040399923.2311718     
  -4751842063.2896290       -151627553.28437376        1008854518.8555186     
  -4619877335.4621124       -117888673.66373920        978422295.49036360     
  -4488959330.5904827       -87638870.562722683        954198262.93622160     
  -4359088048.6747360       -60878143.981320858        936182421.19309270     
  -4230263489.7148719       -37606493.919532061        924374770.26097608     
  -5213224103.2772732       -88203892.450449705        878750820.90850139     
  -5077381336.7637606       -86519161.863494635        855129138.98332751     
  -4939224650.6197805       -77121365.841644287        835679484.24413860     
  -4798754044.8453312       -60010504.384899139        820401856.69093645     
  -4655969519.4404163       -35186577.493255615        809296256.32371926     
  -5654350642.7154274       -18703581.451677799        733910763.25810695     
  -5520447447.8731413       -50818283.005568266        721020372.45699251     
  -5380869690.8140345       -64017777.170053720        710265845.21683717     
  -5235617371.5381050       -58302063.945130825        701647181.53764176     
  -5084690490.0453510       -33671143.330793142        695164381.41940427     
  -3387896252.9019656       -45159773.563542366        1157371715.2343063     
  -3295078161.4054060       -38693269.034885645        1149992249.8744485     
  -3201925884.7482524       -31112813.970916510        1146883968.1243849     
  -3108439422.9305029       -22418408.371626139        1148046869.9841127     
  -3014618775.9521570       -12610052.237016082        1153480955.4536312     
  -3807572400.8687220       -40930892.609627724        1040399923.2311718     
  -3701725077.1033516       -29543271.212079287        1031970074.9144628     
  -3596498896.2855549       -20226126.306451559        1028155886.9942257     
  -3491893858.4153328       -12979457.892740250        1028957359.4704621     
  -3387909963.4926891       -7803265.9709475040        1034374492.3431716     
  -4230263489.7148719       -37606493.919532061        924374770.26097608     
  -4110402714.2901726       -21002489.835935354        913779989.52788162     
  -3992118409.9212174       -9653389.2714946270        908145345.97793961     
  -3875410576.6080108       -3559192.2262134552        907470839.61115241     
  -3760279214.3505521       -2719898.7000839710        911756470.42751920     
  -4655969519.4404163       -35186577.493255615        809296256.32371926     
  -4521111072.9658709       -13070924.906456947        795421993.71470654     
  -4388784425.6552420        605397.13395142555        786852345.07552922     
  -4258989577.5085335        5842388.6279606819        783587310.40618265     
  -4131726528.5257411        2640049.5755827427        785626889.70667267     
  -5084690490.0453510       -33671143.330793142        695164381.41940427     
  -4933850153.1304426       -5748576.4236345291        676896087.47493839     
  -4786496943.4876242        10550232.909895182        664276884.28698957     
  -4642630861.1168966        15225284.669784546        657306771.85555506     
  -4502251906.0182571        8276578.8560552597        655985750.18063486     
  -3014618775.9521570       -12610052.237016082        1153480955.4536312     
  -2921286328.1928501       -4383658.6702857018        1147770956.1367536     
  -2829234550.9582052       -426166.85242748260        1147335748.0952702     
  -2738463444.2482204       -737576.78343760967        1152175331.3291824     
  -2648973008.0629010       -5317888.4633309841        1162289705.8384898     
  -3387909963.4926891       -7803265.9709475040        1034374492.3431716     
  -3282903722.4713669       -4186538.3962666988        1027631703.2017581     
  -3178506779.0585399       -2600802.8499079943        1025657732.8308196     
  -3074719133.2542081       -3046059.3318661451        1028452581.2303559     
  -2971540785.0583763       -5522307.8421486616        1036016248.4003670     
  -3760279214.3505521       -2719898.7000839710        911756470.42751920     
  -3645044815.7955532       -4146527.8359482288        904764159.86376357     
  -3529748341.9328890       -5366239.2795848846        902034695.56556237     
  -3414389792.7625561       -6379033.0309929848        903568077.53291476     
  -3298969168.2845564       -7184909.0901775360        909364305.76582074     
  -4131726528.5257411        2640049.5755827427        785626889.70667267     
  -4007709608.1654205       -4263626.9893376827        779168326.12276888     
  -3882959239.5812631       -8722476.1414728165        776466636.29949450     
  -3757475422.7732749       -10736497.880837440        777521820.23685813     
  -3631258157.7414522       -10305692.207421541        782333877.93485188     
  -4502251906.0182571        8276578.8560552597        655985750.18063486     
  -4370898099.5809517       -4537835.8564155102        650844201.97877264     
  -4238139472.0036535       -12669513.435565948        648953555.03262544     
  -4103976023.2863531       -16118453.881380558        650313809.34218526     
  -3968407753.4290581       -14884657.193878412        654924964.90745890     
  -2648973008.0629010       -5317888.4633309841        1162289705.8384898     
  -2524906805.0346041       -146750.27999603748        1147040947.5461190     
  -2399969566.7715440        7927838.6858788729        1135308480.9219387     
  -2274161293.2737222        18905878.434295774        1127092305.9659431     
  -2147481984.5411320        32787368.965270638        1122392422.6781371     
  -2971540785.0583763       -5522307.8421486616        1036016248.4003670     
  -2836022910.8891683        1623043.5930519104        1020559340.4120464     
  -2699948656.3729081        10622996.185101509        1009939530.8827298     
  -2563318021.5095997        21477549.933973789        1004156819.8124149     
  -2426131006.2992406        34186704.839680433        1003211207.2011039     
  -3298969168.2845564       -7184909.0901775360        909364305.76582074     
  -3148225889.2863989        3066775.7033132315        893332150.71255159     
  -2997240884.8289003        14124212.027928591        883457900.90910029     
  -2846014154.9120665        25987399.883665085        879741556.35546553     
  -2694545699.5358958        38656339.270533085        882183117.05164862     
  -3631258157.7414522       -10305692.207421541        782333877.93485188     
  -3461515740.2263021        4184446.0507626534        765359378.44763637     
  -3291846252.1395230        18431486.214368582        755863591.00105131     
  -3122249693.4811234        32435428.283384204        753846515.59509718     
  -2952726064.2510977        46196272.257813334        759308152.22977614     
  -3968407753.4290581       -14884657.193878412        654924964.90745890     
  -3775892463.7088699        4976054.6354227066        636641023.61729550     
  -3583764758.3047709        23544818.744426966        627156601.15857792     
  -3392024637.2167635        40821635.133127689        626471697.53130746     
  -3200672100.4448414        56806503.801541090        634586312.73548305     
  -2147481984.5411320        32787368.965270638        1122392422.6781371     
  -2129538800.1728606        12790933.048552155        1145049875.5445733     
  -2113295501.0207105       -12871786.921907902        1173340646.8816745     
  -2098752087.0846825       -44200790.946104169        1207264736.6894400     
  -2085908558.3647780       -81196079.024047852        1246822144.9678676     
  -2426131006.2992406        34186704.839680433        1003211207.2011039     
  -2398428876.1480060        12307426.214325786        1025801521.1222335     
  -2372432336.0229464       -15257152.498289108        1050699900.1077406     
  -2348141385.9240594       -48507031.298145175        1077906344.1576293     
  -2325556025.8513489       -87442210.185249925        1107420853.2718937     
  -2694545699.5358958        38656339.270533085        882183117.05164862     
  -2666585347.6196566        12044000.731135845        904699636.41574395     
  -2640336290.5396442       -20272653.929012775        926198967.43793535     
  -2615798528.2958531       -58293624.709911346        946681110.11822128     
  -2592972060.8882928       -102018911.61155856        966146064.45659757     
  -2952726064.2510977        46196272.257813334        759308152.22977614     
  -2934008214.5878072        12000656.599005103        781744221.42511094     
  -2917007364.5708017       -27918291.214077234        799837848.87225723     
  -2901723514.2000670       -73560571.181397080        813589034.57121134     
  -2888156663.4756112       -124926183.30298901        822997778.52197421     
  -3200672100.4448414        56806503.801541090        634586312.73548305     
  -3200697477.0524659        12177393.817913890        656935276.15033293     
  -3202445558.1164145       -38194064.353466034        671616544.41070807     
  -3205916343.6366982       -94307870.712620497        678630117.51660633     
  -3211109833.6133037       -156164025.25951493        677975995.46802545     
  -2085908558.3647780       -81196079.024047852        1246822144.9678676     
  -1876941340.1829557       -60330844.623942971        1200168179.5177517     
  -1666918138.5611851       -35945665.424000084        1154830980.1902957     
  -1455838953.4994550       -8040541.4241960645        1110810546.9854953     
  -1243703784.9977765        23384527.375434339        1068106879.9033505     
  -2325556025.8513489       -87442210.185249925        1107420853.2718937     
  -2105490552.4215367       -66454773.417877078        1055857493.2906425     
  -1883272072.4947615       -38290648.327281237        1011486286.0619717     
  -1658900586.0710325       -2949834.9135069847        974307231.58588278     
  -1432376093.1503398        39567666.823464990        944320329.86237347     
  -2592972060.8882928       -102018911.61155856        966146064.45659757     
  -2345021513.2678499       -75873226.794109344        910953170.17738330     
  -2093820936.0934346       -38894110.130104303        868827815.28067219     
  -1839370329.3650656        8918438.3804407120        839769999.76646852     
  -1581669693.0827203        67564418.737550437        823779723.63476336     
  -2888156663.4756112       -124926183.30298901        822997778.52197421     
  -2595534222.7218924       -88586204.752671123        765455210.17796838     
  -2298564729.3572102       -37756050.832458496        726855567.84639311     
  -1997248183.3815553        27564278.457663894        707198851.52724493     
  -1691584584.7949212        107374783.11768973        706485061.22052288     
  -3211109833.6133037       -156164025.25951493        677975995.46802545     
  -2857028680.7836809       -104593707.29356360        619363613.29240453     
  -2497503452.2860780       -34876470.434332728        585569543.75913441     
  -2132534148.1204994        52987685.318139195        576593786.86822152     
  -1762120768.2869387        158998759.96388400        592436342.61965108     
  -5957885138.5077772       -1787365541.5523334        1150008711.7250562     
  -6088456607.9322395       -1502471783.3153043        1227874748.1575038     
  -6221690936.8060436       -1226454223.2427497        1268421728.6991842     
  -6357588125.1291895       -959312861.33467138        1271649653.3500965     
  -6496148172.9016781       -701047697.59106708        1237558522.1102409     
  -6810648078.3307924       -2043194423.4992378        1353653623.6770616     
  -6828561037.0054436       -1395580165.1347253        1202694422.0420725     
  -6897811266.1994247       -919090141.83464527        1092009938.3836710     
  -7018398765.9127350       -613724353.59899855        1021600172.7018569     
  -7190323536.1453753       -479482800.42778420        991465124.99663043     
  -8338045444.3996830       -2501413633.3199048        1712200767.8183057     
  -8021603395.5606508       -1424569925.7987475        1275629515.2008944     
  -7805173028.3109360       -681098490.24197960        956926754.42742586     
  -7688754342.6505365       -270999326.64960194        756092485.49790037     
  -7672347338.5794554       -194272435.02161407        673126708.41231811     
  -10540077236.714447       -3162023171.0143342        2225650144.1487880     
  -9667583683.5978603       -1589441065.3073704        1446680027.6339698     
  -8943776223.1405773       -512479268.46475315        863172176.83044982     
  -8368654855.3425980        68862219.513515949        475126591.73822820     
  -7942219580.2039194        154583398.62744045        282543272.35730433     
  -13416743455.275085       -4025023036.5825257        2894001752.6685095     
  -11766501901.117069       -1890193583.6605930        1715845959.3412991     
  -10313620850.688347       -413232476.50296450        810746205.59274197     
  -9058100303.9889126        405860284.89035892        178702491.42283940     
  -7999940261.0187721        567084700.51937819       -180285183.16841048     
  -6496148172.9016781       -701047697.59106708        1237558522.1102409     
  -6239130393.5760832       -375233679.29278255        1053317724.8145219     
  -6013158212.1031780       -152904987.17012405        907962832.57392716     
  -5818231628.4829597       -34061621.223089457        801493845.38845479     
  -5654350642.7154274       -18703581.451677799        733910763.25810695     
  -7190323536.1453753       -479482800.42778420        991465124.99663043     
  -6900525931.7590780       -304110166.55746365        846938512.10104668     
  -6623601363.4599867       -171647652.97782922        723458486.75733376     
  -6359549831.2480993       -82095259.688877106        621025048.96549201     
  -6108371335.1234169       -35452986.690610886        539638198.72552180     
  -7672347338.5794554       -194272435.02161407        673126708.41231811     
  -7400739387.7131777       -184632029.15347481        589515601.97659910     
  -7123831911.1686211       -157326537.69108391        509111765.58949792     
  -6841624908.9457903       -112355960.63443136        431915199.25101423     
  -6554118381.0446777       -49720297.983522654        357925902.96115100     
  -7942219580.2039194        154583398.62744045        282543272.35730433     
  -7739770761.4383841       -16799267.080819607        281048994.44117898     
  -7513849855.2290859       -109941641.30988312        264922669.07041916     
  -7264456861.5760298       -124843724.05975151        234164296.24502373     
  -6991591780.4792137       -61505515.330420971        188773875.96499434     
  -7999940261.0187721        567084700.51937819       -180285183.16841048     
  -7917620052.9346943        199388119.66050529       -78461310.505214453     
  -7793655195.6413784       -29492963.834237099       -9108802.7999030296     
  -7628045689.1388206       -119558549.96483517        27772339.947517410     
  -7420791533.4270191       -70808638.731295109        32182117.737055831     
  -5654350642.7154274       -18703581.451677799        733910763.25810695     
  -5520447447.8731413       -50818283.005568266        721020372.45699251     
  -5380869690.8140345       -64017777.170053720        710265845.21683717     
  -5235617371.5381050       -58302063.945130825        701647181.53764176     
  -5084690490.0453510       -33671143.330793142        695164381.41940427     
  -6108371335.1234169       -35452986.690610886        539638198.72552180     
  -5959308918.3683176       -37278440.404476881        533803900.92379951     
  -5809131423.4828844       -35386967.017237186        530504853.06942946     
  -5657838850.4671240       -29778566.528896570        529741055.16241515     
  -5505431199.3210306       -20453238.939454079        531512507.20275533     
  -6554118381.0446777       -49720297.983522654        357925902.96115100     
  -6388755638.4156361       -20914172.669025421        353828300.05791235     
  -6226837301.7427521       -3589400.5417296886        352665333.48842496     
  -6068363371.0260324        2254018.3983635902        354437003.25268513     
  -5913333846.2654676       -3383915.8487381935        359143309.35069305     
  -6991591780.4792137       -61505515.330420971        188773875.96499434     
  -6808787608.0150957       -1725479.7992172241        181093569.85933462     
  -6633987325.5936346        31374922.256477356        176747286.47382072     
  -6467190933.2148237        37795690.836664677        175735025.80845061     
  -6308398430.8786659        17536825.941343069        178056787.86322349     
  -7420791533.4270191       -70808638.731295109        32182117.737055831     
  -7219404827.1667061        20287638.204942703        15599710.328069557     
  -7030581495.0355330        69506001.377374649        2750712.0256199562     
  -6854321537.0335045        76846450.785995483       -6364877.1702886438     
  -6690624953.1606169        42308986.430807114       -11747057.259657685     
  -5084690490.0453510       -33671143.330793142        695164381.41940427     
  -4933850153.1304426       -5748576.4236345291        676896087.47493839     
  -4786496943.4876242        10550232.909895182        664276884.28698957     
  -4642630861.1168966        15225284.669784546        657306771.85555506     
  -4502251906.0182571        8276578.8560552597        655985750.18063486     
  -5505431199.3210306       -20453238.939454079        531512507.20275533     
  -5345248929.9713097       -8754739.2213916779        514884570.36850727     
  -5186154846.4436512       -683525.57688021660        503537660.15585655     
  -5028148948.7380600        3760401.9940731525        497471776.56479871     
  -4871231236.8545418        4577043.4914605618        496686919.59533954     
  -5913333846.2654676       -3383915.8487381935        359143309.35069305     
  -5744861256.2949810       -8224966.8639791012        346954494.65169102     
  -5575077910.6965466       -8696832.4527091980        339678642.43936014     
  -5403983809.4701519       -4799512.6149230003        337315752.71370834     
  -5231578952.6158094        3466992.6493675709        339865825.47473085     
  -6308398430.8786659        17536825.941343069        178056787.86322349     
  -6132687132.1014719       -4159259.3514201641        173105860.32448471     
  -5953266136.2463074       -13489687.717597008        172699831.13750342     
  -5770135443.3131638       -10454459.157187700        176838700.30228165     
  -5583295053.3020506        4946426.3297863007        185522467.81881204     
  -6690624953.1606169        42308986.430807114       -11747057.259657685     
  -6508726557.3907738        3442383.3162977695       -6661332.6131025581     
  -6320719523.0929384       -15062091.371552706        2601226.2502871407     
  -6126603850.2671013       -13204437.632740021        16040619.330519820     
  -5926379538.9132719        9015344.5327105522        33656846.627583705     
  -4502251906.0182571        8276578.8560552597        655985750.18063486     
  -4370898099.5809517       -4537835.8564155102        650844201.97877264     
  -4238139472.0036535       -12669513.435565948        648953555.03262544     
  -4103976023.2863531       -16118453.881380558        650313809.34218526     
  -3968407753.4290581       -14884657.193878412        654924964.90745890     
  -4871231236.8545418        4577043.4914605618        496686919.59533954     
  -4729243856.0710735       -579550.36996436119        495401363.34524709     
  -4587153434.0999193       -5392673.6057548523        497277388.98624992     
  -4444959970.9410648       -9862326.2158923149        502314996.51834673     
  -4302663466.5945225       -13988508.200395346        510514185.94154161     
  -5231578952.6158094        3466992.6493675709        339865825.47473085     
  -5079213195.6707964        5891660.1836047173        340917517.89872068     
  -4928046177.4903994        4320531.8357911110        345041472.84918368     
  -4778077898.0746098       -1246392.3940522671        352237690.32613039     
  -4629308357.4234381       -10809112.505952120        362506170.32955670     
  -5583295053.3020506        4946426.3297863007        185522467.81881204     
  -5420806118.3801060        14875795.804301739        187392665.63918927     
  -5260817702.1750879        16470102.889083385        192245806.62142932     
  -5103329804.6869879        9729347.5841302872        200081890.76553765     
  -4948342425.9158010       -5346470.1105406284        210900918.07150459     
  -5926379538.9132719        9015344.5327105522        33656846.627583705     
  -5754022624.1990147        26372856.492124319        34826806.566666000     
  -5585468008.1539946        31056039.554099321        38890390.302988835     
  -5420715690.7781887        23064893.718686819        45847597.836563252     
  -5259765672.0716085        2399418.9858438969        55698429.167385571     
  -3968407753.4290581       -14884657.193878412        654924964.90745890     
  -3775892463.7088699        4976054.6354227066        636641023.61729550     
  -3583764758.3047709        23544818.744426966        627156601.15857792     
  -3392024637.2167635        40821635.133127689        626471697.53130746     
  -3200672100.4448414        56806503.801541090        634586312.73548305     
  -4302663466.5945225       -13988508.200395346        510514185.94154161     
  -4091596352.9515324        3412558.9491612911        493572078.37789607     
  -3880041467.5214343        22439532.055738926        482668696.08028632     
  -3667998810.3042192        43092411.119375706        477804039.04871190     
  -3455468381.2998967        65371196.140031815        478978107.28317612     
  -4629308357.4234381       -10809112.505952120        362506170.32955670     
  -4407577401.4731026        1765915.4792287350        347927145.27949637     
  -4184483317.6324549        18884703.098757267        336626051.93005878     
  -3960026105.9014940        40547250.352668524        328602890.28125060     
  -3734205766.2802291        66753557.240946293        323857660.33306700     
  -4948342425.9158010       -5346470.1105406284        210900918.07150459     
  -4723835609.2735806        36124.225601434708        199706224.32209644     
  -4497090308.6378365        12880331.873472691        189028668.70790070     
  -4268106524.0085926        33186152.833018780        178868251.22892350     
  -4036884255.3858304        60953587.104283094        169224971.88516143     
  -5259765672.0716085        2399418.9858438969        55698429.167385571     
  -5040370976.3529549       -1776814.8116612434        48909315.505694620     
  -4817862440.5375862        4426418.3798620701        39876546.413806841     
  -4592240064.6255054        21009118.560431957        28600121.891726006     
  -4363503848.6167183        47971285.730027676        15080041.939454267     
  -3200672100.4448414        56806503.801541090        634586312.73548305     
  -3200697477.0524659        12177393.817913890        656935276.15033293     
  -3202445558.1164145       -38194064.353466034        671616544.41070807     
  -3205916343.6366982       -94307870.712620497        678630117.51660633     
  -3211109833.6133037       -156164025.25951493        677975995.46802545     
  -3455468381.2998967        65371196.140031815        478978107.28317612     
  -3465308478.6573162        20426957.513098240        495390531.89644188     
  -3475973841.6957369       -27268166.717188358        511993588.46664208     
  -3487464470.4151597       -77714176.550807714        528787276.99378234     
  -3499780364.8155951       -130911071.98779762        545771597.47785866     
  -3734205766.2802291        66753557.240946293        323857660.33306700     
  -3731408221.2119756        28229898.923340797        335380558.04929209     
  -3728538503.0493984       -10053182.413202286        354952414.83387023     
  -3725596611.7925057       -48095686.768683672        382573230.68679059     
  -3722582547.4412866       -85897614.143082142        418243005.60806602     
  -4036884255.3858304        60953587.104283094        169224971.88516143     
  -3998996704.7164359        35586218.048650503        176905354.60888788     
  -3960139542.1774092        13450888.558474302        200493023.51238269     
  -3920312767.7687316       -5452401.3662052155        239987978.59563860     
  -3879516381.4904079       -21123651.725401402        295390219.85865748     
  -4363503848.6167183        47971285.730027676        15080041.939454267     
  -4268073929.1707277        42495914.888984442        19964921.575225201     
  -4170776959.0797606        43244046.197863102        48615414.502185494     
  -4071612938.3438344        50215679.656603813        101031520.72031322     
  -3970581866.9629388        63410815.265249968        177213240.22961652     
  -3211109833.6133037       -156164025.25951493        677975995.46802545     
  -2857028680.7836809       -104593707.29356360        619363613.29240453     
  -2497503452.2860780       -34876470.434332728        585569543.75913441     
  -2132534148.1204994        52987685.318139195        576593786.86822152     
  -1762120768.2869387        158998759.96388400        592436342.61965108     
  -3499780364.8155951       -130911071.98779762        545771597.47785866     
  -3098129024.9238868       -61385261.224240184        504711969.34693778     
  -2696619978.0899343        7666239.3467956781        471282904.89890110     
  -2295253224.3137212        76243429.725345969        445484404.13375771     
  -1894028763.5952780        144346309.91136539        427316467.05148190     
  -3722582547.4412866       -85897614.143082142        418243005.60806602     
  -3322468874.6574154       -13148666.832926512        388218701.34183449     
  -2928083863.6570163        40504741.198955894        348637211.79902261     
  -2539427514.4400969        75062609.952604771        299498536.97962397     
  -2156499827.0066533        90524939.427955985        240802676.88363227     
  -3879516381.4904079       -21123651.725401402        295390219.85865748     
  -3530048229.9842672        40116075.880383015        269883809.27708882     
  -3191895108.9873352        63639035.122161984        217632464.45947644     
  -2865057018.4996071        49445225.999910593        138636185.40581161     
  -2549533958.5210929       -2465351.4863761663        32894972.116082590     
  -3970581866.9629388        63410815.265249968        177213240.22961652     
  -3720867090.9044495        98408966.915700436        149707293.15270531     
  -3488053714.0808916        77069121.116370201        78268662.880270898     
  -3272141736.4922600       -608722.13271427155       -37102650.587672912     
  -3073131158.1385827       -134624562.83163667       -196406647.25115207     
 </DataArray>
 <DataArray  type="Float64" Name="VM" NumberOfComponents="1" format="ascii">
   12935720015.041769     
   11340847164.689938     
   10210364402.958582     
   9272865283.4202003     
   8303901563.2332706     
   10130360601.339138     
   9322075517.4891300     
   8826407356.8562298     
   8443497264.0688019     
   8035544490.3915310     
   7982359666.2147779     
   7734977538.3480635     
   7669136588.3851318     
   7669534812.9403915     
   7666252574.6566887     
   6491627447.2522583     
   6586843485.4054689     
   6757386604.4595556     
   6961193669.0792484     
   7171612727.4390345     
   5657712648.3096066     
   5890842066.6217747     
   6116346130.4760733     
   6331790457.1599121     
   6536968144.0351925     
   8303901563.2332706     
   8020324856.0981426     
   7778966642.8267155     
   7569127497.7073927     
   7385852133.1524601     
   8035544490.3915310     
   7746694570.1342783     
   7473586412.1602926     
   7214256463.8983259     
   6968717514.6954889     
   7666252574.6566887     
   7381138452.4272871     
   7101446984.6717081     
   6827254947.1808338     
   6558765125.8540068     
   7171612727.4390345     
   6911087870.3546314     
   6658438919.1656103     
   6409800395.5268154     
   6162022834.5976515     
   6536968144.0351925     
   6328890203.3879013     
   6142898277.2178688     
   5965063135.9206352     
   5786376190.6764097     
   7385852133.1524601     
   7229620484.0404530     
   7065592510.3251448     
   6893074851.1299791     
   6711910296.8209858     
   6968717514.6954889     
   6815146943.5365868     
   6656773381.0877161     
   6493309434.2951002     
   6324708707.2562618     
   6558765125.8540068     
   6407698795.1773186     
   6254940730.9764614     
   6100458510.5348597     
   5944280456.1192894     
   6162022834.5976515     
   6012273989.2896099     
   5863957603.2684755     
   5717116548.7910471     
   5571813326.7243261     
   5786376190.6764097     
   5635334416.0931797     
   5488790238.9133635     
   5346659459.8408661     
   5209007997.4738674     
   6711910296.8209858     
   6510458652.3203745     
   6313203556.7188864     
   6120075373.3256321     
   5931178832.1714821     
   6324708707.2562618     
   6137935990.0427980     
   5954051362.4092035     
   5773046373.2700186     
   5595005021.8926268     
   5944280456.1192894     
   5772120880.6966743     
   5601716572.0470324     
   5433090584.3044567     
   5266316979.3937302     
   5571813326.7243261     
   5414820852.1335945     
   5258641289.1720791     
   5103296812.3805380     
   4948868985.7768879     
   5209007997.4738674     
   5068442827.2699356     
   4927976692.9289808     
   4787598048.5690460     
   4647424651.0909395     
   5931178832.1714821     
   5767569729.2741241     
   5601465634.5611362     
   5432865254.5666990     
   5261850254.1364202     
   5595005021.8926268     
   5437954310.8313608     
   5279582912.5767069     
   5119943373.7660379     
   4959143357.0408478     
   5266316979.3937302     
   5116350325.9543247     
   4966297457.8113680     
   4816252566.6795120     
   4666348271.4527884     
   4948868985.7768879     
   4806170459.5268354     
   4664667522.5019274     
   4524476746.8247204     
   4385749074.3332138     
   4647424651.0909395     
   4511732582.3475819     
   4378551549.9697094     
   4247994042.8925948     
   4120217634.9701681     
   5261850254.1364202     
   5040194780.0369473     
   4820572013.7492666     
   4603047164.2104187     
   4387763940.6649771     
   4959143357.0408478     
   4736500956.9864130     
   4515429854.0304241     
   4295981646.9694061     
   4078250088.8516707     
   4666348271.4527884     
   4449458956.8892508     
   4234292305.6253896     
   4020940018.2042527     
   3809550059.6043048     
   4385749074.3332138     
   4181623532.3358264     
   3980100356.9912162     
   3781405194.7097893     
   3585900628.8279629     
   4120217634.9701681     
   3936002167.0262804     
   3756098971.0676723     
   3580972757.3863282     
   3411370286.1023893     
   4387763940.6649771     
   4289619170.8132873     
   4193411768.8853893     
   4100687082.4244418     
   4014415624.3342795     
   4078250088.8516707     
   4028577516.2630472     
   3982052984.2243404     
   3939579875.3804674     
   3902679881.9124618     
   3809550059.6043048     
   3790380182.1908579     
   3773935673.9170036     
   3760622965.4212384     
   3751002531.3815117     
   3585900628.8279629     
   3579916364.7792144     
   3574180549.4819751     
   3568791180.2071896     
   3563851886.4865084     
   3411370286.1023893     
   3402687269.5587668     
   3389396446.9333553     
   3371359804.8819971     
   3348597924.7058434     
   4014415624.3342795     
   3779939107.5940418     
   3529823966.3388386     
   3272468392.2750063     
   3027253878.7955980     
   3902679881.9124618     
   3580917932.3203964     
   3246146151.9617777     
   2900055074.9388680     
   2548938912.0869970     
   3751002531.3815117     
   3383404720.2670512     
   3009744264.2025571     
   2629456277.8581562     
   2242289138.5462766     
   3563851886.4865084     
   3190014826.7214956     
   2821136930.0532351     
   2458529484.8160443     
   2104607962.9101868     
   3348597924.7058434     
   3004256854.7930808     
   2679610169.7556257     
   2379262204.7472425     
   2112692010.6799150     
   5657712648.3096066     
   5890842066.6217747     
   6116346130.4760733     
   6331790457.1599121     
   6536968144.0351925     
   5151287352.0679712     
   5311251208.7921238     
   5467849147.2409220     
   5618203110.0633392     
   5760860735.9621944     
   4643304563.7004681     
   4755477581.2151041     
   4868765760.4002466     
   4980540924.8158865     
   5088883787.8125334     
   4134029647.0287871     
   4224359176.1790657     
   4320592394.6046906     
   4421066988.0902319     
   4524324090.6258926     
   3624979142.4868469     
   3719719276.2500739     
   3825689620.3560414     
   3942810541.5671954     
   4070975094.5408187     
   6536968144.0351925     
   6328890203.3879013     
   6142898277.2178688     
   5965063135.9206352     
   5786376190.6764097     
   5760860735.9621944     
   5652215574.0195284     
   5559497701.7122965     
   5473634876.9808664     
   5389087847.4251804     
   5088883787.8125334     
   5054037796.1551294     
   5029676827.1973305     
   5010590997.7399302     
   4993580482.9871321     
   4524324090.6258926     
   4538957231.8791275     
   4558291763.0885296     
   4579850077.2936249     
   4601910174.8387556     
   4070975094.5408187     
   4112309206.8153067     
   4151086454.4548230     
   4186419641.4951105     
   4217583231.5950241     
   5786376190.6764097     
   5635334416.0931797     
   5488790238.9133635     
   5346659459.8408661     
   5209007997.4738674     
   5389087847.4251804     
   5248021870.0699596     
   5110386354.3299360     
   4976227848.0434685     
   4845652061.4704370     
   4993580482.9871321     
   4866668642.8330822     
   4743048816.9811764     
   4622693385.4345627     
   4505648032.2302818     
   4601910174.8387556     
   4493930632.8865013     
   4390148447.5373774     
   4290245696.6945596     
   4194130609.6811023     
   4217583231.5950241     
   4133751556.5065536     
   4056245245.1560450     
   3984202704.3250866     
   3917321999.0239635     
   5209007997.4738674     
   5068442827.2699356     
   4927976692.9289808     
   4787598048.5690460     
   4647424651.0909395     
   4845652061.4704370     
   4720128124.4486713     
   4595812865.1256495     
   4472799598.2111425     
   4351288070.6718302     
   4505648032.2302818     
   4394827013.8442211     
   4286344481.6291265     
   4180375156.2833858     
   4077177844.7561274     
   4194130609.6811023     
   4097458599.8631549     
   4004220741.0797367     
   3914642772.5206804     
   3829014210.3285933     
   3917321999.0239635     
   3833925720.0247116     
   3754957384.1435137     
   3680658475.1493797     
   3611319124.7725348     
   4647424651.0909395     
   4511732582.3475819     
   4378551549.9697094     
   4247994042.8925948     
   4120217634.9701681     
   4351288070.6718302     
   4226816407.0143843     
   4105152958.4366550     
   3986479049.0841775     
   3871028058.3133268     
   4077177844.7561274     
   3965734379.4733939     
   3857617196.0166469     
   3753081882.2063060     
   3652448037.2643509     
   3829014210.3285933     
   3732534141.1909709     
   3640132794.9393497     
   3552138136.2091060     
   3468957236.0244079     
   3611319124.7725348     
   3531750499.8842611     
   3457238858.5523648     
   3388168633.1036367     
   3325018999.7667475     
   4120217634.9701681     
   3936002167.0262804     
   3756098971.0676723     
   3580972757.3863282     
   3411370286.1023893     
   3871028058.3133268     
   3708627529.3488708     
   3551232794.8626480     
   3399355880.7273793     
   3253732756.9343891     
   3652448037.2643509     
   3509290171.1922894     
   3371569313.6172709     
   3239794441.7047272     
   3114638545.6689949     
   3468957236.0244079     
   3342492427.1220212     
   3221560285.5067911     
   3106623101.5954089     
   2998252824.1446576     
   3325018999.7667475     
   3212770240.7824616     
   3105755842.0412574     
   3004359036.5018997     
   2909030495.8714523     
   3411370286.1023893     
   3402687269.5587668     
   3389396446.9333553     
   3371359804.8819971     
   3348597924.7058434     
   3253732756.9343891     
   3236839557.5663791     
   3216752286.6315169     
   3193389953.6800900     
   3166737290.0803924     
   3114638545.6689949     
   3098125743.5253391     
   3080875469.0717120     
   3062993807.7582421     
   3044617284.7424741     
   2998252824.1446576     
   2989805565.7014060     
   2984021155.7441826     
   2981252389.6078620     
   2981886664.2188368     
   2909030495.8714523     
   2914747942.6549611     
   2927313876.0723662     
   2947271964.4443922     
   2975220363.2019167     
   3348597924.7058434     
   3004256854.7930808     
   2679610169.7556257     
   2379262204.7472425     
   2112692010.6799150     
   3166737290.0803924     
   2876192241.6814790     
   2604418841.1831145     
   2354825531.6396713     
   2133538041.2252989     
   3044617284.7424741     
   2795794207.6396270     
   2562956647.6553044     
   2348490562.1727009     
   2156141833.3613915     
   2981886664.2188368     
   2764433384.3042002     
   2558394354.3087230     
   2365352009.5829659     
   2187502085.0972724     
   2975220363.2019167     
   2781100899.5490384     
   2592468624.6245565     
   2410295901.6080642     
   2235841340.1680989     
   3624979142.4868469     
   3719719276.2500739     
   3825689620.3560414     
   3942810541.5671954     
   4070975094.5408187     
   3138054384.0838113     
   3255566127.0104918     
   3382487170.7656641     
   3518338481.6066289     
   3662653691.4521680     
   2694855242.5972042     
   2830566503.3154488     
   2973597026.0224128     
   3122859977.5669270     
   3277440342.9585586     
   2298877905.1277485     
   2449515270.6519499     
   2604897926.5071864     
   2763103995.6364570     
   2922703691.3512788     
   1955346944.4405272     
   2119373068.1996398     
   2284793942.1573634     
   2448656080.3774629     
   2609005743.9934773     
   4070975094.5408187     
   4112309206.8153067     
   4151086454.4548230     
   4186419641.4951105     
   4217583231.5950241     
   3662653691.4521680     
   3702067605.5724750     
   3740157684.4263754     
   3776034025.8219590     
   3808953392.4820390     
   3277440342.9585586     
   3320724320.9767051     
   3364264764.1119828     
   3407243519.0514488     
   3448985857.7167177     
   2922703691.3512788     
   2975661481.0238309     
   3030807193.3418479     
   3087458222.7967801     
   3145080999.2579379     
   2609005743.9934773     
   2676925489.6265731     
   2749263163.5493188     
   2825505322.1798272     
   2905295137.5928364     
   4217583231.5950241     
   4133751556.5065536     
   4056245245.1560450     
   3984202704.3250866     
   3917321999.0239635     
   3808953392.4820390     
   3756333955.7858577     
   3709582957.7884569     
   3668220157.8378229     
   3632147262.9154730     
   3448985857.7167177     
   3423090012.3675857     
   3402238911.2417545     
   3386201010.4910560     
   3374961155.2803779     
   3145080999.2579379     
   3141667363.6217070     
   3141894163.6088700     
   3145662061.6821542     
   3152959446.8060350     
   2905295137.5928364     
   2920421640.9473829     
   2937016796.6602311     
   2955029634.2003226     
   2974424716.9715061     
   3917321999.0239635     
   3833925720.0247116     
   3754957384.1435137     
   3680658475.1493797     
   3611319124.7725348     
   3632147262.9154730     
   3560980954.2833629     
   3494681917.1186805     
   3433491385.7247677     
   3377698120.9207158     
   3374961155.2803779     
   3316485846.7748508     
   3263435273.3960371     
   3216034482.7750297     
   3174556485.5558524     
   3152959446.8060350     
   3107455650.0383444     
   3068038997.9701085     
   3034895082.8040805     
   3008260176.2079587     
   2974424716.9715061     
   2941791699.5861983     
   2915985514.3215451     
   2897123805.6128430     
   2885381544.5483623     
   3611319124.7725348     
   3531750499.8842611     
   3457238858.5523648     
   3388168633.1036367     
   3325018999.7667475     
   3377698120.9207158     
   3313071308.5857725     
   3253984183.4219007     
   3200786277.0504556     
   3153896385.9530802     
   3174556485.5558524     
   3123616287.2544394     
   3078573756.4427390     
   3039721877.0890613     
   3007398538.5280981     
   3008260176.2079587     
   2969416084.4463449     
   2936663051.1846251     
   2910222617.1170940     
   2890340778.9826913     
   2885381544.5483623     
   2856640082.4550972     
   2833986989.1970248     
   2817568446.0234509     
   2807540694.7395077     
   3325018999.7667475     
   3212770240.7824616     
   3105755842.0412574     
   3004359036.5018997     
   2909030495.8714523     
   3153896385.9530802     
   3052237337.2934456     
   2957264885.9720325     
   2869426291.2696562     
   2789239943.7101712     
   3007398538.5280981     
   2917596504.8751493     
   2836080515.3378377     
   2763317390.9804459     
   2699838795.9865899     
   2890340778.9826913     
   2812931143.7671432     
   2745493501.5124178     
   2688456015.0142741     
   2642297246.3029499     
   2807540694.7395077     
   2742062183.1379199     
   2688270837.8342791     
   2646499477.7333555     
   2617114670.1287265     
   2909030495.8714523     
   2914747942.6549611     
   2927313876.0723662     
   2947271964.4443922     
   2975220363.2019167     
   2789239943.7101712     
   2811254247.8831034     
   2838337169.1354299     
   2870816713.2406306     
   2909043195.9915829     
   2699838795.9865899     
   2734139959.3705997     
   2771309675.3129973     
   2811523526.3613758     
   2854966946.2132077     
   2642297246.3029499     
   2685408509.3218074     
   2728814177.6497827     
   2772591383.8254552     
   2816825377.8919778     
   2617114670.1287265     
   2666348930.7827821     
   2713003320.8913488     
   2757093099.5256367     
   2798644161.4101624     
   2975220363.2019167     
   2781100899.5490384     
   2592468624.6245565     
   2410295901.6080642     
   2235841340.1680989     
   2909043195.9915829     
   2721450682.5570326     
   2544485247.4352694     
   2379625695.1055708     
   2228703544.4960756     
   2854966946.2132077     
   2678038010.5627499     
   2516902284.4354668     
   2373260146.5905676     
   2249119851.0151491     
   2816825377.8919778     
   2652725204.9394846     
   2509406234.5238867     
   2388435112.1878915     
   2291575882.2710080     
   2798644161.4101624     
   2647145935.2167244     
   2521213748.5609303     
   2421983515.6082430     
   2350690009.0806046     
   1955346944.4405272     
   2119373068.1996398     
   2284793942.1573634     
   2448656080.3774629     
   2609005743.9934773     
   1653817219.6428421     
   1820295800.5000937     
   1988489679.3914275     
   2155706903.8941479     
   2320192688.5836935     
   1393665754.7497897     
   1571097195.9691775     
   1749529815.9623079     
   1926962360.4639235     
   2102146429.2116272     
   1207184617.3460715     
   1399186995.5813806     
   1590741150.8171644     
   1781071146.8924780     
   1969719137.8707418     
   1136993059.4662938     
   1335383323.4676981     
   1534032933.4892209     
   1732941889.5308626     
   1932110191.5926225     
   2609005743.9934773     
   2676925489.6265731     
   2749263163.5493188     
   2825505322.1798272     
   2905295137.5928364     
   2320192688.5836935     
   2407137331.2548895     
   2496471942.7609239     
   2587804968.8275113     
   2680859556.9022188     
   2102146429.2116272     
   2205763455.8073235     
   2309283065.7844119     
   2412468542.0442090     
   2515152746.3888555     
   1969719137.8707418     
   2086741871.2687535     
   2200953423.4208550     
   2312278672.7711725     
   2420665411.7080479     
   1932110191.5926225     
   2058637360.8475389     
   2179832371.5770917     
   2295695223.7812810     
   2406225917.4601059     
   2905295137.5928364     
   2920421640.9473829     
   2937016796.6602311     
   2955029634.2003226     
   2974424716.9715061     
   2680859556.9022188     
   2703019497.9925108     
   2727629426.8654103     
   2754674336.9614744     
   2784148578.7483902     
   2515152746.3888555     
   2544154670.1882844     
   2576604375.1404123     
   2612504265.8133936     
   2651860765.3854885     
   2420665411.7080479     
   2454873760.1411982     
   2493520543.9199634     
   2536609181.0087652     
   2584143934.6168413     
   2406225917.4601059     
   2442490000.5270758     
   2484170035.0994482     
   2531266021.1772194     
   2583777958.7603931     
   2974424716.9715061     
   2941791699.5861983     
   2915985514.3215451     
   2897123805.6128430     
   2885381544.5483623     
   2784148578.7483902     
   2765749475.2311726     
   2754299384.4440551     
   2749880584.5659719     
   2752606543.5312538     
   2651860765.3854885     
   2645195362.4014053     
   2645363845.2702723     
   2652406803.5136504     
   2666377629.3958406     
   2584143934.6168413     
   2586033263.0333848     
   2594401544.3211575     
   2609258855.4352784     
   2630618162.3653460     
   2583777958.7603931     
   2590631186.3865471     
   2603407242.8702641     
   2622106128.2115440     
   2646727842.4103842     
   2885381544.5483623     
   2856640082.4550972     
   2833986989.1970248     
   2817568446.0234509     
   2807540694.7395077     
   2752606543.5312538     
   2733648274.1414804     
   2721336326.6758270     
   2715770554.6370711     
   2717055298.8321157     
   2666377629.3958406     
   2655517291.0393887     
   2651777238.8267837     
   2655208740.2667789     
   2665864282.0224948     
   2630618162.3653460     
   2625429773.2182961     
   2627752175.6344023     
   2637599447.8738375     
   2654985777.0057530     
   2646727842.4103842     
   2644215753.4876819     
   2649537966.5507941     
   2662694481.5997143     
   2683685298.6344504     
   2807540694.7395077     
   2742062183.1379199     
   2688270837.8342791     
   2646499477.7333555     
   2617114670.1287265     
   2717055298.8321157     
   2664642257.9102139     
   2623683067.5736804     
   2594366936.0626655     
   2576896833.9049430     
   2665864282.0224948     
   2623433620.6751938     
   2592070743.3629613     
   2571857364.7469096     
   2562879296.0034909     
   2654985777.0057530     
   2619229184.7734566     
   2594042029.4020686     
   2579443411.7066808     
   2575453091.2460871     
   2683685298.6344504     
   2651311403.7656307     
   2628939889.0401769     
   2616570754.4580827     
   2614204000.0193591     
   2617114670.1287265     
   2666348930.7827821     
   2713003320.8913488     
   2757093099.5256367     
   2798644161.4101624     
   2576896833.9049430     
   2630502679.0792084     
   2683123937.0894370     
   2734773463.3110566     
   2785468990.6454287     
   2562879296.0034909     
   2620869802.6150842     
   2679523850.4990335     
   2738850742.8450527     
   2798861236.9937868     
   2575453091.2460871     
   2636922370.1530747     
   2700739042.2518821     
   2766906695.1224875     
   2835429030.1878638     
   2614204000.0193591     
   2677409342.1295204     
   2744686546.2545848     
   2816035612.3945532     
   2891456540.5494194     
   2798644161.4101624     
   2647145935.2167244     
   2521213748.5609303     
   2421983515.6082430     
   2350690009.0806046     
   2785468990.6454287     
   2654217818.1209283     
   2546012904.5582485     
   2461391280.3357453     
   2400920639.2730327     
   2798861236.9937868     
   2682668455.4481082     
   2587023032.8452268     
   2512120010.2997565     
   2458161965.0913873     
   2835429030.1878638     
   2729861082.2065291     
   2642445442.7767148     
   2573220911.6379991     
   2522227442.8780899     
   2891456540.5494194     
   2792984080.3146682     
   2710401940.4386301     
   2643710120.9213009     
   2592908621.7626891     
   1136993059.4662938     
   1335383323.4676981     
   1534032933.4892209     
   1732941889.5308626     
   1932110191.5926225     
   1207184616.8754039     
   1399186995.1552331     
   1590741150.4240305     
   1781071146.5242226     
   1969719137.5217416     
   1393665753.9773118     
   1571097195.2449679     
   1749529815.2755187     
   1926962359.8053532     
   2102146428.5741508     
   1653817218.7432337     
   1820295799.6307096     
   1988489678.5457146     
   2155706903.0648804     
   2320192687.7644105     
   1955346943.5378203     
   2119373067.3087249     
   2284793941.2742348     
   2448656079.4962707     
   2609005743.1082602     
   1932110191.5926225     
   2058637360.8475389     
   2179832371.5770917     
   2295695223.7812810     
   2406225917.4601059     
   1969719137.5217416     
   2086741870.8776355     
   2200953422.9856768     
   2312278672.2897701     
   2420665411.1780219     
   2102146428.5741508     
   2205763455.0965557     
   2309283064.9976330     
   2412468541.1784778     
   2515152745.4407754     
   2320192687.7644105     
   2407137330.3440824     
   2496471941.7555919     
   2587804967.7247219     
   2680859555.6984663     
   2609005743.1082602     
   2676925488.6461596     
   2749263162.4703746     
   2825505320.9996276     
   2905295136.3081198     
   2406225917.4601059     
   2442490000.5270758     
   2484170035.0994482     
   2531266021.1772194     
   2583777958.7603931     
   2420665411.1780219     
   2454873759.6658640     
   2493520543.4783506     
   2536609180.5799656     
   2584143934.1797442     
   2515152745.4407754     
   2544154669.3443375     
   2576604374.3584681     
   2612504265.0509586     
   2651860764.5993471     
   2680859555.6984663     
   2703019496.9497938     
   2727629425.9214377     
   2754674336.0526762     
   2784148577.8095803     
   2905295136.3081198     
   2920421639.9003038     
   2937016795.7703586     
   2955029633.3847928     
   2974424716.1448159     
   2583777958.7603931     
   2590631186.3865471     
   2603407242.8702641     
   2622106128.2115440     
   2646727842.4103842     
   2584143934.1797442     
   2586033262.6065965     
   2594401543.9509797     
   2609258855.1671758     
   2630618162.2429705     
   2651860764.5993471     
   2645195361.5982943     
   2645363844.5401087     
   2652406802.9458075     
   2666377629.0773115     
   2784148577.8095803     
   2765749474.1923213     
   2754299383.4331131     
   2749880583.7122102     
   2752606542.9628162     
   2974424716.1448159     
   2941791698.5128465     
   2915985513.1597290     
   2897123804.5251799     
   2885381543.6993895     
   2646727842.4103842     
   2644215753.4876819     
   2649537966.5507941     
   2662694481.5997143     
   2683685298.6344504     
   2630618162.2429705     
   2625429773.7334204     
   2627752176.8398585     
   2637599449.8185887     
   2654985779.7348905     
   2666377629.0773115     
   2655517291.9157152     
   2651777241.0069575     
   2655208743.8535676     
   2665864287.1122336     
   2752606542.9628162     
   2733648275.1858840     
   2721336329.5016956     
   2715770559.4070978     
   2717055305.7024627     
   2885381543.6993895     
   2856640083.4588690     
   2833986992.2818103     
   2817568451.4148698     
   2807540702.6596622     
   2683685298.6344504     
   2651311403.7656307     
   2628939889.0401769     
   2616570754.4580827     
   2614204000.0193591     
   2654985779.7348905     
   2619229186.6479406     
   2594042030.2935395     
   2579443411.4883800     
   2575453089.7940717     
   2665864287.1122336     
   2623433624.2913389     
   2592070745.2568531     
   2571857364.6689868     
   2562879293.7058620     
   2717055305.7024627     
   2664642262.9862227     
   2623683070.4964380     
   2594366936.4633789     
   2576896831.4086914     
   2807540702.6596622     
   2742062189.2713652     
   2688270841.7273760     
   2646499478.9062204     
   2617114668.0791702     
   2614204000.0193591     
   2677409342.1295204     
   2744686546.2545848     
   2816035612.3945532     
   2891456540.5494194     
   2575453089.7940717     
   2636922370.0189877     
   2700739043.7369733     
   2766906698.5209422     
   2835429035.7851505     
   2562879293.7058620     
   2620869801.9806619     
   2679523852.0830860     
   2738850747.2054749     
   2798861244.6903014     
   2576896831.4086914     
   2630502677.5296521     
   2683123937.2365079     
   2734773465.9339337     
   2785468996.5551353     
   2617114668.0791702     
   2666348927.8797941     
   2713003318.0009632     
   2757093097.5842910     
   2798644161.4333315     
   2891456540.5494194     
   2792984080.3146682     
   2710401940.4386301     
   2643710120.9213009     
   2592908621.7626891     
   2835429035.7851505     
   2729861069.9287267     
   2642445412.5191979     
   2573220863.3698096     
   2522227376.6141920     
   2798861244.6903014     
   2682668437.5571766     
   2587022989.5340753     
   2512119941.8531952     
   2458161871.9006872     
   2785468996.5551353     
   2654217800.8202100     
   2546012864.9226294     
   2461391219.3945918     
   2400920558.2527456     
   2798644161.4333315     
   2647145923.8903909     
   2521213728.1252627     
   2421983488.5459228     
   2350689978.2146835     
   1955346943.5378203     
   2119373067.3087249     
   2284793941.2742348     
   2448656079.4962707     
   2609005743.1082602     
   2298877904.3009734     
   2449515269.8317308     
   2604897925.6920819     
   2763103994.8236909     
   2922703690.5376258     
   2694855241.8958492     
   2830566502.6216140     
   2973597025.3351216     
   3122859976.8842330     
   3277440342.2779140     
   3138054383.5425844     
   3255566126.4820852     
   3382487170.2485809     
   3518338481.0983262     
   3662653690.9491968     
   3624979142.1321979     
   3719719275.9162192     
   3825689620.0407081     
   3942810541.2664838     
   4070975094.2493200     
   2609005743.1082602     
   2676925488.6461596     
   2749263162.4703746     
   2825505320.9996276     
   2905295136.3081198     
   2922703690.5376258     
   2975661480.1392269     
   3030807192.3873615     
   3087458221.7750802     
   3145080998.1720347     
   3277440342.2779140     
   3320724320.2495527     
   3364264763.3436494     
   3407243518.2498279     
   3448985856.8909850     
   3662653690.9491968     
   3702067605.0459595     
   3740157683.8854957     
   3776034025.2792559     
   3808953391.9521198     
   4070975094.2493200     
   4112309206.5204344     
   4151086454.1689320     
   4186419641.2344260     
   4217583231.3783169     
   2905295136.3081198     
   2920421639.9003038     
   2937016795.7703586     
   2955029633.3847928     
   2974424716.1448159     
   3145080998.1720347     
   3141667362.9141808     
   3141894163.2253008     
   3145662061.5639281     
   3152959446.8899846     
   3448985856.8909850     
   3423090012.0268903     
   3402238911.3527422     
   3386201011.0147772     
   3374961156.1723475     
   3808953391.9521198     
   3756333955.8046832     
   3709582958.3389721     
   3668220158.8962193     
   3632147264.4522662     
   4217583231.3783169     
   4133751556.8556266     
   4056245246.0660462     
   3984202705.7831445     
   3917322001.0117712     
   2974424716.1448159     
   2941791698.5128465     
   2915985513.1597290     
   2897123804.5251799     
   2885381543.6993895     
   3152959446.8899846     
   3107455649.8371243     
   3068038997.6182718     
   3034895082.4440765     
   3008260175.9890671     
   3374961156.1723475     
   3316485847.2956967     
   3263435273.6561556     
   3216034482.8951182     
   3174556485.6669612     
   3632147264.4522662     
   3560980955.3401179     
   3494681917.7819071     
   3433491386.0925174     
   3377698121.1033549     
   3917322001.0117712     
   3833925721.4196377     
   3754957385.0092411     
   3680658475.5613594     
   3611319124.8190627     
   2885381543.6993895     
   2856640083.4588690     
   2833986992.2818103     
   2817568451.4148698     
   2807540702.6596622     
   3008260175.9890671     
   2969416086.1789184     
   2936663055.0811071     
   2910222623.3880920     
   2890340787.8345165     
   3174556485.6669612     
   3123616289.3840070     
   3078573760.7997684     
   3039721883.8831568     
   3007398547.9651089     
   3377698121.1033549     
   3313071310.8430877     
   3253984187.9688668     
   3200786284.1067414     
   3153896395.7367172     
   3611319124.8190627     
   3531750502.0686364     
   3457238863.1019559     
   3388168640.2561340     
   3325019009.7619953     
   2807540702.6596622     
   2742062189.2713652     
   2688270841.7273760     
   2646499478.9062204     
   2617114668.0791702     
   2890340787.8345165     
   2812931150.7803478     
   2745493506.2599273     
   2688456017.0330596     
   2642297245.0967331     
   3007398547.9651089     
   2917596512.4349837     
   2836080520.6126795     
   2763317393.5202508     
   2699838795.2994590     
   3153896395.7367172     
   3052237345.1298366     
   2957264891.4666524     
   2869426293.9843054     
   2789239943.1604190     
   3325019009.7619953     
   3212770248.6962228     
   3105755847.4857688     
   3004359039.0493069     
   2909030495.0484276     
   2617114668.0791702     
   2666348927.8797941     
   2713003318.0009632     
   2757093097.5842910     
   2798644161.4333315     
   2642297245.0967331     
   2685408505.1640935     
   2728814170.7823648     
   2772591374.5474467     
   2816825366.5678868     
   2699838795.2994590     
   2734139954.6504726     
   2771309666.2614312     
   2811523512.7090878     
   2854966927.7252517     
   2789239943.1604190     
   2811254243.4300723     
   2838337160.0327091     
   2870816698.7197995     
   2909043175.2597489     
   2909030495.0484276     
   2914747939.3733435     
   2927313869.2348814     
   2947271952.8531995     
   2975220345.5396719     
   2798644161.4333315     
   2647145923.8903909     
   2521213728.1252627     
   2421983488.5459228     
   2350689978.2146835     
   2816825366.5678868     
   2652725191.4542489     
   2509406219.9658694     
   2388435097.9311361     
   2291575870.0235538     
   2854966927.7252517     
   2678037994.3676100     
   2516902269.8901806     
   2373260133.2172656     
   2249119838.5229921     
   2909043175.2597489     
   2721450665.0511441     
   2544485230.1373997     
   2379625674.8586750     
   2228703517.9713006     
   2975220345.5396719     
   2781100883.8801332     
   2592468605.0656390     
   2410295871.7350154     
   2235841292.8551507     
   3624979142.1321979     
   3719719275.9162192     
   3825689620.0407081     
   3942810541.2664838     
   4070975094.2493200     
   4134029646.8778319     
   4224359176.0564179     
   4320592394.5122681     
   4421066988.0278149     
   4524324090.5915051     
   4643304563.7641401     
   4755477581.3119640     
   4868765760.5367870     
   4980540924.9961119     
   5088883788.0384626     
   5151287352.3576365     
   5311251209.1160717     
   5467849147.6103687     
   5618203110.4865799     
   5760860736.4450979     
   5657712648.8374720     
   5890842067.1804790     
   6116346131.0815468     
   6331790457.8244724     
   6536968144.7679901     
   4070975094.2493200     
   4112309206.5204344     
   4151086454.1689320     
   4186419641.2344260     
   4217583231.3783169     
   4524324090.5915051     
   4538957231.8702126     
   4558291763.1109619     
   4579850077.3563719     
   4601910174.9512272     
   5088883788.0384626     
   5054037796.4333191     
   5029676827.5248308     
   5010590998.1175995     
   4993580483.4165697     
   5760860736.4450979     
   5652215574.5814705     
   5559497702.3406267     
   5473634877.6680355     
   5389087848.1660576     
   6536968144.7679901     
   6328890204.2282887     
   6142898278.1435366     
   5965063136.9155645     
   5786376191.7292767     
   4217583231.3783169     
   4133751556.8556266     
   4056245246.0660462     
   3984202705.7831445     
   3917322001.0117712     
   4601910174.9512272     
   4493930633.5162230     
   4390148448.6909246     
   4290245698.3741360     
   4194130611.8863263     
   4993580483.4165697     
   4866668643.6890068     
   4743048818.2776928     
   4622693387.1837025     
   4505648034.4430676     
   5389087848.1660576     
   5248021871.1037655     
   5110386355.6745405     
   4976227849.7162409     
   4845652063.4885292     
   5786376191.7292767     
   5635334417.2628651     
   5488790240.2179708     
   5346659461.2994881     
   5209007999.1060162     
   3917322001.0117712     
   3833925721.4196377     
   3754957385.0092411     
   3680658475.5613594     
   3611319124.8190627     
   4194130611.8863263     
   4097458601.3749051     
   4004220741.9314365     
   3914642772.7558956     
   3829014210.0014038     
   4505648034.4430676     
   4394827015.3419657     
   4286344482.4222469     
   4180375156.3909426     
   4077177844.2052321     
   4845652063.4885292     
   4720128125.8138819     
   4595812865.8318005     
   4472799598.2599335     
   4351288070.0711756     
   5209007999.1060162     
   5068442828.3965874     
   4927976693.5326719     
   4787598048.6405745     
   4647424650.6267023     
   3611319124.8190627     
   3531750502.0686364     
   3457238863.1019559     
   3388168640.2561340     
   3325019009.7619953     
   3829014210.0014038     
   3732534142.8995347     
   3640132798.9448547     
   3552138142.7932091     
   3468957245.4870896     
   4077177844.2052321     
   3965734380.6640787     
   3857617199.2195683     
   3753081887.7189994     
   3652448045.4139481     
   4351288070.0711756     
   4226816407.6932182     
   4105152960.6547837     
   3986479053.1308899     
   3871028064.5133667     
   4647424650.6267023     
   4511732582.5564804     
   4378551551.0853815     
   4247994045.1778641     
   4120217638.7246141     
   3325019009.7619953     
   3212770248.6962228     
   3105755847.4857688     
   3004359039.0493069     
   2909030495.0484276     
   3468957245.4870896     
   3342492434.7080960     
   3221560290.8363090     
   3106623104.2207274     
   2998252823.5442052     
   3652448045.4139481     
   3509290177.8340154     
   3371569318.4105792     
   3239794444.2151012     
   3114638545.3575978     
   3871028064.5133667     
   3708627534.5234246     
   3551232798.7373958     
   3399355882.9124126     
   3253732756.9075141     
   4120217638.7246141     
   3936002170.3077736     
   3756098973.6885595     
   3580972759.0288610     
   3411370286.2948203     
   2909030495.0484276     
   2914747939.3733435     
   2927313869.2348814     
   2947271952.8531995     
   2975220345.5396719     
   2998252823.5442052     
   2989805564.8008571     
   2984021154.0849242     
   2981252386.6658840     
   2981886659.3936601     
   3114638545.3575978     
   3098125744.1172657     
   3080875470.6435223     
   3062993810.3684368     
   3044617288.4251971     
   3253732756.9075141     
   3236839558.4681249     
   3216752288.9294276     
   3193389957.8508449     
   3166737296.5973096     
   3411370286.2948203     
   3402687269.4022927     
   3389396447.1118989     
   3371359806.0761609     
   3348597927.5569096     
   2975220345.5396719     
   2781100883.8801332     
   2592468605.0656390     
   2410295871.7350154     
   2235841292.8551507     
   2981886659.3936601     
   2764433385.7168117     
   2558394356.7851052     
   2365352007.1413565     
   2187502070.5545168     
   3044617288.4251971     
   2795794221.6637878     
   2562956667.5933132     
   2348490582.3861146     
   2156141846.2983747     
   3166737296.5973096     
   2876192261.8737097     
   2604418871.3000927     
   2354825566.2252288     
   2133538071.9983077     
   3348597927.5569096     
   3004256873.3832693     
   2679610200.9046721     
   2379262243.0558810     
   2112692046.8757577     
   5657712648.8374720     
   5890842067.1804790     
   6116346131.0815468     
   6331790457.8244724     
   6536968144.7679901     
   6491627448.0064039     
   6586843486.2385378     
   6757386605.3757515     
   6961193670.0719290     
   7171612728.4951162     
   7982359667.1613016     
   7734977539.4188833     
   7669136589.5803051     
   7669534814.2451706     
   7666252576.0473776     
   10130360602.447197     
   9322075518.7625542     
   8826407358.2990723     
   8443497265.6676674     
   8035544492.1251097     
   12935720016.281738     
   11340847166.135571     
   10210364404.623213     
   9272865285.2955799     
   8303901565.3086348     
   6536968144.7679901     
   6328890204.2282887     
   6142898278.1435366     
   5965063136.9155645     
   5786376191.7292767     
   7171612728.4951162     
   6911087871.5063057     
   6658438920.3991928     
   6409800396.8312626     
   6162022835.9645395     
   7666252576.0473776     
   7381138453.8952065     
   7101446986.2101898     
   6827254948.7831974     
   6558765127.5134192     
   8035544492.1251097     
   7746694571.9225578     
   7473586414.0011339     
   7214256465.7886524     
   6968717516.6297846     
   8303901565.3086348     
   8020324858.2071095     
   7778966644.9668856     
   7569127499.8772860     
   7385852135.3474541     
   5786376191.7292767     
   5635334417.2628651     
   5488790240.2179708     
   5346659461.2994881     
   5209007999.1060162     
   6162022835.9645395     
   6012273990.6147232     
   5863957604.5568428     
   5717116550.0481987     
   5571813327.9566135     
   6558765127.5134192     
   6407698796.6983595     
   6254940732.3587465     
   6100458511.7776070     
   5944280457.2217197     
   6968717516.6297846     
   6815146945.2975760     
   6656773382.6758823     
   6493309435.7101917     
   6324708708.4971733     
   7385852135.3474541     
   7229620486.0875940     
   7065592512.2307453     
   6893074852.9006243     
   6711910298.4625759     
   5209007999.1060162     
   5068442828.3965874     
   4927976693.5326719     
   4787598048.6405745     
   4647424650.6267023     
   5571813327.9566135     
   5414820853.0637131     
   5258641289.7820559     
   5103296812.6582403     
   4948868985.7131929     
   5944280457.2217197     
   5772120881.8565903     
   5601716573.2585478     
   5433090585.5653591     
   5266316980.7030153     
   6324708708.4971733     
   6137935991.8472462     
   5954051364.7934561     
   5773046376.2510443     
   5595005025.4862108     
   6711910298.4625759     
   6510458655.1682291     
   6313203560.8198109     
   6120075378.7224731     
   5931178838.9018059     
   4647424650.6267023     
   4511732582.5564804     
   4378551551.0853815     
   4247994045.1778641     
   4120217638.7246141     
   4948868985.7131929     
   4806170459.2587204     
   4664667522.1761122     
   4524476746.6170549     
   4385749074.4553013     
   5266316980.7030153     
   5116350326.0542765     
   4966297456.7406826     
   4816252564.5019474     
   4666348268.2655106     
   5595005025.4862108     
   5437954312.1182823     
   5279582911.4745464     
   5119943370.2096872     
   4959143350.9946299     
   5931178838.9018059     
   5767569732.5338860     
   5601465634.1414499     
   5432865250.2653036     
   5261850245.7751656     
   4120217638.7246141     
   3936002170.3077736     
   3756098973.6885595     
   3580972759.0288610     
   3411370286.2948203     
   4385749074.4553013     
   4181623532.1293945     
   3980100356.4860449     
   3781405193.8666992     
   3585900627.5310340     
   4666348268.2655106     
   4449458952.8233709     
   4234292300.8626475     
   4020940012.9018564     
   3809550053.8991370     
   4959143350.9946299     
   4736500948.7751904     
   4515429843.9256248     
   4295981635.2413568     
   4078250075.7778521     
   5261850245.7751656     
   5040194767.4623413     
   4820571997.2678118     
   4603047144.1325369     
   4387763917.3100758     
   3411370286.2948203     
   3402687269.4022927     
   3389396447.1118989     
   3371359806.0761609     
   3348597927.5569096     
   3585900627.5310340     
   3579916362.0381908     
   3574180545.3477082     
   3568791174.7548423     
   3563851879.8174706     
   3809550053.8991370     
   3790380175.3386745     
   3773935665.5727277     
   3760622955.2738590     
   3751002519.1372843     
   4078250075.7778521     
   4028577503.9616256     
   3982052972.1500893     
   3939579862.9716239     
   3902679868.4972215     
   4387763917.3100758     
   4289619151.9018979     
   4193411753.8113594     
   4100687070.4440522     
   4014415614.3263340     
   3348597927.5569096     
   3004256873.3832693     
   2679610200.9046721     
   2379262243.0558810     
   2112692046.8757577     
   3563851879.8174706     
   3190014837.2501721     
   2821136958.9207659     
   2458529533.1128082     
   2104608031.5446699     
   3751002519.1372843     
   3383404728.1437936     
   3009744298.4624872     
   2629456345.8035278     
   2242289248.1429119     
   3902679868.4972215     
   3580917940.9397664     
   3246146193.1459231     
   2900055157.5999389     
   2548939038.8645101     
   4014415614.3263340     
   3779939118.5918617     
   3529824010.7208257     
   3272468473.3672724     
   3027253980.5249944     
 </DataArray>
 <DataArray  type="Float64" Name="strain" NumberOfComponents="3" format="ascii">
  0.20348727571644987        0.0000000000000000       0.12540674261192794     
  0.18665739707532036       -2.7329283106729309E-002   7.4353324902153350E-002
  0.16982751843419089       -4.4680896303887697E-002   3.5132335575278555E-002
  0.15299763979306139       -5.2054839591475194E-002   7.7437746313036189E-003
  0.13616776115193191       -4.9451112969491770E-002  -7.8123579297714879E-003
  0.15985783806943904        0.0000000000000000        9.6444839580793099E-002
  0.15317918937726493       -2.1847233992356094E-002   6.2689467865808868E-002
  0.14650054068509086       -3.6177559967914545E-002   3.7404127665835604E-002
  0.13982189199291675       -4.2990977926675354E-002   2.0588818980873301E-002
  0.13314324330074265       -4.2287487868638507E-002   1.2243541810921861E-002
  0.12646035588797880        0.0000000000000000        7.4195366610418118E-002
  0.12657054027687120       -1.6365184877982886E-002   5.5277278997451010E-002
  0.12668072466576358       -2.7674223631941393E-002   4.1466826031605945E-002
  0.12679090905465601       -3.3927116261875528E-002   3.2764007712882931E-002
  0.12690109344354836       -3.5123862767785279E-002   2.9168824041282033E-002
  0.10329482917206911        0.0000000000000000        5.8658323700802963E-002
  0.10683144977413911       -1.0883135763609676E-002   5.2116758297079721E-002
  0.11036807037620910       -1.9170887295968241E-002   4.7320430672589620E-002
  0.11390469097827911       -2.4863254597075703E-002   4.4269340827332651E-002
  0.11744131158034909       -2.7960237666932043E-002   4.2963488761308899E-002
   9.0361257921709986E-002   0.0000000000000000        4.9833710851947655E-002
   9.3961917869068684E-002  -5.4010866492364678E-003   5.3207905764694995E-002
   9.7562577816427382E-002  -1.0667550959995092E-002   5.4964941588786585E-002
  0.10116323776378608       -1.5799392932275873E-002   5.5104818324222461E-002
  0.10476389771114480       -2.0796612566078801E-002   5.3627535971002602E-002
  0.13616776115193191       -4.9451112969491770E-002  -7.8123579297714879E-003
  0.13295727477890568       -4.2911235581269254E-002  -3.3999901177690847E-003
  0.12974678840587944       -3.8476726570139411E-002  -3.9471478744123462E-004
  0.12653630203285321       -3.6147585936102331E-002   1.2034680612118508E-003
  0.12332581565982698       -3.5923813679157895E-002   1.3945584281904455E-003
  0.13314324330074265       -4.2287487868638507E-002   1.2243541810921861E-002
  0.12891218299202242       -3.8418866012712313E-002   1.2178789763844157E-002
  0.12468112268330223       -3.5736888577805014E-002   1.1479982327053041E-002
  0.12045006237458203       -3.4241555563916587E-002   1.0147119500548590E-002
  0.11621900206586180       -3.3932866971047054E-002   8.1802012843308763E-003
  0.12690109344354836       -3.5123862767785279E-002   2.9168824041282033E-002
  0.12242249629109547       -3.3926496444155407E-002   2.5545676091197823E-002
  0.11794389913864255       -3.2997050585470596E-002   2.2061509843361728E-002
  0.11346530198618965       -3.2335525191730906E-002   1.8716325297773489E-002
  0.10898670483373675       -3.1941920262936255E-002   1.5510122454433263E-002
  0.11744131158034909       -2.7960237666932043E-002   4.2963488761308899E-002
  0.11348821467612477       -2.9434126875598474E-002   3.6700668864292241E-002
  0.10953511777190045       -3.0257212593136188E-002   3.1349867761484809E-002
  0.10558202086767614       -3.0429494819545187E-002   2.6911085452886629E-002
  0.10162892396345180       -2.9950973554825421E-002   2.3384321938497654E-002
  0.10476389771114480       -2.0796612566078801E-002   5.3627535971002602E-002
  0.10210933814711036       -2.4941757307041547E-002   4.5643768083127187E-002
   9.9454778583075901E-002  -2.7517374600801770E-002   3.9345056081422303E-002
   9.6800219019041428E-002  -2.8523464447359450E-002   3.4731399965887984E-002
   9.4145659455007011E-002  -2.7960026846714614E-002   3.1802799736524126E-002
  0.12332581565982698       -3.5923813679157895E-002   1.3945584281904455E-003
  0.12042485194249214       -3.6435151431223459E-002   6.7598744722913162E-004
  0.11752388822515727       -3.6311340824216380E-002   1.1919752851166643E-004
  0.11462292450782242       -3.5552381858136667E-002  -2.7581132796183211E-004
  0.11172196079048757       -3.4158274532984090E-002  -5.0903912219157910E-004
  0.11621900206586180       -3.3932866971047054E-002   8.1802012843308763E-003
  0.11347116603851717       -3.4015180034834780E-002   7.8473880263446039E-003
  0.11072333001117253       -3.3692851990917837E-002   7.6590490860949170E-003
  0.10797549398382786       -3.2965882839296475E-002   7.6151844635817950E-003
  0.10522765795648326       -3.1834272579970513E-002   7.7157941588052448E-003
  0.10898670483373675       -3.1941920262936255E-002   1.5510122454433263E-002
  0.10637468975187499       -3.1595208638445955E-002   1.5332559668054045E-002
  0.10376267467001321       -3.1074363157619325E-002   1.5282164454903834E-002
  0.10115065958815148       -3.0379383820456338E-002   1.5358936814982906E-002
   9.8538644506289685E-002  -2.9510270626957019E-002   1.5562876748291210E-002
  0.10162892396345180       -2.9950973554825421E-002   2.3384321938497654E-002
   9.9135423082565594E-002  -2.9175237242057232E-002   2.3131502372357171E-002
   9.6641922201679414E-002  -2.8455874324320882E-002   2.2988543634938369E-002
   9.4148421320793207E-002  -2.7792884801616256E-002   2.2955445726241600E-002
   9.1654920439907042E-002  -2.7186268673943456E-002   2.3032208646266664E-002
   9.4145659455007011E-002  -2.7960026846714614E-002   3.1802799736524126E-002
   9.1753366030589048E-002  -2.6755265845668508E-002   3.1244216139254072E-002
   8.9361072606171044E-002  -2.5837385491022324E-002   3.0778186626198689E-002
   8.6968779181753095E-002  -2.5206385782776092E-002   3.0404711197357701E-002
   8.4576485757335090E-002  -2.4862266720929893E-002   3.0123789852731453E-002
  0.11172196079048757       -3.4158274532984090E-002  -5.0903912219157910E-004
  0.10849598782422593       -3.2601005833930330E-002  -2.8865774858194415E-004
  0.10527001485796422       -3.1352562746147006E-002   1.1271978783627956E-004
  0.10204404189170252       -3.0412945269633881E-002   6.9509348706346674E-004
   9.8818068925440872E-002  -2.9782153404390888E-002   1.4584633490996590E-003
  0.10522765795648326       -3.1834272579970513E-002   7.7157941588052448E-003
  0.10219065587489304       -3.0594114663759650E-002   7.5012539354857161E-003
   9.9153653793302876E-002  -2.9541502541483092E-002   7.4836593187004724E-003
   9.6116651711712686E-002  -2.8676436213141216E-002   7.6630103084492085E-003
   9.3079649630122496E-002  -2.7998915678733638E-002   8.0393069047320076E-003
   9.8538644506289685E-002  -2.9510270626957019E-002   1.5562876748291210E-002
   9.5706562753096233E-002  -2.8587223493588831E-002   1.5034694745378649E-002
   9.2874480999902781E-002  -2.7730442336819344E-002   1.4719407792725236E-002
   9.0042399246709301E-002  -2.6939927156648551E-002   1.4617015890331278E-002
   8.7210317493515821E-002  -2.6215677953076472E-002   1.4727519038196676E-002
   9.1654920439907042E-002  -2.7186268673943456E-002   2.3032208646266664E-002
   8.9043708458835497E-002  -2.6580332323418027E-002   2.2311664681096698E-002
   8.6432496477763993E-002  -2.5919382132155569E-002   2.1819965209911217E-002
   8.3821284496692433E-002  -2.5203418100155982E-002   2.1557110232710210E-002
   8.1210072515620957E-002  -2.4432440227419319E-002   2.1523099749493898E-002
   8.4576485757335090E-002  -2.4862266720929893E-002   3.0123789852731453E-002
   8.2202092992110787E-002  -2.4573441153247250E-002   2.9332163742639722E-002
   7.9827700226886442E-002  -2.4108321927491745E-002   2.8785331570257935E-002
   7.7453307461662152E-002  -2.3466909043663456E-002   2.8483293335585844E-002
   7.5078914696437765E-002  -2.2649202501762195E-002   2.8426049038623669E-002
   9.8818068925440872E-002  -2.9782153404390888E-002   1.4584633490996590E-003
   9.6032241303373844E-002  -2.9209660692377265E-002   1.5091615716392726E-003
   9.3246413681306872E-002  -2.8444940675551825E-002   1.6852501392398966E-003
   9.0460586059239845E-002  -2.7487993353915222E-002   1.9867290519011011E-003
   8.7674758437172873E-002  -2.6338818727466795E-002   2.4135983096231772E-003
   9.3079649630122496E-002  -2.7998915678733638E-002   8.0393069047320076E-003
   9.0421147607504859E-002  -2.7351960490258093E-002   8.1203487438132049E-003
   8.7762645584887194E-002  -2.6578590199712163E-002   8.3306514367323531E-003
   8.5104143562269516E-002  -2.5678804807095907E-002   8.6702149834897921E-003
   8.2445641539651837E-002  -2.4652604312408899E-002   9.1390393840850570E-003
   8.7210317493515821E-002  -2.6215677953076472E-002   1.4727519038196676E-002
   8.4683011579124889E-002  -2.5494260288139156E-002   1.4773092291078219E-002
   8.2155705664733902E-002  -2.4712239723872494E-002   1.4951796906575103E-002
   7.9628399750342957E-002  -2.3869616260276533E-002   1.5263632884687222E-002
   7.7101093835951984E-002  -2.2966389897351280E-002   1.5708600225414843E-002
   8.1210072515620957E-002  -2.4432440227419319E-002   2.1523099749493898E-002
   7.8817833218233962E-002  -2.3636560086020157E-002   2.1467392213434505E-002
   7.6425593920847010E-002  -2.2845889248032662E-002   2.1548686548767820E-002
   7.4033354623460029E-002  -2.2060427713457190E-002   2.1766982755493811E-002
   7.1641115326073063E-002  -2.1280175482293523E-002   2.2122280833612458E-002
   7.5078914696437765E-002  -2.2649202501762195E-002   2.8426049038623669E-002
   7.2825612524832134E-002  -2.1778859883901047E-002   2.8203248510882295E-002
   7.0572310353226489E-002  -2.0979538772193017E-002   2.8121320363310789E-002
   6.8319008181620844E-002  -2.0251239166637867E-002   2.8180264595909450E-002
   6.6065706010015213E-002  -1.9593961067235821E-002   2.8380081208677854E-002
   8.7674758437172873E-002  -2.6338818727466795E-002   2.4135983096231772E-003
   8.3997299068415132E-002  -2.5172241396820005E-002   2.1194035671155964E-003
   8.0319839699657225E-002  -2.4163085962589731E-002   1.7279837094675288E-003
   7.6642380330899401E-002  -2.3311352424773689E-002   1.2393387366791131E-003
   7.2964920962141577E-002  -2.2617040783374232E-002   6.5346864874971100E-004
   8.2445641539651837E-002  -2.4652604312408899E-002   9.1390393840850570E-003
   7.8730774255607011E-002  -2.3619780161434650E-002   8.6539361922963465E-003
   7.5015906971562074E-002  -2.2700123799956284E-002   8.1912422850743960E-003
   7.1301039687517137E-002  -2.1893635227973732E-002   7.7509576624186921E-003
   6.7586172403472256E-002  -2.1200314445486867E-002   7.3330823243296095E-003
   7.7101093835951984E-002  -2.2966389897351280E-002   1.5708600225414843E-002
   7.3468453036327014E-002  -2.2067318926049267E-002   1.5076842691264969E-002
   6.9835812236702030E-002  -2.1237161637323518E-002   1.4587128841388769E-002
   6.6203171437077019E-002  -2.0475918031173445E-002   1.4239458675785722E-002
   6.2570530637452076E-002  -1.9783588107599337E-002   1.4033832194456086E-002
   7.1641115326073063E-002  -2.1280175482293523E-002   2.2122280833612458E-002
   6.8210335410575057E-002  -2.0514857690663954E-002   2.1388123064020978E-002
   6.4779555495077024E-002  -1.9774199474690578E-002   2.0915643378410228E-002
   6.1348775579578976E-002  -1.9058200834373103E-002   2.0704841776779864E-002
   5.7917995664080991E-002  -1.8366861769711890E-002   2.0755718259130126E-002
   6.6065706010015213E-002  -1.9593961067235821E-002   2.8380081208677854E-002
   6.2956421378351168E-002  -1.8962396455278557E-002   2.7587777310564776E-002
   5.9847136746687152E-002  -1.8311237312057346E-002   2.7176785896139338E-002
   5.6737852115023121E-002  -1.7640483637572823E-002   2.7147106965401388E-002
   5.3628567483359091E-002  -1.6950135431824387E-002   2.7498740518350884E-002
   7.2964920962141577E-002  -2.2617040783374232E-002   6.5346864874971100E-004
   7.1347045372132767E-002  -2.2048635001877259E-002   8.6514667893822228E-004
   6.9729169782123790E-002  -2.1574619043769616E-002   2.1066680368653223E-003
   6.8111294192114841E-002  -2.1194992909051372E-002   4.3780327225309279E-003
   6.6493418602106003E-002  -2.0909756597723317E-002   7.6792407359350667E-003
   6.7586172403472256E-002  -2.1200314445486867E-002   7.3330823243296095E-003
   6.6827876371375494E-002  -2.0588087205746619E-002   7.6658988176469545E-003
   6.6069580339278788E-002  -2.0024879262004414E-002   8.6880310990507525E-003
   6.5311284307182027E-002  -1.9510690614259765E-002   1.0399479168539311E-002
   6.4552988275085321E-002  -1.9045521262513132E-002   1.2800243026114599E-002
   6.2570530637452076E-002  -1.9783588107599337E-002   1.4033832194456086E-002
   6.2331286623614757E-002  -1.9127539409616257E-002   1.4533157678294439E-002
   6.2092042609777395E-002  -1.8475139480239516E-002   1.5381271410566152E-002
   6.1852798595940041E-002  -1.7826388319468485E-002   1.6578173391270420E-002
   6.1613554582102714E-002  -1.7181285927303336E-002   1.8123863620408270E-002
   5.7917995664080991E-002  -1.8366861769711890E-002   2.0755718259130126E-002
   5.7857276128850318E-002  -1.7666991613485866E-002   2.1466923260881052E-002
   5.7796556593619694E-002  -1.6925399698474022E-002   2.2186388971412646E-002
   5.7735837058388965E-002  -1.6142086024676486E-002   2.2914115390724344E-002
   5.7675117523158390E-002  -1.5317050592093456E-002   2.3650102518816239E-002
   5.3628567483359091E-002  -1.6950135431824387E-002   2.7498740518350884E-002
   5.3405844887082360E-002  -1.6206443817355504E-002   2.8467195565406334E-002
   5.3183122290805601E-002  -1.5375659916709056E-002   2.9103383781589359E-002
   5.2960399694528842E-002  -1.4457783729885008E-002   2.9407305166900016E-002
   5.2737677098252056E-002  -1.3452815256883299E-002   2.9378959721338138E-002
   6.6493418602106003E-002  -2.0909756597723317E-002   7.6792407359350667E-003
   6.2506496210186224E-002  -2.0244484860596601E-002   6.4873150731195039E-003
   5.8519573818266446E-002  -1.8724752448482734E-002   3.3916397180899227E-003
   5.4532651426346668E-002  -1.6350559361383278E-002  -1.6077853291535382E-003
   5.0545729034426889E-002  -1.3121905599295935E-002  -8.5109600686115172E-003
   6.4552988275085321E-002  -1.9045521262513132E-002   1.2800243026114599E-002
   5.9034717431172612E-002  -1.8318842361579990E-002   1.1694964772237026E-002
   5.3516446587259847E-002  -1.7020125066275427E-002   9.4307393065882206E-003
   4.7998175743347249E-002  -1.5149369376598956E-002   6.0075666291671548E-003
   4.2479904899434429E-002  -1.2706575292551037E-002   1.4254467399741344E-003
   6.1613554582102714E-002  -1.7181285927303336E-002   1.8123863620408270E-002
   5.5308737766639304E-002  -1.6393199862563324E-002   1.6822810494853846E-002
   4.9003920951175839E-002  -1.5315497684066995E-002   1.5107612637970155E-002
   4.2699104135712374E-002  -1.3948179391814908E-002   1.2978270049756289E-002
   3.6394287320248908E-002  -1.2291244985806138E-002   1.0434782730213144E-002
   5.7675117523158390E-002  -1.5317050592093456E-002   2.3650102518816239E-002
   5.1328557216586329E-002  -1.4467557363546907E-002   2.1870852240969810E-002
   4.4981996910014227E-002  -1.3610870301859347E-002   2.0422259712235723E-002
   3.8635436603442166E-002  -1.2746989407030946E-002   1.9304324932614254E-002
   3.2288876296870134E-002  -1.1875914679061350E-002   1.8517047902105593E-002
   5.2737677098252056E-002  -1.3452815256883299E-002   2.9378959721338138E-002
   4.7094175781013631E-002  -1.2541914864530268E-002   2.6839090010584432E-002
   4.1450674463775206E-002  -1.1906242919651491E-002   2.5374680529385157E-002
   3.5807173146536725E-002  -1.1545799422246931E-002   2.4985731277740300E-002
   3.0163671829298355E-002  -1.1460584372316340E-002   2.5672242255651012E-002
   9.0361257921709986E-002   0.0000000000000000        4.9833710851947655E-002
   9.3961917869068684E-002  -5.4010866492364678E-003   5.3207905764694995E-002
   9.7562577816427382E-002  -1.0667550959995092E-002   5.4964941588786585E-002
  0.10116323776378608       -1.5799392932275873E-002   5.5104818324222461E-002
  0.10476389771114480       -2.0796612566078801E-002   5.3627535971002602E-002
   8.2422446181257117E-002   0.0000000000000000        4.4786086014967447E-002
   8.4634588430383600E-002  -4.5722954797240908E-003   4.8268353417400135E-002
   8.6846730679510084E-002  -9.0354782079263181E-003   5.0590744512024131E-002
   8.9058872928636568E-002  -1.3389548184606680E-002   5.1753259298839394E-002
   9.1271015177763051E-002  -1.7634505409765175E-002   5.1755897777845984E-002
   7.4241197995066247E-002   0.0000000000000000        4.0580007140977606E-002
   7.5522105326807532E-002  -3.7435043102117139E-003   4.4144837446139666E-002
   7.6803012658548817E-002  -7.4034054558575445E-003   4.7007074224340063E-002
   7.8083919990290088E-002  -1.0979703436937488E-002   4.9166717475578756E-002
   7.9364827322031373E-002  -1.4472398253451545E-002   5.0623767199855806E-002
   6.5817513363137348E-002   0.0000000000000000        3.7215474229978125E-002
   6.6624468558340449E-002  -2.9147131406993374E-003   4.0837357850913601E-002
   6.7431423753543593E-002  -5.7713327037887709E-003   4.4213930725734402E-002
   6.8238378948746709E-002  -8.5698586892682966E-003   4.7345192854440561E-002
   6.9045334143949824E-002  -1.1310291097137918E-002   5.0231144237032073E-002
   5.7151392285470434E-002   0.0000000000000000        3.4692487281969026E-002
   5.7941678124982410E-002  -2.0859219711869608E-003   3.8345914631721892E-002
   5.8731963964494399E-002  -4.1392599517199972E-003   4.2211314016207153E-002
   5.9522249804006389E-002  -6.1600139415991049E-003   4.6288685435424790E-002
   6.0312535643518378E-002  -8.1481839408242863E-003   5.0578028889374793E-002
  0.10476389771114480       -2.0796612566078801E-002   5.3627535971002602E-002
  0.10210933814711036       -2.4941757307041547E-002   4.5643768083127187E-002
   9.9454778583075901E-002  -2.7517374600801770E-002   3.9345056081422303E-002
   9.6800219019041428E-002  -2.8523464447359450E-002   3.4731399965887984E-002
   9.4145659455007011E-002  -2.7960026846714614E-002   3.1802799736524126E-002
   9.1271015177763051E-002  -1.7634505409765175E-002   5.1755897777845984E-002
   9.0064773612025986E-002  -2.1212402935725436E-002   4.6519353726786138E-002
   8.8858532046288949E-002  -2.3565293814811095E-002   4.2494389786150569E-002
   8.7652290480551912E-002  -2.4693178047022171E-002   3.9681005955939257E-002
   8.6446048914814860E-002  -2.4596055632358643E-002   3.8079202236152312E-002
   7.9364827322031373E-002  -1.4472398253451545E-002   5.0623767199855806E-002
   7.9133427978845497E-002  -1.7483048564409329E-002   4.7789926185283563E-002
   7.8902028635659649E-002  -1.9613213028820447E-002   4.5694189505389386E-002
   7.8670629292473759E-002  -2.0862891646684895E-002   4.4336557160173290E-002
   7.8439229949287897E-002  -2.1232084418002672E-002   4.3717029149635246E-002
   6.9045334143949824E-002  -1.1310291097137918E-002   5.0231144237032073E-002
   6.9315301247568906E-002  -1.3753694193093215E-002   4.9455485458619546E-002
   6.9585268351187987E-002  -1.5661132242829768E-002   4.8944455239138811E-002
   6.9855235454807069E-002  -1.7032605246347612E-002   4.8698053578589938E-002
   7.0125202558426109E-002  -1.7868113203646695E-002   4.8716280476972892E-002
   6.0312535643518378E-002  -8.1481839408242863E-003   5.0578028889374793E-002
   6.0610393418196171E-002  -1.0024339821777108E-002   5.1516031546794010E-002
   6.0908251192873963E-002  -1.1709051456839117E-002   5.2245186987398821E-002
   6.1206108967551728E-002  -1.3202318846010327E-002   5.2765495211189249E-002
   6.1503966742229535E-002  -1.4504141989290731E-002   5.3076956218165244E-002
   9.4145659455007011E-002  -2.7960026846714614E-002   3.1802799736524126E-002
   9.1753366030589048E-002  -2.6755265845668508E-002   3.1244216139254072E-002
   8.9361072606171044E-002  -2.5837385491022324E-002   3.0778186626198689E-002
   8.6968779181753095E-002  -2.5206385782776092E-002   3.0404711197357701E-002
   8.4576485757335090E-002  -2.4862266720929893E-002   3.0123789852731453E-002
   8.6446048914814860E-002  -2.4596055632358643E-002   3.8079202236152312E-002
   8.4190426453530726E-002  -2.3944920640992358E-002   3.7055596022532201E-002
   8.1934803992246577E-002  -2.3410767143095229E-002   3.6212777650965214E-002
   7.9679181530962470E-002  -2.2993595138667215E-002   3.5550747121451384E-002
   7.7423559069678294E-002  -2.2693404627708358E-002   3.5069504433990650E-002
   7.8439229949287897E-002  -2.1232084418002672E-002   4.3717029149635246E-002
   7.6408512208976168E-002  -2.1134575436316277E-002   4.2398299472595880E-002
   7.4377794468664424E-002  -2.0984148795168162E-002   4.1348591395448192E-002
   7.2347076728352680E-002  -2.0780804494558311E-002   4.0567904918192260E-002
   7.0316358988040950E-002  -2.0524542534486795E-002   4.0056240040827869E-002
   7.0125202558426109E-002  -1.7868113203646695E-002   4.8716280476972892E-002
   6.8407623296925332E-002  -1.8324230231640169E-002   4.7272326489445127E-002
   6.6690044035424542E-002  -1.8557530447241108E-002   4.6185627859647638E-002
   6.4972464773923752E-002  -1.8568013850449407E-002   4.5456184587580356E-002
   6.3254885512422934E-002  -1.8355680441265232E-002   4.5083996673243233E-002
   6.1503966742229535E-002  -1.4504141989290731E-002   5.3076956218165244E-002
   6.0187759717378247E-002  -1.5513885026964058E-002   5.1677677073079922E-002
   5.8871552692526953E-002  -1.6130912099313988E-002   5.0723887043563405E-002
   5.7555345667675659E-002  -1.6355223206340506E-002   5.0215586129615616E-002
   5.6239138642824357E-002  -1.6186818348043683E-002   5.0152774331236591E-002
   8.4576485757335090E-002  -2.4862266720929893E-002   3.0123789852731453E-002
   8.2202092992110787E-002  -2.4573441153247250E-002   2.9332163742639722E-002
   7.9827700226886442E-002  -2.4108321927491745E-002   2.8785331570257935E-002
   7.7453307461662152E-002  -2.3466909043663456E-002   2.8483293335585844E-002
   7.5078914696437765E-002  -2.2649202501762195E-002   2.8426049038623669E-002
   7.7423559069678294E-002  -2.2693404627708358E-002   3.5069504433990650E-002
   7.5286496577729622E-002  -2.2387706606124207E-002   3.4468286351880408E-002
   7.3149434085780993E-002  -2.1954012069820582E-002   3.4096934878611831E-002
   7.1012371593832349E-002  -2.1392321018797303E-002   3.3955450014184825E-002
   6.8875309101883678E-002  -2.0702633453054509E-002   3.4043831758599069E-002
   7.0316358988040950E-002  -2.0524542534486795E-002   4.0056240040827869E-002
   6.8401699440499675E-002  -2.0201972059001275E-002   3.9597132843345921E-002
   6.6487039892958413E-002  -1.9799702212149415E-002   3.9352964925837244E-002
   6.4572380345417166E-002  -1.9317732993931323E-002   3.9323736288301818E-002
   6.2657720797875877E-002  -1.8756064404346920E-002   3.9509446930739621E-002
   6.3254885512422934E-002  -1.8355680441265232E-002   4.5083996673243233E-002
   6.1547701580420791E-002  -1.8016237511878273E-002   4.4718703217036249E-002
   5.9840517648418683E-002  -1.7645392354478318E-002   4.4553421711934174E-002
   5.8133333716416581E-002  -1.7243144969065313E-002   4.4588152157937121E-002
   5.6426149784414431E-002  -1.6809495355639269E-002   4.4822894555044984E-002
   5.6239138642824357E-002  -1.6186818348043683E-002   5.0152774331236591E-002
   5.4724502997493110E-002  -1.5830502964755300E-002   4.9832997472951251E-002
   5.3209867352161842E-002  -1.5491082496807074E-002   4.9698305236902600E-002
   5.1695231706830588E-002  -1.5168556944199243E-002   4.9748697623090657E-002
   5.0180596061499327E-002  -1.4862926306931673E-002   4.9984174631515443E-002
   7.5078914696437765E-002  -2.2649202501762195E-002   2.8426049038623669E-002
   7.2825612524832134E-002  -2.1778859883901047E-002   2.8203248510882295E-002
   7.0572310353226489E-002  -2.0979538772193017E-002   2.8121320363310789E-002
   6.8319008181620844E-002  -2.0251239166637867E-002   2.8180264595909450E-002
   6.6065706010015213E-002  -1.9593961067235821E-002   2.8380081208677854E-002
   6.8875309101883678E-002  -2.0702633453054509E-002   3.4043831758599069E-002
   6.6773842048965235E-002  -1.9967487566818889E-002   3.3763960569977963E-002
   6.4672374996046778E-002  -1.9269421554316823E-002   3.3646887238561157E-002
   6.2570907943128362E-002  -1.8608435415548644E-002   3.3692611764348901E-002
   6.0469440890209919E-002  -1.7984529150514184E-002   3.3901134147340889E-002
   6.2657720797875877E-002  -1.8756064404346920E-002   3.9509446930739621E-002
   6.0730014340679116E-002  -1.8156115249736593E-002   3.9206446713657889E-002
   5.8802307883482355E-002  -1.7559304336440745E-002   3.9088169830814992E-002
   5.6874601426285587E-002  -1.6965631664459368E-002   3.9154616282210966E-002
   5.4946894969088791E-002  -1.6375097233792518E-002   3.9405786067846019E-002
   5.6426149784414431E-002  -1.6809495355639269E-002   4.4822894555044984E-002
   5.4694129399973812E-002  -1.6344742932654380E-002   4.4530706941921974E-002
   5.2962109015533179E-002  -1.5849187118564666E-002   4.4445168140072287E-002
   5.1230088631092574E-002  -1.5322827913370118E-002   4.4566278149495972E-002
   4.9498068246651927E-002  -1.4765665317070784E-002   4.4894036970193257E-002
   5.0180596061499327E-002  -1.4862926306931673E-002   4.9984174631515443E-002
   4.8666187226849317E-002  -1.4533370615572166E-002   4.9736741254770428E-002
   4.7151778392199292E-002  -1.4139069900688521E-002   4.9717882166333230E-002
   4.5637369557549261E-002  -1.3680024162280797E-002   4.9927597366203884E-002
   4.4122960722899257E-002  -1.3156233400349160E-002   5.0365886854382313E-002
   6.6065706010015213E-002  -1.9593961067235821E-002   2.8380081208677854E-002
   6.2956421378351168E-002  -1.8962396455278557E-002   2.7587777310564776E-002
   5.9847136746687152E-002  -1.8311237312057346E-002   2.7176785896139338E-002
   5.6737852115023121E-002  -1.7640483637572823E-002   2.7147106965401388E-002
   5.3628567483359091E-002  -1.6950135431824387E-002   2.7498740518350884E-002
   6.0469440890209919E-002  -1.7984529150514184E-002   3.3901134147340889E-002
   5.7712851261248199E-002  -1.7377319334955649E-002   3.3165572719949715E-002
   5.4956261632286521E-002  -1.6766422544615217E-002   3.2754088814275717E-002
   5.2199672003324885E-002  -1.6151838779492798E-002   3.2666682430318499E-002
   4.9443082374363123E-002  -1.5533568039588552E-002   3.2903353568078719E-002
   5.4946894969088791E-002  -1.6375097233792518E-002   3.9405786067846019E-002
   5.2485765380859029E-002  -1.5792242214632782E-002   3.8711059554694810E-002
   5.0024635792629286E-002  -1.5221607777172817E-002   3.8283175601290249E-002
   4.7563506204399517E-002  -1.4663193921412831E-002   3.8122134207632510E-002
   4.5102376616169726E-002  -1.4117000647352579E-002   3.8227935373721295E-002
   4.9498068246651927E-002  -1.4765665317070784E-002   4.4894036970193257E-002
   4.7275163737183656E-002  -1.4207165094309866E-002   4.4224237814800248E-002
   4.5052259227715413E-002  -1.3676793009730469E-002   4.3764046257183588E-002
   4.2829354718247177E-002  -1.3174549063332919E-002   4.3513462297343465E-002
   4.0606450208778885E-002  -1.2700433255116703E-002   4.3472485935279394E-002
   4.4122960722899257E-002  -1.3156233400349160E-002   5.0365886854382313E-002
   4.2081046330222110E-002  -1.2622087973987034E-002   4.9705107500265799E-002
   4.0039131937544936E-002  -1.2131978242288302E-002   4.9196700781955482E-002
   3.7997217544867776E-002  -1.1685904205252954E-002   4.8840666699450960E-002
   3.5955303152190615E-002  -1.1283865862880771E-002   4.8637005252752052E-002
   5.3628567483359091E-002  -1.6950135431824387E-002   2.7498740518350884E-002
   5.3405844887082360E-002  -1.6206443817355504E-002   2.8467195565406334E-002
   5.3183122290805601E-002  -1.5375659916709056E-002   2.9103383781589359E-002
   5.2960399694528842E-002  -1.4457783729885008E-002   2.9407305166900016E-002
   5.2737677098252056E-002  -1.3452815256883299E-002   2.9378959721338138E-002
   4.9443082374363123E-002  -1.5533568039588552E-002   3.2903353568078719E-002
   4.8960140114787207E-002  -1.4870051872937495E-002   3.3875583215954574E-002
   4.8477197855211276E-002  -1.4119731827575088E-002   3.4659640368104636E-002
   4.7994255595635353E-002  -1.3282607903501359E-002   3.5255525024528660E-002
   4.7511313336059458E-002  -1.2358680100715891E-002   3.5663237185226793E-002
   4.5102376616169726E-002  -1.4117000647352579E-002   3.8227935373721295E-002
   4.4503309028441233E-002  -1.3533659928519584E-002   3.9203651214951521E-002
   4.3904241440712741E-002  -1.2863803738441301E-002   4.0135288895602445E-002
   4.3305173852984248E-002  -1.2107432077117546E-002   4.1022848415674017E-002
   4.2706106265255755E-002  -1.1264544944548621E-002   4.1866329775166619E-002
   4.0606450208778885E-002  -1.2700433255116703E-002   4.3472485935279394E-002
   4.0035351628044419E-002  -1.2197267984101846E-002   4.4451399562397749E-002
   3.9464253047309994E-002  -1.1607875649307341E-002   4.5530329364083327E-002
   3.8893154466575534E-002  -1.0932256250734037E-002   4.6709275340336281E-002
   3.8322055885841096E-002  -1.0170409788381171E-002   4.7988237491156716E-002
   3.5955303152190615E-002  -1.1283865862880771E-002   4.8637005252752052E-002
   3.5556267913596840E-002  -1.0860876039683692E-002   4.9618828258292502E-002
   3.5157232675002995E-002  -1.0351947560173574E-002   5.0844761773547048E-002
   3.4758197436409212E-002  -9.7570804243501744E-003   5.2314805798515357E-002
   3.4359162197815374E-002  -9.0762746322138321E-003   5.4028960333197484E-002
   5.2737677098252056E-002  -1.3452815256883299E-002   2.9378959721338138E-002
   4.7094175781013631E-002  -1.2541914864530268E-002   2.6839090010584432E-002
   4.1450674463775206E-002  -1.1906242919651491E-002   2.5374680529385157E-002
   3.5807173146536725E-002  -1.1545799422246931E-002   2.4985731277740300E-002
   3.0163671829298355E-002  -1.1460584372316340E-002   2.5672242255651012E-002
   4.7511313336059458E-002  -1.2358680100715891E-002   3.5663237185226793E-002
   4.2815972221861343E-002  -1.1501234273982752E-002   3.3169726000202848E-002
   3.8120631107663325E-002  -1.0863556278064970E-002   3.1497074991705176E-002
   3.3425289993465272E-002  -1.0445646112962882E-002   3.0645284159733388E-002
   2.8729948879267220E-002  -1.0247503778675782E-002   3.0614353504287539E-002
   4.2706106265255755E-002  -1.1264544944548621E-002   4.1866329775166619E-002
   3.8704325301069535E-002  -1.0460553683435236E-002   3.9474637732531112E-002
   3.4702544336883329E-002  -9.8208696364785533E-003   3.7649205813393323E-002
   3.0700763372697122E-002  -9.3454928036786639E-003   3.6390034017752940E-002
   2.6698982408510957E-002  -9.0344231850353340E-003   3.5697122345610455E-002
   3.8322055885841096E-002  -1.0170409788381171E-002   4.7988237491156716E-002
   3.4759235018638125E-002  -9.4198730928876651E-003   4.5753825207568835E-002
   3.1196414151435179E-002  -8.7781829948921954E-003   4.3831072994449737E-002
   2.7633593284232198E-002  -8.2453394943945851E-003   4.2219980851799822E-002
   2.4070772417029263E-002  -7.8213425913948309E-003   4.0920548779618843E-002
   3.4359162197815374E-002  -9.0762746322138321E-003   5.4028960333197484E-002
   3.0980701374567154E-002  -8.3791925023402603E-003   5.2007288425315823E-002
   2.7602240551318935E-002  -7.7354963533056986E-003   5.0042676534874597E-002
   2.4223779728070660E-002  -7.1451861851106122E-003   4.8135124661873391E-002
   2.0845318904822441E-002  -6.6082619977543278E-003   4.6284632806313120E-002
   5.7151392285470434E-002   0.0000000000000000        3.4692487281969026E-002
   5.7941678124982410E-002  -2.0859219711869608E-003   3.8345914631721892E-002
   5.8731963964494399E-002  -4.1392599517199972E-003   4.2211314016207153E-002
   5.9522249804006389E-002  -6.1600139415991049E-003   4.6288685435424790E-002
   6.0312535643518378E-002  -8.1481839408242863E-003   5.0578028889374793E-002
   4.8653522116139061E-002   0.0000000000000000        3.2789231773012663E-002
   4.9590933273186963E-002  -1.7106586602454359E-003   3.6966681054458495E-002
   5.0528344430234871E-002  -3.4340405381841615E-003   4.1226408936243797E-002
   5.1465755587282780E-002  -5.1701456338161724E-003   4.5568415418368528E-002
   5.2403166744330688E-002  -6.9189739471414860E-003   4.9992700500832779E-002
   4.0734590209216784E-002   0.0000000000000000        3.1283893179171442E-002
   4.1689433249407701E-002  -1.3353953493039105E-003   3.5940057183963009E-002
   4.2644276289598611E-002  -2.7288211246483257E-003   4.0548806354701136E-002
   4.3599119329789521E-002  -4.1802773260332460E-003   4.5110140691385810E-002
   4.4553962369980438E-002  -5.6897639534586718E-003   4.9624060194017029E-002
   3.3394596564703609E-002   0.0000000000000000        3.0176471500445345E-002
   3.4237178053644610E-002  -9.6013203836238449E-004   3.5266043020235456E-002
   3.5079759542585610E-002  -2.0236017111124882E-003   4.0178506271579185E-002
   3.5922341031526604E-002  -3.1904090182503157E-003   4.4913861254476564E-002
   3.6764922520467605E-002  -4.4605539597758577E-003   4.9472107968927537E-002
   2.6633541182599536E-002   0.0000000000000000        2.9466966736834389E-002
   2.7234167685897710E-002  -5.8486872742086020E-004   3.4944638563275808E-002
   2.7834794189195881E-002  -1.3183822975766542E-003   4.0115508686877945E-002
   2.8435420692494055E-002  -2.2005407104673889E-003   4.4979577107640785E-002
   2.9036047195792225E-002  -3.2313439660930591E-003   4.9536843825564350E-002
   6.0312535643518378E-002  -8.1481839408242863E-003   5.0578028889374793E-002
   6.0610393418196171E-002  -1.0024339821777108E-002   5.1516031546794010E-002
   6.0908251192873963E-002  -1.1709051456839117E-002   5.2245186987398821E-002
   6.1206108967551728E-002  -1.3202318846010327E-002   5.2765495211189249E-002
   6.1503966742229535E-002  -1.4504141989290731E-002   5.3076956218165244E-002
   5.2403166744330688E-002  -6.9189739471414860E-003   4.9992700500832779E-002
   5.2530365766810153E-002  -8.5809132956645769E-003   5.1218028844299740E-002
   5.2657564789289631E-002  -1.0056351496889954E-002   5.2310886900184483E-002
   5.2784763811769102E-002  -1.1345288550817621E-002   5.3271274668486981E-002
   5.2911962834248580E-002  -1.2447724457447615E-002   5.4099192149207234E-002
   4.4553962369980438E-002  -5.6897639534586718E-003   4.9624060194017029E-002
   4.4586879569493740E-002  -7.1374867695520438E-003   5.1131771124938663E-002
   4.4619796769007035E-002  -8.4036515369408076E-003   5.2583388697510232E-002
   4.4652713968520330E-002  -9.4882582556249477E-003   5.3978912911731680E-002
   4.4685631168033632E-002  -1.0391306925604485E-002   5.5318343767603098E-002
   3.6764922520467605E-002  -4.4605539597758577E-003   4.9472107968927537E-002
   3.6779934826246904E-002  -5.6940602434395115E-003   5.1257258388710744E-002
   3.6794947132026190E-002  -6.7509515769916565E-003   5.3062692379376060E-002
   3.6809959437805476E-002  -7.6312279604322606E-003   5.4888409940923380E-002
   3.6824971743584775E-002  -8.3348893937613619E-003   5.6734411073352801E-002
   2.9036047195792225E-002  -3.2313439660930591E-003   4.9536843825564350E-002
   2.9109531537069647E-002  -4.2506337173269836E-003   5.1594490635616039E-002
   2.9183015878347082E-002  -5.0982516170424985E-003   5.3748797945781947E-002
   2.9256500219624514E-002  -5.7741976652395631E-003   5.5999765756062102E-002
   2.9329984560901932E-002  -6.2784718619182320E-003   5.8347394066456428E-002
   6.1503966742229535E-002  -1.4504141989290731E-002   5.3076956218165244E-002
   6.0187759717378247E-002  -1.5513885026964058E-002   5.1677677073079922E-002
   5.8871552692526953E-002  -1.6130912099313988E-002   5.0723887043563405E-002
   5.7555345667675659E-002  -1.6355223206340506E-002   5.0215586129615616E-002
   5.6239138642824357E-002  -1.6186818348043683E-002   5.0152774331236591E-002
   5.2911962834248580E-002  -1.2447724457447615E-002   5.4099192149207234E-002
   5.1990378494929872E-002  -1.3301700152974896E-002   5.3366286435967289E-002
   5.1068794155611170E-002  -1.3845256573594436E-002   5.2977136978223781E-002
   5.0147209816292462E-002  -1.4078393719306349E-002   5.2931743775976640E-002
   4.9225625476973761E-002  -1.4001111590110527E-002   5.3230106829225979E-002
   4.4685631168033632E-002  -1.0391306925604485E-002   5.5318343767603098E-002
   4.4056936654175163E-002  -1.1089515278985723E-002   5.5169514795792837E-002
   4.3428242140316674E-002  -1.1559601047874951E-002   5.5262709219406694E-002
   4.2799547626458184E-002  -1.1801564232272176E-002   5.5597927038444531E-002
   4.2170853112599715E-002  -1.1815404832177405E-002   5.6175168252906402E-002
   3.6824971743584775E-002  -8.3348893937613619E-003   5.6734411073352801E-002
   3.6387434195114129E-002  -8.8773304049965494E-003   5.7087362152556595E-002
   3.5949896646643491E-002  -9.2739455221554391E-003   5.7580603767112083E-002
   3.5512359098172845E-002  -9.5247347452380327E-003   5.8214135917019176E-002
   3.5074821549702213E-002  -9.6296980742442521E-003   5.8987958602277971E-002
   2.9329984560901932E-002  -6.2784718619182320E-003   5.8347394066456428E-002
   2.8981871117746770E-002  -6.6651455310073986E-003   5.9119828506258555E-002
   2.8633757674591604E-002  -6.9882899964359129E-003   5.9930820621339961E-002
   2.8285644231436438E-002  -7.2479052582038322E-003   6.0780370411700688E-002
   2.7937530788281269E-002  -7.4439913163111271E-003   6.1668477877340644E-002
   5.6239138642824357E-002  -1.6186818348043683E-002   5.0152774331236591E-002
   5.4724502997493110E-002  -1.5830502964755300E-002   4.9832997472951251E-002
   5.3209867352161842E-002  -1.5491082496807074E-002   4.9698305236902600E-002
   5.1695231706830588E-002  -1.5168556944199243E-002   4.9748697623090657E-002
   5.0180596061499327E-002  -1.4862926306931673E-002   4.9984174631515443E-002
   4.9225625476973761E-002  -1.4001111590110527E-002   5.3230106829225979E-002
   4.7899442178581240E-002  -1.3763660484519449E-002   5.2868950378390442E-002
   4.6573258880188699E-002  -1.3516290701045507E-002   5.2699613999195566E-002
   4.5247075581796178E-002  -1.3259002239688655E-002   5.2722097691641490E-002
   4.3920892283403651E-002  -1.2991795100448983E-002   5.2936401455728144E-002
   4.2170853112599715E-002  -1.1815404832177405E-002   5.6175168252906402E-002
   4.1039857610549915E-002  -1.1696818004283627E-002   5.5799445802743826E-002
   3.9908862108500087E-002  -1.1541498905283826E-002   5.5622278873625967E-002
   3.8777866606450280E-002  -1.1349447535178052E-002   5.5643667465552868E-002
   3.7646871104400466E-002  -1.1120663893966279E-002   5.5863611578524423E-002
   3.5074821549702213E-002  -9.6296980742442521E-003   5.8987958602277971E-002
   3.4145749293399121E-002  -9.6299755240478041E-003   5.8624483746011542E-002
   3.3216677037096014E-002  -9.5667071095221733E-003   5.8466299860193811E-002
   3.2287604780792914E-002  -9.4398928306673874E-003   5.8513406944824715E-002
   3.1358532524489814E-002  -9.2495326874835401E-003   5.8765804999904428E-002
   2.7937530788281269E-002  -7.4439913163111271E-003   6.1668477877340644E-002
   2.7217117227128870E-002  -7.5631330438120023E-003   6.1344064208193494E-002
   2.6496703665976475E-002  -7.5919153137605569E-003   6.1231676958898973E-002
   2.5776290104824080E-002  -7.5303381261568412E-003   6.1331316129457157E-002
   2.5055876543671682E-002  -7.3784014810009124E-003   6.1642981719868095E-002
   5.0180596061499327E-002  -1.4862926306931673E-002   4.9984174631515443E-002
   4.8666187226849317E-002  -1.4533370615572166E-002   4.9736741254770428E-002
   4.7151778392199292E-002  -1.4139069900688521E-002   4.9717882166333230E-002
   4.5637369557549261E-002  -1.3680024162280797E-002   4.9927597366203884E-002
   4.4122960722899257E-002  -1.3156233400349160E-002   5.0365886854382313E-002
   4.3920892283403651E-002  -1.2991795100448983E-002   5.2936401455728144E-002
   4.2627275172649096E-002  -1.2694194271257175E-002   5.2724674976435876E-002
   4.1333658061894513E-002  -1.2345724740044424E-002   5.2725957656626507E-002
   4.0040040951139971E-002  -1.1946386506810390E-002   5.2940249496300391E-002
   3.8746423840385402E-002  -1.1496179571555298E-002   5.3367550495457328E-002
   3.7646871104400466E-002  -1.1120663893966279E-002   5.5863611578524423E-002
   3.6558480588716621E-002  -1.0855017926942365E-002   5.5673715675181971E-002
   3.5470090073032742E-002  -1.0552379579400275E-002   5.5681263802497799E-002
   3.4381699557348891E-002  -1.0212748851339902E-002   5.5886255960471989E-002
   3.3293309041665026E-002  -9.8361257427614646E-003   5.6288692149104411E-002
   3.1358532524489814E-002  -9.2495326874835401E-003   5.8765804999904428E-002
   3.0459803475051901E-002  -9.0158415826274915E-003   5.8583863351008791E-002
   2.9561074425613960E-002  -8.7590344187561519E-003   5.8583800603946752E-002
   2.8662345376176047E-002  -8.4791111958695368E-003   5.8765616758718213E-002
   2.7763616326738114E-002  -8.1760719139675614E-003   5.9129311815323243E-002
   2.5055876543671682E-002  -7.3784014810009124E-003   6.1642981719868095E-002
   2.4331243831654921E-002  -7.1766652383125906E-003   6.1455118003916370E-002
   2.3606611119638174E-002  -6.9656892581120081E-003   6.1433568060973567E-002
   2.2881978407621413E-002  -6.7454735403990138E-003   6.1578331891039458E-002
   2.2157345695604652E-002  -6.5160180851738247E-003   6.1889409494114089E-002
   4.4122960722899257E-002  -1.3156233400349160E-002   5.0365886854382313E-002
   4.2081046330222110E-002  -1.2622087973987034E-002   4.9705107500265799E-002
   4.0039131937544936E-002  -1.2131978242288302E-002   4.9196700781955482E-002
   3.7997217544867776E-002  -1.1685904205252954E-002   4.8840666699450960E-002
   3.5955303152190615E-002  -1.1283865862880771E-002   4.8637005252752052E-002
   3.8746423840385402E-002  -1.1496179571555298E-002   5.3367550495457328E-002
   3.6876481747391276E-002  -1.1037494375687962E-002   5.2610818951281724E-002
   3.5006539654397123E-002  -1.0612721360617153E-002   5.2045659370666006E-002
   3.3136597561402990E-002  -1.0221860526343083E-002   5.1672071753610375E-002
   3.1266655468408858E-002  -9.8649118728657559E-003   5.1490056100114950E-002
   3.3293309041665026E-002  -9.8361257427614646E-003   5.6288692149104411E-002
   3.1634538576108116E-002  -9.4529007773888757E-003   5.5446131928735917E-002
   2.9975768110551235E-002  -9.0934644789461630E-003   5.4834342999681658E-002
   2.8316997644994311E-002  -8.7578168474334323E-003   5.4453325361941876E-002
   2.6658227179437423E-002  -8.4459578828506299E-003   5.4303079015516370E-002
   2.7763616326738114E-002  -8.1760719139675614E-003   5.9129311815323243E-002
   2.6355216816372685E-002  -7.8683071790897133E-003   5.8211046432628741E-002
   2.4946817306007254E-002  -7.5742075972751767E-003   5.7562751669002793E-002
   2.3538417795641808E-002  -7.2937731685236160E-003   5.7184427524445414E-002
   2.2130018285276366E-002  -7.0270038928355316E-003   5.7076073998956693E-002
   2.2157345695604652E-002  -6.5160180851738247E-003   6.1889409494114089E-002
   2.1038516468184928E-002  -6.2837135807907452E-003   6.0905562462960194E-002
   1.9919687240765191E-002  -6.0549507156040239E-003   6.0230885378629223E-002
   1.8800858013345467E-002  -5.8297294896140495E-003   5.9865378241120981E-002
   1.7682028785925730E-002  -5.6080499028204889E-003   5.9809041050435385E-002
   3.5955303152190615E-002  -1.1283865862880771E-002   4.8637005252752052E-002
   3.5556267913596840E-002  -1.0860876039683692E-002   4.9618828258292502E-002
   3.5157232675002995E-002  -1.0351947560173574E-002   5.0844761773547048E-002
   3.4758197436409212E-002  -9.7570804243501744E-003   5.2314805798515357E-002
   3.4359162197815374E-002  -9.0762746322138321E-003   5.4028960333197484E-002
   3.1266655468408858E-002  -9.8649118728657559E-003   5.1490056100114950E-002
   3.1072062874576048E-002  -9.4863454463829378E-003   5.2593973827072926E-002
   3.0877470280743287E-002  -9.0306312930936161E-003   5.3862666333838835E-002
   3.0682877686910495E-002  -8.4977694129970832E-003   5.5296133620413072E-002
   3.0488285093077730E-002  -7.8877598060935750E-003   5.6894375686795340E-002
   2.6658227179437423E-002  -8.4459578828506299E-003   5.4303079015516370E-002
   2.6588741500459825E-002  -8.1118148530823914E-003   5.5520300534385641E-002
   2.6519255821482225E-002  -7.7093150260134774E-003   5.6822961103157127E-002
   2.6449770142504624E-002  -7.2384584016438776E-003   5.8211060721830833E-002
   2.6380284463526998E-002  -6.6992449799734843E-003   5.9684599390406851E-002
   2.2130018285276366E-002  -7.0270038928355316E-003   5.7076073998956693E-002
   2.2106303791248106E-002  -6.7372842597818797E-003   5.8397808380230759E-002
   2.2082589297219842E-002  -6.3879987589335122E-003   5.9725646081501535E-002
   2.2058874803191568E-002  -5.9791473902906737E-003   6.1059587102768577E-002
   2.2035160309163318E-002  -5.5107301538533660E-003   6.2399631444032135E-002
   1.7682028785925730E-002  -5.6080499028204889E-003   5.9809041050435385E-002
   1.7624749746940935E-002  -5.3627536664810349E-003   6.1226497364608612E-002
   1.7567470707956140E-002  -5.0666824918534498E-003   6.2570721268872448E-002
   1.7510191668971366E-002  -4.7198363789374871E-003   6.3841712763226574E-002
   1.7452912629986564E-002  -4.3222153277331921E-003   6.5039471847671393E-002
   3.4359162197815374E-002  -9.0762746322138321E-003   5.4028960333197484E-002
   3.0980701374567154E-002  -8.3791925023402603E-003   5.2007288425315823E-002
   2.7602240551318935E-002  -7.7354963533056986E-003   5.0042676534874597E-002
   2.4223779728070660E-002  -7.1451861851106122E-003   4.8135124661873391E-002
   2.0845318904822441E-002  -6.6082619977543278E-003   4.6284632806313120E-002
   3.0488285093077730E-002  -7.8877598060935750E-003   5.6894375686795340E-002
   2.7236915429119352E-002  -7.2664493434828892E-003   5.4651645397834264E-002
   2.3985545765160952E-002  -6.6996848962647959E-003   5.2606037410012491E-002
   2.0734176101202557E-002  -6.1874664644393715E-003   5.0757551723329616E-002
   1.7482806437244203E-002  -5.7297940480063314E-003   4.9106188337786683E-002
   2.6380284463526998E-002  -6.6992449799734843E-003   5.9684599390406851E-002
   2.3396068242557355E-002  -6.1537061846257679E-003   5.7219650685812723E-002
   2.0411852021587698E-002  -5.6638734392240736E-003   5.5091886566057083E-002
   1.7427635800618041E-002  -5.2297467437683008E-003   5.3301307031139174E-002
   1.4443419579648356E-002  -4.8513260982585571E-003   5.1847912081059655E-002
   2.2035160309163318E-002  -5.5107301538533660E-003   6.2399631444032135E-002
   1.9458159814881238E-002  -5.0409630257685217E-003   5.9711304289251886E-002
   1.6881159320599162E-002  -4.6280619821833721E-003   5.7500224003008707E-002
   1.4304158826317102E-002  -4.2720270230971451E-003   5.5766390585302264E-002
   1.1727158332035057E-002  -3.9728581485107273E-003   5.4509804036133147E-002
   1.7452912629986564E-002  -4.3222153277331921E-003   6.5039471847671393E-002
   1.5423190146090948E-002  -3.9282198669112756E-003   6.2126606208151192E-002
   1.3393467662195339E-002  -3.5922505251423514E-003   5.9831049720867141E-002
   1.1363745178299741E-002  -3.3143073024261040E-003   5.8152802385818894E-002
   9.3340226944040872E-003  -3.0943901987627864E-003   5.7091864203006493E-002
   2.6633541182599536E-002   0.0000000000000000        2.9466966736834389E-002
   2.7234167685897710E-002  -5.8486872742086020E-004   3.4944638563275808E-002
   2.7834794189195881E-002  -1.3183822975766542E-003   4.0115508686877945E-002
   2.8435420692494055E-002  -2.2005407104673889E-003   4.4979577107640785E-002
   2.9036047195792225E-002  -3.2313439660930591E-003   4.9536843825564350E-002
   2.0115255171074480E-002   0.0000000000000000        2.9020238718814033E-002
   2.0448241240816973E-002  -4.3865154594937422E-004   3.4313608055958483E-002
   2.0781227310559466E-002  -9.8878672382285426E-004   3.9378498228830848E-002
   2.1114213380301960E-002  -1.6504055336204445E-003   4.4214909237431141E-002
   2.1447199450044453E-002  -2.4235079753421335E-003   4.8822841081759376E-002
   1.3503569638298362E-002   0.0000000000000000        2.8701147276859743E-002
   1.3647237813052392E-002  -2.9243436447789085E-004   3.3847375335518057E-002
   1.3790905987806424E-002  -6.5919115006905435E-004   3.8843446768471498E-002
   1.3934574162560455E-002  -1.1002703567734940E-003   4.3689361575720079E-002
   1.4078242337314483E-002  -1.6156719845912037E-003   4.8385119757263832E-002
   6.7984845842711814E-003   0.0000000000000000        2.8509692410971524E-002
   6.8311574026039650E-003  -1.4621718300640660E-004   3.3545940401954508E-002
   6.8638302209367485E-003  -3.2959557631525617E-004   3.8510354305799854E-002
   6.8965030392695338E-003  -5.5013517992653959E-004   4.3402934122507571E-002
   6.9291758576023174E-003  -8.0783599384028114E-004   4.8223679852077636E-002
   8.9929383384479422E-012   0.0000000000000000        2.8445874121149375E-002
   9.4716907927949734E-012  -1.5349214954607504E-012   3.3409303255267878E-002
   9.9504449818654805E-012  -2.5614545207108819E-012   3.8379220840815964E-002
   1.0429197869893381E-011  -3.0795990757503944E-012   4.3355626877793631E-002
   1.0907951625283019E-011  -3.0893508237705980E-012   4.8338521366200871E-002
   2.9036047195792225E-002  -3.2313439660930591E-003   4.9536843825564350E-002
   2.9109531537069647E-002  -4.2506337173269836E-003   5.1594490635616039E-002
   2.9183015878347082E-002  -5.0982516170424985E-003   5.3748797945781947E-002
   2.9256500219624514E-002  -5.7741976652395631E-003   5.5999765756062102E-002
   2.9329984560901932E-002  -6.2784718619182320E-003   5.8347394066456428E-002
   2.1447199450044453E-002  -2.4235079753421335E-003   4.8822841081759376E-002
   2.1588586395138588E-002  -3.1879752887090246E-003   5.1221833498607441E-002
   2.1729973340232734E-002  -3.8236887134422038E-003   5.3659970622974701E-002
   2.1871360285326869E-002  -4.3306482495416706E-003   5.6137252454861154E-002
   2.2012747230421015E-002  -4.7088538970074464E-003   5.8653678994266836E-002
   1.4078242337314483E-002  -1.6156719845912037E-003   4.8385119757263832E-002
   1.4230016093630327E-002  -2.1253168600910582E-003   5.1082539818023534E-002
   1.4381789849946170E-002  -2.5491258098419151E-003   5.3761588793707418E-002
   1.4533563606262010E-002  -2.8870988338437747E-003   5.6422266684315499E-002
   1.4685337362577851E-002  -3.1392359320966505E-003   5.9064573489847810E-002
   6.9291758576023174E-003  -8.0783599384028114E-004   4.8223679852077636E-002
   7.0338206325448512E-003  -1.0626584314730886E-003   5.1176609593864282E-002
   7.1384654074873877E-003  -1.2745629062416372E-003   5.4053652457980092E-002
   7.2431101824299224E-003  -1.4435494181458805E-003   5.6854808444425114E-002
   7.3477549573724606E-003  -1.5696179671858667E-003   5.9580077553199329E-002
   1.0907951625283019E-011  -3.0893508237705980E-012   4.8338521366200871E-002
   1.1882171028348987E-011  -2.8551388683850654E-012   5.1504042826129727E-002
   1.2856389564053217E-011  -2.6413495956417732E-012   5.4536161615792750E-002
   1.3830609834480923E-011  -2.4479768797984469E-012   5.7434877735189967E-002
   1.4804827502823414E-011  -2.2750551442740630E-012   6.0200191184321350E-002
   2.9329984560901932E-002  -6.2784718619182320E-003   5.8347394066456428E-002
   2.8981871117746770E-002  -6.6651455310073986E-003   5.9119828506258555E-002
   2.8633757674591604E-002  -6.9882899964359129E-003   5.9930820621339961E-002
   2.8285644231436438E-002  -7.2479052582038322E-003   6.0780370411700688E-002
   2.7937530788281269E-002  -7.4439913163111271E-003   6.1668477877340644E-002
   2.2012747230421015E-002  -4.7088538970074464E-003   5.8653678994266836E-002
   2.1715309133874504E-002  -4.9988591486439110E-003   5.9483646621378894E-002
   2.1417871037328007E-002  -5.2412174972555053E-003   6.0376407266428962E-002
   2.1120432940781496E-002  -5.4359289428422171E-003   6.1331960929417027E-002
   2.0822994844234992E-002  -5.5829934854040864E-003   6.2350307610343221E-002
   1.4685337362577851E-002  -3.1392359320966505E-003   5.9064573489847810E-002
   1.4462809955298772E-002  -3.3325727662804668E-003   5.9936192003634023E-002
   1.4240282548019692E-002  -3.4941449980751263E-003   6.0894838878016985E-002
   1.4017755140740606E-002  -3.6239526274806158E-003   6.1940514112996781E-002
   1.3795227733461526E-002  -3.7219956544969623E-003   6.3073217708573381E-002
   7.3477549573724606E-003  -1.5696179671858667E-003   5.9580077553199329E-002
   7.2243735820195516E-003  -1.6662863839170010E-003   6.0477464653023935E-002
   7.1009922066666512E-003  -1.7470724988947052E-003   6.1486115456104100E-002
   6.9776108313137509E-003  -1.8119763121190006E-003   6.2606029962439871E-002
   6.8542294559608419E-003  -1.8609978235898800E-003   6.3837208172031160E-002
   1.4804827502823414E-011  -2.2750551442740630E-012   6.0200191184321350E-002
   1.4036861950561530E-011  -1.5535385478049335E-012   6.1107464569548645E-002
   1.3268894663576170E-011   2.8567079257690864E-013   6.2150237000690299E-002
   1.2500931713399499E-011   3.2426032345322930E-012   6.3328508477746237E-002
   1.1732961824328925E-011   7.3172023995482505E-012   6.4642279000716507E-002
   2.7937530788281269E-002  -7.4439913163111271E-003   6.1668477877340644E-002
   2.7217117227128870E-002  -7.5631330438120023E-003   6.1344064208193494E-002
   2.6496703665976475E-002  -7.5919153137605569E-003   6.1231676958898973E-002
   2.5776290104824080E-002  -7.5303381261568412E-003   6.1331316129457157E-002
   2.5055876543671682E-002  -7.3784014810009124E-003   6.1642981719868095E-002
   2.0822994844234992E-002  -5.5829934854040864E-003   6.2350307610343221E-002
   2.0306626945811469E-002  -5.6723497795742039E-003   6.2183746543000337E-002
   1.9790259047387935E-002  -5.6939364799859504E-003   6.2213250381262505E-002
   1.9273891148964412E-002  -5.6477535866392495E-003   6.2438819125129684E-002
   1.8757523250540878E-002  -5.5338010995341080E-003   6.2860452774601921E-002
   1.3795227733461526E-002  -3.7219956544969623E-003   6.3073217708573381E-002
   1.3466943983519195E-002  -3.7815665153364229E-003   6.3041919379240974E-002
   1.3138660233576859E-002  -3.7959576462113405E-003   6.3190724441265930E-002
   1.2810376483634528E-002  -3.7651690471216291E-003   6.3519632894648251E-002
   1.2482092733692197E-002  -3.6892007180672898E-003   6.4028644739387963E-002
   6.8542294559608419E-003  -1.8609978235898800E-003   6.3837208172031160E-002
   6.6980683402520520E-003  -1.8907832510986888E-003   6.3918582716915362E-002
   6.5419072245432577E-003  -1.8979788124366907E-003   6.4164099138909317E-002
   6.3857461088344669E-003  -1.8825845076040370E-003   6.4573757438012983E-002
   6.2295849931256735E-003  -1.8446003366004923E-003   6.5147557614226317E-002
   1.1732961824328925E-011   7.3172023995482505E-012   6.4642279000716507E-002
   1.6010037046099157E-011   1.3139080101698397E-011   6.4813736556023543E-002
   2.0287117472039817E-011   2.1337896727313677E-011   6.5133374474192623E-002
   2.4564192693810050E-011   3.1913629724988901E-011   6.5601192755223775E-002
   2.8841273119750710E-011   4.4866305115576210E-011   6.6217191399116887E-002
   2.5055876543671682E-002  -7.3784014810009124E-003   6.1642981719868095E-002
   2.4331243831654921E-002  -7.1766652383125906E-003   6.1455118003916370E-002
   2.3606611119638174E-002  -6.9656892581120081E-003   6.1433568060973567E-002
   2.2881978407621413E-002  -6.7454735403990138E-003   6.1578331891039458E-002
   2.2157345695604652E-002  -6.5160180851738247E-003   6.1889409494114089E-002
   1.8757523250540878E-002  -5.5338010995341080E-003   6.2860452774601921E-002
   1.8202915411859089E-002  -5.3824989134527157E-003   6.2707307706111742E-002
   1.7648307573177303E-002  -5.2242669231774286E-003   6.2727898611282709E-002
   1.7093699734495524E-002  -5.0591051287080593E-003   6.2922225490114836E-002
   1.6539091895813735E-002  -4.8870135300447815E-003   6.3290288342607998E-002
   1.2482092733692197E-002  -3.6892007180672898E-003   6.4028644739387963E-002
   1.2104931968997755E-002  -3.5883325885928824E-003   6.3907908385040943E-002
   1.1727771204303305E-002  -3.4828445882427624E-003   6.3968330205007390E-002
   1.1350610439608859E-002  -3.3727367170171040E-003   6.4209910199287304E-002
   1.0973449674914412E-002  -3.2580089749157104E-003   6.4632648367880852E-002
   6.2295849931256735E-003  -1.8446003366004923E-003   6.5147557614226317E-002
   6.0372935030709209E-003  -1.7941662637330005E-003   6.5056920040704014E-002
   5.8450020130161708E-003  -1.7414222533081673E-003   6.5154862842147609E-002
   5.6527105229614242E-003  -1.6863683053261213E-003   6.5441386018557118E-002
   5.4604190329066681E-003  -1.6290044197866532E-003   6.5916489569932429E-002
   2.8841273119750710E-011   4.4866305115576210E-011   6.6217191399116887E-002
   1.4078585519605724E-011   6.1126825823265563E-011   6.6154342673101024E-002
  -6.8410034581578572E-013   8.1626504166987246E-011   6.6287496522703507E-002
  -1.5446787945960772E-011   1.0636488044502013E-010   6.6616652947924127E-002
  -3.0209473811382281E-011   1.3534240395074448E-010   6.7141811948763119E-002
   2.2157345695604652E-002  -6.5160180851738247E-003   6.1889409494114089E-002
   2.1038516468184928E-002  -6.2837135807907452E-003   6.0905562462960194E-002
   1.9919687240765191E-002  -6.0549507156040239E-003   6.0230885378629223E-002
   1.8800858013345467E-002  -5.8297294896140495E-003   5.9865378241120981E-002
   1.7682028785925730E-002  -5.6080499028204889E-003   5.9809041050435385E-002
   1.6539091895813735E-002  -4.8870135300447815E-003   6.3290288342607998E-002
   1.5722066954900631E-002  -4.7127851459312642E-003   6.2348588293784590E-002
   1.4905042013987534E-002  -4.5412129951109270E-003   6.1701326871151638E-002
   1.4088017073074430E-002  -4.3722970775841238E-003   6.1348504074709036E-002
   1.3270992132161333E-002  -4.2060373933508477E-003   6.1290119904457097E-002
   1.0973449674914412E-002  -3.2580089749157104E-003   6.4632648367880852E-002
   1.0443497699875584E-002  -3.1418567110716583E-003   6.3733980707291013E-002
   9.9135457248367559E-003  -3.0274752746178857E-003   6.3115020352259230E-002
   9.3835937497979312E-003  -2.9148646655543092E-003   6.2775767302785460E-002
   8.8536417747590995E-003  -2.8040248838810955E-003   6.2716221558869981E-002
   5.4604190329066681E-003  -1.6290044197866532E-003   6.5916489569932429E-002
   5.2028087031097542E-003  -1.5709282762121149E-003   6.5061739703479365E-002
   4.9451983733128473E-003  -1.5137375541248999E-003   6.4471965821951985E-002
   4.6875880435159421E-003  -1.4574322535245224E-003   6.4147167925350301E-002
   4.4299777137190265E-003  -1.4020123744115376E-003   6.4087346013674384E-002
  -3.0209473811382281E-011   1.3534240395074448E-010   6.7141811948763119E-002
  -3.5396824360489632E-011   1.5864745628313415E-010   6.6331865282349828E-002
  -4.0584178379043934E-011   1.6636822475213364E-010   6.5772163280229945E-002
  -4.5771527193427808E-011   1.5850539630823945E-010   6.5462705942403304E-002
  -5.0958882946705586E-011   1.3505824236759167E-010   6.5403493268870183E-002
   1.7682028785925730E-002  -5.6080499028204889E-003   5.9809041050435385E-002
   1.7624749746940935E-002  -5.3627536664810349E-003   6.1226497364608612E-002
   1.7567470707956140E-002  -5.0666824918534498E-003   6.2570721268872448E-002
   1.7510191668971366E-002  -4.7198363789374871E-003   6.3841712763226574E-002
   1.7452912629986564E-002  -4.3222153277331921E-003   6.5039471847671393E-002
   1.3270992132161333E-002  -4.2060373933508477E-003   6.1290119904457097E-002
   1.3162368725420481E-002  -4.0220652211526153E-003   6.2767578630901322E-002
   1.3053745318679637E-002  -3.8000118397314986E-003   6.4215581031743046E-002
   1.2945121911938782E-002  -3.5398772490874003E-003   6.5634127106981854E-002
   1.2836498505197941E-002  -3.2416614492202234E-003   6.7023216856618162E-002
   8.8536417747590995E-003  -2.8040248838810955E-003   6.2716221558869981E-002
   8.7374500845689602E-003  -2.6813767758242235E-003   6.4240988968520291E-002
   8.6212583943788279E-003  -2.5333411876095960E-003   6.5780076136874477E-002
   8.5050667041886834E-003  -2.3599181192371452E-003   6.7333483063932803E-002
   8.3888750139985528E-003  -2.1611075707071159E-003   6.8901209749695311E-002
   4.4299777137190265E-003  -1.4020123744115376E-003   6.4087346013674384E-002
   4.3499938243863603E-003  -1.3406883304955680E-003   6.5646728377465158E-002
   4.2700099350537098E-003  -1.2666705354875581E-003   6.7264206584266795E-002
   4.1900260457210506E-003  -1.1799589893870298E-003   6.8939780634079378E-002
   4.1100421563883922E-003  -1.0805536921941333E-003   7.0673450526902715E-002
  -5.0958882946705586E-011   1.3505824236759167E-010   6.5403493268870183E-002
  -5.5127298559387583E-011   1.1483264339418042E-010   6.6984796857736228E-002
  -5.9295710702622628E-011   1.1663434107411774E-010   6.8667972373919917E-002
  -6.3464119376410721E-011   1.4046318969063165E-010   7.0453019817421275E-002
  -6.7632538458539671E-011   1.8631901577137455E-010   7.2339939188240165E-002
   1.7452912629986564E-002  -4.3222153277331921E-003   6.5039471847671393E-002
   1.5423190146090948E-002  -3.9282198669112756E-003   6.2126606208151192E-002
   1.3393467662195339E-002  -3.5922505251423514E-003   5.9831049720867141E-002
   1.1363745178299741E-002  -3.3143073024261040E-003   5.8152802385818894E-002
   9.3340226944040872E-003  -3.0943901987627864E-003   5.7091864203006493E-002
   1.2836498505197941E-002  -3.2416614492202234E-003   6.7023216856618162E-002
   1.1396615550165377E-002  -2.9461648742797886E-003   6.4200899338250017E-002
   9.9567325951328139E-003  -2.6941879584155420E-003   6.1940951725372007E-002
   8.5168496401002367E-003  -2.4857307016275428E-003   6.0243374017984241E-002
   7.0769666850676871E-003  -2.3207931039156415E-003   5.9108166216086389E-002
   8.3888750139985528E-003  -2.1611075707071159E-003   6.8901209749695311E-002
   7.4838923410833445E-003  -1.9641098816480795E-003   6.6183946812455582E-002
   6.5789096681681519E-003  -1.7961253916886702E-003   6.3974114533960347E-002
   5.6739269952529444E-003  -1.6571541008288410E-003   6.2271712914209701E-002
   4.7689443223377509E-003  -1.5471960090686077E-003   6.1076741953203451E-002
   4.1100421563883922E-003  -1.0805536921941333E-003   7.0673450526902715E-002
   3.6850205188448714E-003  -9.8205488901642601E-004   6.8075748630767971E-002
   3.2599988813013544E-003  -8.9806282496177406E-004   6.5930538146632134E-002
   2.8349772437578375E-003  -8.2857750003004303E-004   6.4237819074495384E-002
   2.4099556062143236E-003  -7.7359891422146276E-004   6.2997591414357096E-002
  -6.7632538458539671E-011   1.8631901577137455E-010   7.2339939188240165E-002
   8.3449937932078555E-011   1.0361511648682153E-010   6.9876304793187238E-002
   2.3453242473103764E-010  -2.5823497507015958E-010   6.7810222563387507E-002
   3.8561492020361410E-010  -8.9923151910809018E-010   6.6141692498840873E-002
   5.3669739485950885E-010  -1.8193744288907965E-009   6.4870714599547519E-002
   8.9929383384479422E-012   0.0000000000000000        2.8445874121149375E-002
   9.4716907927949734E-012  -1.5349214954607504E-012   3.3409303255267878E-002
   9.9504449818654805E-012  -2.5614545207108819E-012   3.8379220840815964E-002
   1.0429197869893381E-011  -3.0795990757503944E-012   4.3355626877793631E-002
   1.0907951625283019E-011  -3.0893508237705980E-012   4.8338521366200871E-002
  -6.7984845665731049E-003   0.0000000000000000        2.8509692407569426E-002
  -6.8311573839749586E-003   1.4621718023500631E-004   3.3545940398913197E-002
  -6.8638302013768124E-003   3.2959557168160160E-004   3.8510354303066180E-002
  -6.8965030187786653E-003   5.5013517433978240E-004   4.3402934120028380E-002
  -6.9291758361805181E-003   8.0783598820955045E-004   4.8223679849799778E-002
  -1.3503569621463686E-002   0.0000000000000000        2.8701147270407797E-002
  -1.3647237795366515E-002   2.9243436200493585E-004   3.3847375329680032E-002
  -1.3790905969269341E-002   6.5919114592465772E-004   3.8843446763141110E-002
  -1.3934574143172167E-002   1.1002703517591673E-003   4.3689361570791042E-002
  -1.4078242317074996E-002   1.6156719795084582E-003   4.8385119752629810E-002
  -2.0115255155678805E-002   0.0000000000000000        2.9020238709664511E-002
  -2.0448241224702977E-002   4.3865154377486452E-004   3.4313608047568417E-002
  -2.0781227293727146E-002   9.8878672016771210E-004   3.9378498221040795E-002
  -2.1114213362751315E-002   1.6504055291785454E-003   4.4214909230081631E-002
  -2.1447199431775487E-002   2.4235079708073608E-003   4.8822841074690954E-002
  -2.6633541169218466E-002   0.0000000000000000        2.9466966725339546E-002
  -2.7234167671984347E-002   5.8486872554479319E-004   3.4944638552578310E-002
  -2.7834794174750228E-002   1.3183822944107700E-003   4.0115508676765180E-002
  -2.8435420677516105E-002   2.2005407065979303E-003   4.4979577097900146E-002
  -2.9036047180281986E-002   3.2313439621062647E-003   4.9536843815983236E-002
   1.0907951625283019E-011  -3.0893508237705980E-012   4.8338521366200871E-002
   1.1882171028348987E-011  -2.8551388683850654E-012   5.1504042826129727E-002
   1.2856389564053217E-011  -2.6413495956417732E-012   5.4536161615792750E-002
   1.3830609834480923E-011  -2.4479768797984469E-012   5.7434877735189967E-002
   1.4804827502823414E-011  -2.2750551442740630E-012   6.0200191184321350E-002
  -6.9291758361805181E-003   8.0783598820955045E-004   4.8223679849799778E-002
  -7.0338206092140114E-003   1.0626584263408552E-003   5.1176609590826240E-002
  -7.1384653822475115E-003   1.2745629017836134E-003   5.4053652454103089E-002
  -7.2431101552810073E-003   1.4435494145378456E-003   5.6854808439630332E-002
  -7.3477549283145031E-003   1.5696179646035313E-003   5.9580077547407961E-002
  -1.4078242317074996E-002   1.6156719795084582E-003   4.8385119752629810E-002
  -1.4230016071599997E-002   2.1253168555368279E-003   5.1082539812085770E-002
  -1.4381789826125002E-002   2.5491258062085623E-003   5.3761588786308344E-002
  -1.4533563580650001E-002   2.8870988315236614E-003   5.6422266675297532E-002
  -1.4685337335175002E-002   3.1392359314821386E-003   5.9064573479053292E-002
  -2.1447199431775487E-002   2.4235079708073608E-003   4.8822841074690954E-002
  -2.1588586375275783E-002   3.1879752847328181E-003   5.1221833489908337E-002
  -2.1729973318776082E-002   3.8236887106335117E-003   5.3659970612408528E-002
  -2.1871360262276374E-002   4.3306482485094980E-003   5.6137252442191539E-002
  -2.2012747205776676E-002   4.7088538983607355E-003   5.8653678979257370E-002
  -2.9036047180281986E-002   3.2313439621062647E-003   4.9536843815983236E-002
  -2.9109531520241368E-002   4.2506337139287921E-003   5.1594490624293929E-002
  -2.9183015860200747E-002   5.0982516150584823E-003   5.3748797932403648E-002
  -2.9256500200160136E-002   5.7741976654953012E-003   5.5999765740312381E-002
  -2.9329984540119518E-002   6.2784718652393393E-003   5.8347394048020147E-002
   1.4804827502823414E-011  -2.2750551442740630E-012   6.0200191184321350E-002
   1.4036861950561530E-011  -1.5535385478049335E-012   6.1107464569548645E-002
   1.3268894663576170E-011   2.8567079257690864E-013   6.2150237000690299E-002
   1.2500931713399499E-011   3.2426032345322930E-012   6.3328508477746237E-002
   1.1732961824328925E-011   7.3172023995482505E-012   6.4642279000716507E-002
  -7.3477549283145031E-003   1.5696179646035313E-003   5.9580077547407961E-002
  -7.2243735547966462E-003   1.6662863833492546E-003   6.0477464647848742E-002
  -7.1009921812787901E-003   1.7470725021435304E-003   6.1486115450946857E-002
  -6.9776108077609297E-003   1.8119763209863918E-003   6.2606029956702336E-002
  -6.8542294342430719E-003   1.8609978398778093E-003   6.3837208165115095E-002
  -1.4685337335175002E-002   3.1392359314821386E-003   5.9064573479053292E-002
  -1.4462809930628307E-002   3.3325727682520217E-003   5.9936191993638428E-002
  -1.4240282526081605E-002   3.4941450040013641E-003   6.0894838867623945E-002
  -1.4017755121534907E-002   3.6239526387301670E-003   6.1940514101009800E-002
  -1.3795227716988205E-002   3.7219956724384440E-003   6.3073217693795980E-002
  -2.2012747205776676E-002   4.7088538983607355E-003   5.8653678979257370E-002
  -2.1715309113458117E-002   4.9988591531547810E-003   5.9483646606917746E-002
  -2.1417871021139553E-002   5.2412175058591760E-003   6.0376407250721499E-002
  -2.1120432928820990E-002   5.4359289564739352E-003   6.1331960910668636E-002
  -2.0822994836502431E-002   5.5829935049990231E-003   6.2350307586759142E-002
  -2.9329984540119518E-002   6.2784718652393393E-003   5.8347394048020147E-002
  -2.8981871103286077E-002   6.6651455380575715E-003   5.9119828487686668E-002
  -2.8633757666452632E-002   6.9882900077170521E-003   5.9930820600239562E-002
  -2.8285644229619197E-002   7.2479052742177291E-003   6.0780370385678843E-002
  -2.7937530792785745E-002   7.4439913375596856E-003   6.1668477844004532E-002
   1.1732961824328925E-011   7.3172023995482505E-012   6.4642279000716507E-002
   1.6010037046099157E-011   1.3139080101698397E-011   6.4813736556023543E-002
   2.0287117472039817E-011   2.1337896727313677E-011   6.5133374474192623E-002
   2.4564192693810050E-011   3.1913629724988901E-011   6.5601192755223775E-002
   2.8841273119750710E-011   4.4866305115576210E-011   6.6217191399116887E-002
  -6.8542294342430719E-003   1.8609978398778093E-003   6.3837208165115095E-002
  -6.6980683095622471E-003   1.8907832780061598E-003   6.3918582711595839E-002
  -6.5419071848814205E-003   1.8979788545597787E-003   6.4164099136022015E-002
  -6.3857460602005827E-003   1.8825845695387700E-003   6.4573757438393692E-002
  -6.2295849355197622E-003   1.8446004229429047E-003   6.5147557618710827E-002
  -1.3795227716988205E-002   3.7219956724384440E-003   6.3073217693795980E-002
  -1.3466943956820200E-002   3.7815665428732222E-003   6.3041919367498797E-002
  -1.3138660196652201E-002   3.7959576877817196E-003   6.3190724434230544E-002
  -1.2810376436484201E-002   3.7651691071638139E-003   6.3519632893991082E-002
  -1.2482092676316201E-002   3.6892008010195737E-003   6.4028644746780633E-002
  -2.0822994836502431E-002   5.5829935049990231E-003   6.2350307586759142E-002
  -2.0306626925763838E-002   5.6723498077402793E-003   6.2183746523732389E-002
  -1.9790259015025242E-002   5.6939365210036032E-003   6.2213250368817953E-002
  -1.9273891104286647E-002   5.6477536447889064E-003   6.2438819122015911E-002
  -1.8757523193548058E-002   5.5338011790962496E-003   6.2860452783326012E-002
  -2.7937530792785745E-002   7.4439913375596856E-003   6.1668477844004532E-002
  -2.7217117216393145E-002   7.5631330726073434E-003   6.1344064180296615E-002
  -2.6496703640000528E-002   7.5919153542255216E-003   6.1231676939784430E-002
  -2.5776290063607914E-002   7.5303381824140207E-003   6.1331316122467984E-002
  -2.5055876487215318E-002   7.3784015571728701E-003   6.1642981728347257E-002
   2.8841273119750710E-011   4.4866305115576210E-011   6.6217191399116887E-002
   1.4078585519605724E-011   6.1126825823265563E-011   6.6154342673101024E-002
  -6.8410034581578572E-013   8.1626504166987246E-011   6.6287496522703507E-002
  -1.5446787945960772E-011   1.0636488044502013E-010   6.6616652947924127E-002
  -3.0209473811382281E-011   1.3534240395074448E-010   6.7141811948763119E-002
  -6.2295849355197622E-003   1.8446004229429047E-003   6.5147557618710827E-002
  -6.0372934742889848E-003   1.7941663808287017E-003   6.5056920054023179E-002
  -5.8450020130582023E-003   1.7414224092522357E-003   6.5154862865704308E-002
  -5.6527105518274232E-003   1.6863685082135899E-003   6.5441386053754158E-002
  -5.4604190905966424E-003   1.6290046777126810E-003   6.5916489618172508E-002
  -1.2482092676316201E-002   3.6892008010195737E-003   6.4028644746780633E-002
  -1.2104931938341518E-002   3.5883327005304944E-003   6.3907908409719993E-002
  -1.1727771200366836E-002   3.4828447368780539E-003   6.3968330249778535E-002
  -1.1350610462392146E-002   3.3727369100622169E-003   6.4209910266956174E-002
  -1.0973449724417465E-002   3.2580092200830690E-003   6.4632648461252967E-002
  -1.8757523193548058E-002   5.5338011790962496E-003   6.2860452783326012E-002
  -1.8202915378079023E-002   5.3824990202322870E-003   6.2707307740191343E-002
  -1.7648307562609988E-002   5.2242670645039121E-003   6.2727898674926175E-002
  -1.7093699747140954E-002   5.0591053119109133E-003   6.2922225587530675E-002
  -1.6539091931671916E-002   4.8870137624534016E-003   6.3290288478004636E-002
  -2.5055876487215318E-002   7.3784015571728701E-003   6.1642981728347257E-002
  -2.4331243793501493E-002   7.1766653399341629E-003   6.1455118045437296E-002
  -2.3606611099787678E-002   6.9656893921296245E-003   6.1433568141147268E-002
  -2.2881978406073859E-002   6.7454737137595724E-003   6.1578332015477265E-002
  -2.2157345712360034E-002   6.5160183048237341E-003   6.1889409668427320E-002
  -3.0209473811382281E-011   1.3534240395074448E-010   6.7141811948763119E-002
  -3.5396824360489632E-011   1.5864745628313415E-010   6.6331865282349828E-002
  -4.0584178379043934E-011   1.6636822475213364E-010   6.5772163280229945E-002
  -4.5771527193427808E-011   1.5850539630823945E-010   6.5462705942403304E-002
  -5.0958882946705586E-011   1.3505824236759167E-010   6.5403493268870183E-002
  -5.4604190905966424E-003   1.6290046777126810E-003   6.5916489618172508E-002
  -5.2028087720821037E-003   1.5709285795312694E-003   6.5061739726992460E-002
  -4.9451984535675633E-003   1.5137378754505673E-003   6.4471965818922880E-002
  -4.6875881350530264E-003   1.4574325654705140E-003   6.4147167893963714E-002
  -4.4299778165384912E-003   1.4020126495915552E-003   6.4087345952114794E-002
  -1.0973449724417465E-002   3.2580092200830690E-003   6.4632648461252967E-002
  -1.0443497763384010E-002   3.1418570004150964E-003   6.3733980754991065E-002
  -9.9135458023505551E-003   3.0274755845326323E-003   6.3115020350656567E-002
  -9.3835938413171036E-003   2.9148649724359092E-003   6.2775767248249459E-002
  -8.8536418802836383E-003   2.8040251641247849E-003   6.2716221447769893E-002
  -1.6539091931671916E-002   4.8870137624534016E-003   6.3290288478004636E-002
  -1.5722067009302534E-002   4.7127854212990275E-003   6.2348588366345506E-002
  -1.4905042086933145E-002   4.5412132936148084E-003   6.1701326875430978E-002
  -1.4088017164563756E-002   4.3722973794013045E-003   6.1348504005260950E-002
  -1.3270992242194376E-002   4.2060376786580284E-003   6.1290119755835211E-002
  -2.2157345712360034E-002   6.5160183048237341E-003   6.1889409668427320E-002
  -2.1038516509837686E-002   6.2837138421827365E-003   6.0905562561056004E-002
  -1.9919687307315345E-002   6.0549510026970260E-003   6.0230885393246197E-002
  -1.8800858104793001E-002   5.8297297863664464E-003   5.9865378164997832E-002
  -1.7682028902270649E-002   5.6080501931913274E-003   5.9809040876311004E-002
  -5.0958882946705586E-011   1.3505824236759167E-010   6.5403493268870183E-002
  -5.5127298559387583E-011   1.1483264339418042E-010   6.6984796857736228E-002
  -5.9295710702622628E-011   1.1663434107411774E-010   6.8667972373919917E-002
  -6.3464119376410721E-011   1.4046318969063165E-010   7.0453019817421275E-002
  -6.7632538458539671E-011   1.8631901577137455E-010   7.2339939188240165E-002
  -4.4299778165384912E-003   1.4020126495915552E-003   6.4087345952114794E-002
  -4.3499939321853132E-003   1.3406885667683333E-003   6.5646728351038269E-002
  -4.2700100478321474E-003   1.2666707559557400E-003   6.7264206599687237E-002
  -4.1900261634789790E-003   1.1799592171542958E-003   6.8939780698061864E-002
  -4.1100422791258036E-003   1.0805539503635497E-003   7.0673450646161762E-002
  -8.8536418802836383E-003   2.8040251641247849E-003   6.2716221447769893E-002
  -8.7374501850009789E-003   2.6813770187037733E-003   6.4240988906734409E-002
  -8.6212584897183194E-003   2.5333413952773193E-003   6.5780076137832391E-002
  -8.5050667944356513E-003   2.3599182938454054E-003   6.7333483141063799E-002
  -8.3888750991529867E-003   2.1611077144080559E-003   6.8901209916428688E-002
  -1.3270992242194376E-002   4.2060376786580284E-003   6.1290119755835211E-002
  -1.3162368813574306E-002   4.0220654706392273E-003   6.2767578524824563E-002
  -1.3053745384954239E-002   3.8000120345987529E-003   6.4215580988355225E-002
  -1.2945121956334165E-002   3.5398773705366243E-003   6.5634127146427385E-002
  -1.2836498527714102E-002   3.2416614784525760E-003   6.7023216999040777E-002
  -1.7682028902270649E-002   5.6080501931913274E-003   5.9809040876311004E-002
  -1.7624749817905266E-002   5.3627539225748755E-003   6.1226497205308927E-002
  -1.7567470733539880E-002   5.0666826739201448E-003   6.2570721151255948E-002
  -1.7510191649174493E-002   4.7198364472277772E-003   6.3841712714152440E-002
  -1.7452912564809110E-002   4.3222152424971516E-003   6.5039471893998002E-002
  -6.7632538458539671E-011   1.8631901577137455E-010   7.2339939188240165E-002
   8.3449937932078555E-011   1.0361511648682153E-010   6.9876304793187238E-002
   2.3453242473103764E-010  -2.5823497507015958E-010   6.7810222563387507E-002
   3.8561492020361410E-010  -8.9923151910809018E-010   6.6141692498840873E-002
   5.3669739485950885E-010  -1.8193744288907965E-009   6.4870714599547519E-002
  -4.1100422791258036E-003   1.0805539503635497E-003   7.0673450646161762E-002
  -3.6850203401506409E-003   9.8205503362841506E-004   6.8075748339691711E-002
  -3.2599984011754766E-003   8.9806254499431859E-004   6.5930537443753739E-002
  -2.8349764622002957E-003   8.2857648446070867E-004   6.4237817958348070E-002
  -2.4099545232251357E-003   7.7359685202793571E-004   6.2997589883474481E-002
  -8.3888750991529867E-003   2.1611077144080559E-003   6.8901209916428688E-002
  -7.4838921270060877E-003   1.9641099636418247E-003   6.6183946405788466E-002
  -6.5789091548591949E-003   1.7961253482234943E-003   6.3974113550959416E-002
  -5.6739261827123046E-003   1.6571538681529347E-003   6.2271711351941664E-002
  -4.7689432105654031E-003   1.5471955234301893E-003   6.1076739808735125E-002
  -1.2836498527714102E-002   3.2416614784525760E-003   6.7023216999040777E-002
  -1.1396615277116415E-002   2.9461648936552898E-003   6.4200898991477434E-002
  -9.9567320265187380E-003   2.6941881514526179E-003   6.1940950885004412E-002
  -8.5168487759210709E-003   2.4857312518450506E-003   6.0243372679621890E-002
  -7.0769655253233883E-003   2.3207941948324984E-003   5.9108164375329425E-002
  -1.7452912564809110E-002   4.3222152424971516E-003   6.5039471893998002E-002
  -1.5423189790481608E-002   3.9282198236685884E-003   6.2126606096758852E-002
  -1.3393467016154108E-002   3.5922509546819775E-003   5.9831049445888934E-002
  -1.1363744241826597E-002   3.3143086355372810E-003   5.8152801941388402E-002
  -9.3340214674991068E-003   3.0943928662348075E-003   5.7091863583257130E-002
  -2.6633541169218466E-002   0.0000000000000000        2.9466966725339546E-002
  -2.7234167671984347E-002   5.8486872554479319E-004   3.4944638552578310E-002
  -2.7834794174750228E-002   1.3183822944107700E-003   4.0115508676765180E-002
  -2.8435420677516105E-002   2.2005407065979303E-003   4.4979577097900146E-002
  -2.9036047180281986E-002   3.2313439621062647E-003   4.9536843815983236E-002
  -3.3394596553744417E-002   0.0000000000000000        3.0176471487092529E-002
  -3.4237178042374139E-002   9.6013203702461757E-004   3.5266043007934733E-002
  -3.5079759531003861E-002   2.0236017088549529E-003   4.0178506260101145E-002
  -3.5922341019633583E-002   3.1904090154910077E-003   4.4913861243591785E-002
  -3.6764922508263312E-002   4.4605539569327855E-003   4.9472107958406612E-002
  -4.0734590200918429E-002   0.0000000000000000        3.1283893164583063E-002
  -4.1689433241035898E-002   1.3353953485044402E-003   3.5940057170513261E-002
  -4.2644276281153366E-002   2.7288211232991359E-003   4.0548806342143751E-002
  -4.3599119321270835E-002   4.1802773243840904E-003   4.5110140679474553E-002
  -4.4553962361388290E-002   5.6897639517592951E-003   4.9624060182505675E-002
  -4.8653522110740498E-002   0.0000000000000000        3.2789231757811149E-002
  -4.9590933267969602E-002   1.7106586599842629E-003   3.6966681040313865E-002
  -5.0528344425198705E-002   3.4340405377433175E-003   4.1226408922892976E-002
  -5.1465755582427816E-002   5.1701456332771669E-003   4.5568415405548526E-002
  -5.2403166739656927E-002   6.9189739465858073E-003   4.9992700488280452E-002
  -5.7151392283210617E-002   0.0000000000000000        3.4692487266776796E-002
  -5.7941678123175265E-002   2.0859219714640873E-003   3.8345914617336566E-002
  -5.8731963963139913E-002   4.1392599521875018E-003   4.2211314002348843E-002
  -5.9522249803104554E-002   6.1600139421702522E-003   4.6288685421813643E-002
  -6.0312535643069196E-002   8.1481839414123229E-003   5.0578028875730943E-002
  -2.9036047180281986E-002   3.2313439621062647E-003   4.9536843815983236E-002
  -2.9109531520241368E-002   4.2506337139287921E-003   5.1594490624293929E-002
  -2.9183015860200747E-002   5.0982516150584823E-003   5.3748797932403648E-002
  -2.9256500200160136E-002   5.7741976654953012E-003   5.5999765740312381E-002
  -2.9329984540119518E-002   6.2784718652393393E-003   5.8347394048020147E-002
  -3.6764922508263312E-002   4.4605539569327855E-003   4.9472107958406612E-002
  -3.6779934812996920E-002   5.6940602412020123E-003   5.1257258377078597E-002
  -3.6794947117730521E-002   6.7509515763204330E-003   5.3062692366403132E-002
  -3.6809959422464116E-002   7.6312279622880209E-003   5.4888409926380194E-002
  -3.6824971727197717E-002   8.3348893991048445E-003   5.6734411057009826E-002
  -4.4553962361388290E-002   5.6897639517592951E-003   4.9624060182505675E-002
  -4.4586879560042585E-002   7.1374867684752385E-003   5.1131771113080988E-002
  -4.4619796758696886E-002   8.4036515375823968E-003   5.2583388685162359E-002
  -4.4652713957351174E-002   9.4882582590807545E-003   5.3978912898749780E-002
  -4.4685631156005476E-002   1.0391306932970332E-002   5.5318343753843278E-002
  -5.2403166739656927E-002   6.9189739465858073E-003   4.9992700488280452E-002
  -5.2530365761378386E-002   8.5809132957484664E-003   5.1218028832301095E-002
  -5.2657564783099867E-002   1.0056351498844361E-002   5.2310886888681303E-002
  -5.2784763804821347E-002   1.1345288555873452E-002   5.3271274657421118E-002
  -5.2911962826542806E-002   1.2447724466835815E-002   5.4099192138520526E-002
  -6.0312535643069196E-002   8.1481839414123229E-003   5.0578028875730943E-002
  -6.0610393417004312E-002   1.0024339823021689E-002   5.1516031534738951E-002
  -6.0908251190939441E-002   1.1709051460106319E-002   5.2245186976960033E-002
  -6.1206108964874571E-002   1.3202318852666197E-002   5.2765495202394250E-002
  -6.1503966738809694E-002   1.4504142000701326E-002   5.3076956211041582E-002
  -2.9329984540119518E-002   6.2784718652393393E-003   5.8347394048020147E-002
  -2.8981871103286077E-002   6.6651455380575715E-003   5.9119828487686668E-002
  -2.8633757666452632E-002   6.9882900077170521E-003   5.9930820600239562E-002
  -2.8285644229619197E-002   7.2479052742177291E-003   6.0780370385678843E-002
  -2.7937530792785745E-002   7.4439913375596856E-003   6.1668477844004532E-002
  -3.6824971727197717E-002   8.3348893991048445E-003   5.6734411057009826E-002
  -3.6387434187091242E-002   8.8773304143490266E-003   5.7087362136756872E-002
  -3.5949896646984766E-002   9.2739455355989979E-003   5.7580603750163627E-002
  -3.5512359106878284E-002   9.5247347628545434E-003   5.8214135897230006E-002
  -3.5074821566771823E-002   9.6296980961157741E-003   5.8987958577956127E-002
  -4.4685631156005476E-002   1.0391306932970332E-002   5.5318343753843278E-002
  -4.4056936651852681E-002   1.1089515290640570E-002   5.5169514782835299E-002
  -4.3428242147699879E-002   1.1559601063480928E-002   5.5262709206260287E-002
  -4.2799547643547091E-002   1.1801564251491356E-002   5.5597927024118254E-002
  -4.2170853139394282E-002   1.1815404854671890E-002   5.6175168236409188E-002
  -5.2911962826542806E-002   1.2447724466835815E-002   5.4099192138520526E-002
  -5.1990378497570384E-002   1.3301700166932062E-002   5.3366286425921942E-002
  -5.1068794168597977E-002   1.3845256591362853E-002   5.2977136968529646E-002
  -5.0147209839625541E-002   1.4078393740128169E-002   5.2931743766343610E-002
  -4.9225625510653140E-002   1.4001111613227979E-002   5.3230106819363784E-002
  -6.1503966738809694E-002   1.4504142000701326E-002   5.3076956211041582E-002
  -6.0187759724244359E-002   1.5513885043223576E-002   5.1677677066016836E-002
  -5.8871552709679031E-002   1.6130912119244806E-002   5.0723887036971643E-002
  -5.7555345695113724E-002   1.6355223228764988E-002   5.0215586123905975E-002
  -5.6239138680548383E-002   1.6186818371784123E-002   5.0152774326819943E-002
  -2.7937530792785745E-002   7.4439913375596856E-003   6.1668477844004532E-002
  -2.7217117216393145E-002   7.5631330726073434E-003   6.1344064180296615E-002
  -2.6496703640000528E-002   7.5919153542255216E-003   6.1231676939784430E-002
  -2.5776290063607914E-002   7.5303381824140207E-003   6.1331316122467984E-002
  -2.5055876487215318E-002   7.3784015571728701E-003   6.1642981728347257E-002
  -3.5074821566771823E-002   9.6296980961157741E-003   5.8987958577956127E-002
  -3.4145749292196576E-002   9.6299755519002675E-003   5.8624483733404349E-002
  -3.3216677017621335E-002   9.5667071467255699E-003   5.8466299862022120E-002
  -3.2287604743046081E-002   9.4398928805918929E-003   5.8513406963809383E-002
  -3.1358532468470868E-002   9.2495327534989902E-003   5.8765805038766300E-002
  -4.2170853139394282E-002   1.1815404854671890E-002   5.6175168236409188E-002
  -4.1039857616662581E-002   1.1696818031193146E-002   5.5799445803484032E-002
  -3.9908862093930887E-002   1.1541498939225753E-002   5.5622278893702221E-002
  -3.8777866571199207E-002   1.1349447578769722E-002   5.5643667507063829E-002
  -3.7646871048467478E-002   1.1120663949825041E-002   5.5863611643568740E-002
  -4.9225625510653140E-002   1.4001111613227979E-002   5.3230106819363784E-002
  -4.7899442189791169E-002   1.3763660510486048E-002   5.2868950390535768E-002
  -4.6573258868929220E-002   1.3516290731725856E-002   5.2699614034824892E-002
  -4.5247075548067235E-002   1.3259002276947601E-002   5.2722097752231190E-002
  -4.3920892227205299E-002   1.2991795146151112E-002   5.2936401542754703E-002
  -5.6239138680548383E-002   1.6186818371784123E-002   5.0152774326819943E-002
  -5.4724503011582340E-002   1.5830502989778936E-002   4.9832997494559439E-002
  -5.3209867342616290E-002   1.5491082524225985E-002   4.9698305285390015E-002
  -5.1695231673650248E-002   1.5168556975125411E-002   4.9748697699311548E-002
  -5.0180596004684205E-002   1.4862926342477184E-002   4.9984174736324022E-002
  -2.5055876487215318E-002   7.3784015571728701E-003   6.1642981728347257E-002
  -2.4331243793501493E-002   7.1766653399341629E-003   6.1455118045437296E-002
  -2.3606611099787678E-002   6.9656893921296245E-003   6.1433568141147268E-002
  -2.2881978406073859E-002   6.7454737137595724E-003   6.1578332015477265E-002
  -2.2157345712360034E-002   6.5160183048237341E-003   6.1889409668427320E-002
  -3.1358532468470868E-002   9.2495327534989902E-003   5.8765805038766300E-002
  -3.0459803432389475E-002   9.0158416707321193E-003   5.8583863430385505E-002
  -2.9561074396308069E-002   8.7590345375764822E-003   5.8583800728119820E-002
  -2.8662345360226684E-002   8.4791113540322455E-003   5.8765616931969342E-002
  -2.7763616324145299E-002   8.1760721200992426E-003   5.9129312041933890E-002
  -3.7646871048467478E-002   1.1120663949825041E-002   5.5863611643568740E-002
  -3.6558480542523412E-002   1.0855018001530159E-002   5.5673715789894107E-002
  -3.5470090036579367E-002   1.0552379683023427E-002   5.5681263969829767E-002
  -3.4381699530635287E-002   1.0212748994305031E-002   5.5886256183375733E-002
  -3.3293309024691214E-002   9.8361259353746955E-003   5.6288692430531806E-002
  -4.3920892227205299E-002   1.2991795146151112E-002   5.2936401542754703E-002
  -4.2627275123903442E-002   1.2694194332328060E-002   5.2724675123963186E-002
  -4.1333658020601551E-002   1.2345724828470411E-002   5.2725957866277019E-002
  -4.0040040917299659E-002   1.1946386634577677E-002   5.2940249769696357E-002
  -3.8746423813997795E-002   1.1496179750650176E-002   5.3367550834220873E-002
  -5.0180596004684205E-002   1.4862926342477184E-002   4.9984174736324022E-002
  -4.8666187176529402E-002   1.4533370663126155E-002   4.9736741432592657E-002
  -4.7151778348374619E-002   1.4139069973917236E-002   4.9717882417461709E-002
  -4.5637369520219823E-002   1.3680024274850476E-002   4.9927597690931240E-002
  -4.4122960692065033E-002   1.3156233565925657E-002   5.0365887253001229E-002
  -2.2157345712360034E-002   6.5160183048237341E-003   6.1889409668427320E-002
  -2.1038516509837686E-002   6.2837138421827365E-003   6.0905562561056004E-002
  -1.9919687307315345E-002   6.0549510026970260E-003   6.0230885393246197E-002
  -1.8800858104793001E-002   5.8297297863664464E-003   5.9865378164997832E-002
  -1.7682028902270649E-002   5.6080501931913274E-003   5.9809040876311004E-002
  -2.7763616324145299E-002   8.1760721200992426E-003   5.9129312041933890E-002
  -2.6355216844637312E-002   7.8683074284302545E-003   5.8211046562262198E-002
  -2.4946817365129319E-002   7.5742078716782985E-003   5.7562751697000369E-002
  -2.3538417885621336E-002   7.2937734498432390E-003   5.7184427446148337E-002
  -2.2130018406113339E-002   7.0270041629252877E-003   5.7076073809706224E-002
  -3.3293309024691214E-002   9.8361259353746955E-003   5.6288692430531806E-002
  -3.1634538593349262E-002   9.4529010146778836E-003   5.5446132090321357E-002
  -2.9975768162007300E-002   9.0934647406596888E-003   5.4834343039369259E-002
  -2.8316997730665303E-002   8.7578171133200888E-003   5.4453325277675130E-002
  -2.6658227299323357E-002   8.4459581326590816E-003   5.4303078805239255E-002
  -3.8746423813997795E-002   1.1496179750650176E-002   5.3367550834220873E-002
  -3.6876481755973529E-002   1.1037494600925429E-002   5.2610819145233509E-002
  -3.5006539697949202E-002   1.0612721609641020E-002   5.2045659420352650E-002
  -3.3136597639924902E-002   1.0221860776796744E-002   5.1672071659578239E-002
  -3.1266655581900636E-002   9.8649121023930419E-003   5.1490055862910319E-002
  -4.4122960692065033E-002   1.3156233565925657E-002   5.0365887253001229E-002
  -4.2081046332510086E-002   1.2622088187173086E-002   4.9705107726998488E-002
  -4.0039131972955125E-002   1.2131978478622366E-002   4.9196700839950674E-002
  -3.7997217613400185E-002   1.1685904440273540E-002   4.8840666591857540E-002
  -3.5955303253845217E-002   1.1283866072126836E-002   4.8637004982719279E-002
  -1.7682028902270649E-002   5.6080501931913274E-003   5.9809040876311004E-002
  -1.7624749817905266E-002   5.3627539225748755E-003   6.1226497205308927E-002
  -1.7567470733539880E-002   5.0666826739201448E-003   6.2570721151255948E-002
  -1.7510191649174493E-002   4.7198364472277772E-003   6.3841712714152440E-002
  -1.7452912564809110E-002   4.3222152424971516E-003   6.5039471893998002E-002
  -2.2130018406113339E-002   7.0270041629252877E-003   5.7076073809706224E-002
  -2.2106303848534591E-002   6.7372844965160328E-003   5.8397808169632331E-002
  -2.2082589290955836E-002   6.3879989362081446E-003   5.9725645859035989E-002
  -2.2058874733377087E-002   5.9791474820011029E-003   6.1059586877917203E-002
  -2.2035160175798332E-002   5.5107301338952475E-003   6.2399631226275842E-002
  -2.6658227299323357E-002   8.4459581326590816E-003   5.4303078805239255E-002
  -2.6588741556003034E-002   8.1118150704575370E-003   5.5520300280232929E-002
  -2.6519255812682666E-002   7.7093151984959710E-003   5.6822960797232168E-002
  -2.6449770069362329E-002   7.2384585167747043E-003   5.8211060356237063E-002
  -2.6380284326041975E-002   6.6992450252934266E-003   5.9684598957247828E-002
  -3.1266655581900636E-002   9.8649121023930419E-003   5.1490055862910319E-002
  -3.1072062940310487E-002   9.4863456443988678E-003   5.2593973537110351E-002
  -3.0877470298720375E-002   9.0306314607839951E-003   5.3862665965844346E-002
  -3.0682877657130261E-002   8.4977695515481670E-003   5.5296133149112150E-002
  -3.0488285015540139E-002   7.8877599166915086E-003   5.6894375086913848E-002
  -3.5955303253845217E-002   1.1283866072126836E-002   4.8637004982719279E-002
  -3.5556268001457100E-002   1.0860876218340171E-002   4.9618827940264842E-002
  -3.5157232749068970E-002   1.0351947723071755E-002   5.0844761364872565E-002
  -3.4758197496680854E-002   9.7570805863216765E-003   5.2314805256542404E-002
  -3.4359162244292724E-002   9.0762748080897571E-003   5.4028959615274263E-002
  -1.7452912564809110E-002   4.3222152424971516E-003   6.5039471893998002E-002
  -1.5423189790481608E-002   3.9282198236685884E-003   6.2126606096758852E-002
  -1.3393467016154108E-002   3.5922509546819775E-003   5.9831049445888934E-002
  -1.1363744241826597E-002   3.3143086355372810E-003   5.8152801941388402E-002
  -9.3340214674991068E-003   3.0943928662348075E-003   5.7091863583257130E-002
  -2.2035160175798332E-002   5.5107301338952475E-003   6.2399631226275842E-002
  -1.9458159415233253E-002   5.0409630237136516E-003   5.9711304189445147E-002
  -1.6881158654668181E-002   4.6280622832796242E-003   5.7500223978720233E-002
  -1.4304157894103137E-002   4.2720279125932105E-003   5.5766390594101198E-002
  -1.1727157133538030E-002   3.9728599116541918E-003   5.4509804035587806E-002
  -2.6380284326041975E-002   6.6992450252934266E-003   5.9684598957247828E-002
  -2.3396067899502888E-002   6.1537062237587981E-003   5.7219650500731148E-002
  -2.0411851472963781E-002   5.6638736118772640E-003   5.5091886550056819E-002
  -1.7427635046424687E-002   5.2297471896490273E-003   5.3301307105224849E-002
  -1.4443418619885615E-002   4.8513269570737982E-003   5.1847912166234689E-002
  -3.0488285015540139E-002   7.8877599166915086E-003   5.6894375086913848E-002
  -2.7236915243290562E-002   7.2664494238039029E-003   5.4651645030617063E-002
  -2.3985545471041016E-002   6.6996849404749072E-003   5.2606037159898866E-002
  -2.0734175698791442E-002   6.1874664667048449E-003   5.0757551474758994E-002
  -1.7482805926541899E-002   5.7297940024933491E-003   4.9106187975198501E-002
  -3.4359162244292724E-002   9.0762748080897571E-003   5.4028959615274263E-002
  -3.0980701446596218E-002   8.3791926238490633E-003   5.2007287779102573E-002
  -2.7602240648899753E-002   7.7354962690725920E-003   5.0042675808246145E-002
  -2.4223779851203268E-002   7.1451857437606729E-003   4.8135123702704799E-002
  -2.0845319053506783E-002   6.6082610479127890E-003   4.6284631462478520E-002
  -5.7151392283210617E-002   0.0000000000000000        3.4692487266776796E-002
  -5.7941678123175265E-002   2.0859219714640873E-003   3.8345914617336566E-002
  -5.8731963963139913E-002   4.1392599521875018E-003   4.2211314002348843E-002
  -5.9522249803104554E-002   6.1600139421702522E-003   4.6288685421813643E-002
  -6.0312535643069196E-002   8.1481839414123229E-003   5.0578028875730943E-002
  -6.5817513364232735E-002   0.0000000000000000        3.7215474215317755E-002
  -6.6624468560126424E-002   2.9147131413662644E-003   4.0837357836788463E-002
  -6.7431423756020112E-002   5.7713327049700577E-003   4.4213930711948575E-002
  -6.8238378951913800E-002   8.5698586908113800E-003   4.7345192840798092E-002
  -6.9045334147807488E-002   1.1310291098890228E-002   5.0231144223336993E-002
  -7.4241197999710767E-002   0.0000000000000000        4.0580007127271792E-002
  -7.5522105332296613E-002   3.7435043112684398E-003   4.4144837432631645E-002
  -7.6803012664882458E-002   7.4034054577526102E-003   4.7007074210917800E-002
  -7.8083919997468318E-002   1.0979703439452503E-002   4.9166717462130229E-002
  -7.9364827330054177E-002   1.4472398256368131E-002   5.0623767186268938E-002
  -8.2422446189644741E-002   0.0000000000000000        4.4786086002638913E-002
  -8.4634588439685854E-002   4.5722954811706169E-003   4.8268353404866113E-002
  -8.6846730689726967E-002   9.0354782105351618E-003   5.0590744499256483E-002
  -8.9058872939768080E-002   1.3389548188093627E-002   5.1753259285810031E-002
  -9.1271015189809207E-002   1.7634505413846036E-002   5.1755897764526743E-002
  -9.0361257934034628E-002   0.0000000000000000        4.9833710841419097E-002
  -9.3961917882294133E-002   5.4010866510727923E-003   5.3207905753491838E-002
  -9.7562577830553637E-002   1.0667550963317719E-002   5.4964941576964653E-002
 -0.10116323777881314        1.5799392936734758E-002   5.5104818311837514E-002
 -0.10476389772707263        2.0796612571323939E-002   5.3627535958110442E-002
  -6.0312535643069196E-002   8.1481839414123229E-003   5.0578028875730943E-002
  -6.0610393417004312E-002   1.0024339823021689E-002   5.1516031534738951E-002
  -6.0908251190939441E-002   1.1709051460106319E-002   5.2245186976960033E-002
  -6.1206108964874571E-002   1.3202318852666197E-002   5.2765495202394250E-002
  -6.1503966738809694E-002   1.4504142000701326E-002   5.3076956211041582E-002
  -6.9045334147807488E-002   1.1310291098890228E-002   5.0231144223336993E-002
  -6.9315301250715888E-002   1.3753694195516437E-002   4.9455485447816451E-002
  -6.9585268353624274E-002   1.5661132246999859E-002   4.8944455231136247E-002
  -6.9855235456532688E-002   1.7032605253340466E-002   4.8698053573296381E-002
  -7.0125202559441102E-002   1.7868113214538295E-002   4.8716280474296859E-002
  -7.9364827330054177E-002   1.4472398256368131E-002   5.0623767186268938E-002
  -7.9133427986308610E-002   1.7483048568011195E-002   4.7789926175601807E-002
  -7.8902028642563043E-002   1.9613213033893403E-002   4.5694189499402217E-002
  -7.8670629298817504E-002   2.0862891654014750E-002   4.4336557157670230E-002
  -7.8439229955071951E-002   2.1232084428375250E-002   4.3717029150405803E-002
  -9.1271015189809207E-002   1.7634505413846036E-002   5.1755897764526743E-002
  -9.0064773623782471E-002   2.1212402940505953E-002   4.6519353718094958E-002
  -8.8858532057755749E-002   2.3565293820786936E-002   4.2494389781757971E-002
  -8.7652290491728999E-002   2.4693178054689041E-002   3.9681005955515790E-002
  -8.6446048925702304E-002   2.4596055642212206E-002   3.8079202239368393E-002
 -0.10476389772707263        2.0796612571323939E-002   5.3627535958110442E-002
 -0.10210933816313748        2.4941757313000707E-002   4.5643768075295951E-002
  -9.9454778599202348E-002   2.7517374607680490E-002   3.9345056078203509E-002
  -9.6800219035267226E-002   2.8523464455363311E-002   3.4731399966833040E-002
  -9.4145659471332077E-002   2.7960026856049175E-002   3.1802799741184634E-002
  -6.1503966738809694E-002   1.4504142000701326E-002   5.3076956211041582E-002
  -6.0187759724244359E-002   1.5513885043223576E-002   5.1677677066016836E-002
  -5.8871552709679031E-002   1.6130912119244806E-002   5.0723887036971643E-002
  -5.7555345695113724E-002   1.6355223228764988E-002   5.0215586123905975E-002
  -5.6239138680548383E-002   1.6186818371784123E-002   5.0152774326819943E-002
  -7.0125202559441102E-002   1.7868113214538295E-002   4.8716280474296859E-002
  -6.8407623307438464E-002   1.8324230246402576E-002   4.7272326485717733E-002
  -6.6690044055435826E-002   1.8557530464742587E-002   4.6185627856033695E-002
  -6.4972464803433189E-002   1.8568013869558336E-002   4.5456184585244738E-002
  -6.3254885551430565E-002   1.8355680460849816E-002   4.5083996673350779E-002
  -7.8439229955071951E-002   2.1232084428375250E-002   4.3717029150405803E-002
  -7.6408512222716510E-002   2.1134575449581573E-002   4.2398299471249089E-002
  -7.4377794490361096E-002   2.0984148810240369E-002   4.1348591393902935E-002
  -7.2347076758005668E-002   2.0780804510351667E-002   4.0567904918367349E-002
  -7.0316359025650213E-002   2.0524542549915495E-002   4.0056240044642297E-002
  -8.6446048925702304E-002   2.4596055642212206E-002   3.8079202239368393E-002
  -8.4190426470078544E-002   2.3944920652760562E-002   3.7055596022610861E-002
  -8.1934804014454785E-002   2.3410767155738164E-002   3.6212777650579342E-002
  -7.9679181558831025E-002   2.2993595151145005E-002   3.5550747123273913E-002
  -7.7423559103207321E-002   2.2693404638981153E-002   3.5069504440694503E-002
  -9.4145659471332077E-002   2.7960026856049175E-002   3.1802799741184634E-002
  -9.1753366049524526E-002   2.6755265855939573E-002   3.1244216139803008E-002
  -8.9361072627716975E-002   2.5837385501235946E-002   3.0778186626062944E-002
  -8.6968779205909438E-002   2.5206385791938350E-002   3.0404711199964476E-002
  -8.4576485784101874E-002   2.4862266728046867E-002   3.0123789861507516E-002
  -5.6239138680548383E-002   1.6186818371784123E-002   5.0152774326819943E-002
  -5.4724503011582340E-002   1.5830502989778936E-002   4.9832997494559439E-002
  -5.3209867342616290E-002   1.5491082524225985E-002   4.9698305285390015E-002
  -5.1695231673650248E-002   1.5168556975125411E-002   4.9748697699311548E-002
  -5.0180596004684205E-002   1.4862926342477184E-002   4.9984174736324022E-002
  -6.3254885551430565E-002   1.8355680460849816E-002   4.5083996673350779E-002
  -6.1547701595662127E-002   1.8016237531982102E-002   4.4718703246293387E-002
  -5.9840517639893655E-002   1.7645392376320249E-002   4.4553421769749781E-002
  -5.8133333684125182E-002   1.7243144993864330E-002   4.4588152243720022E-002
  -5.6426149728356752E-002   1.6809495384614320E-002   4.4822894668204105E-002
  -7.0316359025650213E-002   2.0524542549915495E-002   4.0056240044642297E-002
  -6.8401699455656537E-002   2.0201972074185275E-002   3.9597132879541537E-002
  -6.6487039885662819E-002   1.9799702228414512E-002   3.9352964992377386E-002
  -6.4572380315669115E-002   1.9317733012603165E-002   3.9323736383149940E-002
  -6.2657720745675452E-002   1.8756064426751359E-002   3.9509447051859166E-002
  -7.7423559103207321E-002   2.2693404638981153E-002   3.5069504440694503E-002
  -7.5286496591565555E-002   2.2387706616388402E-002   3.4468286394303951E-002
  -7.3149434079923789E-002   2.1954012080508734E-002   3.4096934953272935E-002
  -7.1012371568282037E-002   2.1392321031342015E-002   3.3955450117601246E-002
  -6.8875309056640271E-002   2.0702633468888419E-002   3.4043831887289148E-002
  -8.4576485784101874E-002   2.4862266728046867E-002   3.0123789861507516E-002
  -8.2202093003389209E-002   2.4573441158591641E-002   2.9332163790580665E-002
  -7.9827700222676545E-002   2.4108321932603038E-002   2.8785331652436214E-002
  -7.7453307441963867E-002   2.3466909050080892E-002   2.8483293447074051E-002
  -7.5078914661251217E-002   2.2649202511025535E-002   2.8426049174494178E-002
  -5.0180596004684205E-002   1.4862926342477184E-002   4.9984174736324022E-002
  -4.8666187176529402E-002   1.4533370663126155E-002   4.9736741432592657E-002
  -4.7151778348374619E-002   1.4139069973917236E-002   4.9717882417461709E-002
  -4.5637369520219823E-002   1.3680024274850476E-002   4.9927597690931240E-002
  -4.4122960692065033E-002   1.3156233565925657E-002   5.0365887253001229E-002
  -5.6426149728356752E-002   1.6809495384614320E-002   4.4822894668204105E-002
  -5.4694129349208115E-002   1.6344742972419057E-002   4.4530707138742853E-002
  -5.2962108970059457E-002   1.5849187181127565E-002   4.4445168422668851E-002
  -5.1230088590910806E-002   1.5322828010739939E-002   4.4566278519982086E-002
  -4.9498068211762197E-002   1.4765665461256072E-002   4.4894037430682571E-002
  -6.2657720745675452E-002   1.8756064426751359E-002   3.9509447051859166E-002
  -6.0730014290746141E-002   1.8156115281711960E-002   3.9206446927429757E-002
  -5.8802307835816893E-002   1.7559304388338030E-002   3.9088170141174369E-002
  -5.6874601380887638E-002   1.6965631746629566E-002   3.9154616693092975E-002
  -5.4946894925958382E-002   1.6375097356586488E-002   3.9405786583185567E-002
  -6.8875309056640271E-002   2.0702633468888419E-002   3.4043831887289148E-002
  -6.6773842001143655E-002   1.9967487591004807E-002   3.3763960798653320E-002
  -6.4672374945647024E-002   1.9269421595548439E-002   3.3646887572978096E-002
  -6.2570907890150393E-002   1.8608435482519083E-002   3.3692612210263852E-002
  -6.0469440834653762E-002   1.7984529251916903E-002   3.3901134710510247E-002
  -7.5078914661251217E-002   2.2649202511025535E-002   2.8426049174494178E-002
  -7.2825612480400453E-002   2.1778859900297834E-002   2.8203248752413479E-002
  -7.0572310299549731E-002   2.0979538802758838E-002   2.8121320718080434E-002
  -6.8319008118698982E-002   2.0251239218408757E-002   2.8180265071494695E-002
  -6.6065705937848246E-002   1.9593961147247319E-002   2.8380081812656555E-002
  -4.4122960692065033E-002   1.3156233565925657E-002   5.0365887253001229E-002
  -4.2081046332510086E-002   1.2622088187173086E-002   4.9705107726998488E-002
  -4.0039131972955125E-002   1.2131978478622366E-002   4.9196700839950674E-002
  -3.7997217613400185E-002   1.1685904440273540E-002   4.8840666591857540E-002
  -3.5955303253845217E-002   1.1283866072126836E-002   4.8637004982719279E-002
  -4.9498068211762197E-002   1.4765665461256072E-002   4.4894037430682571E-002
  -4.7275163732784731E-002   1.4207165280996706E-002   4.4224238084522013E-002
  -4.5052259253807306E-002   1.3676793218282898E-002   4.3764046338251622E-002
  -4.2829354774829867E-002   1.3174549273114230E-002   4.3513462191871313E-002
  -4.0606450295852414E-002   1.2700433445490877E-002   4.3472485645381170E-002
  -5.4946894925958382E-002   1.6375097356586488E-002   3.9405786583185567E-002
  -5.2485765366623215E-002   1.5792242374820548E-002   3.8711059864210570E-002
  -5.0024635807287984E-002   1.5221607957943313E-002   3.8283175706061011E-002
  -4.7563506247952768E-002   1.4663194105954751E-002   3.8122134108736841E-002
  -4.5102376688617593E-002   1.4117000818855030E-002   3.8227935072238109E-002
  -6.0469440834653762E-002   1.7984529251916903E-002   3.3901134710510247E-002
  -5.7712851234025517E-002   1.7377319468644223E-002   3.3165573066064241E-002
  -5.4956261633397230E-002   1.6766422697603759E-002   3.2754088943378890E-002
  -5.2199672032768984E-002   1.6151838938795356E-002   3.2666682342454213E-002
  -4.9443082432140698E-002   1.5533568192219044E-002   3.2903353263290303E-002
  -6.6065705937848246E-002   1.9593961147247319E-002   2.8380081812656555E-002
  -6.2956421334991616E-002   1.8962396562468065E-002   2.7587777690082804E-002
  -5.9847136732134987E-002   1.8311237437264302E-002   2.7176786050205043E-002
  -5.6737852129278357E-002   1.7640483771635945E-002   2.7147106893023326E-002
  -5.3628567526421728E-002   1.6950135565583224E-002   2.7498740218537598E-002
  -3.5955303253845217E-002   1.1283866072126836E-002   4.8637004982719279E-002
  -3.5556268001457100E-002   1.0860876218340171E-002   4.9618827940264842E-002
  -3.5157232749068970E-002   1.0351947723071755E-002   5.0844761364872565E-002
  -3.4758197496680854E-002   9.7570805863216765E-003   5.2314805256542404E-002
  -3.4359162244292724E-002   9.0762748080897571E-003   5.4028959615274263E-002
  -4.0606450295852414E-002   1.2700433445490877E-002   4.3472485645381170E-002
  -4.0035351733538400E-002   1.2197268150978796E-002   4.4451399248630119E-002
  -3.9464253171224331E-002   1.1607875805143247E-002   4.5530329004668760E-002
  -3.8893154608910262E-002   1.0932256407984543E-002   4.6709274913497266E-002
  -3.8322056046596234E-002   1.0170409959502580E-002   4.7988236975115395E-002
  -4.5102376688617593E-002   1.4117000818855030E-002   3.8227935072238109E-002
  -4.4503309130649954E-002   1.3533660083617213E-002   3.9203650911348906E-002
  -4.3904241572682343E-002   1.2863803887214677E-002   4.0135288588977198E-002
  -4.3305174014714662E-002   1.2107432229647408E-002   4.1022848105122925E-002
  -4.2706106456747085E-002   1.1264545110915486E-002   4.1866329459785898E-002
  -4.9443082432140698E-002   1.5533568192219044E-002   3.2903353263290303E-002
  -4.8960140192791816E-002   1.4870052016255790E-002   3.3875582928421473E-002
  -4.8477197953442970E-002   1.4119731969286054E-002   3.4659640117797812E-002
  -4.7994255714094131E-002   1.3282608051310384E-002   3.5255524831419159E-002
  -4.7511313474745243E-002   1.2358680262328239E-002   3.5663237069285550E-002
  -5.3628567526421728E-002   1.6950135565583224E-002   2.7498740218537598E-002
  -5.3405844919964002E-002   1.6206443948894228E-002   2.8467195299847758E-002
  -5.3183122313506248E-002   1.5375660051357640E-002   2.9103383591130683E-002
  -5.2960399707048536E-002   1.4457783872973150E-002   2.9407305092386274E-002
  -5.2737677100590824E-002   1.3452815413741270E-002   2.9378959803614435E-002
  -3.4359162244292724E-002   9.0762748080897571E-003   5.4028959615274263E-002
  -3.0980701446596218E-002   8.3791926238490633E-003   5.2007287779102573E-002
  -2.7602240648899753E-002   7.7354962690725920E-003   5.0042675808246145E-002
  -2.4223779851203268E-002   7.1451857437606729E-003   4.8135123702704799E-002
  -2.0845319053506783E-002   6.6082610479127890E-003   4.6284631462478520E-002
  -3.8322056046596234E-002   1.0170409959502580E-002   4.7988236975115395E-002
  -3.4759235339936224E-002   9.4198732051430645E-003   4.5753824709261176E-002
  -3.1196414633276284E-002   8.7781828903524539E-003   4.3831072396018772E-002
  -2.7633593926616344E-002   8.2453390151300474E-003   4.2219980035388252E-002
  -2.4070773219956321E-002   7.8213415794761154E-003   4.0920547627369519E-002
  -4.2706106456747085E-002   1.1264545110915486E-002   4.1866329459785898E-002
  -3.8704325753826950E-002   1.0460553786437427E-002   3.9474637374353277E-002
  -3.4702545050906725E-002   9.8208695116321007E-003   3.7649205328829129E-002
  -3.0700764347986631E-002   9.3454922864993403E-003   3.6390033323213639E-002
  -2.6698983645066426E-002   9.0344221110394418E-003   3.5697121357506412E-002
  -4.7511313474745243E-002   1.2358680262328239E-002   3.5663237069285550E-002
  -4.2815972688268179E-002   1.1501234367731608E-002   3.3169725774378628E-002
  -3.8120631901791213E-002   1.0863556132911744E-002   3.1497074606677035E-002
  -3.3425291115314240E-002   1.0445645557868841E-002   3.0645283566180615E-002
  -2.8729950328837135E-002   1.0247502642602768E-002   3.0614352652889323E-002
  -5.2737677100590824E-002   1.3452815413741270E-002   2.9378959803614435E-002
  -4.7094176143260197E-002   1.2541914949025679E-002   2.6839089909337532E-002
  -4.1450675185929639E-002   1.1906242754191512E-002   2.5374680229562491E-002
  -3.5807174228599019E-002   1.1545798829238150E-002   2.4985730764289601E-002
  -3.0163673271268399E-002   1.1460583174166095E-002   2.5672241513518212E-002
  -9.0361257934034628E-002   0.0000000000000000        4.9833710841419097E-002
  -9.3961917882294133E-002   5.4010866510727923E-003   5.3207905753491838E-002
  -9.7562577830553637E-002   1.0667550963317719E-002   5.4964941576964653E-002
 -0.10116323777881314        1.5799392936734758E-002   5.5104818311837514E-002
 -0.10476389772707263        2.0796612571323939E-002   5.3627535958110442E-002
 -0.10329482918801702        0.0000000000000000        5.8658323692672668E-002
 -0.10683144979108376        1.0883135766115128E-002   5.2116758288489808E-002
 -0.11036807039415052        1.9170887300419701E-002   4.7320430663292411E-002
 -0.11390469099721726        2.4863254602913703E-002   4.4269340817080463E-002
 -0.11744131160028401        2.7960237673597146E-002   4.2963488749853986E-002
 -0.12646035590672852        0.0000000000000000        7.4195366605459917E-002
 -0.12657054029701711        1.6365184881157461E-002   5.5277278992038756E-002
 -0.12668072468730571        2.7674223637521686E-002   4.1466826025188454E-002
 -0.12679090907759427        3.3927116269092651E-002   3.2764007704909018E-002
 -0.12690109346788286        3.5123862775870381E-002   2.9168824031200451E-002
 -0.15985783809016912        0.0000000000000000        9.6444839579780811E-002
 -0.15317918940009415        2.1847233996199790E-002   6.2689467864138690E-002
 -0.14650054071001919        3.6177559974623671E-002   3.7404127662652824E-002
 -0.13982189201994422        4.2990977935271596E-002   2.0588818975323223E-002
 -0.13314324332986921        4.2287487878143612E-002   1.2243541802149854E-002
 -0.20348727573833880        0.0000000000000000       0.12540674261563542     
 -0.18665739710031487        2.7329283111242133E-002   7.4353324904789631E-002
 -0.16982751846229094        4.4680896311725650E-002   3.5132335575685486E-002
 -0.15299763982426701        5.2054839601450548E-002   7.7437746283230413E-003
 -0.13616776118624307        4.9451112980416830E-002  -7.8123579372977869E-003
 -0.10476389772707263        2.0796612571323939E-002   5.3627535958110442E-002
 -0.10210933816313748        2.4941757313000707E-002   4.5643768075295951E-002
  -9.9454778599202348E-002   2.7517374607680490E-002   3.9345056078203509E-002
  -9.6800219035267226E-002   2.8523464455363311E-002   3.4731399966833040E-002
  -9.4145659471332077E-002   2.7960026856049175E-002   3.1802799741184634E-002
 -0.11744131160028401        2.7960237673597146E-002   4.2963488749853986E-002
 -0.11348821469653066        2.9434126882837662E-002   3.6700668857712025E-002
 -0.10953511779277730        3.0257212601002781E-002   3.1349867759484465E-002
 -0.10558202088902394        3.0429494828092547E-002   2.6911085455171319E-002
 -0.10162892398527057        2.9950973564106906E-002   2.3384321944772610E-002
 -0.12690109346788286        3.5123862775870381E-002   2.9168824031200451E-002
 -0.12242249631611891        3.3926496452674641E-002   2.5545676085652627E-002
 -0.11794389916435494        3.2997050594325041E-002   2.2061509842211578E-002
 -0.11346530201259102        3.2335525200821759E-002   1.8716325300877284E-002
 -0.10898670486082701        3.1941920272164678E-002   1.5510122461649876E-002
 -0.13314324332986921        4.2287487878143612E-002   1.2243541802149854E-002
 -0.12891218302190230        3.8418866022511593E-002   1.2178789759117755E-002
 -0.12468112271393535        3.5736888587647377E-002   1.1479982326384830E-002
 -0.12045006240596841        3.4241555573550964E-002   1.0147119503951028E-002
 -0.11621900209800147        3.3932866980222395E-002   8.1802012918164215E-003
 -0.13616776118624307        4.9451112980416830E-002  -7.8123579372977869E-003
 -0.13295727481388075        4.2911235592348558E-002  -3.3999901218926265E-003
 -0.12974678844151846        3.8476726580969609E-002  -3.9471478799579796E-004
 -0.12653630206915617        3.6147585946280182E-002   1.2034680643924212E-003
 -0.12332581569679385        3.5923813688280182E-002   1.3945584352724194E-003
  -9.4145659471332077E-002   2.7960026856049175E-002   3.1802799741184634E-002
  -9.1753366049524526E-002   2.6755265855939573E-002   3.1244216139803008E-002
  -8.9361072627716975E-002   2.5837385501235946E-002   3.0778186626062944E-002
  -8.6968779205909438E-002   2.5206385791938350E-002   3.0404711199964476E-002
  -8.4576485784101874E-002   2.4862266728046867E-002   3.0123789861507516E-002
 -0.10162892398527057        2.9950973564106906E-002   2.3384321944772610E-002
  -9.9135423104116244E-002   2.9175237251766972E-002   2.3131502373364646E-002
  -9.6641922222961890E-002   2.8455874333793801E-002   2.2988543633008611E-002
  -9.4148421341807578E-002   2.7792884810187341E-002   2.2955445723704657E-002
  -9.1654920460653252E-002   2.7186268680947590E-002   2.3032208645452731E-002
 -0.10898670486082701        3.1941920272164678E-002   1.5510122461649876E-002
 -0.10637468977691547        3.1595208647594422E-002   1.5332559669176203E-002
 -0.10376267469300389        3.1074363166351600E-002   1.5282164451165082E-002
 -0.10115065960909235        3.0379383828436218E-002   1.5358936807616356E-002
  -9.8538644525180769E-002   2.9510270633848368E-002   1.5562876738530032E-002
 -0.11621900209800147        3.3932866980222395E-002   8.1802012918164215E-003
 -0.11347116606792218        3.4015180043421862E-002   7.8473880272378338E-003
 -0.11072333003784296        3.3692851998909465E-002   7.6590490805322313E-003
 -0.10797549400776373        3.2965882846685196E-002   7.6151844516995264E-003
 -0.10522765797768448        3.1834272586749049E-002   7.7157941407396853E-003
 -0.12332581569679385        3.5923813688280182E-002   1.3945584352724194E-003
 -0.12042485197713648        3.6435151439249247E-002   6.7598744754968076E-004
 -0.11752388825747909        3.6311340831467240E-002   1.1919752111019810E-004
 -0.11462292453782172        3.5552381864934118E-002  -2.7581134404584123E-004
 -0.11172196081816432        3.4158274539649869E-002  -5.0903914791849969E-004
  -8.4576485784101874E-002   2.4862266728046867E-002   3.0123789861507516E-002
  -8.2202093003389209E-002   2.4573441158591641E-002   2.9332163790580665E-002
  -7.9827700222676545E-002   2.4108321932603038E-002   2.8785331652436214E-002
  -7.7453307441963867E-002   2.3466909050080892E-002   2.8483293447074051E-002
  -7.5078914661251217E-002   2.2649202511025535E-002   2.8426049174494178E-002
  -9.1654920460653252E-002   2.7186268680947590E-002   2.3032208645452731E-002
  -8.9043708470081528E-002   2.6580332329500016E-002   2.2311664715968647E-002
  -8.6432496479509791E-002   2.5919382139270253E-002   2.1819965273420450E-002
  -8.3821284488938039E-002   2.5203418110258190E-002   2.1557110317807944E-002
  -8.1210072498366329E-002   2.4432440242463715E-002   2.1523099849131380E-002
  -9.8538644525180769E-002   2.9510270633848368E-002   1.5562876738530032E-002
  -9.5706562770596457E-002   2.8587223500408585E-002   1.5034694768239945E-002
  -9.2874481016012228E-002   2.7730442345937578E-002   1.4719407839038939E-002
  -9.0042399261427916E-002   2.6939927170435377E-002   1.4617015950927362E-002
  -8.7210317506843660E-002   2.6215677973901841E-002   1.4727519103905004E-002
 -0.10522765797768448        3.1834272586749049E-002   7.7157941407396853E-003
 -0.10219065590493411        3.0594114671317028E-002   7.5012539473943377E-003
  -9.9153653832183802E-002   2.9541502552604917E-002   7.4836593492918144E-003
  -9.6116651759433458E-002   2.8676436230612688E-002   7.6630103464322055E-003
  -9.3079649686683100E-002   2.7998915705340022E-002   8.0393069388151883E-003
 -0.11172196081816432        3.4158274539649869E-002  -5.0903914791849969E-004
 -0.10849598787309439        3.2601005842225500E-002  -2.8865774656777754E-004
 -0.10527001492802454        3.1352562759272146E-002   1.1271980417910943E-004
 -0.10204404198295465        3.0412945290789840E-002   6.9509350432252551E-004
  -9.8818069037884759E-002   2.9782153436778203E-002   1.4584633538619607E-003
  -7.5078914661251217E-002   2.2649202511025535E-002   2.8426049174494178E-002
  -7.2825612480400453E-002   2.1778859900297834E-002   2.8203248752413479E-002
  -7.0572310299549731E-002   2.0979538802758838E-002   2.8121320718080434E-002
  -6.8319008118698982E-002   2.0251239218408757E-002   2.8180265071494695E-002
  -6.6065705937848246E-002   1.9593961147247319E-002   2.8380081812656555E-002
  -8.1210072498366329E-002   2.4432440242463715E-002   2.1523099849131380E-002
  -7.8817833182668079E-002   2.3636560107522631E-002   2.1467392411627373E-002
  -7.6425593866969871E-002   2.2845889277070347E-002   2.1548686856070830E-002
  -7.4033354551271621E-002   2.2060427751107121E-002   2.1766983182461692E-002
  -7.1641115235573385E-002   2.1280175529632683E-002   2.2122281390800136E-002
  -8.7210317506843660E-002   2.6215677973901841E-002   1.4727519103905004E-002
  -8.4683011562097968E-002   2.5494260314747393E-002   1.4773092442277896E-002
  -8.2155705617352276E-002   2.4712239751381850E-002   1.4951797156797959E-002
  -7.9628399672606570E-002   2.3869616283805510E-002   1.5263633247465651E-002
  -7.7101093727860878E-002   2.2966389912017993E-002   1.5708600714280790E-002
  -9.3079649686683100E-002   2.7998915705340022E-002   8.0393069388151883E-003
  -9.0421147618689954E-002   2.7351960521972227E-002   8.1203488443648691E-003
  -8.7762645550696877E-002   2.6578590225693494E-002   8.3306516202619370E-003
  -8.5104143482703787E-002   2.5678804816503777E-002   8.6702152665066312E-003
  -8.2445641414710655E-002   2.4652604294403330E-002   9.1390397830985320E-003
  -9.8818069037884759E-002   2.9782153436778203E-002   1.4584633538619607E-003
  -9.6032241352444203E-002   2.9209660729197146E-002   1.5091616178888601E-003
  -9.3246413667003730E-002   2.8444940700004959E-002   1.6852502464628494E-003
  -9.0460585981563243E-002   2.7487993349202388E-002   1.9867292395844074E-003
  -8.7674758296122701E-002   2.6338818676788778E-002   2.4135985972533747E-003
  -6.6065705937848246E-002   1.9593961147247319E-002   2.8380081812656555E-002
  -6.2956421334991616E-002   1.8962396562468065E-002   2.7587777690082804E-002
  -5.9847136732134987E-002   1.8311237437264302E-002   2.7176786050205043E-002
  -5.6737852129278357E-002   1.7640483771635945E-002   2.7147106893023326E-002
  -5.3628567526421728E-002   1.6950135565583224E-002   2.7498740218537598E-002
  -7.1641115235573385E-002   2.1280175529632683E-002   2.2122281390800136E-002
  -6.8210335343938014E-002   2.0514857747243681E-002   2.1388123396375497E-002
  -6.4779555452302601E-002   1.9774199538536152E-002   2.0915643496812408E-002
  -6.1348775560667201E-002   1.9058200903510694E-002   2.0704841692110849E-002
  -5.7917995669031774E-002   1.8366861842166682E-002   2.0755717982270966E-002
  -7.7101093727860878E-002   2.2966389912017993E-002   1.5708600714280790E-002
  -7.3468452935281189E-002   2.2067318932019325E-002   1.5076842962111509E-002
  -6.9835812142701376E-002   2.1237161639808232E-002   1.4587128916969214E-002
  -6.6203171350121576E-002   2.0475918035385281E-002   1.4239458578854194E-002
  -6.2570530557541887E-002   1.9783588118750250E-002   1.4033831947766237E-002
  -8.2445641414710655E-002   2.4652604294403330E-002   9.1390397830985320E-003
  -7.8730774109021018E-002   2.3619780116794595E-002   8.6539363872908462E-003
  -7.5015906803331298E-002   2.2700123741080391E-002   8.1912423106756966E-003
  -7.1301039497641647E-002   2.1893635167259947E-002   7.7509575532533513E-003
  -6.7586172191951926E-002   2.1200314395333875E-002   7.3330821150236619E-003
  -8.7674758296122701E-002   2.6338818676788778E-002   2.4135985972533747E-003
  -8.3997298865157610E-002   2.5172241301570419E-002   2.1194036719134335E-003
  -8.0319839434192408E-002   2.4163085842352300E-002   1.7279836779316299E-003
  -7.6642380003227262E-002   2.3311352299134731E-002   1.2393386153081269E-003
  -7.2964920572262115E-002   2.2617040671917388E-002   6.5346848404301827E-004
  -5.3628567526421728E-002   1.6950135565583224E-002   2.7498740218537598E-002
  -5.3405844919964002E-002   1.6206443948894228E-002   2.8467195299847758E-002
  -5.3183122313506248E-002   1.5375660051357640E-002   2.9103383591130683E-002
  -5.2960399707048536E-002   1.4457783872973150E-002   2.9407305092386274E-002
  -5.2737677100590824E-002   1.3452815413741270E-002   2.9378959803614435E-002
  -5.7917995669031774E-002   1.8366861842166682E-002   2.0755717982270966E-002
  -5.7857276098520760E-002   1.7666991685171551E-002   2.1466923048845815E-002
  -5.7796556528009677E-002   1.6925399763192212E-002   2.2186388833554491E-002
  -5.7735836957498621E-002   1.6142086076229002E-002   2.2914115336397235E-002
  -5.7675117386987593E-002   1.5317050624281348E-002   2.3650102557373875E-002
  -6.2570530557541887E-002   1.9783588118750250E-002   1.4033831947766237E-002
  -6.2331286514816293E-002   1.9127539421448889E-002   1.4533157515469325E-002
  -6.2092042472090631E-002   1.8475139475026957E-002   1.5381271309467710E-002
  -6.1852798429365009E-002   1.7826388279484469E-002   1.6578173329760925E-002
  -6.1613554386639367E-002   1.7181285834821730E-002   1.8123863576349528E-002
  -6.7586172191951926E-002   2.1200314395333875E-002   7.3330821150236619E-003
  -6.6827876168850525E-002   2.0588087157726358E-002   7.6658986997184750E-003
  -6.6069580145749193E-002   2.0024879186861615E-002   8.6880310188699166E-003
  -6.5311284122647834E-002   1.9510690482740237E-002   1.0399479072477673E-002
  -6.4552988099546460E-002   1.9045521045362016E-002   1.2800242860541825E-002
  -7.2964920572262115E-002   2.2617040671917388E-002   6.5346848404301827E-004
  -7.1347045060623726E-002   2.2048634894003383E-002   8.6514660159309198E-004
  -6.9729169548985337E-002   2.1574618898696524E-002   2.1066679617613715E-003
  -6.8111294037346920E-002   2.1194992685995902E-002   4.3780325645469062E-003
  -6.6493418525708559E-002   2.0909756255902190E-002   7.6792404099500500E-003
  -5.2737677100590824E-002   1.3452815413741270E-002   2.9378959803614435E-002
  -4.7094176143260197E-002   1.2541914949025679E-002   2.6839089909337532E-002
  -4.1450675185929639E-002   1.1906242754191512E-002   2.5374680229562491E-002
  -3.5807174228599019E-002   1.1545798829238150E-002   2.4985730764289601E-002
  -3.0163673271268399E-002   1.1460583174166095E-002   2.5672241513518212E-002
  -5.7675117386987593E-002   1.5317050624281348E-002   2.3650102557373875E-002
  -5.1328557442610251E-002   1.4467557437548767E-002   2.1870852005033969E-002
  -4.4981997498232888E-002   1.3610870546229600E-002   2.0422259212285715E-002
  -3.8635437553855415E-002   1.2746989950324372E-002   1.9304324179129501E-002
  -3.2288877609478128E-002   1.1875915649832480E-002   1.8517046905564216E-002
  -6.1613554386639367E-002   1.7181285834821730E-002   1.8123863576349528E-002
  -5.5308737910125617E-002   1.6393199926071633E-002   1.6822810391479495E-002
  -4.9003921433611722E-002   1.5315498338267682E-002   1.5107612511290981E-002
  -4.2699104957097972E-002   1.3948181071410564E-002   1.2978269935783705E-002
  -3.6394288480584000E-002   1.2291248125499199E-002   1.0434782664957398E-002
  -6.4552988099546460E-002   1.9045521045362016E-002   1.2800242860541825E-002
  -5.9034717545806366E-002   1.8318842414594388E-002   1.1694965068673849E-002
  -5.3516446992066397E-002   1.7020126130306044E-002   9.4307401265773128E-003
  -4.7998176438326344E-002   1.5149372192496548E-002   6.0075680342518362E-003
  -4.2479905884586333E-002   1.2706580601165862E-002   1.4254487916969122E-003
  -6.6493418525708559E-002   2.0909756255902190E-002   7.6792404099500500E-003
  -6.2506496349652663E-002   2.0244484903117255E-002   6.4873160366172300E-003
  -5.8519574173596711E-002   1.8724753922343962E-002   3.3916420581450724E-003
  -5.4532651997540760E-002   1.6350563313582728E-002  -1.6077815254658262E-003
  -5.0545729821484864E-002   1.3121913076832303E-002  -8.5109547142165898E-003
 </DataArray>
 </PointData>
 </Piece>
 <Piece  NumberOfPoints="          1600 "  NumberOfCells="         1024 ">
 <Points>
 <DataArray  type="Float64" NumberOfComponents="3"  format="ascii" >
  0.50000000000000000        0.0000000000000000        0.0000000000000000     
  0.53125000000000000        0.0000000000000000        0.0000000000000000     
  0.56250000000000000        0.0000000000000000        0.0000000000000000     
  0.59375000000000000        0.0000000000000000        0.0000000000000000     
  0.62500000000000000        0.0000000000000000        0.0000000000000000     
  0.50000000000000000        3.1250000000000000E-002   0.0000000000000000     
  0.53125000000000000        3.1250000000000000E-002   0.0000000000000000     
  0.56250000000000000        3.1250000000000000E-002   0.0000000000000000     
  0.59375000000000000        3.1250000000000000E-002   0.0000000000000000     
  0.62500000000000000        3.1250000000000000E-002   0.0000000000000000     
  0.50000000000000000        6.2500000000000000E-002   0.0000000000000000     
  0.53125000000000000        6.2500000000000000E-002   0.0000000000000000     
  0.56250000000000000        6.2500000000000000E-002   0.0000000000000000     
  0.59375000000000000        6.2500000000000000E-002   0.0000000000000000     
  0.62500000000000000        6.2500000000000000E-002   0.0000000000000000     
  0.50000000000000000        9.3750000000000000E-002   0.0000000000000000     
  0.53125000000000000        9.3750000000000000E-002   0.0000000000000000     
  0.56250000000000000        9.3750000000000000E-002   0.0000000000000000     
  0.59375000000000000        9.3750000000000000E-002   0.0000000000000000     
  0.62500000000000000        9.3750000000000000E-002   0.0000000000000000     
  0.50000000000000000       0.12500000000000000        0.0000000000000000     
  0.53125000000000000       0.12500000000000000        0.0000000000000000     
  0.56250000000000000       0.12500000000000000        0.0000000000000000     
  0.59375000000000000       0.12500000000000000        0.0000000000000000     
  0.62500000000000000       0.12500000000000000        0.0000000000000000     
  0.62500000000000000        0.0000000000000000        0.0000000000000000     
  0.65625000000000000        0.0000000000000000        0.0000000000000000     
  0.68750000000000000        0.0000000000000000        0.0000000000000000     
  0.71875000000000000        0.0000000000000000        0.0000000000000000     
  0.75000000000000000        0.0000000000000000        0.0000000000000000     
  0.62500000000000000        3.1250000000000000E-002   0.0000000000000000     
  0.65625000000000000        3.1250000000000000E-002   0.0000000000000000     
  0.68750000000000000        3.1250000000000000E-002   0.0000000000000000     
  0.71875000000000000        3.1250000000000000E-002   0.0000000000000000     
  0.75000000000000000        3.1250000000000000E-002   0.0000000000000000     
  0.62500000000000000        6.2500000000000000E-002   0.0000000000000000     
  0.65625000000000000        6.2500000000000000E-002   0.0000000000000000     
  0.68750000000000000        6.2500000000000000E-002   0.0000000000000000     
  0.71875000000000000        6.2500000000000000E-002   0.0000000000000000     
  0.75000000000000000        6.2500000000000000E-002   0.0000000000000000     
  0.62500000000000000        9.3750000000000000E-002   0.0000000000000000     
  0.65625000000000000        9.3750000000000000E-002   0.0000000000000000     
  0.68750000000000000        9.3750000000000000E-002   0.0000000000000000     
  0.71875000000000000        9.3750000000000000E-002   0.0000000000000000     
  0.75000000000000000        9.3750000000000000E-002   0.0000000000000000     
  0.62500000000000000       0.12500000000000000        0.0000000000000000     
  0.65625000000000000       0.12500000000000000        0.0000000000000000     
  0.68750000000000000       0.12500000000000000        0.0000000000000000     
  0.71875000000000000       0.12500000000000000        0.0000000000000000     
  0.75000000000000000       0.12500000000000000        0.0000000000000000     
  0.75000000000000000        0.0000000000000000        0.0000000000000000     
  0.78125000000000000        0.0000000000000000        0.0000000000000000     
  0.81250000000000000        0.0000000000000000        0.0000000000000000     
  0.84375000000000000        0.0000000000000000        0.0000000000000000     
  0.87500000000000000        0.0000000000000000        0.0000000000000000     
  0.75000000000000000        3.1250000000000000E-002   0.0000000000000000     
  0.78125000000000000        3.1250000000000000E-002   0.0000000000000000     
  0.81250000000000000        3.1250000000000000E-002   0.0000000000000000     
  0.84375000000000000        3.1250000000000000E-002   0.0000000000000000     
  0.87500000000000000        3.1250000000000000E-002   0.0000000000000000     
  0.75000000000000000        6.2500000000000000E-002   0.0000000000000000     
  0.78125000000000000        6.2500000000000000E-002   0.0000000000000000     
  0.81250000000000000        6.2500000000000000E-002   0.0000000000000000     
  0.84375000000000000        6.2500000000000000E-002   0.0000000000000000     
  0.87500000000000000        6.2500000000000000E-002   0.0000000000000000     
  0.75000000000000000        9.3750000000000000E-002   0.0000000000000000     
  0.78125000000000000        9.3750000000000000E-002   0.0000000000000000     
  0.81250000000000000        9.3750000000000000E-002   0.0000000000000000     
  0.84375000000000000        9.3750000000000000E-002   0.0000000000000000     
  0.87500000000000000        9.3750000000000000E-002   0.0000000000000000     
  0.75000000000000000       0.12500000000000000        0.0000000000000000     
  0.78125000000000000       0.12500000000000000        0.0000000000000000     
  0.81250000000000000       0.12500000000000000        0.0000000000000000     
  0.84375000000000000       0.12500000000000000        0.0000000000000000     
  0.87500000000000000       0.12500000000000000        0.0000000000000000     
  0.87500000000000000        0.0000000000000000        0.0000000000000000     
  0.90625000000000000        0.0000000000000000        0.0000000000000000     
  0.93750000000000000        0.0000000000000000        0.0000000000000000     
  0.96875000000000000        0.0000000000000000        0.0000000000000000     
   1.0000000000000000        0.0000000000000000        0.0000000000000000     
  0.87500000000000000        3.1250000000000000E-002   0.0000000000000000     
  0.90625000000000000        3.1250000000000000E-002   0.0000000000000000     
  0.93750000000000000        3.1250000000000000E-002   0.0000000000000000     
  0.96875000000000000        3.1250000000000000E-002   0.0000000000000000     
   1.0000000000000000        3.1250000000000000E-002   0.0000000000000000     
  0.87500000000000000        6.2500000000000000E-002   0.0000000000000000     
  0.90625000000000000        6.2500000000000000E-002   0.0000000000000000     
  0.93750000000000000        6.2500000000000000E-002   0.0000000000000000     
  0.96875000000000000        6.2500000000000000E-002   0.0000000000000000     
   1.0000000000000000        6.2500000000000000E-002   0.0000000000000000     
  0.87500000000000000        9.3750000000000000E-002   0.0000000000000000     
  0.90625000000000000        9.3750000000000000E-002   0.0000000000000000     
  0.93750000000000000        9.3750000000000000E-002   0.0000000000000000     
  0.96875000000000000        9.3750000000000000E-002   0.0000000000000000     
   1.0000000000000000        9.3750000000000000E-002   0.0000000000000000     
  0.87500000000000000       0.12500000000000000        0.0000000000000000     
  0.90625000000000000       0.12500000000000000        0.0000000000000000     
  0.93750000000000000       0.12500000000000000        0.0000000000000000     
  0.96875000000000000       0.12500000000000000        0.0000000000000000     
   1.0000000000000000       0.12500000000000000        0.0000000000000000     
   1.0000000000000000        0.0000000000000000        0.0000000000000000     
   1.0312500000000000        0.0000000000000000        0.0000000000000000     
   1.0625000000000000        0.0000000000000000        0.0000000000000000     
   1.0937500000000000        0.0000000000000000        0.0000000000000000     
   1.1250000000000000        0.0000000000000000        0.0000000000000000     
   1.0000000000000000        3.1250000000000000E-002   0.0000000000000000     
   1.0312500000000000        3.1250000000000000E-002   0.0000000000000000     
   1.0625000000000000        3.1250000000000000E-002   0.0000000000000000     
   1.0937500000000000        3.1250000000000000E-002   0.0000000000000000     
   1.1250000000000000        3.1250000000000000E-002   0.0000000000000000     
   1.0000000000000000        6.2500000000000000E-002   0.0000000000000000     
   1.0312500000000000        6.2500000000000000E-002   0.0000000000000000     
   1.0625000000000000        6.2500000000000000E-002   0.0000000000000000     
   1.0937500000000000        6.2500000000000000E-002   0.0000000000000000     
   1.1250000000000000        6.2500000000000000E-002   0.0000000000000000     
   1.0000000000000000        9.3750000000000000E-002   0.0000000000000000     
   1.0312500000000000        9.3750000000000000E-002   0.0000000000000000     
   1.0625000000000000        9.3750000000000000E-002   0.0000000000000000     
   1.0937500000000000        9.3750000000000000E-002   0.0000000000000000     
   1.1250000000000000        9.3750000000000000E-002   0.0000000000000000     
   1.0000000000000000       0.12500000000000000        0.0000000000000000     
   1.0312500000000000       0.12500000000000000        0.0000000000000000     
   1.0625000000000000       0.12500000000000000        0.0000000000000000     
   1.0937500000000000       0.12500000000000000        0.0000000000000000     
   1.1250000000000000       0.12500000000000000        0.0000000000000000     
   1.1250000000000000        0.0000000000000000        0.0000000000000000     
   1.1562500000000000        0.0000000000000000        0.0000000000000000     
   1.1875000000000000        0.0000000000000000        0.0000000000000000     
   1.2187500000000000        0.0000000000000000        0.0000000000000000     
   1.2500000000000000        0.0000000000000000        0.0000000000000000     
   1.1250000000000000        3.1250000000000000E-002   0.0000000000000000     
   1.1562500000000000        3.1250000000000000E-002   0.0000000000000000     
   1.1875000000000000        3.1250000000000000E-002   0.0000000000000000     
   1.2187500000000000        3.1250000000000000E-002   0.0000000000000000     
   1.2500000000000000        3.1250000000000000E-002   0.0000000000000000     
   1.1250000000000000        6.2500000000000000E-002   0.0000000000000000     
   1.1562500000000000        6.2500000000000000E-002   0.0000000000000000     
   1.1875000000000000        6.2500000000000000E-002   0.0000000000000000     
   1.2187500000000000        6.2500000000000000E-002   0.0000000000000000     
   1.2500000000000000        6.2500000000000000E-002   0.0000000000000000     
   1.1250000000000000        9.3750000000000000E-002   0.0000000000000000     
   1.1562500000000000        9.3750000000000000E-002   0.0000000000000000     
   1.1875000000000000        9.3750000000000000E-002   0.0000000000000000     
   1.2187500000000000        9.3750000000000000E-002   0.0000000000000000     
   1.2500000000000000        9.3750000000000000E-002   0.0000000000000000     
   1.1250000000000000       0.12500000000000000        0.0000000000000000     
   1.1562500000000000       0.12500000000000000        0.0000000000000000     
   1.1875000000000000       0.12500000000000000        0.0000000000000000     
   1.2187500000000000       0.12500000000000000        0.0000000000000000     
   1.2500000000000000       0.12500000000000000        0.0000000000000000     
   1.2500000000000000        0.0000000000000000        0.0000000000000000     
   1.2812500000000000        0.0000000000000000        0.0000000000000000     
   1.3125000000000000        0.0000000000000000        0.0000000000000000     
   1.3437500000000000        0.0000000000000000        0.0000000000000000     
   1.3750000000000000        0.0000000000000000        0.0000000000000000     
   1.2500000000000000        3.1250000000000000E-002   0.0000000000000000     
   1.2812500000000000        3.1250000000000000E-002   0.0000000000000000     
   1.3125000000000000        3.1250000000000000E-002   0.0000000000000000     
   1.3437500000000000        3.1250000000000000E-002   0.0000000000000000     
   1.3750000000000000        3.1250000000000000E-002   0.0000000000000000     
   1.2500000000000000        6.2500000000000000E-002   0.0000000000000000     
   1.2812500000000000        6.2500000000000000E-002   0.0000000000000000     
   1.3125000000000000        6.2500000000000000E-002   0.0000000000000000     
   1.3437500000000000        6.2500000000000000E-002   0.0000000000000000     
   1.3750000000000000        6.2500000000000000E-002   0.0000000000000000     
   1.2500000000000000        9.3750000000000000E-002   0.0000000000000000     
   1.2812500000000000        9.3750000000000000E-002   0.0000000000000000     
   1.3125000000000000        9.3750000000000000E-002   0.0000000000000000     
   1.3437500000000000        9.3750000000000000E-002   0.0000000000000000     
   1.3750000000000000        9.3750000000000000E-002   0.0000000000000000     
   1.2500000000000000       0.12500000000000000        0.0000000000000000     
   1.2812500000000000       0.12500000000000000        0.0000000000000000     
   1.3125000000000000       0.12500000000000000        0.0000000000000000     
   1.3437500000000000       0.12500000000000000        0.0000000000000000     
   1.3750000000000000       0.12500000000000000        0.0000000000000000     
   1.3750000000000000        0.0000000000000000        0.0000000000000000     
   1.4062500000000000        0.0000000000000000        0.0000000000000000     
   1.4375000000000000        0.0000000000000000        0.0000000000000000     
   1.4687500000000000        0.0000000000000000        0.0000000000000000     
   1.5000000000000000        0.0000000000000000        0.0000000000000000     
   1.3750000000000000        3.1250000000000000E-002   0.0000000000000000     
   1.4062500000000000        3.1250000000000000E-002   0.0000000000000000     
   1.4375000000000000        3.1250000000000000E-002   0.0000000000000000     
   1.4687500000000000        3.1250000000000000E-002   0.0000000000000000     
   1.5000000000000000        3.1250000000000000E-002   0.0000000000000000     
   1.3750000000000000        6.2500000000000000E-002   0.0000000000000000     
   1.4062500000000000        6.2500000000000000E-002   0.0000000000000000     
   1.4375000000000000        6.2500000000000000E-002   0.0000000000000000     
   1.4687500000000000        6.2500000000000000E-002   0.0000000000000000     
   1.5000000000000000        6.2500000000000000E-002   0.0000000000000000     
   1.3750000000000000        9.3750000000000000E-002   0.0000000000000000     
   1.4062500000000000        9.3750000000000000E-002   0.0000000000000000     
   1.4375000000000000        9.3750000000000000E-002   0.0000000000000000     
   1.4687500000000000        9.3750000000000000E-002   0.0000000000000000     
   1.5000000000000000        9.3750000000000000E-002   0.0000000000000000     
   1.3750000000000000       0.12500000000000000        0.0000000000000000     
   1.4062500000000000       0.12500000000000000        0.0000000000000000     
   1.4375000000000000       0.12500000000000000        0.0000000000000000     
   1.4687500000000000       0.12500000000000000        0.0000000000000000     
   1.5000000000000000       0.12500000000000000        0.0000000000000000     
  0.50000000000000000       0.12500000000000000        0.0000000000000000     
  0.53125000000000000       0.12500000000000000        0.0000000000000000     
  0.56250000000000000       0.12500000000000000        0.0000000000000000     
  0.59375000000000000       0.12500000000000000        0.0000000000000000     
  0.62500000000000000       0.12500000000000000        0.0000000000000000     
  0.50000000000000000       0.15625000000000000        0.0000000000000000     
  0.53125000000000000       0.15625000000000000        0.0000000000000000     
  0.56250000000000000       0.15625000000000000        0.0000000000000000     
  0.59375000000000000       0.15625000000000000        0.0000000000000000     
  0.62500000000000000       0.15625000000000000        0.0000000000000000     
  0.50000000000000000       0.18750000000000000        0.0000000000000000     
  0.53125000000000000       0.18750000000000000        0.0000000000000000     
  0.56250000000000000       0.18750000000000000        0.0000000000000000     
  0.59375000000000000       0.18750000000000000        0.0000000000000000     
  0.62500000000000000       0.18750000000000000        0.0000000000000000     
  0.50000000000000000       0.21875000000000000        0.0000000000000000     
  0.53125000000000000       0.21875000000000000        0.0000000000000000     
  0.56250000000000000       0.21875000000000000        0.0000000000000000     
  0.59375000000000000       0.21875000000000000        0.0000000000000000     
  0.62500000000000000       0.21875000000000000        0.0000000000000000     
  0.50000000000000000       0.25000000000000000        0.0000000000000000     
  0.53125000000000000       0.25000000000000000        0.0000000000000000     
  0.56250000000000000       0.25000000000000000        0.0000000000000000     
  0.59375000000000000       0.25000000000000000        0.0000000000000000     
  0.62500000000000000       0.25000000000000000        0.0000000000000000     
  0.62500000000000000       0.12500000000000000        0.0000000000000000     
  0.65625000000000000       0.12500000000000000        0.0000000000000000     
  0.68750000000000000       0.12500000000000000        0.0000000000000000     
  0.71875000000000000       0.12500000000000000        0.0000000000000000     
  0.75000000000000000       0.12500000000000000        0.0000000000000000     
  0.62500000000000000       0.15625000000000000        0.0000000000000000     
  0.65625000000000000       0.15625000000000000        0.0000000000000000     
  0.68750000000000000       0.15625000000000000        0.0000000000000000     
  0.71875000000000000       0.15625000000000000        0.0000000000000000     
  0.75000000000000000       0.15625000000000000        0.0000000000000000     
  0.62500000000000000       0.18750000000000000        0.0000000000000000     
  0.65625000000000000       0.18750000000000000        0.0000000000000000     
  0.68750000000000000       0.18750000000000000        0.0000000000000000     
  0.71875000000000000       0.18750000000000000        0.0000000000000000     
  0.75000000000000000       0.18750000000000000        0.0000000000000000     
  0.62500000000000000       0.21875000000000000        0.0000000000000000     
  0.65625000000000000       0.21875000000000000        0.0000000000000000     
  0.68750000000000000       0.21875000000000000        0.0000000000000000     
  0.71875000000000000       0.21875000000000000        0.0000000000000000     
  0.75000000000000000       0.21875000000000000        0.0000000000000000     
  0.62500000000000000       0.25000000000000000        0.0000000000000000     
  0.65625000000000000       0.25000000000000000        0.0000000000000000     
  0.68750000000000000       0.25000000000000000        0.0000000000000000     
  0.71875000000000000       0.25000000000000000        0.0000000000000000     
  0.75000000000000000       0.25000000000000000        0.0000000000000000     
  0.75000000000000000       0.12500000000000000        0.0000000000000000     
  0.78125000000000000       0.12500000000000000        0.0000000000000000     
  0.81250000000000000       0.12500000000000000        0.0000000000000000     
  0.84375000000000000       0.12500000000000000        0.0000000000000000     
  0.87500000000000000       0.12500000000000000        0.0000000000000000     
  0.75000000000000000       0.15625000000000000        0.0000000000000000     
  0.78125000000000000       0.15625000000000000        0.0000000000000000     
  0.81250000000000000       0.15625000000000000        0.0000000000000000     
  0.84375000000000000       0.15625000000000000        0.0000000000000000     
  0.87500000000000000       0.15625000000000000        0.0000000000000000     
  0.75000000000000000       0.18750000000000000        0.0000000000000000     
  0.78125000000000000       0.18750000000000000        0.0000000000000000     
  0.81250000000000000       0.18750000000000000        0.0000000000000000     
  0.84375000000000000       0.18750000000000000        0.0000000000000000     
  0.87500000000000000       0.18750000000000000        0.0000000000000000     
  0.75000000000000000       0.21875000000000000        0.0000000000000000     
  0.78125000000000000       0.21875000000000000        0.0000000000000000     
  0.81250000000000000       0.21875000000000000        0.0000000000000000     
  0.84375000000000000       0.21875000000000000        0.0000000000000000     
  0.87500000000000000       0.21875000000000000        0.0000000000000000     
  0.75000000000000000       0.25000000000000000        0.0000000000000000     
  0.78125000000000000       0.25000000000000000        0.0000000000000000     
  0.81250000000000000       0.25000000000000000        0.0000000000000000     
  0.84375000000000000       0.25000000000000000        0.0000000000000000     
  0.87500000000000000       0.25000000000000000        0.0000000000000000     
  0.87500000000000000       0.12500000000000000        0.0000000000000000     
  0.90625000000000000       0.12500000000000000        0.0000000000000000     
  0.93750000000000000       0.12500000000000000        0.0000000000000000     
  0.96875000000000000       0.12500000000000000        0.0000000000000000     
   1.0000000000000000       0.12500000000000000        0.0000000000000000     
  0.87500000000000000       0.15625000000000000        0.0000000000000000     
  0.90625000000000000       0.15625000000000000        0.0000000000000000     
  0.93750000000000000       0.15625000000000000        0.0000000000000000     
  0.96875000000000000       0.15625000000000000        0.0000000000000000     
   1.0000000000000000       0.15625000000000000        0.0000000000000000     
  0.87500000000000000       0.18750000000000000        0.0000000000000000     
  0.90625000000000000       0.18750000000000000        0.0000000000000000     
  0.93750000000000000       0.18750000000000000        0.0000000000000000     
  0.96875000000000000       0.18750000000000000        0.0000000000000000     
   1.0000000000000000       0.18750000000000000        0.0000000000000000     
  0.87500000000000000       0.21875000000000000        0.0000000000000000     
  0.90625000000000000       0.21875000000000000        0.0000000000000000     
  0.93750000000000000       0.21875000000000000        0.0000000000000000     
  0.96875000000000000       0.21875000000000000        0.0000000000000000     
   1.0000000000000000       0.21875000000000000        0.0000000000000000     
  0.87500000000000000       0.25000000000000000        0.0000000000000000     
  0.90625000000000000       0.25000000000000000        0.0000000000000000     
  0.93750000000000000       0.25000000000000000        0.0000000000000000     
  0.96875000000000000       0.25000000000000000        0.0000000000000000     
   1.0000000000000000       0.25000000000000000        0.0000000000000000     
   1.0000000000000000       0.12500000000000000        0.0000000000000000     
   1.0312500000000000       0.12500000000000000        0.0000000000000000     
   1.0625000000000000       0.12500000000000000        0.0000000000000000     
   1.0937500000000000       0.12500000000000000        0.0000000000000000     
   1.1250000000000000       0.12500000000000000        0.0000000000000000     
   1.0000000000000000       0.15625000000000000        0.0000000000000000     
   1.0312500000000000       0.15625000000000000        0.0000000000000000     
   1.0625000000000000       0.15625000000000000        0.0000000000000000     
   1.0937500000000000       0.15625000000000000        0.0000000000000000     
   1.1250000000000000       0.15625000000000000        0.0000000000000000     
   1.0000000000000000       0.18750000000000000        0.0000000000000000     
   1.0312500000000000       0.18750000000000000        0.0000000000000000     
   1.0625000000000000       0.18750000000000000        0.0000000000000000     
   1.0937500000000000       0.18750000000000000        0.0000000000000000     
   1.1250000000000000       0.18750000000000000        0.0000000000000000     
   1.0000000000000000       0.21875000000000000        0.0000000000000000     
   1.0312500000000000       0.21875000000000000        0.0000000000000000     
   1.0625000000000000       0.21875000000000000        0.0000000000000000     
   1.0937500000000000       0.21875000000000000        0.0000000000000000     
   1.1250000000000000       0.21875000000000000        0.0000000000000000     
   1.0000000000000000       0.25000000000000000        0.0000000000000000     
   1.0312500000000000       0.25000000000000000        0.0000000000000000     
   1.0625000000000000       0.25000000000000000        0.0000000000000000     
   1.0937500000000000       0.25000000000000000        0.0000000000000000     
   1.1250000000000000       0.25000000000000000        0.0000000000000000     
   1.1250000000000000       0.12500000000000000        0.0000000000000000     
   1.1562500000000000       0.12500000000000000        0.0000000000000000     
   1.1875000000000000       0.12500000000000000        0.0000000000000000     
   1.2187500000000000       0.12500000000000000        0.0000000000000000     
   1.2500000000000000       0.12500000000000000        0.0000000000000000     
   1.1250000000000000       0.15625000000000000        0.0000000000000000     
   1.1562500000000000       0.15625000000000000        0.0000000000000000     
   1.1875000000000000       0.15625000000000000        0.0000000000000000     
   1.2187500000000000       0.15625000000000000        0.0000000000000000     
   1.2500000000000000       0.15625000000000000        0.0000000000000000     
   1.1250000000000000       0.18750000000000000        0.0000000000000000     
   1.1562500000000000       0.18750000000000000        0.0000000000000000     
   1.1875000000000000       0.18750000000000000        0.0000000000000000     
   1.2187500000000000       0.18750000000000000        0.0000000000000000     
   1.2500000000000000       0.18750000000000000        0.0000000000000000     
   1.1250000000000000       0.21875000000000000        0.0000000000000000     
   1.1562500000000000       0.21875000000000000        0.0000000000000000     
   1.1875000000000000       0.21875000000000000        0.0000000000000000     
   1.2187500000000000       0.21875000000000000        0.0000000000000000     
   1.2500000000000000       0.21875000000000000        0.0000000000000000     
   1.1250000000000000       0.25000000000000000        0.0000000000000000     
   1.1562500000000000       0.25000000000000000        0.0000000000000000     
   1.1875000000000000       0.25000000000000000        0.0000000000000000     
   1.2187500000000000       0.25000000000000000        0.0000000000000000     
   1.2500000000000000       0.25000000000000000        0.0000000000000000     
   1.2500000000000000       0.12500000000000000        0.0000000000000000     
   1.2812500000000000       0.12500000000000000        0.0000000000000000     
   1.3125000000000000       0.12500000000000000        0.0000000000000000     
   1.3437500000000000       0.12500000000000000        0.0000000000000000     
   1.3750000000000000       0.12500000000000000        0.0000000000000000     
   1.2500000000000000       0.15625000000000000        0.0000000000000000     
   1.2812500000000000       0.15625000000000000        0.0000000000000000     
   1.3125000000000000       0.15625000000000000        0.0000000000000000     
   1.3437500000000000       0.15625000000000000        0.0000000000000000     
   1.3750000000000000       0.15625000000000000        0.0000000000000000     
   1.2500000000000000       0.18750000000000000        0.0000000000000000     
   1.2812500000000000       0.18750000000000000        0.0000000000000000     
   1.3125000000000000       0.18750000000000000        0.0000000000000000     
   1.3437500000000000       0.18750000000000000        0.0000000000000000     
   1.3750000000000000       0.18750000000000000        0.0000000000000000     
   1.2500000000000000       0.21875000000000000        0.0000000000000000     
   1.2812500000000000       0.21875000000000000        0.0000000000000000     
   1.3125000000000000       0.21875000000000000        0.0000000000000000     
   1.3437500000000000       0.21875000000000000        0.0000000000000000     
   1.3750000000000000       0.21875000000000000        0.0000000000000000     
   1.2500000000000000       0.25000000000000000        0.0000000000000000     
   1.2812500000000000       0.25000000000000000        0.0000000000000000     
   1.3125000000000000       0.25000000000000000        0.0000000000000000     
   1.3437500000000000       0.25000000000000000        0.0000000000000000     
   1.3750000000000000       0.25000000000000000        0.0000000000000000     
   1.3750000000000000       0.12500000000000000        0.0000000000000000     
   1.4062500000000000       0.12500000000000000        0.0000000000000000     
   1.4375000000000000       0.12500000000000000        0.0000000000000000     
   1.4687500000000000       0.12500000000000000        0.0000000000000000     
   1.5000000000000000       0.12500000000000000        0.0000000000000000     
   1.3750000000000000       0.15625000000000000        0.0000000000000000     
   1.4062500000000000       0.15625000000000000        0.0000000000000000     
   1.4375000000000000       0.15625000000000000        0.0000000000000000     
   1.4687500000000000       0.15625000000000000        0.0000000000000000     
   1.5000000000000000       0.15625000000000000        0.0000000000000000     
   1.3750000000000000       0.18750000000000000        0.0000000000000000     
   1.4062500000000000       0.18750000000000000        0.0000000000000000     
   1.4375000000000000       0.18750000000000000        0.0000000000000000     
   1.4687500000000000       0.18750000000000000        0.0000000000000000     
   1.5000000000000000       0.18750000000000000        0.0000000000000000     
   1.3750000000000000       0.21875000000000000        0.0000000000000000     
   1.4062500000000000       0.21875000000000000        0.0000000000000000     
   1.4375000000000000       0.21875000000000000        0.0000000000000000     
   1.4687500000000000       0.21875000000000000        0.0000000000000000     
   1.5000000000000000       0.21875000000000000        0.0000000000000000     
   1.3750000000000000       0.25000000000000000        0.0000000000000000     
   1.4062500000000000       0.25000000000000000        0.0000000000000000     
   1.4375000000000000       0.25000000000000000        0.0000000000000000     
   1.4687500000000000       0.25000000000000000        0.0000000000000000     
   1.5000000000000000       0.25000000000000000        0.0000000000000000     
  0.50000000000000000       0.25000000000000000        0.0000000000000000     
  0.53125000000000000       0.25000000000000000        0.0000000000000000     
  0.56250000000000000       0.25000000000000000        0.0000000000000000     
  0.59375000000000000       0.25000000000000000        0.0000000000000000     
  0.62500000000000000       0.25000000000000000        0.0000000000000000     
  0.50000000000000000       0.28125000000000000        0.0000000000000000     
  0.53125000000000000       0.28125000000000000        0.0000000000000000     
  0.56250000000000000       0.28125000000000000        0.0000000000000000     
  0.59375000000000000       0.28125000000000000        0.0000000000000000     
  0.62500000000000000       0.28125000000000000        0.0000000000000000     
  0.50000000000000000       0.31250000000000000        0.0000000000000000     
  0.53125000000000000       0.31250000000000000        0.0000000000000000     
  0.56250000000000000       0.31250000000000000        0.0000000000000000     
  0.59375000000000000       0.31250000000000000        0.0000000000000000     
  0.62500000000000000       0.31250000000000000        0.0000000000000000     
  0.50000000000000000       0.34375000000000000        0.0000000000000000     
  0.53125000000000000       0.34375000000000000        0.0000000000000000     
  0.56250000000000000       0.34375000000000000        0.0000000000000000     
  0.59375000000000000       0.34375000000000000        0.0000000000000000     
  0.62500000000000000       0.34375000000000000        0.0000000000000000     
  0.50000000000000000       0.37500000000000000        0.0000000000000000     
  0.53125000000000000       0.37500000000000000        0.0000000000000000     
  0.56250000000000000       0.37500000000000000        0.0000000000000000     
  0.59375000000000000       0.37500000000000000        0.0000000000000000     
  0.62500000000000000       0.37500000000000000        0.0000000000000000     
  0.62500000000000000       0.25000000000000000        0.0000000000000000     
  0.65625000000000000       0.25000000000000000        0.0000000000000000     
  0.68750000000000000       0.25000000000000000        0.0000000000000000     
  0.71875000000000000       0.25000000000000000        0.0000000000000000     
  0.75000000000000000       0.25000000000000000        0.0000000000000000     
  0.62500000000000000       0.28125000000000000        0.0000000000000000     
  0.65625000000000000       0.28125000000000000        0.0000000000000000     
  0.68750000000000000       0.28125000000000000        0.0000000000000000     
  0.71875000000000000       0.28125000000000000        0.0000000000000000     
  0.75000000000000000       0.28125000000000000        0.0000000000000000     
  0.62500000000000000       0.31250000000000000        0.0000000000000000     
  0.65625000000000000       0.31250000000000000        0.0000000000000000     
  0.68750000000000000       0.31250000000000000        0.0000000000000000     
  0.71875000000000000       0.31250000000000000        0.0000000000000000     
  0.75000000000000000       0.31250000000000000        0.0000000000000000     
  0.62500000000000000       0.34375000000000000        0.0000000000000000     
  0.65625000000000000       0.34375000000000000        0.0000000000000000     
  0.68750000000000000       0.34375000000000000        0.0000000000000000     
  0.71875000000000000       0.34375000000000000        0.0000000000000000     
  0.75000000000000000       0.34375000000000000        0.0000000000000000     
  0.62500000000000000       0.37500000000000000        0.0000000000000000     
  0.65625000000000000       0.37500000000000000        0.0000000000000000     
  0.68750000000000000       0.37500000000000000        0.0000000000000000     
  0.71875000000000000       0.37500000000000000        0.0000000000000000     
  0.75000000000000000       0.37500000000000000        0.0000000000000000     
  0.75000000000000000       0.25000000000000000        0.0000000000000000     
  0.78125000000000000       0.25000000000000000        0.0000000000000000     
  0.81250000000000000       0.25000000000000000        0.0000000000000000     
  0.84375000000000000       0.25000000000000000        0.0000000000000000     
  0.87500000000000000       0.25000000000000000        0.0000000000000000     
  0.75000000000000000       0.28125000000000000        0.0000000000000000     
  0.78125000000000000       0.28125000000000000        0.0000000000000000     
  0.81250000000000000       0.28125000000000000        0.0000000000000000     
  0.84375000000000000       0.28125000000000000        0.0000000000000000     
  0.87500000000000000       0.28125000000000000        0.0000000000000000     
  0.75000000000000000       0.31250000000000000        0.0000000000000000     
  0.78125000000000000       0.31250000000000000        0.0000000000000000     
  0.81250000000000000       0.31250000000000000        0.0000000000000000     
  0.84375000000000000       0.31250000000000000        0.0000000000000000     
  0.87500000000000000       0.31250000000000000        0.0000000000000000     
  0.75000000000000000       0.34375000000000000        0.0000000000000000     
  0.78125000000000000       0.34375000000000000        0.0000000000000000     
  0.81250000000000000       0.34375000000000000        0.0000000000000000     
  0.84375000000000000       0.34375000000000000        0.0000000000000000     
  0.87500000000000000       0.34375000000000000        0.0000000000000000     
  0.75000000000000000       0.37500000000000000        0.0000000000000000     
  0.78125000000000000       0.37500000000000000        0.0000000000000000     
  0.81250000000000000       0.37500000000000000        0.0000000000000000     
  0.84375000000000000       0.37500000000000000        0.0000000000000000     
  0.87500000000000000       0.37500000000000000        0.0000000000000000     
  0.87500000000000000       0.25000000000000000        0.0000000000000000     
  0.90625000000000000       0.25000000000000000        0.0000000000000000     
  0.93750000000000000       0.25000000000000000        0.0000000000000000     
  0.96875000000000000       0.25000000000000000        0.0000000000000000     
   1.0000000000000000       0.25000000000000000        0.0000000000000000     
  0.87500000000000000       0.28125000000000000        0.0000000000000000     
  0.90625000000000000       0.28125000000000000        0.0000000000000000     
  0.93750000000000000       0.28125000000000000        0.0000000000000000     
  0.96875000000000000       0.28125000000000000        0.0000000000000000     
   1.0000000000000000       0.28125000000000000        0.0000000000000000     
  0.87500000000000000       0.31250000000000000        0.0000000000000000     
  0.90625000000000000       0.31250000000000000        0.0000000000000000     
  0.93750000000000000       0.31250000000000000        0.0000000000000000     
  0.96875000000000000       0.31250000000000000        0.0000000000000000     
   1.0000000000000000       0.31250000000000000        0.0000000000000000     
  0.87500000000000000       0.34375000000000000        0.0000000000000000     
  0.90625000000000000       0.34375000000000000        0.0000000000000000     
  0.93750000000000000       0.34375000000000000        0.0000000000000000     
  0.96875000000000000       0.34375000000000000        0.0000000000000000     
   1.0000000000000000       0.34375000000000000        0.0000000000000000     
  0.87500000000000000       0.37500000000000000        0.0000000000000000     
  0.90625000000000000       0.37500000000000000        0.0000000000000000     
  0.93750000000000000       0.37500000000000000        0.0000000000000000     
  0.96875000000000000       0.37500000000000000        0.0000000000000000     
   1.0000000000000000       0.37500000000000000        0.0000000000000000     
   1.0000000000000000       0.25000000000000000        0.0000000000000000     
   1.0312500000000000       0.25000000000000000        0.0000000000000000     
   1.0625000000000000       0.25000000000000000        0.0000000000000000     
   1.0937500000000000       0.25000000000000000        0.0000000000000000     
   1.1250000000000000       0.25000000000000000        0.0000000000000000     
   1.0000000000000000       0.28125000000000000        0.0000000000000000     
   1.0312500000000000       0.28125000000000000        0.0000000000000000     
   1.0625000000000000       0.28125000000000000        0.0000000000000000     
   1.0937500000000000       0.28125000000000000        0.0000000000000000     
   1.1250000000000000       0.28125000000000000        0.0000000000000000     
   1.0000000000000000       0.31250000000000000        0.0000000000000000     
   1.0312500000000000       0.31250000000000000        0.0000000000000000     
   1.0625000000000000       0.31250000000000000        0.0000000000000000     
   1.0937500000000000       0.31250000000000000        0.0000000000000000     
   1.1250000000000000       0.31250000000000000        0.0000000000000000     
   1.0000000000000000       0.34375000000000000        0.0000000000000000     
   1.0312500000000000       0.34375000000000000        0.0000000000000000     
   1.0625000000000000       0.34375000000000000        0.0000000000000000     
   1.0937500000000000       0.34375000000000000        0.0000000000000000     
   1.1250000000000000       0.34375000000000000        0.0000000000000000     
   1.0000000000000000       0.37500000000000000        0.0000000000000000     
   1.0312500000000000       0.37500000000000000        0.0000000000000000     
   1.0625000000000000       0.37500000000000000        0.0000000000000000     
   1.0937500000000000       0.37500000000000000        0.0000000000000000     
   1.1250000000000000       0.37500000000000000        0.0000000000000000     
   1.1250000000000000       0.25000000000000000        0.0000000000000000     
   1.1562500000000000       0.25000000000000000        0.0000000000000000     
   1.1875000000000000       0.25000000000000000        0.0000000000000000     
   1.2187500000000000       0.25000000000000000        0.0000000000000000     
   1.2500000000000000       0.25000000000000000        0.0000000000000000     
   1.1250000000000000       0.28125000000000000        0.0000000000000000     
   1.1562500000000000       0.28125000000000000        0.0000000000000000     
   1.1875000000000000       0.28125000000000000        0.0000000000000000     
   1.2187500000000000       0.28125000000000000        0.0000000000000000     
   1.2500000000000000       0.28125000000000000        0.0000000000000000     
   1.1250000000000000       0.31250000000000000        0.0000000000000000     
   1.1562500000000000       0.31250000000000000        0.0000000000000000     
   1.1875000000000000       0.31250000000000000        0.0000000000000000     
   1.2187500000000000       0.31250000000000000        0.0000000000000000     
   1.2500000000000000       0.31250000000000000        0.0000000000000000     
   1.1250000000000000       0.34375000000000000        0.0000000000000000     
   1.1562500000000000       0.34375000000000000        0.0000000000000000     
   1.1875000000000000       0.34375000000000000        0.0000000000000000     
   1.2187500000000000       0.34375000000000000        0.0000000000000000     
   1.2500000000000000       0.34375000000000000        0.0000000000000000     
   1.1250000000000000       0.37500000000000000        0.0000000000000000     
   1.1562500000000000       0.37500000000000000        0.0000000000000000     
   1.1875000000000000       0.37500000000000000        0.0000000000000000     
   1.2187500000000000       0.37500000000000000        0.0000000000000000     
   1.2500000000000000       0.37500000000000000        0.0000000000000000     
   1.2500000000000000       0.25000000000000000        0.0000000000000000     
   1.2812500000000000       0.25000000000000000        0.0000000000000000     
   1.3125000000000000       0.25000000000000000        0.0000000000000000     
   1.3437500000000000       0.25000000000000000        0.0000000000000000     
   1.3750000000000000       0.25000000000000000        0.0000000000000000     
   1.2500000000000000       0.28125000000000000        0.0000000000000000     
   1.2812500000000000       0.28125000000000000        0.0000000000000000     
   1.3125000000000000       0.28125000000000000        0.0000000000000000     
   1.3437500000000000       0.28125000000000000        0.0000000000000000     
   1.3750000000000000       0.28125000000000000        0.0000000000000000     
   1.2500000000000000       0.31250000000000000        0.0000000000000000     
   1.2812500000000000       0.31250000000000000        0.0000000000000000     
   1.3125000000000000       0.31250000000000000        0.0000000000000000     
   1.3437500000000000       0.31250000000000000        0.0000000000000000     
   1.3750000000000000       0.31250000000000000        0.0000000000000000     
   1.2500000000000000       0.34375000000000000        0.0000000000000000     
   1.2812500000000000       0.34375000000000000        0.0000000000000000     
   1.3125000000000000       0.34375000000000000        0.0000000000000000     
   1.3437500000000000       0.34375000000000000        0.0000000000000000     
   1.3750000000000000       0.34375000000000000        0.0000000000000000     
   1.2500000000000000       0.37500000000000000        0.0000000000000000     
   1.2812500000000000       0.37500000000000000        0.0000000000000000     
   1.3125000000000000       0.37500000000000000        0.0000000000000000     
   1.3437500000000000       0.37500000000000000        0.0000000000000000     
   1.3750000000000000       0.37500000000000000        0.0000000000000000     
   1.3750000000000000       0.25000000000000000        0.0000000000000000     
   1.4062500000000000       0.25000000000000000        0.0000000000000000     
   1.4375000000000000       0.25000000000000000        0.0000000000000000     
   1.4687500000000000       0.25000000000000000        0.0000000000000000     
   1.5000000000000000       0.25000000000000000        0.0000000000000000     
   1.3750000000000000       0.28125000000000000        0.0000000000000000     
   1.4062500000000000       0.28125000000000000        0.0000000000000000     
   1.4375000000000000       0.28125000000000000        0.0000000000000000     
   1.4687500000000000       0.28125000000000000        0.0000000000000000     
   1.5000000000000000       0.28125000000000000        0.0000000000000000     
   1.3750000000000000       0.31250000000000000        0.0000000000000000     
   1.4062500000000000       0.31250000000000000        0.0000000000000000     
   1.4375000000000000       0.31250000000000000        0.0000000000000000     
   1.4687500000000000       0.31250000000000000        0.0000000000000000     
   1.5000000000000000       0.31250000000000000        0.0000000000000000     
   1.3750000000000000       0.34375000000000000        0.0000000000000000     
   1.4062500000000000       0.34375000000000000        0.0000000000000000     
   1.4375000000000000       0.34375000000000000        0.0000000000000000     
   1.4687500000000000       0.34375000000000000        0.0000000000000000     
   1.5000000000000000       0.34375000000000000        0.0000000000000000     
   1.3750000000000000       0.37500000000000000        0.0000000000000000     
   1.4062500000000000       0.37500000000000000        0.0000000000000000     
   1.4375000000000000       0.37500000000000000        0.0000000000000000     
   1.4687500000000000       0.37500000000000000        0.0000000000000000     
   1.5000000000000000       0.37500000000000000        0.0000000000000000     
  0.50000000000000000       0.37500000000000000        0.0000000000000000     
  0.53125000000000000       0.37500000000000000        0.0000000000000000     
  0.56250000000000000       0.37500000000000000        0.0000000000000000     
  0.59375000000000000       0.37500000000000000        0.0000000000000000     
  0.62500000000000000       0.37500000000000000        0.0000000000000000     
  0.50000000000000000       0.40625000000000000        0.0000000000000000     
  0.53125000000000000       0.40625000000000000        0.0000000000000000     
  0.56250000000000000       0.40625000000000000        0.0000000000000000     
  0.59375000000000000       0.40625000000000000        0.0000000000000000     
  0.62500000000000000       0.40625000000000000        0.0000000000000000     
  0.50000000000000000       0.43750000000000000        0.0000000000000000     
  0.53125000000000000       0.43750000000000000        0.0000000000000000     
  0.56250000000000000       0.43750000000000000        0.0000000000000000     
  0.59375000000000000       0.43750000000000000        0.0000000000000000     
  0.62500000000000000       0.43750000000000000        0.0000000000000000     
  0.50000000000000000       0.46875000000000000        0.0000000000000000     
  0.53125000000000000       0.46875000000000000        0.0000000000000000     
  0.56250000000000000       0.46875000000000000        0.0000000000000000     
  0.59375000000000000       0.46875000000000000        0.0000000000000000     
  0.62500000000000000       0.46875000000000000        0.0000000000000000     
  0.50000000000000000       0.50000000000000000        0.0000000000000000     
  0.53125000000000000       0.50000000000000000        0.0000000000000000     
  0.56250000000000000       0.50000000000000000        0.0000000000000000     
  0.59375000000000000       0.50000000000000000        0.0000000000000000     
  0.62500000000000000       0.50000000000000000        0.0000000000000000     
  0.62500000000000000       0.37500000000000000        0.0000000000000000     
  0.65625000000000000       0.37500000000000000        0.0000000000000000     
  0.68750000000000000       0.37500000000000000        0.0000000000000000     
  0.71875000000000000       0.37500000000000000        0.0000000000000000     
  0.75000000000000000       0.37500000000000000        0.0000000000000000     
  0.62500000000000000       0.40625000000000000        0.0000000000000000     
  0.65625000000000000       0.40625000000000000        0.0000000000000000     
  0.68750000000000000       0.40625000000000000        0.0000000000000000     
  0.71875000000000000       0.40625000000000000        0.0000000000000000     
  0.75000000000000000       0.40625000000000000        0.0000000000000000     
  0.62500000000000000       0.43750000000000000        0.0000000000000000     
  0.65625000000000000       0.43750000000000000        0.0000000000000000     
  0.68750000000000000       0.43750000000000000        0.0000000000000000     
  0.71875000000000000       0.43750000000000000        0.0000000000000000     
  0.75000000000000000       0.43750000000000000        0.0000000000000000     
  0.62500000000000000       0.46875000000000000        0.0000000000000000     
  0.65625000000000000       0.46875000000000000        0.0000000000000000     
  0.68750000000000000       0.46875000000000000        0.0000000000000000     
  0.71875000000000000       0.46875000000000000        0.0000000000000000     
  0.75000000000000000       0.46875000000000000        0.0000000000000000     
  0.62500000000000000       0.50000000000000000        0.0000000000000000     
  0.65625000000000000       0.50000000000000000        0.0000000000000000     
  0.68750000000000000       0.50000000000000000        0.0000000000000000     
  0.71875000000000000       0.50000000000000000        0.0000000000000000     
  0.75000000000000000       0.50000000000000000        0.0000000000000000     
  0.75000000000000000       0.37500000000000000        0.0000000000000000     
  0.78125000000000000       0.37500000000000000        0.0000000000000000     
  0.81250000000000000       0.37500000000000000        0.0000000000000000     
  0.84375000000000000       0.37500000000000000        0.0000000000000000     
  0.87500000000000000       0.37500000000000000        0.0000000000000000     
  0.75000000000000000       0.40625000000000000        0.0000000000000000     
  0.78125000000000000       0.40625000000000000        0.0000000000000000     
  0.81250000000000000       0.40625000000000000        0.0000000000000000     
  0.84375000000000000       0.40625000000000000        0.0000000000000000     
  0.87500000000000000       0.40625000000000000        0.0000000000000000     
  0.75000000000000000       0.43750000000000000        0.0000000000000000     
  0.78125000000000000       0.43750000000000000        0.0000000000000000     
  0.81250000000000000       0.43750000000000000        0.0000000000000000     
  0.84375000000000000       0.43750000000000000        0.0000000000000000     
  0.87500000000000000       0.43750000000000000        0.0000000000000000     
  0.75000000000000000       0.46875000000000000        0.0000000000000000     
  0.78125000000000000       0.46875000000000000        0.0000000000000000     
  0.81250000000000000       0.46875000000000000        0.0000000000000000     
  0.84375000000000000       0.46875000000000000        0.0000000000000000     
  0.87500000000000000       0.46875000000000000        0.0000000000000000     
  0.75000000000000000       0.50000000000000000        0.0000000000000000     
  0.78125000000000000       0.50000000000000000        0.0000000000000000     
  0.81250000000000000       0.50000000000000000        0.0000000000000000     
  0.84375000000000000       0.50000000000000000        0.0000000000000000     
  0.87500000000000000       0.50000000000000000        0.0000000000000000     
  0.87500000000000000       0.37500000000000000        0.0000000000000000     
  0.90625000000000000       0.37500000000000000        0.0000000000000000     
  0.93750000000000000       0.37500000000000000        0.0000000000000000     
  0.96875000000000000       0.37500000000000000        0.0000000000000000     
   1.0000000000000000       0.37500000000000000        0.0000000000000000     
  0.87500000000000000       0.40625000000000000        0.0000000000000000     
  0.90625000000000000       0.40625000000000000        0.0000000000000000     
  0.93750000000000000       0.40625000000000000        0.0000000000000000     
  0.96875000000000000       0.40625000000000000        0.0000000000000000     
   1.0000000000000000       0.40625000000000000        0.0000000000000000     
  0.87500000000000000       0.43750000000000000        0.0000000000000000     
  0.90625000000000000       0.43750000000000000        0.0000000000000000     
  0.93750000000000000       0.43750000000000000        0.0000000000000000     
  0.96875000000000000       0.43750000000000000        0.0000000000000000     
   1.0000000000000000       0.43750000000000000        0.0000000000000000     
  0.87500000000000000       0.46875000000000000        0.0000000000000000     
  0.90625000000000000       0.46875000000000000        0.0000000000000000     
  0.93750000000000000       0.46875000000000000        0.0000000000000000     
  0.96875000000000000       0.46875000000000000        0.0000000000000000     
   1.0000000000000000       0.46875000000000000        0.0000000000000000     
  0.87500000000000000       0.50000000000000000        0.0000000000000000     
  0.90625000000000000       0.50000000000000000        0.0000000000000000     
  0.93750000000000000       0.50000000000000000        0.0000000000000000     
  0.96875000000000000       0.50000000000000000        0.0000000000000000     
   1.0000000000000000       0.50000000000000000        0.0000000000000000     
   1.0000000000000000       0.37500000000000000        0.0000000000000000     
   1.0312500000000000       0.37500000000000000        0.0000000000000000     
   1.0625000000000000       0.37500000000000000        0.0000000000000000     
   1.0937500000000000       0.37500000000000000        0.0000000000000000     
   1.1250000000000000       0.37500000000000000        0.0000000000000000     
   1.0000000000000000       0.40625000000000000        0.0000000000000000     
   1.0312500000000000       0.40625000000000000        0.0000000000000000     
   1.0625000000000000       0.40625000000000000        0.0000000000000000     
   1.0937500000000000       0.40625000000000000        0.0000000000000000     
   1.1250000000000000       0.40625000000000000        0.0000000000000000     
   1.0000000000000000       0.43750000000000000        0.0000000000000000     
   1.0312500000000000       0.43750000000000000        0.0000000000000000     
   1.0625000000000000       0.43750000000000000        0.0000000000000000     
   1.0937500000000000       0.43750000000000000        0.0000000000000000     
   1.1250000000000000       0.43750000000000000        0.0000000000000000     
   1.0000000000000000       0.46875000000000000        0.0000000000000000     
   1.0312500000000000       0.46875000000000000        0.0000000000000000     
   1.0625000000000000       0.46875000000000000        0.0000000000000000     
   1.0937500000000000       0.46875000000000000        0.0000000000000000     
   1.1250000000000000       0.46875000000000000        0.0000000000000000     
   1.0000000000000000       0.50000000000000000        0.0000000000000000     
   1.0312500000000000       0.50000000000000000        0.0000000000000000     
   1.0625000000000000       0.50000000000000000        0.0000000000000000     
   1.0937500000000000       0.50000000000000000        0.0000000000000000     
   1.1250000000000000       0.50000000000000000        0.0000000000000000     
   1.1250000000000000       0.37500000000000000        0.0000000000000000     
   1.1562500000000000       0.37500000000000000        0.0000000000000000     
   1.1875000000000000       0.37500000000000000        0.0000000000000000     
   1.2187500000000000       0.37500000000000000        0.0000000000000000     
   1.2500000000000000       0.37500000000000000        0.0000000000000000     
   1.1250000000000000       0.40625000000000000        0.0000000000000000     
   1.1562500000000000       0.40625000000000000        0.0000000000000000     
   1.1875000000000000       0.40625000000000000        0.0000000000000000     
   1.2187500000000000       0.40625000000000000        0.0000000000000000     
   1.2500000000000000       0.40625000000000000        0.0000000000000000     
   1.1250000000000000       0.43750000000000000        0.0000000000000000     
   1.1562500000000000       0.43750000000000000        0.0000000000000000     
   1.1875000000000000       0.43750000000000000        0.0000000000000000     
   1.2187500000000000       0.43750000000000000        0.0000000000000000     
   1.2500000000000000       0.43750000000000000        0.0000000000000000     
   1.1250000000000000       0.46875000000000000        0.0000000000000000     
   1.1562500000000000       0.46875000000000000        0.0000000000000000     
   1.1875000000000000       0.46875000000000000        0.0000000000000000     
   1.2187500000000000       0.46875000000000000        0.0000000000000000     
   1.2500000000000000       0.46875000000000000        0.0000000000000000     
   1.1250000000000000       0.50000000000000000        0.0000000000000000     
   1.1562500000000000       0.50000000000000000        0.0000000000000000     
   1.1875000000000000       0.50000000000000000        0.0000000000000000     
   1.2187500000000000       0.50000000000000000        0.0000000000000000     
   1.2500000000000000       0.50000000000000000        0.0000000000000000     
   1.2500000000000000       0.37500000000000000        0.0000000000000000     
   1.2812500000000000       0.37500000000000000        0.0000000000000000     
   1.3125000000000000       0.37500000000000000        0.0000000000000000     
   1.3437500000000000       0.37500000000000000        0.0000000000000000     
   1.3750000000000000       0.37500000000000000        0.0000000000000000     
   1.2500000000000000       0.40625000000000000        0.0000000000000000     
   1.2812500000000000       0.40625000000000000        0.0000000000000000     
   1.3125000000000000       0.40625000000000000        0.0000000000000000     
   1.3437500000000000       0.40625000000000000        0.0000000000000000     
   1.3750000000000000       0.40625000000000000        0.0000000000000000     
   1.2500000000000000       0.43750000000000000        0.0000000000000000     
   1.2812500000000000       0.43750000000000000        0.0000000000000000     
   1.3125000000000000       0.43750000000000000        0.0000000000000000     
   1.3437500000000000       0.43750000000000000        0.0000000000000000     
   1.3750000000000000       0.43750000000000000        0.0000000000000000     
   1.2500000000000000       0.46875000000000000        0.0000000000000000     
   1.2812500000000000       0.46875000000000000        0.0000000000000000     
   1.3125000000000000       0.46875000000000000        0.0000000000000000     
   1.3437500000000000       0.46875000000000000        0.0000000000000000     
   1.3750000000000000       0.46875000000000000        0.0000000000000000     
   1.2500000000000000       0.50000000000000000        0.0000000000000000     
   1.2812500000000000       0.50000000000000000        0.0000000000000000     
   1.3125000000000000       0.50000000000000000        0.0000000000000000     
   1.3437500000000000       0.50000000000000000        0.0000000000000000     
   1.3750000000000000       0.50000000000000000        0.0000000000000000     
   1.3750000000000000       0.37500000000000000        0.0000000000000000     
   1.4062500000000000       0.37500000000000000        0.0000000000000000     
   1.4375000000000000       0.37500000000000000        0.0000000000000000     
   1.4687500000000000       0.37500000000000000        0.0000000000000000     
   1.5000000000000000       0.37500000000000000        0.0000000000000000     
   1.3750000000000000       0.40625000000000000        0.0000000000000000     
   1.4062500000000000       0.40625000000000000        0.0000000000000000     
   1.4375000000000000       0.40625000000000000        0.0000000000000000     
   1.4687500000000000       0.40625000000000000        0.0000000000000000     
   1.5000000000000000       0.40625000000000000        0.0000000000000000     
   1.3750000000000000       0.43750000000000000        0.0000000000000000     
   1.4062500000000000       0.43750000000000000        0.0000000000000000     
   1.4375000000000000       0.43750000000000000        0.0000000000000000     
   1.4687500000000000       0.43750000000000000        0.0000000000000000     
   1.5000000000000000       0.43750000000000000        0.0000000000000000     
   1.3750000000000000       0.46875000000000000        0.0000000000000000     
   1.4062500000000000       0.46875000000000000        0.0000000000000000     
   1.4375000000000000       0.46875000000000000        0.0000000000000000     
   1.4687500000000000       0.46875000000000000        0.0000000000000000     
   1.5000000000000000       0.46875000000000000        0.0000000000000000     
   1.3750000000000000       0.50000000000000000        0.0000000000000000     
   1.4062500000000000       0.50000000000000000        0.0000000000000000     
   1.4375000000000000       0.50000000000000000        0.0000000000000000     
   1.4687500000000000       0.50000000000000000        0.0000000000000000     
   1.5000000000000000       0.50000000000000000        0.0000000000000000     
  0.50000000000000000       0.50000000000000000        0.0000000000000000     
  0.53125000000000000       0.50000000000000000        0.0000000000000000     
  0.56250000000000000       0.50000000000000000        0.0000000000000000     
  0.59375000000000000       0.50000000000000000        0.0000000000000000     
  0.62500000000000000       0.50000000000000000        0.0000000000000000     
  0.50000000000000000       0.53125000000000000        0.0000000000000000     
  0.53125000000000000       0.53125000000000000        0.0000000000000000     
  0.56250000000000000       0.53125000000000000        0.0000000000000000     
  0.59375000000000000       0.53125000000000000        0.0000000000000000     
  0.62500000000000000       0.53125000000000000        0.0000000000000000     
  0.50000000000000000       0.56250000000000000        0.0000000000000000     
  0.53125000000000000       0.56250000000000000        0.0000000000000000     
  0.56250000000000000       0.56250000000000000        0.0000000000000000     
  0.59375000000000000       0.56250000000000000        0.0000000000000000     
  0.62500000000000000       0.56250000000000000        0.0000000000000000     
  0.50000000000000000       0.59375000000000000        0.0000000000000000     
  0.53125000000000000       0.59375000000000000        0.0000000000000000     
  0.56250000000000000       0.59375000000000000        0.0000000000000000     
  0.59375000000000000       0.59375000000000000        0.0000000000000000     
  0.62500000000000000       0.59375000000000000        0.0000000000000000     
  0.50000000000000000       0.62500000000000000        0.0000000000000000     
  0.53125000000000000       0.62500000000000000        0.0000000000000000     
  0.56250000000000000       0.62500000000000000        0.0000000000000000     
  0.59375000000000000       0.62500000000000000        0.0000000000000000     
  0.62500000000000000       0.62500000000000000        0.0000000000000000     
  0.62500000000000000       0.50000000000000000        0.0000000000000000     
  0.65625000000000000       0.50000000000000000        0.0000000000000000     
  0.68750000000000000       0.50000000000000000        0.0000000000000000     
  0.71875000000000000       0.50000000000000000        0.0000000000000000     
  0.75000000000000000       0.50000000000000000        0.0000000000000000     
  0.62500000000000000       0.53125000000000000        0.0000000000000000     
  0.65625000000000000       0.53125000000000000        0.0000000000000000     
  0.68750000000000000       0.53125000000000000        0.0000000000000000     
  0.71875000000000000       0.53125000000000000        0.0000000000000000     
  0.75000000000000000       0.53125000000000000        0.0000000000000000     
  0.62500000000000000       0.56250000000000000        0.0000000000000000     
  0.65625000000000000       0.56250000000000000        0.0000000000000000     
  0.68750000000000000       0.56250000000000000        0.0000000000000000     
  0.71875000000000000       0.56250000000000000        0.0000000000000000     
  0.75000000000000000       0.56250000000000000        0.0000000000000000     
  0.62500000000000000       0.59375000000000000        0.0000000000000000     
  0.65625000000000000       0.59375000000000000        0.0000000000000000     
  0.68750000000000000       0.59375000000000000        0.0000000000000000     
  0.71875000000000000       0.59375000000000000        0.0000000000000000     
  0.75000000000000000       0.59375000000000000        0.0000000000000000     
  0.62500000000000000       0.62500000000000000        0.0000000000000000     
  0.65625000000000000       0.62500000000000000        0.0000000000000000     
  0.68750000000000000       0.62500000000000000        0.0000000000000000     
  0.71875000000000000       0.62500000000000000        0.0000000000000000     
  0.75000000000000000       0.62500000000000000        0.0000000000000000     
  0.75000000000000000       0.50000000000000000        0.0000000000000000     
  0.78125000000000000       0.50000000000000000        0.0000000000000000     
  0.81250000000000000       0.50000000000000000        0.0000000000000000     
  0.84375000000000000       0.50000000000000000        0.0000000000000000     
  0.87500000000000000       0.50000000000000000        0.0000000000000000     
  0.75000000000000000       0.53125000000000000        0.0000000000000000     
  0.78125000000000000       0.53125000000000000        0.0000000000000000     
  0.81250000000000000       0.53125000000000000        0.0000000000000000     
  0.84375000000000000       0.53125000000000000        0.0000000000000000     
  0.87500000000000000       0.53125000000000000        0.0000000000000000     
  0.75000000000000000       0.56250000000000000        0.0000000000000000     
  0.78125000000000000       0.56250000000000000        0.0000000000000000     
  0.81250000000000000       0.56250000000000000        0.0000000000000000     
  0.84375000000000000       0.56250000000000000        0.0000000000000000     
  0.87500000000000000       0.56250000000000000        0.0000000000000000     
  0.75000000000000000       0.59375000000000000        0.0000000000000000     
  0.78125000000000000       0.59375000000000000        0.0000000000000000     
  0.81250000000000000       0.59375000000000000        0.0000000000000000     
  0.84375000000000000       0.59375000000000000        0.0000000000000000     
  0.87500000000000000       0.59375000000000000        0.0000000000000000     
  0.75000000000000000       0.62500000000000000        0.0000000000000000     
  0.78125000000000000       0.62500000000000000        0.0000000000000000     
  0.81250000000000000       0.62500000000000000        0.0000000000000000     
  0.84375000000000000       0.62500000000000000        0.0000000000000000     
  0.87500000000000000       0.62500000000000000        0.0000000000000000     
  0.87500000000000000       0.50000000000000000        0.0000000000000000     
  0.90625000000000000       0.50000000000000000        0.0000000000000000     
  0.93750000000000000       0.50000000000000000        0.0000000000000000     
  0.96875000000000000       0.50000000000000000        0.0000000000000000     
   1.0000000000000000       0.50000000000000000        0.0000000000000000     
  0.87500000000000000       0.53125000000000000        0.0000000000000000     
  0.90625000000000000       0.53125000000000000        0.0000000000000000     
  0.93750000000000000       0.53125000000000000        0.0000000000000000     
  0.96875000000000000       0.53125000000000000        0.0000000000000000     
   1.0000000000000000       0.53125000000000000        0.0000000000000000     
  0.87500000000000000       0.56250000000000000        0.0000000000000000     
  0.90625000000000000       0.56250000000000000        0.0000000000000000     
  0.93750000000000000       0.56250000000000000        0.0000000000000000     
  0.96875000000000000       0.56250000000000000        0.0000000000000000     
   1.0000000000000000       0.56250000000000000        0.0000000000000000     
  0.87500000000000000       0.59375000000000000        0.0000000000000000     
  0.90625000000000000       0.59375000000000000        0.0000000000000000     
  0.93750000000000000       0.59375000000000000        0.0000000000000000     
  0.96875000000000000       0.59375000000000000        0.0000000000000000     
   1.0000000000000000       0.59375000000000000        0.0000000000000000     
  0.87500000000000000       0.62500000000000000        0.0000000000000000     
  0.90625000000000000       0.62500000000000000        0.0000000000000000     
  0.93750000000000000       0.62500000000000000        0.0000000000000000     
  0.96875000000000000       0.62500000000000000        0.0000000000000000     
   1.0000000000000000       0.62500000000000000        0.0000000000000000     
   1.0000000000000000       0.50000000000000000        0.0000000000000000     
   1.0312500000000000       0.50000000000000000        0.0000000000000000     
   1.0625000000000000       0.50000000000000000        0.0000000000000000     
   1.0937500000000000       0.50000000000000000        0.0000000000000000     
   1.1250000000000000       0.50000000000000000        0.0000000000000000     
   1.0000000000000000       0.53125000000000000        0.0000000000000000     
   1.0312500000000000       0.53125000000000000        0.0000000000000000     
   1.0625000000000000       0.53125000000000000        0.0000000000000000     
   1.0937500000000000       0.53125000000000000        0.0000000000000000     
   1.1250000000000000       0.53125000000000000        0.0000000000000000     
   1.0000000000000000       0.56250000000000000        0.0000000000000000     
   1.0312500000000000       0.56250000000000000        0.0000000000000000     
   1.0625000000000000       0.56250000000000000        0.0000000000000000     
   1.0937500000000000       0.56250000000000000        0.0000000000000000     
   1.1250000000000000       0.56250000000000000        0.0000000000000000     
   1.0000000000000000       0.59375000000000000        0.0000000000000000     
   1.0312500000000000       0.59375000000000000        0.0000000000000000     
   1.0625000000000000       0.59375000000000000        0.0000000000000000     
   1.0937500000000000       0.59375000000000000        0.0000000000000000     
   1.1250000000000000       0.59375000000000000        0.0000000000000000     
   1.0000000000000000       0.62500000000000000        0.0000000000000000     
   1.0312500000000000       0.62500000000000000        0.0000000000000000     
   1.0625000000000000       0.62500000000000000        0.0000000000000000     
   1.0937500000000000       0.62500000000000000        0.0000000000000000     
   1.1250000000000000       0.62500000000000000        0.0000000000000000     
   1.1250000000000000       0.50000000000000000        0.0000000000000000     
   1.1562500000000000       0.50000000000000000        0.0000000000000000     
   1.1875000000000000       0.50000000000000000        0.0000000000000000     
   1.2187500000000000       0.50000000000000000        0.0000000000000000     
   1.2500000000000000       0.50000000000000000        0.0000000000000000     
   1.1250000000000000       0.53125000000000000        0.0000000000000000     
   1.1562500000000000       0.53125000000000000        0.0000000000000000     
   1.1875000000000000       0.53125000000000000        0.0000000000000000     
   1.2187500000000000       0.53125000000000000        0.0000000000000000     
   1.2500000000000000       0.53125000000000000        0.0000000000000000     
   1.1250000000000000       0.56250000000000000        0.0000000000000000     
   1.1562500000000000       0.56250000000000000        0.0000000000000000     
   1.1875000000000000       0.56250000000000000        0.0000000000000000     
   1.2187500000000000       0.56250000000000000        0.0000000000000000     
   1.2500000000000000       0.56250000000000000        0.0000000000000000     
   1.1250000000000000       0.59375000000000000        0.0000000000000000     
   1.1562500000000000       0.59375000000000000        0.0000000000000000     
   1.1875000000000000       0.59375000000000000        0.0000000000000000     
   1.2187500000000000       0.59375000000000000        0.0000000000000000     
   1.2500000000000000       0.59375000000000000        0.0000000000000000     
   1.1250000000000000       0.62500000000000000        0.0000000000000000     
   1.1562500000000000       0.62500000000000000        0.0000000000000000     
   1.1875000000000000       0.62500000000000000        0.0000000000000000     
   1.2187500000000000       0.62500000000000000        0.0000000000000000     
   1.2500000000000000       0.62500000000000000        0.0000000000000000     
   1.2500000000000000       0.50000000000000000        0.0000000000000000     
   1.2812500000000000       0.50000000000000000        0.0000000000000000     
   1.3125000000000000       0.50000000000000000        0.0000000000000000     
   1.3437500000000000       0.50000000000000000        0.0000000000000000     
   1.3750000000000000       0.50000000000000000        0.0000000000000000     
   1.2500000000000000       0.53125000000000000        0.0000000000000000     
   1.2812500000000000       0.53125000000000000        0.0000000000000000     
   1.3125000000000000       0.53125000000000000        0.0000000000000000     
   1.3437500000000000       0.53125000000000000        0.0000000000000000     
   1.3750000000000000       0.53125000000000000        0.0000000000000000     
   1.2500000000000000       0.56250000000000000        0.0000000000000000     
   1.2812500000000000       0.56250000000000000        0.0000000000000000     
   1.3125000000000000       0.56250000000000000        0.0000000000000000     
   1.3437500000000000       0.56250000000000000        0.0000000000000000     
   1.3750000000000000       0.56250000000000000        0.0000000000000000     
   1.2500000000000000       0.59375000000000000        0.0000000000000000     
   1.2812500000000000       0.59375000000000000        0.0000000000000000     
   1.3125000000000000       0.59375000000000000        0.0000000000000000     
   1.3437500000000000       0.59375000000000000        0.0000000000000000     
   1.3750000000000000       0.59375000000000000        0.0000000000000000     
   1.2500000000000000       0.62500000000000000        0.0000000000000000     
   1.2812500000000000       0.62500000000000000        0.0000000000000000     
   1.3125000000000000       0.62500000000000000        0.0000000000000000     
   1.3437500000000000       0.62500000000000000        0.0000000000000000     
   1.3750000000000000       0.62500000000000000        0.0000000000000000     
   1.3750000000000000       0.50000000000000000        0.0000000000000000     
   1.4062500000000000       0.50000000000000000        0.0000000000000000     
   1.4375000000000000       0.50000000000000000        0.0000000000000000     
   1.4687500000000000       0.50000000000000000        0.0000000000000000     
   1.5000000000000000       0.50000000000000000        0.0000000000000000     
   1.3750000000000000       0.53125000000000000        0.0000000000000000     
   1.4062500000000000       0.53125000000000000        0.0000000000000000     
   1.4375000000000000       0.53125000000000000        0.0000000000000000     
   1.4687500000000000       0.53125000000000000        0.0000000000000000     
   1.5000000000000000       0.53125000000000000        0.0000000000000000     
   1.3750000000000000       0.56250000000000000        0.0000000000000000     
   1.4062500000000000       0.56250000000000000        0.0000000000000000     
   1.4375000000000000       0.56250000000000000        0.0000000000000000     
   1.4687500000000000       0.56250000000000000        0.0000000000000000     
   1.5000000000000000       0.56250000000000000        0.0000000000000000     
   1.3750000000000000       0.59375000000000000        0.0000000000000000     
   1.4062500000000000       0.59375000000000000        0.0000000000000000     
   1.4375000000000000       0.59375000000000000        0.0000000000000000     
   1.4687500000000000       0.59375000000000000        0.0000000000000000     
   1.5000000000000000       0.59375000000000000        0.0000000000000000     
   1.3750000000000000       0.62500000000000000        0.0000000000000000     
   1.4062500000000000       0.62500000000000000        0.0000000000000000     
   1.4375000000000000       0.62500000000000000        0.0000000000000000     
   1.4687500000000000       0.62500000000000000        0.0000000000000000     
   1.5000000000000000       0.62500000000000000        0.0000000000000000     
  0.50000000000000000       0.62500000000000000        0.0000000000000000     
  0.53125000000000000       0.62500000000000000        0.0000000000000000     
  0.56250000000000000       0.62500000000000000        0.0000000000000000     
  0.59375000000000000       0.62500000000000000        0.0000000000000000     
  0.62500000000000000       0.62500000000000000        0.0000000000000000     
  0.50000000000000000       0.65625000000000000        0.0000000000000000     
  0.53125000000000000       0.65625000000000000        0.0000000000000000     
  0.56250000000000000       0.65625000000000000        0.0000000000000000     
  0.59375000000000000       0.65625000000000000        0.0000000000000000     
  0.62500000000000000       0.65625000000000000        0.0000000000000000     
  0.50000000000000000       0.68750000000000000        0.0000000000000000     
  0.53125000000000000       0.68750000000000000        0.0000000000000000     
  0.56250000000000000       0.68750000000000000        0.0000000000000000     
  0.59375000000000000       0.68750000000000000        0.0000000000000000     
  0.62500000000000000       0.68750000000000000        0.0000000000000000     
  0.50000000000000000       0.71875000000000000        0.0000000000000000     
  0.53125000000000000       0.71875000000000000        0.0000000000000000     
  0.56250000000000000       0.71875000000000000        0.0000000000000000     
  0.59375000000000000       0.71875000000000000        0.0000000000000000     
  0.62500000000000000       0.71875000000000000        0.0000000000000000     
  0.50000000000000000       0.75000000000000000        0.0000000000000000     
  0.53125000000000000       0.75000000000000000        0.0000000000000000     
  0.56250000000000000       0.75000000000000000        0.0000000000000000     
  0.59375000000000000       0.75000000000000000        0.0000000000000000     
  0.62500000000000000       0.75000000000000000        0.0000000000000000     
  0.62500000000000000       0.62500000000000000        0.0000000000000000     
  0.65625000000000000       0.62500000000000000        0.0000000000000000     
  0.68750000000000000       0.62500000000000000        0.0000000000000000     
  0.71875000000000000       0.62500000000000000        0.0000000000000000     
  0.75000000000000000       0.62500000000000000        0.0000000000000000     
  0.62500000000000000       0.65625000000000000        0.0000000000000000     
  0.65625000000000000       0.65625000000000000        0.0000000000000000     
  0.68750000000000000       0.65625000000000000        0.0000000000000000     
  0.71875000000000000       0.65625000000000000        0.0000000000000000     
  0.75000000000000000       0.65625000000000000        0.0000000000000000     
  0.62500000000000000       0.68750000000000000        0.0000000000000000     
  0.65625000000000000       0.68750000000000000        0.0000000000000000     
  0.68750000000000000       0.68750000000000000        0.0000000000000000     
  0.71875000000000000       0.68750000000000000        0.0000000000000000     
  0.75000000000000000       0.68750000000000000        0.0000000000000000     
  0.62500000000000000       0.71875000000000000        0.0000000000000000     
  0.65625000000000000       0.71875000000000000        0.0000000000000000     
  0.68750000000000000       0.71875000000000000        0.0000000000000000     
  0.71875000000000000       0.71875000000000000        0.0000000000000000     
  0.75000000000000000       0.71875000000000000        0.0000000000000000     
  0.62500000000000000       0.75000000000000000        0.0000000000000000     
  0.65625000000000000       0.75000000000000000        0.0000000000000000     
  0.68750000000000000       0.75000000000000000        0.0000000000000000     
  0.71875000000000000       0.75000000000000000        0.0000000000000000     
  0.75000000000000000       0.75000000000000000        0.0000000000000000     
  0.75000000000000000       0.62500000000000000        0.0000000000000000     
  0.78125000000000000       0.62500000000000000        0.0000000000000000     
  0.81250000000000000       0.62500000000000000        0.0000000000000000     
  0.84375000000000000       0.62500000000000000        0.0000000000000000     
  0.87500000000000000       0.62500000000000000        0.0000000000000000     
  0.75000000000000000       0.65625000000000000        0.0000000000000000     
  0.78125000000000000       0.65625000000000000        0.0000000000000000     
  0.81250000000000000       0.65625000000000000        0.0000000000000000     
  0.84375000000000000       0.65625000000000000        0.0000000000000000     
  0.87500000000000000       0.65625000000000000        0.0000000000000000     
  0.75000000000000000       0.68750000000000000        0.0000000000000000     
  0.78125000000000000       0.68750000000000000        0.0000000000000000     
  0.81250000000000000       0.68750000000000000        0.0000000000000000     
  0.84375000000000000       0.68750000000000000        0.0000000000000000     
  0.87500000000000000       0.68750000000000000        0.0000000000000000     
  0.75000000000000000       0.71875000000000000        0.0000000000000000     
  0.78125000000000000       0.71875000000000000        0.0000000000000000     
  0.81250000000000000       0.71875000000000000        0.0000000000000000     
  0.84375000000000000       0.71875000000000000        0.0000000000000000     
  0.87500000000000000       0.71875000000000000        0.0000000000000000     
  0.75000000000000000       0.75000000000000000        0.0000000000000000     
  0.78125000000000000       0.75000000000000000        0.0000000000000000     
  0.81250000000000000       0.75000000000000000        0.0000000000000000     
  0.84375000000000000       0.75000000000000000        0.0000000000000000     
  0.87500000000000000       0.75000000000000000        0.0000000000000000     
  0.87500000000000000       0.62500000000000000        0.0000000000000000     
  0.90625000000000000       0.62500000000000000        0.0000000000000000     
  0.93750000000000000       0.62500000000000000        0.0000000000000000     
  0.96875000000000000       0.62500000000000000        0.0000000000000000     
   1.0000000000000000       0.62500000000000000        0.0000000000000000     
  0.87500000000000000       0.65625000000000000        0.0000000000000000     
  0.90625000000000000       0.65625000000000000        0.0000000000000000     
  0.93750000000000000       0.65625000000000000        0.0000000000000000     
  0.96875000000000000       0.65625000000000000        0.0000000000000000     
   1.0000000000000000       0.65625000000000000        0.0000000000000000     
  0.87500000000000000       0.68750000000000000        0.0000000000000000     
  0.90625000000000000       0.68750000000000000        0.0000000000000000     
  0.93750000000000000       0.68750000000000000        0.0000000000000000     
  0.96875000000000000       0.68750000000000000        0.0000000000000000     
   1.0000000000000000       0.68750000000000000        0.0000000000000000     
  0.87500000000000000       0.71875000000000000        0.0000000000000000     
  0.90625000000000000       0.71875000000000000        0.0000000000000000     
  0.93750000000000000       0.71875000000000000        0.0000000000000000     
  0.96875000000000000       0.71875000000000000        0.0000000000000000     
   1.0000000000000000       0.71875000000000000        0.0000000000000000     
  0.87500000000000000       0.75000000000000000        0.0000000000000000     
  0.90625000000000000       0.75000000000000000        0.0000000000000000     
  0.93750000000000000       0.75000000000000000        0.0000000000000000     
  0.96875000000000000       0.75000000000000000        0.0000000000000000     
   1.0000000000000000       0.75000000000000000        0.0000000000000000     
   1.0000000000000000       0.62500000000000000        0.0000000000000000     
   1.0312500000000000       0.62500000000000000        0.0000000000000000     
   1.0625000000000000       0.62500000000000000        0.0000000000000000     
   1.0937500000000000       0.62500000000000000        0.0000000000000000     
   1.1250000000000000       0.62500000000000000        0.0000000000000000     
   1.0000000000000000       0.65625000000000000        0.0000000000000000     
   1.0312500000000000       0.65625000000000000        0.0000000000000000     
   1.0625000000000000       0.65625000000000000        0.0000000000000000     
   1.0937500000000000       0.65625000000000000        0.0000000000000000     
   1.1250000000000000       0.65625000000000000        0.0000000000000000     
   1.0000000000000000       0.68750000000000000        0.0000000000000000     
   1.0312500000000000       0.68750000000000000        0.0000000000000000     
   1.0625000000000000       0.68750000000000000        0.0000000000000000     
   1.0937500000000000       0.68750000000000000        0.0000000000000000     
   1.1250000000000000       0.68750000000000000        0.0000000000000000     
   1.0000000000000000       0.71875000000000000        0.0000000000000000     
   1.0312500000000000       0.71875000000000000        0.0000000000000000     
   1.0625000000000000       0.71875000000000000        0.0000000000000000     
   1.0937500000000000       0.71875000000000000        0.0000000000000000     
   1.1250000000000000       0.71875000000000000        0.0000000000000000     
   1.0000000000000000       0.75000000000000000        0.0000000000000000     
   1.0312500000000000       0.75000000000000000        0.0000000000000000     
   1.0625000000000000       0.75000000000000000        0.0000000000000000     
   1.0937500000000000       0.75000000000000000        0.0000000000000000     
   1.1250000000000000       0.75000000000000000        0.0000000000000000     
   1.1250000000000000       0.62500000000000000        0.0000000000000000     
   1.1562500000000000       0.62500000000000000        0.0000000000000000     
   1.1875000000000000       0.62500000000000000        0.0000000000000000     
   1.2187500000000000       0.62500000000000000        0.0000000000000000     
   1.2500000000000000       0.62500000000000000        0.0000000000000000     
   1.1250000000000000       0.65625000000000000        0.0000000000000000     
   1.1562500000000000       0.65625000000000000        0.0000000000000000     
   1.1875000000000000       0.65625000000000000        0.0000000000000000     
   1.2187500000000000       0.65625000000000000        0.0000000000000000     
   1.2500000000000000       0.65625000000000000        0.0000000000000000     
   1.1250000000000000       0.68750000000000000        0.0000000000000000     
   1.1562500000000000       0.68750000000000000        0.0000000000000000     
   1.1875000000000000       0.68750000000000000        0.0000000000000000     
   1.2187500000000000       0.68750000000000000        0.0000000000000000     
   1.2500000000000000       0.68750000000000000        0.0000000000000000     
   1.1250000000000000       0.71875000000000000        0.0000000000000000     
   1.1562500000000000       0.71875000000000000        0.0000000000000000     
   1.1875000000000000       0.71875000000000000        0.0000000000000000     
   1.2187500000000000       0.71875000000000000        0.0000000000000000     
   1.2500000000000000       0.71875000000000000        0.0000000000000000     
   1.1250000000000000       0.75000000000000000        0.0000000000000000     
   1.1562500000000000       0.75000000000000000        0.0000000000000000     
   1.1875000000000000       0.75000000000000000        0.0000000000000000     
   1.2187500000000000       0.75000000000000000        0.0000000000000000     
   1.2500000000000000       0.75000000000000000        0.0000000000000000     
   1.2500000000000000       0.62500000000000000        0.0000000000000000     
   1.2812500000000000       0.62500000000000000        0.0000000000000000     
   1.3125000000000000       0.62500000000000000        0.0000000000000000     
   1.3437500000000000       0.62500000000000000        0.0000000000000000     
   1.3750000000000000       0.62500000000000000        0.0000000000000000     
   1.2500000000000000       0.65625000000000000        0.0000000000000000     
   1.2812500000000000       0.65625000000000000        0.0000000000000000     
   1.3125000000000000       0.65625000000000000        0.0000000000000000     
   1.3437500000000000       0.65625000000000000        0.0000000000000000     
   1.3750000000000000       0.65625000000000000        0.0000000000000000     
   1.2500000000000000       0.68750000000000000        0.0000000000000000     
   1.2812500000000000       0.68750000000000000        0.0000000000000000     
   1.3125000000000000       0.68750000000000000        0.0000000000000000     
   1.3437500000000000       0.68750000000000000        0.0000000000000000     
   1.3750000000000000       0.68750000000000000        0.0000000000000000     
   1.2500000000000000       0.71875000000000000        0.0000000000000000     
   1.2812500000000000       0.71875000000000000        0.0000000000000000     
   1.3125000000000000       0.71875000000000000        0.0000000000000000     
   1.3437500000000000       0.71875000000000000        0.0000000000000000     
   1.3750000000000000       0.71875000000000000        0.0000000000000000     
   1.2500000000000000       0.75000000000000000        0.0000000000000000     
   1.2812500000000000       0.75000000000000000        0.0000000000000000     
   1.3125000000000000       0.75000000000000000        0.0000000000000000     
   1.3437500000000000       0.75000000000000000        0.0000000000000000     
   1.3750000000000000       0.75000000000000000        0.0000000000000000     
   1.3750000000000000       0.62500000000000000        0.0000000000000000     
   1.4062500000000000       0.62500000000000000        0.0000000000000000     
   1.4375000000000000       0.62500000000000000        0.0000000000000000     
   1.4687500000000000       0.62500000000000000        0.0000000000000000     
   1.5000000000000000       0.62500000000000000        0.0000000000000000     
   1.3750000000000000       0.65625000000000000        0.0000000000000000     
   1.4062500000000000       0.65625000000000000        0.0000000000000000     
   1.4375000000000000       0.65625000000000000        0.0000000000000000     
   1.4687500000000000       0.65625000000000000        0.0000000000000000     
   1.5000000000000000       0.65625000000000000        0.0000000000000000     
   1.3750000000000000       0.68750000000000000        0.0000000000000000     
   1.4062500000000000       0.68750000000000000        0.0000000000000000     
   1.4375000000000000       0.68750000000000000        0.0000000000000000     
   1.4687500000000000       0.68750000000000000        0.0000000000000000     
   1.5000000000000000       0.68750000000000000        0.0000000000000000     
   1.3750000000000000       0.71875000000000000        0.0000000000000000     
   1.4062500000000000       0.71875000000000000        0.0000000000000000     
   1.4375000000000000       0.71875000000000000        0.0000000000000000     
   1.4687500000000000       0.71875000000000000        0.0000000000000000     
   1.5000000000000000       0.71875000000000000        0.0000000000000000     
   1.3750000000000000       0.75000000000000000        0.0000000000000000     
   1.4062500000000000       0.75000000000000000        0.0000000000000000     
   1.4375000000000000       0.75000000000000000        0.0000000000000000     
   1.4687500000000000       0.75000000000000000        0.0000000000000000     
   1.5000000000000000       0.75000000000000000        0.0000000000000000     
  0.50000000000000000       0.75000000000000000        0.0000000000000000     
  0.53125000000000000       0.75000000000000000        0.0000000000000000     
  0.56250000000000000       0.75000000000000000        0.0000000000000000     
  0.59375000000000000       0.75000000000000000        0.0000000000000000     
  0.62500000000000000       0.75000000000000000        0.0000000000000000     
  0.50000000000000000       0.78125000000000000        0.0000000000000000     
  0.53125000000000000       0.78125000000000000        0.0000000000000000     
  0.56250000000000000       0.78125000000000000        0.0000000000000000     
  0.59375000000000000       0.78125000000000000        0.0000000000000000     
  0.62500000000000000       0.78125000000000000        0.0000000000000000     
  0.50000000000000000       0.81250000000000000        0.0000000000000000     
  0.53125000000000000       0.81250000000000000        0.0000000000000000     
  0.56250000000000000       0.81250000000000000        0.0000000000000000     
  0.59375000000000000       0.81250000000000000        0.0000000000000000     
  0.62500000000000000       0.81250000000000000        0.0000000000000000     
  0.50000000000000000       0.84375000000000000        0.0000000000000000     
  0.53125000000000000       0.84375000000000000        0.0000000000000000     
  0.56250000000000000       0.84375000000000000        0.0000000000000000     
  0.59375000000000000       0.84375000000000000        0.0000000000000000     
  0.62500000000000000       0.84375000000000000        0.0000000000000000     
  0.50000000000000000       0.87500000000000000        0.0000000000000000     
  0.53125000000000000       0.87500000000000000        0.0000000000000000     
  0.56250000000000000       0.87500000000000000        0.0000000000000000     
  0.59375000000000000       0.87500000000000000        0.0000000000000000     
  0.62500000000000000       0.87500000000000000        0.0000000000000000     
  0.62500000000000000       0.75000000000000000        0.0000000000000000     
  0.65625000000000000       0.75000000000000000        0.0000000000000000     
  0.68750000000000000       0.75000000000000000        0.0000000000000000     
  0.71875000000000000       0.75000000000000000        0.0000000000000000     
  0.75000000000000000       0.75000000000000000        0.0000000000000000     
  0.62500000000000000       0.78125000000000000        0.0000000000000000     
  0.65625000000000000       0.78125000000000000        0.0000000000000000     
  0.68750000000000000       0.78125000000000000        0.0000000000000000     
  0.71875000000000000       0.78125000000000000        0.0000000000000000     
  0.75000000000000000       0.78125000000000000        0.0000000000000000     
  0.62500000000000000       0.81250000000000000        0.0000000000000000     
  0.65625000000000000       0.81250000000000000        0.0000000000000000     
  0.68750000000000000       0.81250000000000000        0.0000000000000000     
  0.71875000000000000       0.81250000000000000        0.0000000000000000     
  0.75000000000000000       0.81250000000000000        0.0000000000000000     
  0.62500000000000000       0.84375000000000000        0.0000000000000000     
  0.65625000000000000       0.84375000000000000        0.0000000000000000     
  0.68750000000000000       0.84375000000000000        0.0000000000000000     
  0.71875000000000000       0.84375000000000000        0.0000000000000000     
  0.75000000000000000       0.84375000000000000        0.0000000000000000     
  0.62500000000000000       0.87500000000000000        0.0000000000000000     
  0.65625000000000000       0.87500000000000000        0.0000000000000000     
  0.68750000000000000       0.87500000000000000        0.0000000000000000     
  0.71875000000000000       0.87500000000000000        0.0000000000000000     
  0.75000000000000000       0.87500000000000000        0.0000000000000000     
  0.75000000000000000       0.75000000000000000        0.0000000000000000     
  0.78125000000000000       0.75000000000000000        0.0000000000000000     
  0.81250000000000000       0.75000000000000000        0.0000000000000000     
  0.84375000000000000       0.75000000000000000        0.0000000000000000     
  0.87500000000000000       0.75000000000000000        0.0000000000000000     
  0.75000000000000000       0.78125000000000000        0.0000000000000000     
  0.78125000000000000       0.78125000000000000        0.0000000000000000     
  0.81250000000000000       0.78125000000000000        0.0000000000000000     
  0.84375000000000000       0.78125000000000000        0.0000000000000000     
  0.87500000000000000       0.78125000000000000        0.0000000000000000     
  0.75000000000000000       0.81250000000000000        0.0000000000000000     
  0.78125000000000000       0.81250000000000000        0.0000000000000000     
  0.81250000000000000       0.81250000000000000        0.0000000000000000     
  0.84375000000000000       0.81250000000000000        0.0000000000000000     
  0.87500000000000000       0.81250000000000000        0.0000000000000000     
  0.75000000000000000       0.84375000000000000        0.0000000000000000     
  0.78125000000000000       0.84375000000000000        0.0000000000000000     
  0.81250000000000000       0.84375000000000000        0.0000000000000000     
  0.84375000000000000       0.84375000000000000        0.0000000000000000     
  0.87500000000000000       0.84375000000000000        0.0000000000000000     
  0.75000000000000000       0.87500000000000000        0.0000000000000000     
  0.78125000000000000       0.87500000000000000        0.0000000000000000     
  0.81250000000000000       0.87500000000000000        0.0000000000000000     
  0.84375000000000000       0.87500000000000000        0.0000000000000000     
  0.87500000000000000       0.87500000000000000        0.0000000000000000     
  0.87500000000000000       0.75000000000000000        0.0000000000000000     
  0.90625000000000000       0.75000000000000000        0.0000000000000000     
  0.93750000000000000       0.75000000000000000        0.0000000000000000     
  0.96875000000000000       0.75000000000000000        0.0000000000000000     
   1.0000000000000000       0.75000000000000000        0.0000000000000000     
  0.87500000000000000       0.78125000000000000        0.0000000000000000     
  0.90625000000000000       0.78125000000000000        0.0000000000000000     
  0.93750000000000000       0.78125000000000000        0.0000000000000000     
  0.96875000000000000       0.78125000000000000        0.0000000000000000     
   1.0000000000000000       0.78125000000000000        0.0000000000000000     
  0.87500000000000000       0.81250000000000000        0.0000000000000000     
  0.90625000000000000       0.81250000000000000        0.0000000000000000     
  0.93750000000000000       0.81250000000000000        0.0000000000000000     
  0.96875000000000000       0.81250000000000000        0.0000000000000000     
   1.0000000000000000       0.81250000000000000        0.0000000000000000     
  0.87500000000000000       0.84375000000000000        0.0000000000000000     
  0.90625000000000000       0.84375000000000000        0.0000000000000000     
  0.93750000000000000       0.84375000000000000        0.0000000000000000     
  0.96875000000000000       0.84375000000000000        0.0000000000000000     
   1.0000000000000000       0.84375000000000000        0.0000000000000000     
  0.87500000000000000       0.87500000000000000        0.0000000000000000     
  0.90625000000000000       0.87500000000000000        0.0000000000000000     
  0.93750000000000000       0.87500000000000000        0.0000000000000000     
  0.96875000000000000       0.87500000000000000        0.0000000000000000     
   1.0000000000000000       0.87500000000000000        0.0000000000000000     
   1.0000000000000000       0.75000000000000000        0.0000000000000000     
   1.0312500000000000       0.75000000000000000        0.0000000000000000     
   1.0625000000000000       0.75000000000000000        0.0000000000000000     
   1.0937500000000000       0.75000000000000000        0.0000000000000000     
   1.1250000000000000       0.75000000000000000        0.0000000000000000     
   1.0000000000000000       0.78125000000000000        0.0000000000000000     
   1.0312500000000000       0.78125000000000000        0.0000000000000000     
   1.0625000000000000       0.78125000000000000        0.0000000000000000     
   1.0937500000000000       0.78125000000000000        0.0000000000000000     
   1.1250000000000000       0.78125000000000000        0.0000000000000000     
   1.0000000000000000       0.81250000000000000        0.0000000000000000     
   1.0312500000000000       0.81250000000000000        0.0000000000000000     
   1.0625000000000000       0.81250000000000000        0.0000000000000000     
   1.0937500000000000       0.81250000000000000        0.0000000000000000     
   1.1250000000000000       0.81250000000000000        0.0000000000000000     
   1.0000000000000000       0.84375000000000000        0.0000000000000000     
   1.0312500000000000       0.84375000000000000        0.0000000000000000     
   1.0625000000000000       0.84375000000000000        0.0000000000000000     
   1.0937500000000000       0.84375000000000000        0.0000000000000000     
   1.1250000000000000       0.84375000000000000        0.0000000000000000     
   1.0000000000000000       0.87500000000000000        0.0000000000000000     
   1.0312500000000000       0.87500000000000000        0.0000000000000000     
   1.0625000000000000       0.87500000000000000        0.0000000000000000     
   1.0937500000000000       0.87500000000000000        0.0000000000000000     
   1.1250000000000000       0.87500000000000000        0.0000000000000000     
   1.1250000000000000       0.75000000000000000        0.0000000000000000     
   1.1562500000000000       0.75000000000000000        0.0000000000000000     
   1.1875000000000000       0.75000000000000000        0.0000000000000000     
   1.2187500000000000       0.75000000000000000        0.0000000000000000     
   1.2500000000000000       0.75000000000000000        0.0000000000000000     
   1.1250000000000000       0.78125000000000000        0.0000000000000000     
   1.1562500000000000       0.78125000000000000        0.0000000000000000     
   1.1875000000000000       0.78125000000000000        0.0000000000000000     
   1.2187500000000000       0.78125000000000000        0.0000000000000000     
   1.2500000000000000       0.78125000000000000        0.0000000000000000     
   1.1250000000000000       0.81250000000000000        0.0000000000000000     
   1.1562500000000000       0.81250000000000000        0.0000000000000000     
   1.1875000000000000       0.81250000000000000        0.0000000000000000     
   1.2187500000000000       0.81250000000000000        0.0000000000000000     
   1.2500000000000000       0.81250000000000000        0.0000000000000000     
   1.1250000000000000       0.84375000000000000        0.0000000000000000     
   1.1562500000000000       0.84375000000000000        0.0000000000000000     
   1.1875000000000000       0.84375000000000000        0.0000000000000000     
   1.2187500000000000       0.84375000000000000        0.0000000000000000     
   1.2500000000000000       0.84375000000000000        0.0000000000000000     
   1.1250000000000000       0.87500000000000000        0.0000000000000000     
   1.1562500000000000       0.87500000000000000        0.0000000000000000     
   1.1875000000000000       0.87500000000000000        0.0000000000000000     
   1.2187500000000000       0.87500000000000000        0.0000000000000000     
   1.2500000000000000       0.87500000000000000        0.0000000000000000     
   1.2500000000000000       0.75000000000000000        0.0000000000000000     
   1.2812500000000000       0.75000000000000000        0.0000000000000000     
   1.3125000000000000       0.75000000000000000        0.0000000000000000     
   1.3437500000000000       0.75000000000000000        0.0000000000000000     
   1.3750000000000000       0.75000000000000000        0.0000000000000000     
   1.2500000000000000       0.78125000000000000        0.0000000000000000     
   1.2812500000000000       0.78125000000000000        0.0000000000000000     
   1.3125000000000000       0.78125000000000000        0.0000000000000000     
   1.3437500000000000       0.78125000000000000        0.0000000000000000     
   1.3750000000000000       0.78125000000000000        0.0000000000000000     
   1.2500000000000000       0.81250000000000000        0.0000000000000000     
   1.2812500000000000       0.81250000000000000        0.0000000000000000     
   1.3125000000000000       0.81250000000000000        0.0000000000000000     
   1.3437500000000000       0.81250000000000000        0.0000000000000000     
   1.3750000000000000       0.81250000000000000        0.0000000000000000     
   1.2500000000000000       0.84375000000000000        0.0000000000000000     
   1.2812500000000000       0.84375000000000000        0.0000000000000000     
   1.3125000000000000       0.84375000000000000        0.0000000000000000     
   1.3437500000000000       0.84375000000000000        0.0000000000000000     
   1.3750000000000000       0.84375000000000000        0.0000000000000000     
   1.2500000000000000       0.87500000000000000        0.0000000000000000     
   1.2812500000000000       0.87500000000000000        0.0000000000000000     
   1.3125000000000000       0.87500000000000000        0.0000000000000000     
   1.3437500000000000       0.87500000000000000        0.0000000000000000     
   1.3750000000000000       0.87500000000000000        0.0000000000000000     
   1.3750000000000000       0.75000000000000000        0.0000000000000000     
   1.4062500000000000       0.75000000000000000        0.0000000000000000     
   1.4375000000000000       0.75000000000000000        0.0000000000000000     
   1.4687500000000000       0.75000000000000000        0.0000000000000000     
   1.5000000000000000       0.75000000000000000        0.0000000000000000     
   1.3750000000000000       0.78125000000000000        0.0000000000000000     
   1.4062500000000000       0.78125000000000000        0.0000000000000000     
   1.4375000000000000       0.78125000000000000        0.0000000000000000     
   1.4687500000000000       0.78125000000000000        0.0000000000000000     
   1.5000000000000000       0.78125000000000000        0.0000000000000000     
   1.3750000000000000       0.81250000000000000        0.0000000000000000     
   1.4062500000000000       0.81250000000000000        0.0000000000000000     
   1.4375000000000000       0.81250000000000000        0.0000000000000000     
   1.4687500000000000       0.81250000000000000        0.0000000000000000     
   1.5000000000000000       0.81250000000000000        0.0000000000000000     
   1.3750000000000000       0.84375000000000000        0.0000000000000000     
   1.4062500000000000       0.84375000000000000        0.0000000000000000     
   1.4375000000000000       0.84375000000000000        0.0000000000000000     
   1.4687500000000000       0.84375000000000000        0.0000000000000000     
   1.5000000000000000       0.84375000000000000        0.0000000000000000     
   1.3750000000000000       0.87500000000000000        0.0000000000000000     
   1.4062500000000000       0.87500000000000000        0.0000000000000000     
   1.4375000000000000       0.87500000000000000        0.0000000000000000     
   1.4687500000000000       0.87500000000000000        0.0000000000000000     
   1.5000000000000000       0.87500000000000000        0.0000000000000000     
  0.50000000000000000       0.87500000000000000        0.0000000000000000     
  0.53125000000000000       0.87500000000000000        0.0000000000000000     
  0.56250000000000000       0.87500000000000000        0.0000000000000000     
  0.59375000000000000       0.87500000000000000        0.0000000000000000     
  0.62500000000000000       0.87500000000000000        0.0000000000000000     
  0.50000000000000000       0.90625000000000000        0.0000000000000000     
  0.53125000000000000       0.90625000000000000        0.0000000000000000     
  0.56250000000000000       0.90625000000000000        0.0000000000000000     
  0.59375000000000000       0.90625000000000000        0.0000000000000000     
  0.62500000000000000       0.90625000000000000        0.0000000000000000     
  0.50000000000000000       0.93750000000000000        0.0000000000000000     
  0.53125000000000000       0.93750000000000000        0.0000000000000000     
  0.56250000000000000       0.93750000000000000        0.0000000000000000     
  0.59375000000000000       0.93750000000000000        0.0000000000000000     
  0.62500000000000000       0.93750000000000000        0.0000000000000000     
  0.50000000000000000       0.96875000000000000        0.0000000000000000     
  0.53125000000000000       0.96875000000000000        0.0000000000000000     
  0.56250000000000000       0.96875000000000000        0.0000000000000000     
  0.59375000000000000       0.96875000000000000        0.0000000000000000     
  0.62500000000000000       0.96875000000000000        0.0000000000000000     
  0.50000000000000000        1.0000000000000000        0.0000000000000000     
  0.53125000000000000        1.0000000000000000        0.0000000000000000     
  0.56250000000000000        1.0000000000000000        0.0000000000000000     
  0.59375000000000000        1.0000000000000000        0.0000000000000000     
  0.62500000000000000        1.0000000000000000        0.0000000000000000     
  0.62500000000000000       0.87500000000000000        0.0000000000000000     
  0.65625000000000000       0.87500000000000000        0.0000000000000000     
  0.68750000000000000       0.87500000000000000        0.0000000000000000     
  0.71875000000000000       0.87500000000000000        0.0000000000000000     
  0.75000000000000000       0.87500000000000000        0.0000000000000000     
  0.62500000000000000       0.90625000000000000        0.0000000000000000     
  0.65625000000000000       0.90625000000000000        0.0000000000000000     
  0.68750000000000000       0.90625000000000000        0.0000000000000000     
  0.71875000000000000       0.90625000000000000        0.0000000000000000     
  0.75000000000000000       0.90625000000000000        0.0000000000000000     
  0.62500000000000000       0.93750000000000000        0.0000000000000000     
  0.65625000000000000       0.93750000000000000        0.0000000000000000     
  0.68750000000000000       0.93750000000000000        0.0000000000000000     
  0.71875000000000000       0.93750000000000000        0.0000000000000000     
  0.75000000000000000       0.93750000000000000        0.0000000000000000     
  0.62500000000000000       0.96875000000000000        0.0000000000000000     
  0.65625000000000000       0.96875000000000000        0.0000000000000000     
  0.68750000000000000       0.96875000000000000        0.0000000000000000     
  0.71875000000000000       0.96875000000000000        0.0000000000000000     
  0.75000000000000000       0.96875000000000000        0.0000000000000000     
  0.62500000000000000        1.0000000000000000        0.0000000000000000     
  0.65625000000000000        1.0000000000000000        0.0000000000000000     
  0.68750000000000000        1.0000000000000000        0.0000000000000000     
  0.71875000000000000        1.0000000000000000        0.0000000000000000     
  0.75000000000000000        1.0000000000000000        0.0000000000000000     
  0.75000000000000000       0.87500000000000000        0.0000000000000000     
  0.78125000000000000       0.87500000000000000        0.0000000000000000     
  0.81250000000000000       0.87500000000000000        0.0000000000000000     
  0.84375000000000000       0.87500000000000000        0.0000000000000000     
  0.87500000000000000       0.87500000000000000        0.0000000000000000     
  0.75000000000000000       0.90625000000000000        0.0000000000000000     
  0.78125000000000000       0.90625000000000000        0.0000000000000000     
  0.81250000000000000       0.90625000000000000        0.0000000000000000     
  0.84375000000000000       0.90625000000000000        0.0000000000000000     
  0.87500000000000000       0.90625000000000000        0.0000000000000000     
  0.75000000000000000       0.93750000000000000        0.0000000000000000     
  0.78125000000000000       0.93750000000000000        0.0000000000000000     
  0.81250000000000000       0.93750000000000000        0.0000000000000000     
  0.84375000000000000       0.93750000000000000        0.0000000000000000     
  0.87500000000000000       0.93750000000000000        0.0000000000000000     
  0.75000000000000000       0.96875000000000000        0.0000000000000000     
  0.78125000000000000       0.96875000000000000        0.0000000000000000     
  0.81250000000000000       0.96875000000000000        0.0000000000000000     
  0.84375000000000000       0.96875000000000000        0.0000000000000000     
  0.87500000000000000       0.96875000000000000        0.0000000000000000     
  0.75000000000000000        1.0000000000000000        0.0000000000000000     
  0.78125000000000000        1.0000000000000000        0.0000000000000000     
  0.81250000000000000        1.0000000000000000        0.0000000000000000     
  0.84375000000000000        1.0000000000000000        0.0000000000000000     
  0.87500000000000000        1.0000000000000000        0.0000000000000000     
  0.87500000000000000       0.87500000000000000        0.0000000000000000     
  0.90625000000000000       0.87500000000000000        0.0000000000000000     
  0.93750000000000000       0.87500000000000000        0.0000000000000000     
  0.96875000000000000       0.87500000000000000        0.0000000000000000     
   1.0000000000000000       0.87500000000000000        0.0000000000000000     
  0.87500000000000000       0.90625000000000000        0.0000000000000000     
  0.90625000000000000       0.90625000000000000        0.0000000000000000     
  0.93750000000000000       0.90625000000000000        0.0000000000000000     
  0.96875000000000000       0.90625000000000000        0.0000000000000000     
   1.0000000000000000       0.90625000000000000        0.0000000000000000     
  0.87500000000000000       0.93750000000000000        0.0000000000000000     
  0.90625000000000000       0.93750000000000000        0.0000000000000000     
  0.93750000000000000       0.93750000000000000        0.0000000000000000     
  0.96875000000000000       0.93750000000000000        0.0000000000000000     
   1.0000000000000000       0.93750000000000000        0.0000000000000000     
  0.87500000000000000       0.96875000000000000        0.0000000000000000     
  0.90625000000000000       0.96875000000000000        0.0000000000000000     
  0.93750000000000000       0.96875000000000000        0.0000000000000000     
  0.96875000000000000       0.96875000000000000        0.0000000000000000     
   1.0000000000000000       0.96875000000000000        0.0000000000000000     
  0.87500000000000000        1.0000000000000000        0.0000000000000000     
  0.90625000000000000        1.0000000000000000        0.0000000000000000     
  0.93750000000000000        1.0000000000000000        0.0000000000000000     
  0.96875000000000000        1.0000000000000000        0.0000000000000000     
   1.0000000000000000        1.0000000000000000        0.0000000000000000     
   1.0000000000000000       0.87500000000000000        0.0000000000000000     
   1.0312500000000000       0.87500000000000000        0.0000000000000000     
   1.0625000000000000       0.87500000000000000        0.0000000000000000     
   1.0937500000000000       0.87500000000000000        0.0000000000000000     
   1.1250000000000000       0.87500000000000000        0.0000000000000000     
   1.0000000000000000       0.90625000000000000        0.0000000000000000     
   1.0312500000000000       0.90625000000000000        0.0000000000000000     
   1.0625000000000000       0.90625000000000000        0.0000000000000000     
   1.0937500000000000       0.90625000000000000        0.0000000000000000     
   1.1250000000000000       0.90625000000000000        0.0000000000000000     
   1.0000000000000000       0.93750000000000000        0.0000000000000000     
   1.0312500000000000       0.93750000000000000        0.0000000000000000     
   1.0625000000000000       0.93750000000000000        0.0000000000000000     
   1.0937500000000000       0.93750000000000000        0.0000000000000000     
   1.1250000000000000       0.93750000000000000        0.0000000000000000     
   1.0000000000000000       0.96875000000000000        0.0000000000000000     
   1.0312500000000000       0.96875000000000000        0.0000000000000000     
   1.0625000000000000       0.96875000000000000        0.0000000000000000     
   1.0937500000000000       0.96875000000000000        0.0000000000000000     
   1.1250000000000000       0.96875000000000000        0.0000000000000000     
   1.0000000000000000        1.0000000000000000        0.0000000000000000     
   1.0312500000000000        1.0000000000000000        0.0000000000000000     
   1.0625000000000000        1.0000000000000000        0.0000000000000000     
   1.0937500000000000        1.0000000000000000        0.0000000000000000     
   1.1250000000000000        1.0000000000000000        0.0000000000000000     
   1.1250000000000000       0.87500000000000000        0.0000000000000000     
   1.1562500000000000       0.87500000000000000        0.0000000000000000     
   1.1875000000000000       0.87500000000000000        0.0000000000000000     
   1.2187500000000000       0.87500000000000000        0.0000000000000000     
   1.2500000000000000       0.87500000000000000        0.0000000000000000     
   1.1250000000000000       0.90625000000000000        0.0000000000000000     
   1.1562500000000000       0.90625000000000000        0.0000000000000000     
   1.1875000000000000       0.90625000000000000        0.0000000000000000     
   1.2187500000000000       0.90625000000000000        0.0000000000000000     
   1.2500000000000000       0.90625000000000000        0.0000000000000000     
   1.1250000000000000       0.93750000000000000        0.0000000000000000     
   1.1562500000000000       0.93750000000000000        0.0000000000000000     
   1.1875000000000000       0.93750000000000000        0.0000000000000000     
   1.2187500000000000       0.93750000000000000        0.0000000000000000     
   1.2500000000000000       0.93750000000000000        0.0000000000000000     
   1.1250000000000000       0.96875000000000000        0.0000000000000000     
   1.1562500000000000       0.96875000000000000        0.0000000000000000     
   1.1875000000000000       0.96875000000000000        0.0000000000000000     
   1.2187500000000000       0.96875000000000000        0.0000000000000000     
   1.2500000000000000       0.96875000000000000        0.0000000000000000     
   1.1250000000000000        1.0000000000000000        0.0000000000000000     
   1.1562500000000000        1.0000000000000000        0.0000000000000000     
   1.1875000000000000        1.0000000000000000        0.0000000000000000     
   1.2187500000000000        1.0000000000000000        0.0000000000000000     
   1.2500000000000000        1.0000000000000000        0.0000000000000000     
   1.2500000000000000       0.87500000000000000        0.0000000000000000     
   1.2812500000000000       0.87500000000000000        0.0000000000000000     
   1.3125000000000000       0.87500000000000000        0.0000000000000000     
   1.3437500000000000       0.87500000000000000        0.0000000000000000     
   1.3750000000000000       0.87500000000000000        0.0000000000000000     
   1.2500000000000000       0.90625000000000000        0.0000000000000000     
   1.2812500000000000       0.90625000000000000        0.0000000000000000     
   1.3125000000000000       0.90625000000000000        0.0000000000000000     
   1.3437500000000000       0.90625000000000000        0.0000000000000000     
   1.3750000000000000       0.90625000000000000        0.0000000000000000     
   1.2500000000000000       0.93750000000000000        0.0000000000000000     
   1.2812500000000000       0.93750000000000000        0.0000000000000000     
   1.3125000000000000       0.93750000000000000        0.0000000000000000     
   1.3437500000000000       0.93750000000000000        0.0000000000000000     
   1.3750000000000000       0.93750000000000000        0.0000000000000000     
   1.2500000000000000       0.96875000000000000        0.0000000000000000     
   1.2812500000000000       0.96875000000000000        0.0000000000000000     
   1.3125000000000000       0.96875000000000000        0.0000000000000000     
   1.3437500000000000       0.96875000000000000        0.0000000000000000     
   1.3750000000000000       0.96875000000000000        0.0000000000000000     
   1.2500000000000000        1.0000000000000000        0.0000000000000000     
   1.2812500000000000        1.0000000000000000        0.0000000000000000     
   1.3125000000000000        1.0000000000000000        0.0000000000000000     
   1.3437500000000000        1.0000000000000000        0.0000000000000000     
   1.3750000000000000        1.0000000000000000        0.0000000000000000     
   1.3750000000000000       0.87500000000000000        0.0000000000000000     
   1.4062500000000000       0.87500000000000000        0.0000000000000000     
   1.4375000000000000       0.87500000000000000        0.0000000000000000     
   1.4687500000000000       0.87500000000000000        0.0000000000000000     
   1.5000000000000000       0.87500000000000000        0.0000000000000000     
   1.3750000000000000       0.90625000000000000        0.0000000000000000     
   1.4062500000000000       0.90625000000000000        0.0000000000000000     
   1.4375000000000000       0.90625000000000000        0.0000000000000000     
   1.4687500000000000       0.90625000000000000        0.0000000000000000     
   1.5000000000000000       0.90625000000000000        0.0000000000000000     
   1.3750000000000000       0.93750000000000000        0.0000000000000000     
   1.4062500000000000       0.93750000000000000        0.0000000000000000     
   1.4375000000000000       0.93750000000000000        0.0000000000000000     
   1.4687500000000000       0.93750000000000000        0.0000000000000000     
   1.5000000000000000       0.93750000000000000        0.0000000000000000     
   1.3750000000000000       0.96875000000000000        0.0000000000000000     
   1.4062500000000000       0.96875000000000000        0.0000000000000000     
   1.4375000000000000       0.96875000000000000        0.0000000000000000     
   1.4687500000000000       0.96875000000000000        0.0000000000000000     
   1.5000000000000000       0.96875000000000000        0.0000000000000000     
   1.3750000000000000        1.0000000000000000        0.0000000000000000     
   1.4062500000000000        1.0000000000000000        0.0000000000000000     
   1.4375000000000000        1.0000000000000000        0.0000000000000000     
   1.4687500000000000        1.0000000000000000        0.0000000000000000     
   1.5000000000000000        1.0000000000000000        0.0000000000000000     
 </DataArray>
 </Points>
 <Cells>
 <DataArray  type="Int32"  Name="connectivity"  format="ascii">
           0           1           6           5
           1           2           7           6
           2           3           8           7
           3           4           9           8
           5           6          11          10
           6           7          12          11
           7           8          13          12
           8           9          14          13
          10          11          16          15
          11          12          17          16
          12          13          18          17
          13          14          19          18
          15          16          21          20
          16          17          22          21
          17          18          23          22
          18          19          24          23
          25          26          31          30
          26          27          32          31
          27          28          33          32
          28          29          34          33
          30          31          36          35
          31          32          37          36
          32          33          38          37
          33          34          39          38
          35          36          41          40
          36          37          42          41
          37          38          43          42
          38          39          44          43
          40          41          46          45
          41          42          47          46
          42          43          48          47
          43          44          49          48
          50          51          56          55
          51          52          57          56
          52          53          58          57
          53          54          59          58
          55          56          61          60
          56          57          62          61
          57          58          63          62
          58          59          64          63
          60          61          66          65
          61          62          67          66
          62          63          68          67
          63          64          69          68
          65          66          71          70
          66          67          72          71
          67          68          73          72
          68          69          74          73
          75          76          81          80
          76          77          82          81
          77          78          83          82
          78          79          84          83
          80          81          86          85
          81          82          87          86
          82          83          88          87
          83          84          89          88
          85          86          91          90
          86          87          92          91
          87          88          93          92
          88          89          94          93
          90          91          96          95
          91          92          97          96
          92          93          98          97
          93          94          99          98
         100         101         106         105
         101         102         107         106
         102         103         108         107
         103         104         109         108
         105         106         111         110
         106         107         112         111
         107         108         113         112
         108         109         114         113
         110         111         116         115
         111         112         117         116
         112         113         118         117
         113         114         119         118
         115         116         121         120
         116         117         122         121
         117         118         123         122
         118         119         124         123
         125         126         131         130
         126         127         132         131
         127         128         133         132
         128         129         134         133
         130         131         136         135
         131         132         137         136
         132         133         138         137
         133         134         139         138
         135         136         141         140
         136         137         142         141
         137         138         143         142
         138         139         144         143
         140         141         146         145
         141         142         147         146
         142         143         148         147
         143         144         149         148
         150         151         156         155
         151         152         157         156
         152         153         158         157
         153         154         159         158
         155         156         161         160
         156         157         162         161
         157         158         163         162
         158         159         164         163
         160         161         166         165
         161         162         167         166
         162         163         168         167
         163         164         169         168
         165         166         171         170
         166         167         172         171
         167         168         173         172
         168         169         174         173
         175         176         181         180
         176         177         182         181
         177         178         183         182
         178         179         184         183
         180         181         186         185
         181         182         187         186
         182         183         188         187
         183         184         189         188
         185         186         191         190
         186         187         192         191
         187         188         193         192
         188         189         194         193
         190         191         196         195
         191         192         197         196
         192         193         198         197
         193         194         199         198
         200         201         206         205
         201         202         207         206
         202         203         208         207
         203         204         209         208
         205         206         211         210
         206         207         212         211
         207         208         213         212
         208         209         214         213
         210         211         216         215
         211         212         217         216
         212         213         218         217
         213         214         219         218
         215         216         221         220
         216         217         222         221
         217         218         223         222
         218         219         224         223
         225         226         231         230
         226         227         232         231
         227         228         233         232
         228         229         234         233
         230         231         236         235
         231         232         237         236
         232         233         238         237
         233         234         239         238
         235         236         241         240
         236         237         242         241
         237         238         243         242
         238         239         244         243
         240         241         246         245
         241         242         247         246
         242         243         248         247
         243         244         249         248
         250         251         256         255
         251         252         257         256
         252         253         258         257
         253         254         259         258
         255         256         261         260
         256         257         262         261
         257         258         263         262
         258         259         264         263
         260         261         266         265
         261         262         267         266
         262         263         268         267
         263         264         269         268
         265         266         271         270
         266         267         272         271
         267         268         273         272
         268         269         274         273
         275         276         281         280
         276         277         282         281
         277         278         283         282
         278         279         284         283
         280         281         286         285
         281         282         287         286
         282         283         288         287
         283         284         289         288
         285         286         291         290
         286         287         292         291
         287         288         293         292
         288         289         294         293
         290         291         296         295
         291         292         297         296
         292         293         298         297
         293         294         299         298
         300         301         306         305
         301         302         307         306
         302         303         308         307
         303         304         309         308
         305         306         311         310
         306         307         312         311
         307         308         313         312
         308         309         314         313
         310         311         316         315
         311         312         317         316
         312         313         318         317
         313         314         319         318
         315         316         321         320
         316         317         322         321
         317         318         323         322
         318         319         324         323
         325         326         331         330
         326         327         332         331
         327         328         333         332
         328         329         334         333
         330         331         336         335
         331         332         337         336
         332         333         338         337
         333         334         339         338
         335         336         341         340
         336         337         342         341
         337         338         343         342
         338         339         344         343
         340         341         346         345
         341         342         347         346
         342         343         348         347
         343         344         349         348
         350         351         356         355
         351         352         357         356
         352         353         358         357
         353         354         359         358
         355         356         361         360
         356         357         362         361
         357         358         363         362
         358         359         364         363
         360         361         366         365
         361         362         367         366
         362         363         368         367
         363         364         369         368
         365         366         371         370
         366         367         372         371
         367         368         373         372
         368         369         374         373
         375         376         381         380
         376         377         382         381
         377         378         383         382
         378         379         384         383
         380         381         386         385
         381         382         387         386
         382         383         388         387
         383         384         389         388
         385         386         391         390
         386         387         392         391
         387         388         393         392
         388         389         394         393
         390         391         396         395
         391         392         397         396
         392         393         398         397
         393         394         399         398
         400         401         406         405
         401         402         407         406
         402         403         408         407
         403         404         409         408
         405         406         411         410
         406         407         412         411
         407         408         413         412
         408         409         414         413
         410         411         416         415
         411         412         417         416
         412         413         418         417
         413         414         419         418
         415         416         421         420
         416         417         422         421
         417         418         423         422
         418         419         424         423
         425         426         431         430
         426         427         432         431
         427         428         433         432
         428         429         434         433
         430         431         436         435
         431         432         437         436
         432         433         438         437
         433         434         439         438
         435         436         441         440
         436         437         442         441
         437         438         443         442
         438         439         444         443
         440         441         446         445
         441         442         447         446
         442         443         448         447
         443         444         449         448
         450         451         456         455
         451         452         457         456
         452         453         458         457
         453         454         459         458
         455         456         461         460
         456         457         462         461
         457         458         463         462
         458         459         464         463
         460         461         466         465
         461         462         467         466
         462         463         468         467
         463         464         469         468
         465         466         471         470
         466         467         472         471
         467         468         473         472
         468         469         474         473
         475         476         481         480
         476         477         482         481
         477         478         483         482
         478         479         484         483
         480         481         486         485
         481         482         487         486
         482         483         488         487
         483         484         489         488
         485         486         491         490
         486         487         492         491
         487         488         493         492
         488         489         494         493
         490         491         496         495
         491         492         497         496
         492         493         498         497
         493         494         499         498
         500         501         506         505
         501         502         507         506
         502         503         508         507
         503         504         509         508
         505         506         511         510
         506         507         512         511
         507         508         513         512
         508         509         514         513
         510         511         516         515
         511         512         517         516
         512         513         518         517
         513         514         519         518
         515         516         521         520
         516         517         522         521
         517         518         523         522
         518         519         524         523
         525         526         531         530
         526         527         532         531
         527         528         533         532
         528         529         534         533
         530         531         536         535
         531         532         537         536
         532         533         538         537
         533         534         539         538
         535         536         541         540
         536         537         542         541
         537         538         543         542
         538         539         544         543
         540         541         546         545
         541         542         547         546
         542         543         548         547
         543         544         549         548
         550         551         556         555
         551         552         557         556
         552         553         558         557
         553         554         559         558
         555         556         561         560
         556         557         562         561
         557         558         563         562
         558         559         564         563
         560         561         566         565
         561         562         567         566
         562         563         568         567
         563         564         569         568
         565         566         571         570
         566         567         572         571
         567         568         573         572
         568         569         574         573
         575         576         581         580
         576         577         582         581
         577         578         583         582
         578         579         584         583
         580         581         586         585
         581         582         587         586
         582         583         588         587
         583         584         589         588
         585         586         591         590
         586         587         592         591
         587         588         593         592
         588         589         594         593
         590         591         596         595
         591         592         597         596
         592         593         598         597
         593         594         599         598
         600         601         606         605
         601         602         607         606
         602         603         608         607
         603         604         609         608
         605         606         611         610
         606         607         612         611
         607         608         613         612
         608         609         614         613
         610         611         616         615
         611         612         617         616
         612         613         618         617
         613         614         619         618
         615         616         621         620
         616         617         622         621
         617         618         623         622
         618         619         624         623
         625         626         631         630
         626         627         632         631
         627         628         633         632
         628         629         634         633
         630         631         636         635
         631         632         637         636
         632         633         638         637
         633         634         639         638
         635         636         641         640
         636         637         642         641
         637         638         643         642
         638         639         644         643
         640         641         646         645
         641         642         647         646
         642         643         648         647
         643         644         649         648
         650         651         656         655
         651         652         657         656
         652         653         658         657
         653         654         659         658
         655         656         661         660
         656         657         662         661
         657         658         663         662
         658         659         664         663
         660         661         666         665
         661         662         667         666
         662         663         668         667
         663         664         669         668
         665         666         671         670
         666         667         672         671
         667         668         673         672
         668         669         674         673
         675         676         681         680
         676         677         682         681
         677         678         683         682
         678         679         684         683
         680         681         686         685
         681         682         687         686
         682         683         688         687
         683         684         689         688
         685         686         691         690
         686         687         692         691
         687         688         693         692
         688         689         694         693
         690         691         696         695
         691         692         697         696
         692         693         698         697
         693         694         699         698
         700         701         706         705
         701         702         707         706
         702         703         708         707
         703         704         709         708
         705         706         711         710
         706         707         712         711
         707         708         713         712
         708         709         714         713
         710         711         716         715
         711         712         717         716
         712         713         718         717
         713         714         719         718
         715         716         721         720
         716         717         722         721
         717         718         723         722
         718         719         724         723
         725         726         731         730
         726         727         732         731
         727         728         733         732
         728         729         734         733
         730         731         736         735
         731         732         737         736
         732         733         738         737
         733         734         739         738
         735         736         741         740
         736         737         742         741
         737         738         743         742
         738         739         744         743
         740         741         746         745
         741         742         747         746
         742         743         748         747
         743         744         749         748
         750         751         756         755
         751         752         757         756
         752         753         758         757
         753         754         759         758
         755         756         761         760
         756         757         762         761
         757         758         763         762
         758         759         764         763
         760         761         766         765
         761         762         767         766
         762         763         768         767
         763         764         769         768
         765         766         771         770
         766         767         772         771
         767         768         773         772
         768         769         774         773
         775         776         781         780
         776         777         782         781
         777         778         783         782
         778         779         784         783
         780         781         786         785
         781         782         787         786
         782         783         788         787
         783         784         789         788
         785         786         791         790
         786         787         792         791
         787         788         793         792
         788         789         794         793
         790         791         796         795
         791         792         797         796
         792         793         798         797
         793         794         799         798
         800         801         806         805
         801         802         807         806
         802         803         808         807
         803         804         809         808
         805         806         811         810
         806         807         812         811
         807         808         813         812
         808         809         814         813
         810         811         816         815
         811         812         817         816
         812         813         818         817
         813         814         819         818
         815         816         821         820
         816         817         822         821
         817         818         823         822
         818         819         824         823
         825         826         831         830
         826         827         832         831
         827         828         833         832
         828         829         834         833
         830         831         836         835
         831         832         837         836
         832         833         838         837
         833         834         839         838
         835         836         841         840
         836         837         842         841
         837         838         843         842
         838         839         844         843
         840         841         846         845
         841         842         847         846
         842         843         848         847
         843         844         849         848
         850         851         856         855
         851         852         857         856
         852         853         858         857
         853         854         859         858
         855         856         861         860
         856         857         862         861
         857         858         863         862
         858         859         864         863
         860         861         866         865
         861         862         867         866
         862         863         868         867
         863         864         869         868
         865         866         871         870
         866         867         872         871
         867         868         873         872
         868         869         874         873
         875         876         881         880
         876         877         882         881
         877         878         883         882
         878         879         884         883
         880         881         886         885
         881         882         887         886
         882         883         888         887
         883         884         889         888
         885         886         891         890
         886         887         892         891
         887         888         893         892
         888         889         894         893
         890         891         896         895
         891         892         897         896
         892         893         898         897
         893         894         899         898
         900         901         906         905
         901         902         907         906
         902         903         908         907
         903         904         909         908
         905         906         911         910
         906         907         912         911
         907         908         913         912
         908         909         914         913
         910         911         916         915
         911         912         917         916
         912         913         918         917
         913         914         919         918
         915         916         921         920
         916         917         922         921
         917         918         923         922
         918         919         924         923
         925         926         931         930
         926         927         932         931
         927         928         933         932
         928         929         934         933
         930         931         936         935
         931         932         937         936
         932         933         938         937
         933         934         939         938
         935         936         941         940
         936         937         942         941
         937         938         943         942
         938         939         944         943
         940         941         946         945
         941         942         947         946
         942         943         948         947
         943         944         949         948
         950         951         956         955
         951         952         957         956
         952         953         958         957
         953         954         959         958
         955         956         961         960
         956         957         962         961
         957         958         963         962
         958         959         964         963
         960         961         966         965
         961         962         967         966
         962         963         968         967
         963         964         969         968
         965         966         971         970
         966         967         972         971
         967         968         973         972
         968         969         974         973
         975         976         981         980
         976         977         982         981
         977         978         983         982
         978         979         984         983
         980         981         986         985
         981         982         987         986
         982         983         988         987
         983         984         989         988
         985         986         991         990
         986         987         992         991
         987         988         993         992
         988         989         994         993
         990         991         996         995
         991         992         997         996
         992         993         998         997
         993         994         999         998
        1000        1001        1006        1005
        1001        1002        1007        1006
        1002        1003        1008        1007
        1003        1004        1009        1008
        1005        1006        1011        1010
        1006        1007        1012        1011
        1007        1008        1013        1012
        1008        1009        1014        1013
        1010        1011        1016        1015
        1011        1012        1017        1016
        1012        1013        1018        1017
        1013        1014        1019        1018
        1015        1016        1021        1020
        1016        1017        1022        1021
        1017        1018        1023        1022
        1018        1019        1024        1023
        1025        1026        1031        1030
        1026        1027        1032        1031
        1027        1028        1033        1032
        1028        1029        1034        1033
        1030        1031        1036        1035
        1031        1032        1037        1036
        1032        1033        1038        1037
        1033        1034        1039        1038
        1035        1036        1041        1040
        1036        1037        1042        1041
        1037        1038        1043        1042
        1038        1039        1044        1043
        1040        1041        1046        1045
        1041        1042        1047        1046
        1042        1043        1048        1047
        1043        1044        1049        1048
        1050        1051        1056        1055
        1051        1052        1057        1056
        1052        1053        1058        1057
        1053        1054        1059        1058
        1055        1056        1061        1060
        1056        1057        1062        1061
        1057        1058        1063        1062
        1058        1059        1064        1063
        1060        1061        1066        1065
        1061        1062        1067        1066
        1062        1063        1068        1067
        1063        1064        1069        1068
        1065        1066        1071        1070
        1066        1067        1072        1071
        1067        1068        1073        1072
        1068        1069        1074        1073
        1075        1076        1081        1080
        1076        1077        1082        1081
        1077        1078        1083        1082
        1078        1079        1084        1083
        1080        1081        1086        1085
        1081        1082        1087        1086
        1082        1083        1088        1087
        1083        1084        1089        1088
        1085        1086        1091        1090
        1086        1087        1092        1091
        1087        1088        1093        1092
        1088        1089        1094        1093
        1090        1091        1096        1095
        1091        1092        1097        1096
        1092        1093        1098        1097
        1093        1094        1099        1098
        1100        1101        1106        1105
        1101        1102        1107        1106
        1102        1103        1108        1107
        1103        1104        1109        1108
        1105        1106        1111        1110
        1106        1107        1112        1111
        1107        1108        1113        1112
        1108        1109        1114        1113
        1110        1111        1116        1115
        1111        1112        1117        1116
        1112        1113        1118        1117
        1113        1114        1119        1118
        1115        1116        1121        1120
        1116        1117        1122        1121
        1117        1118        1123        1122
        1118        1119        1124        1123
        1125        1126        1131        1130
        1126        1127        1132        1131
        1127        1128        1133        1132
        1128        1129        1134        1133
        1130        1131        1136        1135
        1131        1132        1137        1136
        1132        1133        1138        1137
        1133        1134        1139        1138
        1135        1136        1141        1140
        1136        1137        1142        1141
        1137        1138        1143        1142
        1138        1139        1144        1143
        1140        1141        1146        1145
        1141        1142        1147        1146
        1142        1143        1148        1147
        1143        1144        1149        1148
        1150        1151        1156        1155
        1151        1152        1157        1156
        1152        1153        1158        1157
        1153        1154        1159        1158
        1155        1156        1161        1160
        1156        1157        1162        1161
        1157        1158        1163        1162
        1158        1159        1164        1163
        1160        1161        1166        1165
        1161        1162        1167        1166
        1162        1163        1168        1167
        1163        1164        1169        1168
        1165        1166        1171        1170
        1166        1167        1172        1171
        1167        1168        1173        1172
        1168        1169        1174        1173
        1175        1176        1181        1180
        1176        1177        1182        1181
        1177        1178        1183        1182
        1178        1179        1184        1183
        1180        1181        1186        1185
        1181        1182        1187        1186
        1182        1183        1188        1187
        1183        1184        1189        1188
        1185        1186        1191        1190
        1186        1187        1192        1191
        1187        1188        1193        1192
        1188        1189        1194        1193
        1190        1191        1196        1195
        1191        1192        1197        1196
        1192        1193        1198        1197
        1193        1194        1199        1198
        1200        1201        1206        1205
        1201        1202        1207        1206
        1202        1203        1208        1207
        1203        1204        1209        1208
        1205        1206        1211        1210
        1206        1207        1212        1211
        1207        1208        1213        1212
        1208        1209        1214        1213
        1210        1211        1216        1215
        1211        1212        1217        1216
        1212        1213        1218        1217
        1213        1214        1219        1218
        1215        1216        1221        1220
        1216        1217        1222        1221
        1217        1218        1223        1222
        1218        1219        1224        1223
        1225        1226        1231        1230
        1226        1227        1232        1231
        1227        1228        1233        1232
        1228        1229        1234        1233
        1230        1231        1236        1235
        1231        1232        1237        1236
        1232        1233        1238        1237
        1233        1234        1239        1238
        1235        1236        1241        1240
        1236        1237        1242        1241
        1237        1238        1243        1242
        1238        1239        1244        1243
        1240        1241        1246        1245
        1241        1242        1247        1246
        1242        1243        1248        1247
        1243        1244        1249        1248
        1250        1251        1256        1255
        1251        1252        1257        1256
        1252        1253        1258        1257
        1253        1254        1259        1258
        1255        1256        1261        1260
        1256        1257        1262        1261
        1257        1258        1263        1262
        1258        1259        1264        1263
        1260        1261        1266        1265
        1261        1262        1267        1266
        1262        1263        1268        1267
        1263        1264        1269        1268
        1265        1266        1271        1270
        1266        1267        1272        1271
        1267        1268        1273        1272
        1268        1269        1274        1273
        1275        1276        1281        1280
        1276        1277        1282        1281
        1277        1278        1283        1282
        1278        1279        1284        1283
        1280        1281        1286        1285
        1281        1282        1287        1286
        1282        1283        1288        1287
        1283        1284        1289        1288
        1285        1286        1291        1290
        1286        1287        1292        1291
        1287        1288        1293        1292
        1288        1289        1294        1293
        1290        1291        1296        1295
        1291        1292        1297        1296
        1292        1293        1298        1297
        1293        1294        1299        1298
        1300        1301        1306        1305
        1301        1302        1307        1306
        1302        1303        1308        1307
        1303        1304        1309        1308
        1305        1306        1311        1310
        1306        1307        1312        1311
        1307        1308        1313        1312
        1308        1309        1314        1313
        1310        1311        1316        1315
        1311        1312        1317        1316
        1312        1313        1318        1317
        1313        1314        1319        1318
        1315        1316        1321        1320
        1316        1317        1322        1321
        1317        1318        1323        1322
        1318        1319        1324        1323
        1325        1326        1331        1330
        1326        1327        1332        1331
        1327        1328        1333        1332
        1328        1329        1334        1333
        1330        1331        1336        1335
        1331        1332        1337        1336
        1332        1333        1338        1337
        1333        1334        1339        1338
        1335        1336        1341        1340
        1336        1337        1342        1341
        1337        1338        1343        1342
        1338        1339        1344        1343
        1340        1341        1346        1345
        1341        1342        1347        1346
        1342        1343        1348        1347
        1343        1344        1349        1348
        1350        1351        1356        1355
        1351        1352        1357        1356
        1352        1353        1358        1357
        1353        1354        1359        1358
        1355        1356        1361        1360
        1356        1357        1362        1361
        1357        1358        1363        1362
        1358        1359        1364        1363
        1360        1361        1366        1365
        1361        1362        1367        1366
        1362        1363        1368        1367
        1363        1364        1369        1368
        1365        1366        1371        1370
        1366        1367        1372        1371
        1367        1368        1373        1372
        1368        1369        1374        1373
        1375        1376        1381        1380
        1376        1377        1382        1381
        1377        1378        1383        1382
        1378        1379        1384        1383
        1380        1381        1386        1385
        1381        1382        1387        1386
        1382        1383        1388        1387
        1383        1384        1389        1388
        1385        1386        1391        1390
        1386        1387        1392        1391
        1387        1388        1393        1392
        1388        1389        1394        1393
        1390        1391        1396        1395
        1391        1392        1397        1396
        1392        1393        1398        1397
        1393        1394        1399        1398
        1400        1401        1406        1405
        1401        1402        1407        1406
        1402        1403        1408        1407
        1403        1404        1409        1408
        1405        1406        1411        1410
        1406        1407        1412        1411
        1407        1408        1413        1412
        1408        1409        1414        1413
        1410        1411        1416        1415
        1411        1412        1417        1416
        1412        1413        1418        1417
        1413        1414        1419        1418
        1415        1416        1421        1420
        1416        1417        1422        1421
        1417        1418        1423        1422
        1418        1419        1424        1423
        1425        1426        1431        1430
        1426        1427        1432        1431
        1427        1428        1433        1432
        1428        1429        1434        1433
        1430        1431        1436        1435
        1431        1432        1437        1436
        1432        1433        1438        1437
        1433        1434        1439        1438
        1435        1436        1441        1440
        1436        1437        1442        1441
        1437        1438        1443        1442
        1438        1439        1444        1443
        1440        1441        1446        1445
        1441        1442        1447        1446
        1442        1443        1448        1447
        1443        1444        1449        1448
        1450        1451        1456        1455
        1451        1452        1457        1456
        1452        1453        1458        1457
        1453        1454        1459        1458
        1455        1456        1461        1460
        1456        1457        1462        1461
        1457        1458        1463        1462
        1458        1459        1464        1463
        1460        1461        1466        1465
        1461        1462        1467        1466
        1462        1463        1468        1467
        1463        1464        1469        1468
        1465        1466        1471        1470
        1466        1467        1472        1471
        1467        1468        1473        1472
        1468        1469        1474        1473
        1475        1476        1481        1480
        1476        1477        1482        1481
        1477        1478        1483        1482
        1478        1479        1484        1483
        1480        1481        1486        1485
        1481        1482        1487        1486
        1482        1483        1488        1487
        1483        1484        1489        1488
        1485        1486        1491        1490
        1486        1487        1492        1491
        1487        1488        1493        1492
        1488        1489        1494        1493
        1490        1491        1496        1495
        1491        1492        1497        1496
        1492        1493        1498        1497
        1493        1494        1499        1498
        1500        1501        1506        1505
        1501        1502        1507        1506
        1502        1503        1508        1507
        1503        1504        1509        1508
        1505        1506        1511        1510
        1506        1507        1512        1511
        1507        1508        1513        1512
        1508        1509        1514        1513
        1510        1511        1516        1515
        1511        1512        1517        1516
        1512        1513        1518        1517
        1513        1514        1519        1518
        1515        1516        1521        1520
        1516        1517        1522        1521
        1517        1518        1523        1522
        1518        1519        1524        1523
        1525        1526        1531        1530
        1526        1527        1532        1531
        1527        1528        1533        1532
        1528        1529        1534        1533
        1530        1531        1536        1535
        1531        1532        1537        1536
        1532        1533        1538        1537
        1533        1534        1539        1538
        1535        1536        1541        1540
        1536        1537        1542        1541
        1537        1538        1543        1542
        1538        1539        1544        1543
        1540        1541        1546        1545
        1541        1542        1547        1546
        1542        1543        1548        1547
        1543        1544        1549        1548
        1550        1551        1556        1555
        1551        1552        1557        1556
        1552        1553        1558        1557
        1553        1554        1559        1558
        1555        1556        1561        1560
        1556        1557        1562        1561
        1557        1558        1563        1562
        1558        1559        1564        1563
        1560        1561        1566        1565
        1561        1562        1567        1566
        1562        1563        1568        1567
        1563        1564        1569        1568
        1565        1566        1571        1570
        1566        1567        1572        1571
        1567        1568        1573        1572
        1568        1569        1574        1573
        1575        1576        1581        1580
        1576        1577        1582        1581
        1577        1578        1583        1582
        1578        1579        1584        1583
        1580        1581        1586        1585
        1581        1582        1587        1586
        1582        1583        1588        1587
        1583        1584        1589        1588
        1585        1586        1591        1590
        1586        1587        1592        1591
        1587        1588        1593        1592
        1588        1589        1594        1593
        1590        1591        1596        1595
        1591        1592        1597        1596
        1592        1593        1598        1597
        1593        1594        1599        1598
 </DataArray>
 <DataArray  type="Int32"  Name="offsets"  format="ascii"> 
           4
           8
          12
          16
          20
          24
          28
          32
          36
          40
          44
          48
          52
          56
          60
          64
          68
          72
          76
          80
          84
          88
          92
          96
         100
         104
         108
         112
         116
         120
         124
         128
         132
         136
         140
         144
         148
         152
         156
         160
         164
         168
         172
         176
         180
         184
         188
         192
         196
         200
         204
         208
         212
         216
         220
         224
         228
         232
         236
         240
         244
         248
         252
         256
         260
         264
         268
         272
         276
         280
         284
         288
         292
         296
         300
         304
         308
         312
         316
         320
         324
         328
         332
         336
         340
         344
         348
         352
         356
         360
         364
         368
         372
         376
         380
         384
         388
         392
         396
         400
         404
         408
         412
         416
         420
         424
         428
         432
         436
         440
         444
         448
         452
         456
         460
         464
         468
         472
         476
         480
         484
         488
         492
         496
         500
         504
         508
         512
         516
         520
         524
         528
         532
         536
         540
         544
         548
         552
         556
         560
         564
         568
         572
         576
         580
         584
         588
         592
         596
         600
         604
         608
         612
         616
         620
         624
         628
         632
         636
         640
         644
         648
         652
         656
         660
         664
         668
         672
         676
         680
         684
         688
         692
         696
         700
         704
         708
         712
         716
         720
         724
         728
         732
         736
         740
         744
         748
         752
         756
         760
         764
         768
         772
         776
         780
         784
         788
         792
         796
         800
         804
         808
         812
         816
         820
         824
         828
         832
         836
         840
         844
         848
         852
         856
         860
         864
         868
         872
         876
         880
         884
         888
         892
         896
         900
         904
         908
         912
         916
         920
         924
         928
         932
         936
         940
         944
         948
         952
         956
         960
         964
         968
         972
         976
         980
         984
         988
         992
         996
        1000
        1004
        1008
        1012
        1016
        1020
        1024
        1028
        1032
        1036
        1040
        1044
        1048
        1052
        1056
        1060
        1064
        1068
        1072
        1076
        1080
        1084
        1088
        1092
        1096
        1100
        1104
        1108
        1112
        1116
        1120
        1124
        1128
        1132
        1136
        1140
        1144
        1148
        1152
        1156
        1160
        1164
        1168
        1172
        1176
        1180
        1184
        1188
        1192
        1196
        1200
        1204
        1208
        1212
        1216
        1220
        1224
        1228
        1232
        1236
        1240
        1244
        1248
        1252
        1256
        1260
        1264
        1268
        1272
        1276
        1280
        1284
        1288
        1292
        1296
        1300
        1304
        1308
        1312
        1316
        1320
        1324
        1328
        1332
        1336
        1340
        1344
        1348
        1352
        1356
        1360
        1364
        1368
        1372
        1376
        1380
        1384
        1388
        1392
        1396
        1400
        1404
        1408
        1412
        1416
        1420
        1424
        1428
        1432
        1436
        1440
        1444
        1448
        1452
        1456
        1460
        1464
        1468
        1472
        1476
        1480
        1484
        1488
        1492
        1496
        1500
        1504
        1508
        1512
        1516
        1520
        1524
        1528
        1532
        1536
        1540
        1544
        1548
        1552
        1556
        1560
        1564
        1568
        1572
        1576
        1580
        1584
        1588
        1592
        1596
        1600
        1604
        1608
        1612
        1616
        1620
        1624
        1628
        1632
        1636
        1640
        1644
        1648
        1652
        1656
        1660
        1664
        1668
        1672
        1676
        1680
        1684
        1688
        1692
        1696
        1700
        1704
        1708
        1712
        1716
        1720
        1724
        1728
        1732
        1736
        1740
        1744
        1748
        1752
        1756
        1760
        1764
        1768
        1772
        1776
        1780
        1784
        1788
        1792
        1796
        1800
        1804
        1808
        1812
        1816
        1820
        1824
        1828
        1832
        1836
        1840
        1844
        1848
        1852
        1856
        1860
        1864
        1868
        1872
        1876
        1880
        1884
        1888
        1892
        1896
        1900
        1904
        1908
        1912
        1916
        1920
        1924
        1928
        1932
        1936
        1940
        1944
        1948
        1952
        1956
        1960
        1964
        1968
        1972
        1976
        1980
        1984
        1988
        1992
        1996
        2000
        2004
        2008
        2012
        2016
        2020
        2024
        2028
        2032
        2036
        2040
        2044
        2048
        2052
        2056
        2060
        2064
        2068
        2072
        2076
        2080
        2084
        2088
        2092
        2096
        2100
        2104
        2108
        2112
        2116
        2120
        2124
        2128
        2132
        2136
        2140
        2144
        2148
        2152
        2156
        2160
        2164
        2168
        2172
        2176
        2180
        2184
        2188
        2192
        2196
        2200
        2204
        2208
        2212
        2216
        2220
        2224
        2228
        2232
        2236
        2240
        2244
        2248
        2252
        2256
        2260
        2264
        2268
        2272
        2276
        2280
        2284
        2288
        2292
        2296
        2300
        2304
        2308
        2312
        2316
        2320
        2324
        2328
        2332
        2336
        2340
        2344
        2348
        2352
        2356
        2360
        2364
        2368
        2372
        2376
        2380
        2384
        2388
        2392
        2396
        2400
        2404
        2408
        2412
        2416
        2420
        2424
        2428
        2432
        2436
        2440
        2444
        2448
        2452
        2456
        2460
        2464
        2468
        2472
        2476
        2480
        2484
        2488
        2492
        2496
        2500
        2504
        2508
        2512
        2516
        2520
        2524
        2528
        2532
        2536
        2540
        2544
        2548
        2552
        2556
        2560
        2564
        2568
        2572
        2576
        2580
        2584
        2588
        2592
        2596
        2600
        2604
        2608
        2612
        2616
        2620
        2624
        2628
        2632
        2636
        2640
        2644
        2648
        2652
        2656
        2660
        2664
        2668
        2672
        2676
        2680
        2684
        2688
        2692
        2696
        2700
        2704
        2708
        2712
        2716
        2720
        2724
        2728
        2732
        2736
        2740
        2744
        2748
        2752
        2756
        2760
        2764
        2768
        2772
        2776
        2780
        2784
        2788
        2792
        2796
        2800
        2804
        2808
        2812
        2816
        2820
        2824
        2828
        2832
        2836
        2840
        2844
        2848
        2852
        2856
        2860
        2864
        2868
        2872
        2876
        2880
        2884
        2888
        2892
        2896
        2900
        2904
        2908
        2912
        2916
        2920
        2924
        2928
        2932
        2936
        2940
        2944
        2948
        2952
        2956
        2960
        2964
        2968
        2972
        2976
        2980
        2984
        2988
        2992
        2996
        3000
        3004
        3008
        3012
        3016
        3020
        3024
        3028
        3032
        3036
        3040
        3044
        3048
        3052
        3056
        3060
        3064
        3068
        3072
        3076
        3080
        3084
        3088
        3092
        3096
        3100
        3104
        3108
        3112
        3116
        3120
        3124
        3128
        3132
        3136
        3140
        3144
        3148
        3152
        3156
        3160
        3164
        3168
        3172
        3176
        3180
        3184
        3188
        3192
        3196
        3200
        3204
        3208
        3212
        3216
        3220
        3224
        3228
        3232
        3236
        3240
        3244
        3248
        3252
        3256
        3260
        3264
        3268
        3272
        3276
        3280
        3284
        3288
        3292
        3296
        3300
        3304
        3308
        3312
        3316
        3320
        3324
        3328
        3332
        3336
        3340
        3344
        3348
        3352
        3356
        3360
        3364
        3368
        3372
        3376
        3380
        3384
        3388
        3392
        3396
        3400
        3404
        3408
        3412
        3416
        3420
        3424
        3428
        3432
        3436
        3440
        3444
        3448
        3452
        3456
        3460
        3464
        3468
        3472
        3476
        3480
        3484
        3488
        3492
        3496
        3500
        3504
        3508
        3512
        3516
        3520
        3524
        3528
        3532
        3536
        3540
        3544
        3548
        3552
        3556
        3560
        3564
        3568
        3572
        3576
        3580
        3584
        3588
        3592
        3596
        3600
        3604
        3608
        3612
        3616
        3620
        3624
        3628
        3632
        3636
        3640
        3644
        3648
        3652
        3656
        3660
        3664
        3668
        3672
        3676
        3680
        3684
        3688
        3692
        3696
        3700
        3704
        3708
        3712
        3716
        3720
        3724
        3728
        3732
        3736
        3740
        3744
        3748
        3752
        3756
        3760
        3764
        3768
        3772
        3776
        3780
        3784
        3788
        3792
        3796
        3800
        3804
        3808
        3812
        3816
        3820
        3824
        3828
        3832
        3836
        3840
        3844
        3848
        3852
        3856
        3860
        3864
        3868
        3872
        3876
        3880
        3884
        3888
        3892
        3896
        3900
        3904
        3908
        3912
        3916
        3920
        3924
        3928
        3932
        3936
        3940
        3944
        3948
        3952
        3956
        3960
        3964
        3968
        3972
        3976
        3980
        3984
        3988
        3992
        3996
        4000
        4004
        4008
        4012
        4016
        4020
        4024
        4028
        4032
        4036
        4040
        4044
        4048
        4052
        4056
        4060
        4064
        4068
        4072
        4076
        4080
        4084
        4088
        4092
        4096
 </DataArray>
 <DataArray  type="UInt8"  Name="types"  format="ascii">
 9
 9
 9
 9
 9
 9
 9
 9
 9
 9
 9
 9
 9
 9
 9
 9
 9
 9
 9
 9
 9
 9
 9
 9
 9
 9
 9
 9
 9
 9
 9
 9
 9
 9
 9
 9
 9
 9
 9
 9
 9
 9
 9
 9
 9
 9
 9
 9
 9
 9
 9
 9
 9
 9
 9
 9
 9
 9
 9
 9
 9
 9
 9
 9
 9
 9
 9
 9
 9
 9
 9
 9
 9
 9
 9
 9
 9
 9
 9
 9
 9
 9
 9
 9
 9
 9
 9
 9
 9
 9
 9
 9
 9
 9
 9
 9
 9
 9
 9
 9
 9
 9
 9
 9
 9
 9
 9
 9
 9
 9
 9
 9
 9
 9
 9
 9
 9
 9
 9
 9
 9
 9
 9
 9
 9
 9
 9
 9
 9
 9
 9
 9
 9
 9
 9
 9
 9
 9
 9
 9
 9
 9
 9
 9
 9
 9
 9
 9
 9
 9
 9
 9
 9
 9
 9
 9
 9
 9
 9
 9
 9
 9
 9
 9
 9
 9
 9
 9
 9
 9
 9
 9
 9
 9
 9
 9
 9
 9
 9
 9
 9
 9
 9
 9
 9
 9
 9
 9
 9
 9
 9
 9
 9
 9
 9
 9
 9
 9
 9
 9
 9
 9
 9
 9
 9
 9
 9
 9
 9
 9
 9
 9
 9
 9
 9
 9
 9
 9
 9
 9
 9
 9
 9
 9
 9
 9
 9
 9
 9
 9
 9
 9
 9
 9
 9
 9
 9
 9
 9
 9
 9
 9
 9
 9
 9
 9
 9
 9
 9
 9
 9
 9
 9
 9
 9
 9
 9
 9
 9
 9
 9
 9
 9
 9
 9
 9
 9
 9
 9
 9
 9
 9
 9
 9
 9
 9
 9
 9
 9
 9
 9
 9
 9
 9
 9
 9
 9
 9
 9
 9
 9
 9
 9
 9
 9
 9
 9
 9
 9
 9
 9
 9
 9
 9
 9
 9
 9
 9
 9
 9
 9
 9
 9
 9
 9
 9
 9
 9
 9
 9
 9
 9
 9
 9
 9
 9
 9
 9
 9
 9
 9
 9
 9
 9
 9
 9
 9
 9
 9
 9
 9
 9
 9
 9
 9
 9
 9
 9
 9
 9
 9
 9
 9
 9
 9
 9
 9
 9
 9
 9
 9
 9
 9
 9
 9
 9
 9
 9
 9
 9
 9
 9
 9
 9
 9
 9
 9
 9
 9
 9
 9
 9
 9
 9
 9
 9
 9
 9
 9
 9
 9
 9
 9
 9
 9
 9
 9
 9
 9
 9
 9
 9
 9
 9
 9
 9
 9
 9
 9
 9
 9
 9
 9
 9
 9
 9
 9
 9
 9
 9
 9
 9
 9
 9
 9
 9
 9
 9
 9
 9
 9
 9
 9
 9
 9
 9
 9
 9
 9
 9
 9
 9
 9
 9
 9
 9
 9
 9
 9
 9
 9
 9
 9
 9
 9
 9
 9
 9
 9
 9
 9
 9
 9
 9
 9
 9
 9
 9
 9
 9
 9
 9
 9
 9
 9
 9
 9
 9
 9
 9
 9
 9
 9
 9
 9
 9
 9
 9
 9
 9
 9
 9
 9
 9
 9
 9
 9
 9
 9
 9
 9
 9
 9
 9
 9
 9
 9
 9
 9
 9
 9
 9
 9
 9
 9
 9
 9
 9
 9
 9
 9
 9
 9
 9
 9
 9
 9
 9
 9
 9
 9
 9
 9
 9
 9
 9
 9
 9
 9
 9
 9
 9
 9
 9
 9
 9
 9
 9
 9
 9
 9
 9
 9
 9
 9
 9
 9
 9
 9
 9
 9
 9
 9
 9
 9
 9
 9
 9
 9
 9
 9
 9
 9
 9
 9
 9
 9
 9
 9
 9
 9
 9
 9
 9
 9
 9
 9
 9
 9
 9
 9
 9
 9
 9
 9
 9
 9
 9
 9
 9
 9
 9
 9
 9
 9
 9
 9
 9
 9
 9
 9
 9
 9
 9
 9
 9
 9
 9
 9
 9
 9
 9
 9
 9
 9
 9
 9
 9
 9
 9
 9
 9
 9
 9
 9
 9
 9
 9
 9
 9
 9
 9
 9
 9
 9
 9
 9
 9
 9
 9
 9
 9
 9
 9
 9
 9
 9
 9
 9
 9
 9
 9
 9
 9
 9
 9
 9
 9
 9
 9
 9
 9
 9
 9
 9
 9
 9
 9
 9
 9
 9
 9
 9
 9
 9
 9
 9
 9
 9
 9
 9
 9
 9
 9
 9
 9
 9
 9
 9
 9
 9
 9
 9
 9
 9
 9
 9
 9
 9
 9
 9
 9
 9
 9
 9
 9
 9
 9
 9
 9
 9
 9
 9
 9
 9
 9
 9
 9
 9
 9
 9
 9
 9
 9
 9
 9
 9
 9
 9
 9
 9
 9
 9
 9
 9
 9
 9
 9
 9
 9
 9
 9
 9
 9
 9
 9
 9
 9
 9
 9
 9
 9
 9
 9
 9
 9
 9
 9
 9
 9
 9
 9
 9
 9
 9
 9
 9
 9
 9
 9
 9
 9
 9
 9
 9
 9
 9
 9
 9
 9
 9
 9
 9
 9
 9
 9
 9
 9
 9
 9
 9
 9
 9
 9
 9
 9
 9
 9
 9
 9
 9
 9
 9
 9
 9
 9
 9
 9
 9
 9
 9
 9
 9
 9
 9
 9
 9
 9
 9
 9
 9
 9
 9
 9
 9
 9
 9
 9
 9
 9
 9
 9
 9
 9
 9
 9
 9
 9
 9
 9
 9
 9
 9
 9
 9
 9
 9
 9
 9
 9
 9
 9
 9
 9
 9
 9
 9
 9
 9
 9
 9
 9
 9
 9
 9
 9
 9
 9
 9
 9
 9
 9
 9
 9
 9
 9
 9
 9
 9
 9
 9
 9
 9
 9
 9
 9
 9
 9
 9
 9
 9
 9
 9
 9
 9
 9
 9
 9
 9
 9
 9
 9
 9
 9
 9
 9
 9
 9
 9
 9
 9
 9
 9
 9
 9
 9
 9
 9
 9
 9
 9
 9
 9
 9
 9
 9
 9
 9
 9
 9
 9
 9
 9
 9
 9
 9
 9
 9
 9
 9
 9
 9
 9
 9
 9
 9
 9
 9
 9
 9
 9
 9
 9
 9
 9
 9
 9
 9
 9
 9
 9
 9
 9
 9
 9
 9
 9
 9
 9
 9
 9
 9
 9
 9
 9
 9
 9
 9
 9
 9
 9
 9
 9
 9
 9
 9
 9
 9
 9
 9
 9
 9
 9
 9
 9
 9
 9
 9
 9
 9
 9
 9
 9
 9
 9
 9
 9
 9
 9
 9
 9
 9
 9
 9
 </DataArray>
 </Cells> 
 <PointData>
 <DataArray  type="Float64" Name="disp" NumberOfComponents="3" format="ascii">
   6.5108559197200794E-002   6.2877142642914219E-002   0.0000000000000000     
   6.8422823511949504E-002   6.8165484690741518E-002   0.0000000000000000     
   7.1537558973270882E-002   7.3672278724030371E-002   0.0000000000000000     
   7.4452765581164967E-002   7.9397524742780751E-002   0.0000000000000000     
   7.7168443335631762E-002   8.5341222746992712E-002   0.0000000000000000     
   6.0039850820202259E-002   6.1912690152740382E-002   0.0000000000000000     
   6.2989566179990811E-002   6.7293924620117226E-002   0.0000000000000000     
   6.5815046188966053E-002   7.2866684396092618E-002   0.0000000000000000     
   6.8516290847127959E-002   7.8630969480666585E-002   0.0000000000000000     
   7.1093300154476541E-002   8.4586779873839085E-002   0.0000000000000000     
   5.5140256499446615E-002   6.1026664154647282E-002   0.0000000000000000     
   5.7790331393904652E-002   6.6475917344458152E-002   0.0000000000000000     
   6.0365419148957530E-002   7.2099460177838096E-002   0.0000000000000000     
   6.2865519764605193E-002   7.7897292654787120E-002   0.0000000000000000     
   6.5290633240847690E-002   8.3869414775305254E-002   0.0000000000000000     
   5.0409776234933881E-002   6.0219064648634898E-002   0.0000000000000000     
   5.2825119153691015E-002   6.5711462863764281E-002   0.0000000000000000     
   5.5188677853245285E-002   7.1370606069266790E-002   0.0000000000000000     
   5.7500452333596672E-002   7.7196494265142426E-002   0.0000000000000000     
   5.9760442594745160E-002   8.3189127451391218E-002   0.0000000000000000     
   4.5848410026664031E-002   5.9489891634703258E-002   0.0000000000000000     
   4.8093929459349899E-002   6.5000561178035612E-002   0.0000000000000000     
   5.0284822301829360E-002   7.0680122070378687E-002   0.0000000000000000     
   5.2421088554102380E-002   7.6528574311732475E-002   0.0000000000000000     
   5.4502728216168993E-002   8.2545917902096991E-002   0.0000000000000000     
   7.7168443335631762E-002   8.5341222746992712E-002   0.0000000000000000     
   7.9758781283241278E-002   9.1471082177347424E-002   0.0000000000000000     
   8.2297968470563559E-002   9.7754812474526165E-002   0.0000000000000000     
   8.4786004897598591E-002  0.10419241363852891        0.0000000000000000     
   8.7222890564346386E-002  0.11078388566935568        0.0000000000000000     
   7.1093300154476541E-002   8.4586779873839085E-002   0.0000000000000000     
   7.3578097100765960E-002   9.0720012419556864E-002   0.0000000000000000     
   7.6002704675750335E-002   9.7016563961766583E-002   0.0000000000000000     
   7.8367122879429679E-002  0.10347643450046828        0.0000000000000000     
   8.0671351711804007E-002  0.11009962403566191        0.0000000000000000     
   6.5290633240847690E-002   8.3869414775305254E-002   0.0000000000000000     
   6.7646068509383761E-002   9.0013302653495650E-002   0.0000000000000000     
   6.9937134501912177E-002   9.6326432403461448E-002   0.0000000000000000     
   7.2163831218432950E-002  0.10280880402520272        0.0000000000000000     
   7.4326158658946082E-002  0.10946041751871942        0.0000000000000000     
   5.9760442594745160E-002   8.3189127451391218E-002   0.0000000000000000     
   6.1962695509094674E-002   8.9350952879163809E-002   0.0000000000000000     
   6.4101257949049084E-002   9.5684417799610830E-002   0.0000000000000000     
   6.6176129914608389E-002  0.10218952221273228        0.0000000000000000     
   6.8187311405772610E-002  0.10886626611852818        0.0000000000000000     
   5.4502728216168993E-002   8.2545917902096991E-002   0.0000000000000000     
   5.6527978099898707E-002   8.8732963096561313E-002   0.0000000000000000     
   5.8495075017161044E-002   9.5090520150214644E-002   0.0000000000000000     
   6.0404018967956004E-002  0.10161858906305693        0.0000000000000000     
   6.2254809952283587E-002  0.10831716983508818        0.0000000000000000     
   8.7222890564346386E-002  0.11078388566935568        0.0000000000000000     
   8.9570145754004751E-002  0.11751275667689494        0.0000000000000000     
   9.1789290749771490E-002  0.12436255477103519        0.0000000000000000     
   9.3880325551646632E-002  0.13133327995177646        0.0000000000000000     
   9.5843250159630133E-002  0.13842493221911872        0.0000000000000000     
   8.0671351711804007E-002  0.11009962403566191        0.0000000000000000     
   8.2882784507696886E-002  0.11686389559141866        0.0000000000000000     
   8.4968814601931925E-002  0.12374701219180967        0.0000000000000000     
   8.6929441994509110E-002  0.13074897383683487        0.0000000000000000     
   8.8764666685428442E-002  0.13786978052649435        0.0000000000000000     
   7.4326158658946082E-002  0.10946041751871942        0.0000000000000000     
   7.6396120348688173E-002  0.11625552957398531        0.0000000000000000     
   7.8345719812895828E-002  0.12316839688097421        0.0000000000000000     
   8.0174957051569060E-002  0.13019901943968601        0.0000000000000000     
   8.1883832064707826E-002  0.13734739725012082        0.0000000000000000     
   6.8187311405772610E-002  0.10886626611852818        0.0000000000000000     
   7.0110153276978587E-002  0.11568765862459487        0.0000000000000000     
   7.1920006382663201E-002  0.12262670883852879        0.0000000000000000     
   7.3616870722826425E-002  0.12968341676032991        0.0000000000000000     
   7.5200746297468271E-002  0.13685778238999821        0.0000000000000000     
   6.2254809952283587E-002  0.10831716983508818        0.0000000000000000     
   6.4024883292568141E-002  0.11516028274324738        0.0000000000000000     
   6.5691674311234030E-002  0.12212194806447346        0.0000000000000000     
   6.7255183008281233E-002  0.12920216579876651        0.0000000000000000     
   6.8715409383709791E-002  0.13640093594612643        0.0000000000000000     
   9.5843250159630133E-002  0.13842493221911872        0.0000000000000000     
   9.7704231999529198E-002  0.14563817950618685        0.0000000000000000     
   9.9489438497151014E-002  0.15297368974610576        0.0000000000000000     
  0.10119886965249554       0.16043146293887545        0.0000000000000000     
  0.10283252546556280       0.16801149908449586        0.0000000000000000     
   8.8764666685428442E-002  0.13786978052649435        0.0000000000000000     
   9.0503532874888507E-002  0.14511002380982468        0.0000000000000000     
   9.2175084763087875E-002  0.15247029523586272        0.0000000000000000     
   9.3779322350026534E-002  0.15995059480460833        0.0000000000000000     
   9.5316245635704525E-002  0.16755092251606155        0.0000000000000000     
   8.1883832064707826E-002  0.13734739725012082        0.0000000000000000     
   8.3502027606583359E-002  0.14461386770259713        0.0000000000000000     
   8.5059226431466836E-002  0.15199876818743346        0.0000000000000000     
   8.6555428539358270E-002  0.15950209870462986        0.0000000000000000     
   8.7990633930257633E-002  0.16712385925418635        0.0000000000000000     
   7.5200746297468271E-002  0.13685778238999821        0.0000000000000000     
   7.6699716194613757E-002  0.14414971118450412        0.0000000000000000     
   7.8141863502287898E-002  0.15155910860081806        0.0000000000000000     
   7.9527188220490680E-002  0.15908597463894011        0.0000000000000000     
   8.0855690349222117E-002  0.16673030929887020        0.0000000000000000     
   6.8715409383709791E-002  0.13640093594612643        0.0000000000000000     
   7.0096598638979699E-002  0.14371755425554564        0.0000000000000000     
   7.1422995975551046E-002  0.15115131647601651        0.0000000000000000     
   7.2694601393423819E-002  0.15870222260753902        0.0000000000000000     
   7.3911414892598018E-002  0.16637027265011320        0.0000000000000000     
  0.10283252546556280       0.16801149908449586        0.0000000000000000     
  0.10438424798523017       0.17569386022115580        0.0000000000000000     
  0.10584787926037503       0.18345860838704392        0.0000000000000000     
  0.10722341929099735       0.19130574358216021        0.0000000000000000     
  0.10851086807709714       0.19923526580650469        0.0000000000000000     
   9.5316245635704525E-002  0.16755092251606155        0.0000000000000000     
   9.6775408988363038E-002  0.17525390133234750        0.0000000000000000     
   9.8146366776243332E-002  0.18304215421559117        0.0000000000000000     
   9.9429118999345381E-002  0.19091568116579261        0.0000000000000000     
  0.10062366565766920       0.19887448218295178        0.0000000000000000     
   8.7990633930257633E-002  0.16712385925418635        0.0000000000000000     
   8.9351974655903596E-002  0.17484841322828340        0.0000000000000000     
   9.0626582768034786E-002  0.18266012401910156        0.0000000000000000     
   9.1814458266651258E-002  0.19055899162664086        0.0000000000000000     
   9.2915601151752930E-002  0.19854501605090125        0.0000000000000000     
   8.0855690349222117E-002  0.16673030929887020        0.0000000000000000     
   8.2113944987851836E-002  0.17447739590896350        0.0000000000000000     
   8.3288527235749435E-002  0.18231251779757507        0.0000000000000000     
   8.4379437092914927E-002  0.19023567496470489        0.0000000000000000     
   8.5386674559348272E-002  0.19824686741035302        0.0000000000000000     
   7.3911414892598018E-002  0.16637027265011320        0.0000000000000000     
   7.5061319984207772E-002  0.17414084937438778        0.0000000000000000     
   7.6132200179387238E-002  0.18199933555101167        0.0000000000000000     
   7.7124055478136416E-002  0.18994573117998476        0.0000000000000000     
   7.8036885880455292E-002  0.19798003626130711        0.0000000000000000     
  0.10851086807709714       0.19923526580650469        0.0000000000000000     
  0.10971703668301139       0.20724838178605542        0.0000000000000000     
  0.11084873617307700       0.21534629824679036        0.0000000000000000     
  0.11190596654729400       0.22352901518870955        0.0000000000000000     
  0.11288872780566239       0.23179653261181299        0.0000000000000000     
  0.10062366565766920       0.19887448218295178        0.0000000000000000     
  0.10173804683906612       0.20691566459411515        0.0000000000000000     
  0.10278030263138742       0.21503633572632896        0.0000000000000000     
  0.10375043303463313       0.22323649557959332        0.0000000000000000     
  0.10464843804880324       0.23151614415390814        0.0000000000000000     
   9.2915601151752930E-002  0.19854501605090125        0.0000000000000000     
   9.3937887358999328E-002  0.20661271550527383        0.0000000000000000     
   9.4889192824049992E-002  0.21475660820314973        0.0000000000000000     
   9.5769517546904881E-002  0.22297669414452881        0.0000000000000000     
   9.6578861527564036E-002  0.23127297332941121        0.0000000000000000     
   8.5386674559348272E-002  0.19824686741035302        0.0000000000000000     
   8.6316558242811023E-002  0.20633953451953155        0.0000000000000000     
   8.7175406751064721E-002  0.21450711567725259        0.0000000000000000     
   8.7963220084109298E-002  0.22274961088351619        0.0000000000000000     
   8.8679998241944780E-002  0.23106702013832223        0.0000000000000000     
   7.8036885880455292E-002  0.19798003626130711        0.0000000000000000     
   7.8874059490501233E-002  0.20609612163688826        0.0000000000000000     
   7.9638944412431578E-002  0.21428785814863763        0.0000000000000000     
   8.0331540646246341E-002  0.22255524579655528        0.0000000000000000     
   8.0951848191945508E-002  0.23089828458064121        0.0000000000000000     
  0.11288872780566239       0.23179653261181299        0.0000000000000000     
  0.11382451390504082       0.24016328616639221        0.0000000000000000     
  0.11474081880228790       0.24864371150273862        0.0000000000000000     
  0.11563764249740364       0.25723780862085233        0.0000000000000000     
  0.11651498499038807       0.26594557752073322        0.0000000000000000     
  0.10464843804880324       0.23151614415390814        0.0000000000000000     
  0.10547866343846221       0.23989745593245776        0.0000000000000000     
  0.10624545496817453       0.24840260539842637        0.0000000000000000     
  0.10694881263794023       0.25703159255181401        0.0000000000000000     
  0.10758873644775928       0.26578441739262060        0.0000000000000000     
   9.6578861527564036E-002  0.23127297332941121        0.0000000000000000     
   9.7307412172230018E-002  0.23967120301407374        0.0000000000000000     
   9.7945356887105456E-002  0.24819714045479335        0.0000000000000000     
   9.8492695672190378E-002  0.25685078565156994        0.0000000000000000     
   9.8949428527484742E-002  0.26563213860440360        0.0000000000000000     
   8.8679998241944780E-002  0.23106702013832223        0.0000000000000000     
   8.9310760106344228E-002  0.23948452741124024        0.0000000000000000     
   8.9840524559080676E-002  0.24802731667183955        0.0000000000000000     
   9.0269291600154081E-002  0.25669538792012020        0.0000000000000000     
   9.0597061229564527E-002  0.26548874115608218        0.0000000000000000     
   8.0951848191945508E-002  0.23089828458064121        0.0000000000000000     
   8.1488707240804870E-002  0.23933742912395720        0.0000000000000000     
   8.1930957984100161E-002  0.24789313404956503        0.0000000000000000     
   8.2278600421831397E-002  0.25656539935746481        0.0000000000000000     
   8.2531634553998562E-002  0.26535422504765643        0.0000000000000000     
  0.11651498499038807       0.26594557752073322        0.0000000000000000     
  0.11731355071753848       0.27493253310943705        0.0000000000000000     
  0.11797404411515218       0.28436419029401938        0.0000000000000000     
  0.11849646518322920       0.29424054907448005        0.0000000000000000     
  0.11888081392176952       0.30456160945081934        0.0000000000000000     
  0.10758873644775928       0.26578441739262060        0.0000000000000000     
  0.10814644341493679       0.27479369017238314        0.0000000000000000     
  0.10860315055677786       0.28419202114263842        0.0000000000000000     
  0.10895885787328252       0.29397941030338637        0.0000000000000000     
  0.10921356536445076       0.30415585765462716        0.0000000000000000     
   9.8949428527484742E-002  0.26563213860440360        0.0000000000000000     
   9.9326667368561994E-002  0.27463964588282247        0.0000000000000000     
   9.9635524110995480E-002  0.28397175405635461        0.0000000000000000     
   9.9875998754785242E-002  0.29362846312500013        0.0000000000000000     
  0.10004809129993124       0.30360977308875892        0.0000000000000000     
   9.0597061229564527E-002  0.26548874115608218        0.0000000000000000     
   9.0854222578414093E-002  0.27447040024075492        0.0000000000000000     
   9.1071164777805025E-002  0.28370338903516795        0.0000000000000000     
   9.1247887827737295E-002  0.29318770753932116        0.0000000000000000     
   9.1384391728210917E-002  0.30292335575321455        0.0000000000000000     
   8.2531634553998562E-002  0.26535422504765643        0.0000000000000000     
   8.2729109044493113E-002  0.27428595324618071        0.0000000000000000     
   8.2910072557206518E-002  0.28338692607907845        0.0000000000000000     
   8.3074525092138751E-002  0.29265714354634953        0.0000000000000000     
   8.3222466649289825E-002  0.30209660564799412        0.0000000000000000     
   4.5848410026664031E-002   5.9489891634703258E-002   0.0000000000000000     
   4.8093929459349899E-002   6.5000561178035612E-002   0.0000000000000000     
   5.0284822301829360E-002   7.0680122070378687E-002   0.0000000000000000     
   5.2421088554102380E-002   7.6528574311732475E-002   0.0000000000000000     
   5.4502728216168993E-002   8.2545917902096991E-002   0.0000000000000000     
   4.1434260218163294E-002   5.8827601900468998E-002   0.0000000000000000     
   4.3534020902646714E-002   6.4345276425418763E-002   0.0000000000000000     
   4.5567027968401327E-002   7.0037879923252944E-002   0.0000000000000000     
   4.7533281415427127E-002   7.5905412393971541E-002   0.0000000000000000     
   4.9432781243724119E-002   8.1947873837574528E-002   0.0000000000000000     
   3.7145429152957876E-002   5.8220652233548761E-002   0.0000000000000000     
   3.9082652075346891E-002   6.3747672744060346E-002   0.0000000000000000     
   4.0948470326652824E-002   6.9453751369968744E-002   0.0000000000000000     
   4.2742883906875674E-002   7.5338888111273913E-002   0.0000000000000000     
   4.4465892816015477E-002   8.1403082967975882E-002   0.0000000000000000     
   3.2981916831047786E-002   5.7669042633942555E-002   0.0000000000000000     
   3.4739822977450416E-002   6.3207750133960350E-002   0.0000000000000000     
   3.6429149376583841E-002   6.8927736410526019E-002   0.0000000000000000     
   3.8049896028448056E-002   7.4829001463639577E-002   0.0000000000000000     
   3.9602062933043060E-002   8.0911545293301024E-002   0.0000000000000000     
   2.8943723252433013E-002   5.7172773101650386E-002   0.0000000000000000     
   3.0505533608957303E-002   6.2725508595118773E-002   0.0000000000000000     
   3.2009065118194381E-002   6.8459835044924824E-002   0.0000000000000000     
   3.3454317780144238E-002   7.4375752451068561E-002   0.0000000000000000     
   3.4841291594806874E-002   8.0473260813549954E-002   0.0000000000000000     
   5.4502728216168993E-002   8.2545917902096991E-002   0.0000000000000000     
   5.6527978099898707E-002   8.8732963096561313E-002   0.0000000000000000     
   5.8495075017161044E-002   9.5090520150214644E-002   0.0000000000000000     
   6.0404018967956004E-002  0.10161858906305693        0.0000000000000000     
   6.2254809952283587E-002  0.10831716983508818        0.0000000000000000     
   4.9432781243724119E-002   8.1947873837574528E-002   0.0000000000000000     
   5.1273486663706166E-002   8.8161890272646273E-002   0.0000000000000000     
   5.3063356885787144E-002   9.4544087717771119E-002   0.0000000000000000     
   5.4802391909967031E-002  0.10109446617294907        0.0000000000000000     
   5.6490591736245856E-002  0.10781302563818013        0.0000000000000000     
   4.4465892816015477E-002   8.1403082967975882E-002   0.0000000000000000     
   4.6130791582427333E-002   8.7640291374376705E-002   0.0000000000000000     
   4.7750874734466424E-002   9.4044468764778483E-002   0.0000000000000000     
   4.9326142272132702E-002  0.10061561513918114        0.0000000000000000     
   5.0856594195426215E-002  0.10735373049758477        0.0000000000000000     
   3.9602062933043060E-002   8.0911545293301024E-002   0.0000000000000000     
   4.1099892856062206E-002   8.7168166401752609E-002   0.0000000000000000     
   4.2557628563198870E-002   9.3591663291236651E-002   0.0000000000000000     
   4.3975270054453022E-002  0.10018203596175314        0.0000000000000000     
   4.5352817329824692E-002  0.10693928441330205        0.0000000000000000     
   3.4841291594806874E-002   8.0473260813549954E-002   0.0000000000000000     
   3.6180790484610800E-002   8.6745515354774011E-002   0.0000000000000000     
   3.7483618371984495E-002   9.3185671297145709E-002   0.0000000000000000     
   3.8749775256928000E-002   9.9793728640665061E-002   0.0000000000000000     
   3.9979261139441280E-002  0.10656968738533204        0.0000000000000000     
   6.2254809952283587E-002  0.10831716983508818        0.0000000000000000     
   6.4024883292568141E-002  0.11516028274324738        0.0000000000000000     
   6.5691674311234030E-002  0.12212194806447346        0.0000000000000000     
   6.7255183008281233E-002  0.12920216579876651        0.0000000000000000     
   6.8715409383709791E-002  0.13640093594612643        0.0000000000000000     
   5.6490591736245856E-002  0.10781302563818013        0.0000000000000000     
   5.8106850346997654E-002  0.11467549240836582        0.0000000000000000     
   5.9630061724596513E-002  0.12165759277840768        0.0000000000000000     
   6.1060225869042431E-002  0.12875932674830567        0.0000000000000000     
   6.2397342780335423E-002  0.13598069431805990        0.0000000000000000     
   5.0856594195426215E-002  0.10735373049758477        0.0000000000000000     
   5.2322594391807933E-002  0.11423537809837334        0.0000000000000000     
   5.3704506748738834E-002  0.12123712119993088        0.0000000000000000     
   5.5002331266218930E-002  0.12835895980225742        0.0000000000000000     
   5.6216067944248230E-002  0.13560089390535293        0.0000000000000000     
   4.5352817329824692E-002  0.10693928441330205        0.0000000000000000     
   4.6672115426998978E-002  0.11383993981326988        0.0000000000000000     
   4.7915009383660986E-002  0.12086053332904306        0.0000000000000000     
   4.9081499199810731E-002  0.12800106496062161        0.0000000000000000     
   5.0171584875448205E-002  0.13526153470800548        0.0000000000000000     
   3.9979261139441280E-002  0.10656968738533204        0.0000000000000000     
   4.1155413452570781E-002  0.11348917755305547        0.0000000000000000     
   4.2261569629362970E-002  0.12052782916574423        0.0000000000000000     
   4.3297729669817826E-002  0.12768564222339829        0.0000000000000000     
   4.4263893573935356E-002  0.13496261672601761        0.0000000000000000     
   6.8715409383709791E-002  0.13640093594612643        0.0000000000000000     
   7.0096598638979699E-002  0.14371755425554564        0.0000000000000000     
   7.1422995975551046E-002  0.15115131647601651        0.0000000000000000     
   7.2694601393423819E-002  0.15870222260753902        0.0000000000000000     
   7.3911414892598018E-002  0.16637027265011320        0.0000000000000000     
   6.2397342780335423E-002  0.13598069431805990        0.0000000000000000     
   6.3661314568550662E-002  0.14332051650667924        0.0000000000000000     
   6.4872043343763383E-002  0.15077761433317280        0.0000000000000000     
   6.6029529105973567E-002  0.15835198779754051        0.0000000000000000     
   6.7133771855181226E-002  0.16604363689978238        0.0000000000000000     
   5.6216067944248230E-002  0.13560089390535293        0.0000000000000000     
   5.7362503612196115E-002  0.14296171752886244        0.0000000000000000     
   5.8458425099431992E-002  0.15044022469243093        0.0000000000000000     
   5.9503832405955859E-002  0.15803641539605848        0.0000000000000000     
   6.0498725531767709E-002  0.16575028963974503        0.0000000000000000     
   5.0171584875448205E-002  0.13526153470800548        0.0000000000000000     
   5.1200165769916040E-002  0.14264115732209512        0.0000000000000000     
   5.2182141242556872E-002  0.15013914755379093        0.0000000000000000     
   5.3117511293370695E-002  0.15775550540309288        0.0000000000000000     
   5.4006275922357495E-002  0.16549023087000103        0.0000000000000000     
   4.4263893573935356E-002  0.13496261672601761        0.0000000000000000     
   4.5174301041710462E-002  0.14235883588637743        0.0000000000000000     
   4.6043191773138030E-002  0.14987438291725283        0.0000000000000000     
   4.6870565768218055E-002  0.15750925781864386        0.0000000000000000     
   4.7656423026950549E-002  0.16526346059055047        0.0000000000000000     
   7.3911414892598018E-002  0.16637027265011320        0.0000000000000000     
   7.5061319984207772E-002  0.17414084937438778        0.0000000000000000     
   7.6132200179387238E-002  0.18199933555101167        0.0000000000000000     
   7.7124055478136416E-002  0.18994573117998476        0.0000000000000000     
   7.8036885880455292E-002  0.19798003626130711        0.0000000000000000     
   6.7133771855181226E-002  0.16604363689978238        0.0000000000000000     
   6.8174559600323453E-002  0.17383760130242987        0.0000000000000000     
   6.9141680350337381E-002  0.18171892066801437        0.0000000000000000     
   7.0035134105222996E-002  0.18968759499653584        0.0000000000000000     
   7.0854920864980284E-002  0.19774362428799433        0.0000000000000000     
   6.0498725531767709E-002  0.16575028963974503        0.0000000000000000     
   6.1434123791550978E-002  0.17356647937096331        0.0000000000000000     
   6.2301046499989049E-002  0.18146961653718616        0.0000000000000000     
   6.3099493657081923E-002  0.18945970113841351        0.0000000000000000     
   6.3829465262829607E-002  0.19753673317464540        0.0000000000000000     
   5.4006275922357495E-002  0.16549023087000103        0.0000000000000000     
   5.4840012557890339E-002  0.17332748357998815        0.0000000000000000     
   5.5610298628342242E-002  0.18125142315852705        0.0000000000000000     
   5.6317134133713226E-002  0.18926204960561779        0.0000000000000000     
   5.6960519074003263E-002  0.19735936292126030        0.0000000000000000     
   4.7656423026950549E-002  0.16526346059055047        0.0000000000000000     
   4.8392225899341515E-002  0.17312061392950434        0.0000000000000000     
   4.9069436735396953E-002  0.18106434053203707        0.0000000000000000     
   4.9688055535116869E-002  0.18909464039814863        0.0000000000000000     
   5.0248082298501237E-002  0.19721151352783906        0.0000000000000000     
   7.8036885880455292E-002  0.19798003626130711        0.0000000000000000     
   7.8874059490501233E-002  0.20609612163688826        0.0000000000000000     
   7.9638944412431578E-002  0.21428785814863763        0.0000000000000000     
   8.0331540646246341E-002  0.22255524579655528        0.0000000000000000     
   8.0951848191945508E-002  0.23089828458064121        0.0000000000000000     
   7.0854920864980284E-002  0.19774362428799433        0.0000000000000000     
   7.1601420996691867E-002  0.20588169797721859        0.0000000000000000     
   7.2275014867440271E-002  0.21409650549903739        0.0000000000000000     
   7.2875702477225565E-002  0.22238804685345076        0.0000000000000000     
   7.3403483826047708E-002  0.23075632204045868        0.0000000000000000     
   6.3829465262829607E-002  0.19753673317464540        0.0000000000000000     
   6.4489672656004887E-002  0.20569548466039722        0.0000000000000000     
   6.5078827175380521E-002  0.21393072761018450        0.0000000000000000     
   6.5596928820956510E-002  0.22224246202400710        0.0000000000000000     
   6.6043977592732894E-002  0.23063068790186525        0.0000000000000000     
   5.6960519074003263E-002  0.19735936292126030        0.0000000000000000     
   5.7538814468440308E-002  0.20553748168642416        0.0000000000000000     
   5.8050381336252288E-002  0.21379052448207886        0.0000000000000000     
   5.8495219677439217E-002  0.22211849130822445        0.0000000000000000     
   5.8873329492001074E-002  0.23052138216486093        0.0000000000000000     
   5.0248082298501237E-002  0.19721151352783906        0.0000000000000000     
   5.0748846433998129E-002  0.20540768905529938        0.0000000000000000     
   5.1189677350055598E-002  0.21367589611472057        0.0000000000000000     
   5.1570575046673624E-002  0.22201613470610271        0.0000000000000000     
   5.1891539523852233E-002  0.23042840482944568        0.0000000000000000     
   8.0951848191945508E-002  0.23089828458064121        0.0000000000000000     
   8.1488707240804870E-002  0.23933742912395720        0.0000000000000000     
   8.1930957984100161E-002  0.24789313404956503        0.0000000000000000     
   8.2278600421831397E-002  0.25656539935746481        0.0000000000000000     
   8.2531634553998562E-002  0.26535422504765643        0.0000000000000000     
   7.3403483826047708E-002  0.23075632204045868        0.0000000000000000     
   7.3854611101058940E-002  0.23921486412490722        0.0000000000000000     
   7.4225336489411473E-002  0.24777720617164256        0.0000000000000000     
   7.4515659991105307E-002  0.25644334818066467        0.0000000000000000     
   7.4725581606140443E-002  0.26521329015197348        0.0000000000000000     
   6.6043977592732894E-002  0.23063068790186525        0.0000000000000000     
   6.6421829212553504E-002  0.23910178838677304        0.0000000000000000     
   6.6732339402262156E-002  0.24766214662174491        0.0000000000000000     
   6.6975508161858918E-002  0.25631176260678074        0.0000000000000000     
   6.7151335491343750E-002  0.26505063634188064        0.0000000000000000     
   5.8873329492001074E-002  0.23052138216486093        0.0000000000000000     
   5.9190361575288529E-002  0.23899820190955465        0.0000000000000000     
   5.9451966722652252E-002  0.24754795539987198        0.0000000000000000     
   5.9658144934092223E-002  0.25617064263581307        0.0000000000000000     
   5.9808896209608456E-002  0.26486626361737786        0.0000000000000000     
   5.1891539523852233E-002  0.23042840482944568        0.0000000000000000     
   5.2160208189264055E-002  0.23890410469325193        0.0000000000000000     
   5.2384218450581714E-002  0.24743463250602396        0.0000000000000000     
   5.2563570307805223E-002  0.25601998826776168        0.0000000000000000     
   5.2698263760934581E-002  0.26466017197846514        0.0000000000000000     
   8.2531634553998562E-002  0.26535422504765643        0.0000000000000000     
   8.2729109044493113E-002  0.27428595324618071        0.0000000000000000     
   8.2910072557206518E-002  0.28338692607907845        0.0000000000000000     
   8.3074525092138751E-002  0.29265714354634953        0.0000000000000000     
   8.3222466649289825E-002  0.30209660564799412        0.0000000000000000     
   7.4725581606140443E-002  0.26521329015197348        0.0000000000000000     
   7.4896159666661230E-002  0.27408067139117176        0.0000000000000000     
   7.5068452504812033E-002  0.28303913120386204        0.0000000000000000     
   7.5242460120592866E-002  0.29208866959004426        0.0000000000000000     
   7.5418182514003673E-002  0.30122928654971859        0.0000000000000000     
   6.7151335491343750E-002  0.26505063634188064        0.0000000000000000     
   6.7300207344780663E-002  0.27384892116780013        0.0000000000000000     
   6.7462509676233740E-002  0.28267677042529471        0.0000000000000000     
   6.7638242485702910E-002  0.29153418411436438        0.0000000000000000     
   6.7827405773188215E-002  0.30042116223500909        0.0000000000000000     
   5.9808896209608456E-002  0.26486626361737786        0.0000000000000000     
   5.9941252078851412E-002  0.27359070257606583        0.0000000000000000     
   6.0092244071471568E-002  0.28229984374337641        0.0000000000000000     
   6.0261872187468896E-002  0.29099368711930967        0.0000000000000000     
   6.0450136426843430E-002  0.29967223270386562        0.0000000000000000     
   5.2698263760934581E-002  0.26466017197846514        0.0000000000000000     
   5.2819293868873469E-002  0.27330601561596884        0.0000000000000000     
   5.2957655690525553E-002  0.28190835115810725        0.0000000000000000     
   5.3113349225890845E-002  0.29046717860488031        0.0000000000000000     
   5.3286374474969325E-002  0.29898249795628817        0.0000000000000000     
   2.8943723252433013E-002   5.7172773101650386E-002   0.0000000000000000     
   3.0505533608957303E-002   6.2725508595118773E-002   0.0000000000000000     
   3.2009065118194381E-002   6.8459835044924824E-002   0.0000000000000000     
   3.3454317780144238E-002   7.4375752451068561E-002   0.0000000000000000     
   3.4841291594806874E-002   8.0473260813549954E-002   0.0000000000000000     
   2.5029607352393620E-002   5.6734015690814377E-002   0.0000000000000000     
   2.6388553470428427E-002   6.2300729686967538E-002   0.0000000000000000     
   2.7701777353120752E-002   6.8048539800883073E-002   0.0000000000000000     
   2.8969279000470593E-002   7.3977446032560984E-002   0.0000000000000000     
   3.0191058412477944E-002   8.0087448382001297E-002   0.0000000000000000     
   2.1238328066209664E-002   5.6354942455576679E-002   0.0000000000000000     
   2.2397652062424674E-002   6.1933194968938572E-002   0.0000000000000000     
   2.3520845882999273E-002   6.7692343206118694E-002   0.0000000000000000     
   2.4607909527933486E-002   7.3632387167117036E-002   0.0000000000000000     
   2.5658842997227302E-002   7.9753326851933634E-002   0.0000000000000000     
   1.7569885393881154E-002   5.6035553395937278E-002   0.0000000000000000     
   1.8532829384946031E-002   6.1622904441031863E-002   0.0000000000000000     
   1.9466270707829955E-002   6.7391245260631671E-002   0.0000000000000000     
   2.0370209362532921E-002   7.3340575854736689E-002   0.0000000000000000     
   2.1244645349054941E-002   7.9470896223346993E-002   0.0000000000000000     
   1.4024279335408079E-002   5.5775848511896181E-002   0.0000000000000000     
   1.4794085437992509E-002   6.1369858103247424E-002   0.0000000000000000     
   1.5538051827612781E-002   6.7145245964422035E-002   0.0000000000000000     
   1.6256178504268901E-002   7.3102012095420013E-002   0.0000000000000000     
   1.6948465467960867E-002   7.9240156496241360E-002   0.0000000000000000     
   3.4841291594806874E-002   8.0473260813549954E-002   0.0000000000000000     
   3.6180790484610800E-002   8.6745515354774011E-002   0.0000000000000000     
   3.7483618371984495E-002   9.3185671297145709E-002   0.0000000000000000     
   3.8749775256928000E-002   9.9793728640665061E-002   0.0000000000000000     
   3.9979261139441280E-002  0.10656968738533204        0.0000000000000000     
   3.0191058412477944E-002   8.0087448382001297E-002   0.0000000000000000     
   3.1373285162440381E-002   8.6372670796688880E-002   0.0000000000000000     
   3.2522128823655475E-002   9.2827237224108711E-002   0.0000000000000000     
   3.3637589396123213E-002   9.9451147664260733E-002   0.0000000000000000     
   3.4719666879843611E-002  0.10624440211714496        0.0000000000000000     
   2.5658842997227302E-002   7.9753326851933634E-002   0.0000000000000000     
   2.6677177583918264E-002   8.6049965290745267E-002   0.0000000000000000     
   2.7666444581043923E-002   9.2517105513728742E-002   0.0000000000000000     
   2.8626643988604289E-002   9.9154747520884046E-002   0.0000000000000000     
   2.9557775806599341E-002  0.10596289131221118        0.0000000000000000     
   2.1244645349054941E-002   7.9470896223346993E-002   0.0000000000000000     
   2.2092467749044442E-002   8.5777398836943144E-002   0.0000000000000000     
   2.2916565644149865E-002   9.2255276166005817E-002   0.0000000000000000     
   2.3716939034371203E-002   9.8904528210534984E-002   0.0000000000000000     
   2.4493587919708470E-002  0.10572515497053067        0.0000000000000000     
   1.6948465467960867E-002   7.9240156496241360E-002   0.0000000000000000     
   1.7619155657818915E-002   8.5554971435282484E-002   0.0000000000000000     
   1.8272492012973287E-002   9.2041749180939908E-002   0.0000000000000000     
   1.8908474533423980E-002   9.8700489733213548E-002   0.0000000000000000     
   1.9527103219170991E-002  0.10553119309210347        0.0000000000000000     
   3.9979261139441280E-002  0.10656968738533204        0.0000000000000000     
   4.1155413452570781E-002  0.11348917755305547        0.0000000000000000     
   4.2261569629362970E-002  0.12052782916574423        0.0000000000000000     
   4.3297729669817826E-002  0.12768564222339829        0.0000000000000000     
   4.4263893573935356E-002  0.13496261672601761        0.0000000000000000     
   3.4719666879843611E-002  0.10624440211714496        0.0000000000000000     
   3.5753205021706903E-002  0.11318143284336357        0.0000000000000000     
   3.6723047568603361E-002  0.12023667210351867        0.0000000000000000     
   3.7629194520532969E-002  0.12741011989761028        0.0000000000000000     
   3.8471645877495728E-002  0.13470177622563839        0.0000000000000000     
   2.9557775806599341E-002  0.10596289131221118        0.0000000000000000     
   3.0446206687590897E-002  0.11291504720982760        0.0000000000000000     
   3.1278303284140753E-002  0.11998472553585066        0.0000000000000000     
   3.2054065596248904E-002  0.12717192629028040        0.0000000000000000     
   3.2773493623915365E-002  0.13447664947311680        0.0000000000000000     
   2.4493587919708470E-002  0.10572515497053067        0.0000000000000000     
   2.5234418450222746E-002  0.11269002065244756        0.0000000000000000     
   2.5927336775975137E-002  0.11977198946274019        0.0000000000000000     
   2.6572342896965643E-002  0.12697106140140865        0.0000000000000000     
   2.7169436813194260E-002  0.13428723646845292        0.0000000000000000     
   1.9527103219170991E-002  0.10553119309210347        0.0000000000000000     
   2.0117840309602467E-002  0.11250635317122343        0.0000000000000000     
   2.0670148044106527E-002  0.11959846388418731        0.0000000000000000     
   2.1184026422683175E-002  0.12680752523099503        0.0000000000000000     
   2.1659475445332421E-002  0.13413353721164670        0.0000000000000000     
   4.4263893573935356E-002  0.13496261672601761        0.0000000000000000     
   4.5174301041710462E-002  0.14235883588637743        0.0000000000000000     
   4.6043191773138030E-002  0.14987438291725283        0.0000000000000000     
   4.6870565768218055E-002  0.15750925781864386        0.0000000000000000     
   4.7656423026950549E-002  0.16526346059055047        0.0000000000000000     
   3.8471645877495728E-002  0.13470177622563839        0.0000000000000000     
   3.9264269890410243E-002  0.14211270263149933        0.0000000000000000     
   4.0020934810195127E-002  0.14964396065908944        0.0000000000000000     
   4.0741640636850360E-002  0.15729555030840878        0.0000000000000000     
   4.1426387370375968E-002  0.16506747157945723        0.0000000000000000     
   3.2773493623915365E-002  0.13447664947311680        0.0000000000000000     
   3.3449432778846280E-002  0.14190070696725088        0.0000000000000000     
   3.4094728472747825E-002  0.14944591065557367        0.0000000000000000     
   3.4709380705620012E-002  0.15711226053808508        0.0000000000000000     
   3.5293389477462828E-002  0.16489975661478520        0.0000000000000000     
   2.7169436813194260E-002  0.13428723646845292        0.0000000000000000     
   2.7729789707018563E-002  0.14172284889363213        0.0000000000000000     
   2.8264572760796147E-002  0.14928023290670545        0.0000000000000000     
   2.8773785974526993E-002  0.15695938850767288        0.0000000000000000     
   2.9257429348211118E-002  0.16476031569653443        0.0000000000000000     
   2.1659475445332421E-002  0.13413353721164670        0.0000000000000000     
   2.2105340674927101E-002  0.14157912841064302        0.0000000000000000     
   2.2530467674340068E-002  0.14914692741248484        0.0000000000000000     
   2.2934856443571315E-002  0.15683693421717210        0.0000000000000000     
   2.3318506982620849E-002  0.16464914882470488        0.0000000000000000     
   4.7656423026950549E-002  0.16526346059055047        0.0000000000000000     
   4.8392225899341515E-002  0.17312061392950434        0.0000000000000000     
   4.9069436735396953E-002  0.18106434053203707        0.0000000000000000     
   4.9688055535116869E-002  0.18909464039814863        0.0000000000000000     
   5.0248082298501237E-002  0.19721151352783906        0.0000000000000000     
   4.1426387370375968E-002  0.16506747157945723        0.0000000000000000     
   4.2066478779904305E-002  0.17294279807322957        0.0000000000000000     
   4.2653218634567704E-002  0.18090460339072043        0.0000000000000000     
   4.3186606934366205E-002  0.18895288753192979        0.0000000000000000     
   4.3666643679299774E-002  0.19708765049685772        0.0000000000000000     
   3.5293389477462828E-002  0.16489975661478520        0.0000000000000000     
   3.5838486163578445E-002  0.17279096366488153        0.0000000000000000     
   3.6336402139269031E-002  0.18076844646758145        0.0000000000000000     
   3.6787137404534591E-002  0.18883220502288503        0.0000000000000000     
   3.7190691959375119E-002  0.19698223933079223        0.0000000000000000     
   2.9257429348211118E-002  0.16476031569653443        0.0000000000000000     
   2.9708248050363945E-002  0.17266511070446017        0.0000000000000000     
   3.0118987249500913E-002  0.18065586976262013        0.0000000000000000     
   3.0489646945622024E-002  0.18873259287101429        0.0000000000000000     
   3.0820227138727268E-002  0.19689528002964266        0.0000000000000000     
   2.3318506982620849E-002  0.16464914882470488        0.0000000000000000     
   2.3675764440260809E-002  0.17256523919196556        0.0000000000000000     
   2.4000973965263364E-002  0.18056687327583645        0.0000000000000000     
   2.4294135557628500E-002  0.18865405107631758        0.0000000000000000     
   2.4555249217356225E-002  0.19682677259340897        0.0000000000000000     
   5.0248082298501237E-002  0.19721151352783906        0.0000000000000000     
   5.0748846433998129E-002  0.20540768905529938        0.0000000000000000     
   5.1189677350055598E-002  0.21367589611472057        0.0000000000000000     
   5.1570575046673624E-002  0.22201613470610271        0.0000000000000000     
   5.1891539523852233E-002  0.23042840482944568        0.0000000000000000     
   4.3666643679299774E-002  0.19708765049685772        0.0000000000000000     
   4.4094025761954377E-002  0.20529989402257315        0.0000000000000000     
   4.4469450074915956E-002  0.21358061984614499        0.0000000000000000     
   4.4792916618184513E-002  0.22192982796757327        0.0000000000000000     
   4.5064425391760046E-002  0.23034751838685805        0.0000000000000000     
   3.7190691959375119E-002  0.19698223933079223        0.0000000000000000     
   3.7548609661585068E-002  0.20520788384379557        0.0000000000000000     
   3.7862434368958899E-002  0.21349847301438737        0.0000000000000000     
   3.8132166081496603E-002  0.22185400684256776        0.0000000000000000     
   3.8357804799198175E-002  0.23027448532833661        0.0000000000000000     
   3.0820227138727268E-002  0.19689528002964266        0.0000000000000000     
   3.1112598132890211E-002  0.20513165851896667        0.0000000000000000     
   3.1368630232184419E-002  0.21342945561944784        0.0000000000000000     
   3.1588323436609882E-002  0.22178867133108604        0.0000000000000000     
   3.1771677746166606E-002  0.23020930565388137        0.0000000000000000     
   2.4555249217356225E-002  0.19682677259340897        0.0000000000000000     
   2.4785991175869802E-002  0.20507121804808656        0.0000000000000000     
   2.4988037664592518E-002  0.21337356766132631        0.0000000000000000     
   2.5161388683524365E-002  0.22173382143312820        0.0000000000000000     
   2.5306044232665352E-002  0.23015197936349230        0.0000000000000000     
   5.1891539523852233E-002  0.23042840482944568        0.0000000000000000     
   5.2160208189264055E-002  0.23890410469325193        0.0000000000000000     
   5.2384218450581714E-002  0.24743463250602396        0.0000000000000000     
   5.2563570307805223E-002  0.25601998826776168        0.0000000000000000     
   5.2698263760934581E-002  0.26466017197846514        0.0000000000000000     
   4.5064425391760046E-002  0.23034751838685805        0.0000000000000000     
   4.5292323437762474E-002  0.23881809965128920        0.0000000000000000     
   4.5484957798311722E-002  0.24732598030815667        0.0000000000000000     
   4.5642328473407774E-002  0.25587116035746049        0.0000000000000000     
   4.5764435463050639E-002  0.26445363979920056        0.0000000000000000     
   3.8357804799198175E-002  0.23027448532833661        0.0000000000000000     
   3.8547661704066247E-002  0.23873878969709059        0.0000000000000000     
   3.8710047978103415E-002  0.24722580117422616        0.0000000000000000     
   3.8844963621309715E-002  0.25573551975974335        0.0000000000000000     
   3.8952408633685126E-002  0.26426794545364207        0.0000000000000000     
   3.1771677746166606E-002  0.23020930565388137        0.0000000000000000     
   3.1926222988175337E-002  0.23866617483065608        0.0000000000000000     
   3.2059488989956822E-002  0.24713409510423232        0.0000000000000000     
   3.2171475751511060E-002  0.25561306647461030        0.0000000000000000     
   3.2262183272838051E-002  0.26410308894178980        0.0000000000000000     
   2.5306044232665352E-002  0.23015197936349230        0.0000000000000000     
   2.5428007290089767E-002  0.23860025505198559        0.0000000000000000     
   2.5533280833871921E-002  0.24705086209817526        0.0000000000000000     
   2.5621864864011801E-002  0.25550380050206128        0.0000000000000000     
   2.5693759380509416E-002  0.26395907026364368        0.0000000000000000     
   5.2698263760934581E-002  0.26466017197846514        0.0000000000000000     
   5.2819293868873469E-002  0.27330601561596884        0.0000000000000000     
   5.2957655690525553E-002  0.28190835115810725        0.0000000000000000     
   5.3113349225890845E-002  0.29046717860488031        0.0000000000000000     
   5.3286374474969325E-002  0.29898249795628817        0.0000000000000000     
   4.5764435463050639E-002  0.26445363979920056        0.0000000000000000     
   4.5875569978739927E-002  0.27302354827084446        0.0000000000000000     
   4.6000023231975266E-002  0.28153101540985970        0.0000000000000000     
   4.6137795222756621E-002  0.28997604121624615        0.0000000000000000     
   4.6288885951084033E-002  0.29835862569000404        0.0000000000000000     
   3.8952408633685126E-002  0.26426794545364207        0.0000000000000000     
   3.9051317672343884E-002  0.27277198852402795        0.0000000000000000     
   3.9160625394400232E-002  0.28119655923900633        0.0000000000000000     
   3.9280331799854164E-002  0.28954165759857720        0.0000000000000000     
   3.9410436888705672E-002  0.29780728360274050        0.0000000000000000     
   3.2262183272838051E-002  0.26410308894178980        0.0000000000000000     
   3.2346536949685339E-002  0.27255133637551932        0.0000000000000000     
   3.2439462177800478E-002  0.28090498264554714        0.0000000000000000     
   3.2540958957183432E-002  0.28916402775187328        0.0000000000000000     
   3.2651027287834249E-002  0.29732847169449761        0.0000000000000000     
   2.5693759380509416E-002  0.26395907026364368        0.0000000000000000     
   2.5761227810764294E-002  0.27236159182531861        0.0000000000000000     
   2.5836533582175979E-002  0.28065628562948219        0.0000000000000000     
   2.5919676694744466E-002  0.28884315167613445        0.0000000000000000     
   2.6010657148469753E-002  0.29692218996527536        0.0000000000000000     
   1.4024279335408079E-002   5.5775848511896181E-002   0.0000000000000000     
   1.4794085437992509E-002   6.1369858103247424E-002   0.0000000000000000     
   1.5538051827612781E-002   6.7145245964422035E-002   0.0000000000000000     
   1.6256178504268901E-002   7.3102012095420013E-002   0.0000000000000000     
   1.6948465467960867E-002   7.9240156496241360E-002   0.0000000000000000     
   1.0534621063536762E-002   5.5574718564724290E-002   0.0000000000000000     
   1.1112676661397276E-002   6.1173486889967078E-002   0.0000000000000000     
   1.1668143037960824E-002   6.6954102238106356E-002   0.0000000000000000     
   1.2201020193227413E-002   7.2916564609142129E-002   0.0000000000000000     
   1.2711308127197040E-002   7.9060874003074405E-002   0.0000000000000000     
   7.0340217510135236E-003   5.5431054315692514E-002   0.0000000000000000     
   7.4198594949935037E-003   6.1033221735572622E-002   0.0000000000000000     
   7.7884981344871476E-003   6.6817571002301221E-002   0.0000000000000000     
   8.1399376694944563E-003   7.2784102115878296E-002   0.0000000000000000     
   8.4741781000154254E-003   7.8932815076303828E-002   0.0000000000000000     
   3.5224813978383630E-003   5.5344855764800846E-002   0.0000000000000000     
   3.7156339387811950E-003   6.0949062640064097E-002   0.0000000000000000     
   3.8991171171917482E-003   6.6735652257006645E-002   0.0000000000000000     
   4.0729309330700238E-003   7.2704624615628474E-002   0.0000000000000000     
   4.2370753864160206E-003   7.8855979715929614E-002   0.0000000000000000     
   4.0112821918236730E-012   5.5316122912049293E-002   0.0000000000000000     
  -7.2396507191929693E-012   6.0921009603441476E-002   0.0000000000000000     
  -1.3925370839079632E-011   6.6708346002222613E-002   0.0000000000000000     
  -1.6045877408894793E-011   7.2678132108392718E-002   0.0000000000000000     
  -1.3601171404420409E-011   7.8830367921951777E-002   0.0000000000000000     
   1.6948465467960867E-002   7.9240156496241360E-002   0.0000000000000000     
   1.7619155657818915E-002   8.5554971435282484E-002   0.0000000000000000     
   1.8272492012973287E-002   9.2041749180939908E-002   0.0000000000000000     
   1.8908474533423980E-002   9.8700489733213548E-002   0.0000000000000000     
   1.9527103219170991E-002  0.10553119309210347        0.0000000000000000     
   1.2711308127197040E-002   7.9060874003074405E-002   0.0000000000000000     
   1.3204748514074454E-002   8.5382283292872244E-002   0.0000000000000000     
   1.3687083028064397E-002   9.1876045351504732E-002   0.0000000000000000     
   1.4158311669166876E-002   9.8542160178971869E-002   0.0000000000000000     
   1.4618434437381889E-002  0.10538062777527363        0.0000000000000000     
   8.4741781000154254E-003   7.8932815076303828E-002   0.0000000000000000     
   8.7967535216438193E-003   8.5258934616821241E-002   0.0000000000000000     
   9.1131980299734034E-003   9.1757685470673991E-002   0.0000000000000000     
   9.4235116250041759E-003   9.8429067637861994E-002   0.0000000000000000     
   9.7276943067361368E-003  0.10527308111838533        0.0000000000000000     
   4.2370753864160206E-003   7.8855979715929614E-002   0.0000000000000000     
   4.3951706805270213E-003   8.5184925407129519E-002   0.0000000000000000     
   4.5508370187003063E-003   9.1686669538447632E-002   0.0000000000000000     
   4.7040744009358782E-003   9.8361212109883966E-002   0.0000000000000000     
   4.8548828272337342E-003  0.10520855312143854        0.0000000000000000     
  -1.3601171404420409E-011   7.8830367921951777E-002   0.0000000000000000     
  -9.2759465473296610E-012   8.5160255663797021E-002   0.0000000000000000     
  -5.7548950414126887E-012   9.1662997554825709E-002   0.0000000000000000     
  -3.0380183503424252E-012   9.8338593595037757E-002   0.0000000000000000     
  -1.1253164199087617E-012  0.10518704378443326        0.0000000000000000     
   1.9527103219170991E-002  0.10553119309210347        0.0000000000000000     
   2.0117840309602467E-002  0.11250635317122343        0.0000000000000000     
   2.0670148044106527E-002  0.11959846388418731        0.0000000000000000     
   2.1184026422683175E-002  0.12680752523099503        0.0000000000000000     
   2.1659475445332421E-002  0.13413353721164670        0.0000000000000000     
   1.4618434437381889E-002  0.10538062777527363        0.0000000000000000     
   1.5058745471073271E-002  0.11236373872025435        0.0000000000000000     
   1.5470538908604852E-002  0.11946378359375831        0.0000000000000000     
   1.5853814749976637E-002  0.12668076239578552        0.0000000000000000     
   1.6208572995188627E-002  0.13401467512633597        0.0000000000000000     
   9.7276943067361368E-003  0.10527308111838533        0.0000000000000000     
   1.0019407139978396E-002  0.11226187125363939        0.0000000000000000     
   1.0292311189540070E-002  0.11936758338501961        0.0000000000000000     
   1.0546406455421155E-002  0.12659021751252600        0.0000000000000000     
   1.0781692937621658E-002  0.13392977363615854        0.0000000000000000     
   4.8548828272337342E-003  0.10520855312143854        0.0000000000000000     
   4.9998253163178429E-003  0.11220075077137852        0.0000000000000000     
   5.1354648869121767E-003  0.11930986325797119        0.0000000000000000     
   5.2618015390167331E-003  0.12653589058121648        0.0000000000000000     
   5.3788352726315113E-003  0.13387883274111442        0.0000000000000000     
  -1.1253164199087617E-012  0.10518704378443326        0.0000000000000000     
   9.1613348851549148E-014  0.11218037727347180        0.0000000000000000     
   7.2117377174218955E-013  0.11929062321261305        0.0000000000000000     
   7.6336457771261634E-013  0.12651778160185700        0.0000000000000000     
   2.1818614623358989E-013  0.13386185244120363        0.0000000000000000     
   2.1659475445332421E-002  0.13413353721164670        0.0000000000000000     
   2.2105340674927101E-002  0.14157912841064302        0.0000000000000000     
   2.2530467674340068E-002  0.14914692741248484        0.0000000000000000     
   2.2934856443571315E-002  0.15683693421717210        0.0000000000000000     
   2.3318506982620849E-002  0.16464914882470488        0.0000000000000000     
   1.6208572995188627E-002  0.13401467512633597        0.0000000000000000     
   1.6541117873535648E-002  0.14146830818374681        0.0000000000000000     
   1.6857753614312528E-002  0.14904444796635527        0.0000000000000000     
   1.7158480217519263E-002  0.15674309447416129        0.0000000000000000     
   1.7443297683155862E-002  0.16456424770716496        0.0000000000000000     
   1.0781692937621658E-002  0.13392977363615854        0.0000000000000000     
   1.1002153493807960E-002  0.14138915087840678        0.0000000000000000     
   1.1211770981646453E-002  0.14897124836176026        0.0000000000000000     
   1.1410545401137137E-002  0.15667606608621901        0.0000000000000000     
   1.1598476752280011E-002  0.16450360405178302        0.0000000000000000     
   5.3788352726315113E-003  0.13387883274111442        0.0000000000000000     
   5.4884475357440399E-003  0.14134165649462291        0.0000000000000000     
   5.5925197763418448E-003  0.14892732859869984        0.0000000000000000     
   5.6910519944249312E-003  0.15663584905334518        0.0000000000000000     
   5.7840441899932923E-003  0.16446721785855895        0.0000000000000000     
   2.1818614623358989E-013  0.13386185244120363        0.0000000000000000     
  -6.5611556986089337E-013  0.14132582503239524        0.0000000000000000     
  -1.6012964608805302E-012  0.14891268867717394        0.0000000000000000     
  -2.6173555781484198E-012  0.15662244337553988        0.0000000000000000     
  -3.7042933824504853E-012  0.16445508912749293        0.0000000000000000     
   2.3318506982620849E-002  0.16464914882470488        0.0000000000000000     
   2.3675764440260809E-002  0.17256523919196556        0.0000000000000000     
   2.4000973965263364E-002  0.18056687327583645        0.0000000000000000     
   2.4294135557628500E-002  0.18865405107631758        0.0000000000000000     
   2.4555249217356225E-002  0.19682677259340897        0.0000000000000000     
   1.7443297683155862E-002  0.16456424770716496        0.0000000000000000     
   1.7708324393537860E-002  0.17248921850202112        0.0000000000000000     
   1.7949678730980804E-002  0.18049931769538466        0.0000000000000000     
   1.8167360695484688E-002  0.18859454528725567        0.0000000000000000     
   1.8361370287049514E-002  0.19677490127763406        0.0000000000000000     
   1.1598476752280011E-002  0.16450360405178302        0.0000000000000000     
   1.1773216970463903E-002  0.17243491800925032        0.0000000000000000     
   1.1932417991077646E-002  0.18045106370941902        0.0000000000000000     
   1.2076079814121232E-002  0.18855204115228924        0.0000000000000000     
   1.2204202439594669E-002  0.19673785033786084        0.0000000000000000     
   5.7840441899932923E-003  0.16446721785855895        0.0000000000000000     
   5.8704421710389434E-003  0.17240233771365313        0.0000000000000000     
   5.9491917455538924E-003  0.18042211131793956        0.0000000000000000     
   6.0202929135381418E-003  0.18852653867141828        0.0000000000000000     
   6.0837456749916873E-003  0.19671561977408927        0.0000000000000000     
  -3.7042933824504853E-012  0.16445508912749293        0.0000000000000000     
  -4.7370215389141990E-012  0.17239147761522955        0.0000000000000000     
  -5.5904530137096398E-012  0.18041246052094620        0.0000000000000000     
  -6.2645894331400664E-012  0.18851803784464280        0.0000000000000000     
  -6.7594280867000478E-012  0.19670820958631943        0.0000000000000000     
   2.4555249217356225E-002  0.19682677259340897        0.0000000000000000     
   2.4785991175869802E-002  0.20507121804808656        0.0000000000000000     
   2.4988037664592518E-002  0.21337356766132631        0.0000000000000000     
   2.5161388683524365E-002  0.22173382143312820        0.0000000000000000     
   2.5306044232665352E-002  0.23015197936349230        0.0000000000000000     
   1.8361370287049514E-002  0.19677490127763406        0.0000000000000000     
   1.8532938223542867E-002  0.20502523850969143        0.0000000000000000     
   1.8683295222832338E-002  0.21333040982659920        0.0000000000000000     
   1.8812441284917922E-002  0.22169041522835739        0.0000000000000000     
   1.8920376409799620E-002  0.23010525471496604        0.0000000000000000     
   1.2204202439594669E-002  0.19673785033786084        0.0000000000000000     
   1.2317588708928436E-002  0.20499239598231753        0.0000000000000000     
   1.2417041463553016E-002  0.21329958280184277        0.0000000000000000     
   1.2502560703468410E-002  0.22165941079643678        0.0000000000000000     
   1.2574146428674616E-002  0.23007187996609937        0.0000000000000000     
   6.0837456749916873E-003  0.19671561977408927        0.0000000000000000     
   6.1399426320265004E-003  0.20497269046596486        0.0000000000000000     
   6.1892763867545490E-003  0.21328108658705722        0.0000000000000000     
   6.2317469391758298E-003  0.22164080813736636        0.0000000000000000     
   6.2673542892903444E-003  0.23005185511689236        0.0000000000000000     
  -6.7594280867000478E-012  0.19670820958631943        0.0000000000000000     
  -7.1629321397870260E-012  0.20496612196063346        0.0000000000000000     
  -7.5630607462504051E-012  0.21327492118224239        0.0000000000000000     
  -7.9598140958255653E-012  0.22163460725114617        0.0000000000000000     
  -8.3531940045511455E-012  0.23004518016734485        0.0000000000000000     
   2.5306044232665352E-002  0.23015197936349230        0.0000000000000000     
   2.5428007290089767E-002  0.23860025505198559        0.0000000000000000     
   2.5533280833871921E-002  0.24705086209817526        0.0000000000000000     
   2.5621864864011801E-002  0.25550380050206128        0.0000000000000000     
   2.5693759380509416E-002  0.26395907026364368        0.0000000000000000     
   1.8920376409799620E-002  0.23010525471496604        0.0000000000000000     
   1.9011303692026641E-002  0.23854550434659247        0.0000000000000000     
   1.9089426226148200E-002  0.24698174018340394        0.0000000000000000     
   1.9154744012164302E-002  0.25541396222540047        0.0000000000000000     
   1.9207257050074939E-002  0.26384217047258207        0.0000000000000000     
   1.2574146428674616E-002  0.23007187996609937        0.0000000000000000     
   1.2634401276203062E-002  0.23850639669998983        0.0000000000000000     
   1.2685927883085165E-002  0.24693236738726720        0.0000000000000000     
   1.2728726249320929E-002  0.25534979202793168        0.0000000000000000     
   1.2762796374910353E-002  0.26375867062198305        0.0000000000000000     
   6.2673542892903444E-003  0.23005185511689236        0.0000000000000000     
   6.2973000426190268E-003  0.23848293211217772        0.0000000000000000     
   6.3227858046828057E-003  0.24690274370976531        0.0000000000000000     
   6.3438115754816836E-003  0.25531128990965490        0.0000000000000000     
   6.3603773550156605E-003  0.26370857071184678        0.0000000000000000     
  -8.3531940045511455E-012  0.23004518016734485        0.0000000000000000     
  -8.7254604583253403E-012  0.23847511058315618        0.0000000000000000     
  -9.0588737683069964E-012  0.24689286915089800        0.0000000000000000     
  -9.3534349915932319E-012  0.25529845587057037        0.0000000000000000     
  -9.6091424747757337E-012  0.26369187074217315        0.0000000000000000     
   2.5693759380509416E-002  0.26395907026364368        0.0000000000000000     
   2.5761227810764294E-002  0.27236159182531861        0.0000000000000000     
   2.5836533582175979E-002  0.28065628562948219        0.0000000000000000     
   2.5919676694744466E-002  0.28884315167613445        0.0000000000000000     
   2.6010657148469753E-002  0.29692218996527536        0.0000000000000000     
   1.9207257050074939E-002  0.26384217047258207        0.0000000000000000     
   1.9256971061686803E-002  0.27220908741822936        0.0000000000000000     
   1.9313891768806581E-002  0.28045743555562291        0.0000000000000000     
   1.9378019171434273E-002  0.28858721488476297        0.0000000000000000     
   1.9449353269569876E-002  0.29659842540564929        0.0000000000000000     
   1.2762796374910353E-002  0.26375867062198305        0.0000000000000000     
   1.2795347508558918E-002  0.27210015569905494        0.0000000000000000     
   1.2833588898972095E-002  0.28031539978878084        0.0000000000000000     
   1.2877520546149889E-002  0.28840440289116076        0.0000000000000000     
   1.2927142450092298E-002  0.29636716500619475        0.0000000000000000     
   6.3603773550156605E-003  0.26370857071184678        0.0000000000000000     
   6.3763571513806398E-003  0.27203479666779540        0.0000000000000000     
   6.3956249726725249E-003  0.28023017832895597        0.0000000000000000     
   6.4181808188913192E-003  0.28829471569532811        0.0000000000000000     
   6.4440246900370184E-003  0.29622840876691209        0.0000000000000000     
  -9.6091424747757337E-012  0.26369187074217315        0.0000000000000000     
  -9.8480305941311963E-012  0.27201301032445091        0.0000000000000000     
  -1.0092129063866973E-011  0.28020177117614820        0.0000000000000000     
  -1.0341438561609420E-011  0.28825815329726484        0.0000000000000000     
  -1.0595960740766852E-011  0.29618215668780096        0.0000000000000000     
   4.0112821918236730E-012   5.5316122912049293E-002   0.0000000000000000     
  -7.2396507191929693E-012   6.0921009603441476E-002   0.0000000000000000     
  -1.3925370839079632E-011   6.6708346002222613E-002   0.0000000000000000     
  -1.6045877408894793E-011   7.2678132108392718E-002   0.0000000000000000     
  -1.3601171404420409E-011   7.8830367921951777E-002   0.0000000000000000     
  -3.5224813837830380E-003   5.5344855757877079E-002   0.0000000000000000     
  -3.7156339497031879E-003   6.0949062626413995E-002   0.0000000000000000     
  -3.8991171432861352E-003   6.6735652238775034E-002   0.0000000000000000     
  -4.0729309645318795E-003   7.2704624594960243E-002   0.0000000000000000     
  -4.2370754134404224E-003   7.8855979694969575E-002   0.0000000000000000     
  -7.0340217188599122E-003   5.5431054302723437E-002   0.0000000000000000     
  -7.4198594952435658E-003   6.1033221709690909E-002   0.0000000000000000     
  -7.7884981553124656E-003   6.6817570967489859E-002   0.0000000000000000     
  -8.1399376990666100E-003   7.2784102076120308E-002   0.0000000000000000     
  -8.4741781265060007E-003   7.8932815035582235E-002   0.0000000000000000     
  -1.0534621001219345E-002   5.5574718546588367E-002   0.0000000000000000     
  -1.1112676643860786E-002   6.1173486853272209E-002   0.0000000000000000     
  -1.1668143050004361E-002   6.6954102188367060E-002   0.0000000000000000     
  -1.2201020219650071E-002   7.2916564551872912E-002   0.0000000000000000     
  -1.2711308152797912E-002   7.9060873943789758E-002   0.0000000000000000     
  -1.4024279230861331E-002   5.5775848489471876E-002   0.0000000000000000     
  -1.4794085395554853E-002   6.1369858057157903E-002   0.0000000000000000     
  -1.5538051827361826E-002   6.7145245901406608E-002   0.0000000000000000     
  -1.6256178526282260E-002   7.3102012022218055E-002   0.0000000000000000     
  -1.6948465492316149E-002   7.9240156419592186E-002   0.0000000000000000     
  -1.3601171404420409E-011   7.8830367921951777E-002   0.0000000000000000     
  -9.2759465473296610E-012   8.5160255663797021E-002   0.0000000000000000     
  -5.7548950414126887E-012   9.1662997554825709E-002   0.0000000000000000     
  -3.0380183503424252E-012   9.8338593595037757E-002   0.0000000000000000     
  -1.1253164199087617E-012  0.10518704378443326        0.0000000000000000     
  -4.2370754134404224E-003   7.8855979694969575E-002   0.0000000000000000     
  -4.3951706990114246E-003   8.5184925387199240E-002   0.0000000000000000     
  -4.5508370302445424E-003   9.1686669520045477E-002   0.0000000000000000     
  -4.7040744071397810E-003   9.8361212093508260E-002   0.0000000000000000     
  -4.8548828296971370E-003  0.10520855310758762        0.0000000000000000     
  -8.4741781265060007E-003   7.8932815035582235E-002   0.0000000000000000     
  -8.7967535399257543E-003   8.5258934577711581E-002   0.0000000000000000     
  -9.1131980416209769E-003   9.1757685434344260E-002   0.0000000000000000     
  -9.4235116315916755E-003   9.8429067605480300E-002   0.0000000000000000     
  -9.7276943098378466E-003  0.10527308109111969        0.0000000000000000     
  -1.2711308152797912E-002   7.9060873943789758E-002   0.0000000000000000     
  -1.3204748532018940E-002   8.5382283235334033E-002   0.0000000000000000     
  -1.3687083039884203E-002   9.1876045297722073E-002   0.0000000000000000     
  -1.4158311676393706E-002   9.8542160130953890E-002   0.0000000000000000     
  -1.4618434441547448E-002  0.10538062773502947        0.0000000000000000     
  -1.6948465492316149E-002   7.9240156419592186E-002   0.0000000000000000     
  -1.7619155675290973E-002   8.5554971360066581E-002   0.0000000000000000     
  -1.8272492025034212E-002   9.2041749110178872E-002   0.0000000000000000     
  -1.8908474541545872E-002   9.8700489669929017E-002   0.0000000000000000     
  -1.9527103224825940E-002  0.10553119303931702        0.0000000000000000     
  -1.1253164199087617E-012  0.10518704378443326        0.0000000000000000     
   9.1613348851549148E-014  0.11218037727347180        0.0000000000000000     
   7.2117377174218955E-013  0.11929062321261305        0.0000000000000000     
   7.6336457771261634E-013  0.12651778160185700        0.0000000000000000     
   2.1818614623358989E-013  0.13386185244120363        0.0000000000000000     
  -4.8548828296971370E-003  0.10520855310758762        0.0000000000000000     
  -4.9998253164193675E-003  0.11220075076018472        0.0000000000000000     
  -5.1354648858092282E-003  0.11930986324920090        0.0000000000000000     
  -5.2618015378667190E-003  0.12653589057463602        0.0000000000000000     
  -5.3788352725918382E-003  0.13387883273649023        0.0000000000000000     
  -9.7276943098378466E-003  0.10527308109111969        0.0000000000000000     
  -1.0019407140934165E-002  0.11226187123178288        0.0000000000000000     
  -1.0292311189455316E-002  0.11936758336799037        0.0000000000000000     
  -1.0546406455401286E-002  0.12659021749974214        0.0000000000000000     
  -1.0781692938772085E-002  0.13392977362703823        0.0000000000000000     
  -1.4618434441547448E-002  0.10538062773502947        0.0000000000000000     
  -1.5058745473452791E-002  0.11236373868826624        0.0000000000000000     
  -1.5470538910217085E-002  0.11946378356898153        0.0000000000000000     
  -1.5853814751840341E-002  0.12668076237717532        0.0000000000000000     
  -1.6208572998322558E-002  0.13401467511284768        0.0000000000000000     
  -1.9527103224825940E-002  0.10553119303931702        0.0000000000000000     
  -2.0117840313975233E-002  0.11250635312963483        0.0000000000000000     
  -2.0670148048094545E-002  0.11959846385217436        0.0000000000000000     
  -2.1184026427183887E-002  0.12680752520693558        0.0000000000000000     
  -2.1659475451243249E-002  0.13413353719391855        0.0000000000000000     
   2.1818614623358989E-013  0.13386185244120363        0.0000000000000000     
  -6.5611556986089337E-013  0.14132582503239524        0.0000000000000000     
  -1.6012964608805302E-012  0.14891268867717394        0.0000000000000000     
  -2.6173555781484198E-012  0.15662244337553988        0.0000000000000000     
  -3.7042933824504853E-012  0.16445508912749293        0.0000000000000000     
  -5.3788352725918382E-003  0.13387883273649023        0.0000000000000000     
  -5.4884475374569110E-003  0.14134165649165559        0.0000000000000000     
  -5.5925197799342567E-003  0.14892732859702434        0.0000000000000000     
  -5.6910520000238787E-003  0.15663584905259645        0.0000000000000000     
  -5.7840441977257745E-003  0.16446721785837196        0.0000000000000000     
  -1.0781692938772085E-002  0.13392977362703823        0.0000000000000000     
  -1.1002153496722752E-002  0.14138915087233594        0.0000000000000000     
  -1.1211770986408321E-002  0.14897124835809269        0.0000000000000000     
  -1.1410545407828801E-002  0.15667606608430840        0.0000000000000000     
  -1.1598476760984180E-002  0.16450360405098316        0.0000000000000000     
  -1.6208572998322558E-002  0.13401467511284768        0.0000000000000000     
  -1.6541117878453634E-002  0.14146830817443626        0.0000000000000000     
  -1.6857753621023486E-002  0.14904444796037900        0.0000000000000000     
  -1.7158480226032110E-002  0.15674309447067569        0.0000000000000000     
  -1.7443297693479510E-002  0.16456424770532649        0.0000000000000000     
  -2.1659475451243249E-002  0.13413353719391855        0.0000000000000000     
  -2.2105340682649570E-002  0.14157912839795661        0.0000000000000000     
  -2.2530467683779754E-002  0.14914692740388322        0.0000000000000000     
  -2.2934856454633827E-002  0.15683693421169834        0.0000000000000000     
  -2.3318506995211763E-002  0.16464914882140200        0.0000000000000000     
  -3.7042933824504853E-012  0.16445508912749293        0.0000000000000000     
  -4.7370215389141990E-012  0.17239147761522955        0.0000000000000000     
  -5.5904530137096398E-012  0.18041246052094620        0.0000000000000000     
  -6.2645894331400664E-012  0.18851803784464280        0.0000000000000000     
  -6.7594280867000478E-012  0.19670820958631943        0.0000000000000000     
  -5.7840441977257745E-003  0.16446721785837196        0.0000000000000000     
  -5.8704421807940672E-003  0.17240233771378716        0.0000000000000000     
  -5.9491917569828769E-003  0.18042211131827843        0.0000000000000000     
  -6.0202929262922044E-003  0.18852653867184579        0.0000000000000000     
  -6.0837456887220479E-003  0.19671561977448929        0.0000000000000000     
  -1.1598476760984180E-002  0.16450360405098316        0.0000000000000000     
  -1.1773216981062267E-002  0.17243491800913338        0.0000000000000000     
  -1.1932418003250858E-002  0.18045106370977579        0.0000000000000000     
  -1.2076079827549947E-002  0.18855204115291030        0.0000000000000000     
  -1.2204202453959546E-002  0.19673785033853691        0.0000000000000000     
  -1.7443297693479510E-002  0.16456424770532649        0.0000000000000000     
  -1.7708324405541622E-002  0.17248921850126828        0.0000000000000000     
  -1.7949678744394390E-002  0.18049931769543823        0.0000000000000000     
  -1.8167360710037828E-002  0.18859454528783617        0.0000000000000000     
  -1.8361370302471907E-002  0.19677490127846226        0.0000000000000000     
  -2.3318506995211763E-002  0.16464914882140200        0.0000000000000000     
  -2.3675764454232133E-002  0.17256523919019187        0.0000000000000000     
  -2.4000973980413492E-002  0.18056687327526574        0.0000000000000000     
  -2.4294135573755826E-002  0.18865405107662359        0.0000000000000000     
  -2.4555249234259155E-002  0.19682677259426540        0.0000000000000000     
  -6.7594280867000478E-012  0.19670820958631943        0.0000000000000000     
  -7.1629321397870260E-012  0.20496612196063346        0.0000000000000000     
  -7.5630607462504051E-012  0.21327492118224239        0.0000000000000000     
  -7.9598140958255653E-012  0.22163460725114617        0.0000000000000000     
  -8.3531940045511455E-012  0.23004518016734485        0.0000000000000000     
  -6.0837456887220479E-003  0.19671561977448929        0.0000000000000000     
  -6.1399426465560186E-003  0.20497269046631181        0.0000000000000000     
  -6.1892764020777214E-003  0.21328108658741640        0.0000000000000000     
  -6.2317469552871565E-003  0.22164080813780312        0.0000000000000000     
  -6.2673543061843237E-003  0.23005185511747192        0.0000000000000000     
  -1.2204202453959546E-002  0.19673785033853691        0.0000000000000000     
  -1.2317588724068919E-002  0.20499239598298835        0.0000000000000000     
  -1.2417041479467346E-002  0.21329958280259745        0.0000000000000000     
  -1.2502560720154828E-002  0.22165941079736423        0.0000000000000000     
  -1.2574146446131361E-002  0.23007187996728862        0.0000000000000000     
  -1.8361370302471907E-002  0.19677490127846226        0.0000000000000000     
  -1.8532938239701629E-002  0.20502523851066312        0.0000000000000000     
  -1.8683295239731928E-002  0.21333040982778553        0.0000000000000000     
  -1.8812441302562825E-002  0.22169041522982944        0.0000000000000000     
  -1.8920376428194306E-002  0.23010525471679497        0.0000000000000000     
  -2.4555249234259155E-002  0.19682677259426540        0.0000000000000000     
  -2.4785991193454142E-002  0.20507121804933609        0.0000000000000000     
  -2.4988037682871476E-002  0.21337356766298057        0.0000000000000000     
  -2.5161388702511150E-002  0.22173382143519885        0.0000000000000000     
  -2.5306044252373164E-002  0.23015197936599091        0.0000000000000000     
  -8.3531940045511455E-012  0.23004518016734485        0.0000000000000000     
  -8.7254604583253403E-012  0.23847511058315618        0.0000000000000000     
  -9.0588737683069964E-012  0.24689286915089800        0.0000000000000000     
  -9.3534349915932319E-012  0.25529845587057037        0.0000000000000000     
  -9.6091424747757337E-012  0.26369187074217315        0.0000000000000000     
  -6.2673543061843237E-003  0.23005185511747192        0.0000000000000000     
  -6.2973000602539395E-003  0.23848293211292124        0.0000000000000000     
  -6.3227858229807209E-003  0.24690274371064952        0.0000000000000000     
  -6.3438115943646733E-003  0.25531128991065682        0.0000000000000000     
  -6.3603773744057889E-003  0.26370857071294301        0.0000000000000000     
  -1.2574146446131361E-002  0.23007187996728862        0.0000000000000000     
  -1.2634401294389946E-002  0.23850639670146909        0.0000000000000000     
  -1.2685927901923586E-002  0.24693236738900401        0.0000000000000000     
  -1.2728726268732279E-002  0.25534979202989333        0.0000000000000000     
  -1.2762796394816020E-002  0.26375867062413716        0.0000000000000000     
  -1.8920376428194306E-002  0.23010525471679497        0.0000000000000000     
  -1.9011303711133486E-002  0.23854550434879970        0.0000000000000000     
  -1.9089426245887466E-002  0.24698174018596142        0.0000000000000000     
  -1.9154744032456247E-002  0.25541396222828006        0.0000000000000000     
  -1.9207257070839836E-002  0.26384217047575559        0.0000000000000000     
  -2.5306044252373164E-002  0.23015197936599091        0.0000000000000000     
  -2.5428007310484557E-002  0.23860025505491314        0.0000000000000000     
  -2.5533280854872366E-002  0.24705086210152172        0.0000000000000000     
  -2.5621864885536590E-002  0.25550380050581678        0.0000000000000000     
  -2.5693759402477229E-002  0.26395907026779825        0.0000000000000000     
  -9.6091424747757337E-012  0.26369187074217315        0.0000000000000000     
  -9.8480305941311963E-012  0.27201301032445091        0.0000000000000000     
  -1.0092129063866973E-011  0.28020177117614820        0.0000000000000000     
  -1.0341438561609420E-011  0.28825815329726484        0.0000000000000000     
  -1.0595960740766852E-011  0.29618215668780096        0.0000000000000000     
  -6.3603773744057889E-003  0.26370857071294301        0.0000000000000000     
  -6.3763571712442471E-003  0.27203479666900504        0.0000000000000000     
  -6.3956249930202155E-003  0.28023017833033959        0.0000000000000000     
  -6.4181808397336922E-003  0.28829471569694676        0.0000000000000000     
  -6.4440247113846782E-003  0.29622840876882639        0.0000000000000000     
  -1.2762796394816020E-002  0.26375867062413716        0.0000000000000000     
  -1.2795347528925170E-002  0.27210015570144142        0.0000000000000000     
  -1.2833588919810077E-002  0.28031539979151221        0.0000000000000000     
  -1.2877520567470744E-002  0.28840440289434943        0.0000000000000000     
  -1.2927142471907169E-002  0.29636716500995319        0.0000000000000000     
  -1.9207257070839836E-002  0.26384217047575559        0.0000000000000000     
  -1.9256971082890800E-002  0.27220908742176025        0.0000000000000000     
  -1.9313891790461720E-002  0.28045743555966607        0.0000000000000000     
  -1.9378019193552601E-002  0.28858721488947314        0.0000000000000000     
  -1.9449353292163435E-002  0.29659842541118142        0.0000000000000000     
  -2.5693759402477229E-002  0.26395907026779825        0.0000000000000000     
  -2.5761227833141130E-002  0.27236159182996134        0.0000000000000000     
  -2.5836533604975134E-002  0.28065628563480111        0.0000000000000000     
  -2.5919676717979248E-002  0.28884315168231767        0.0000000000000000     
  -2.6010657172153475E-002  0.29692218997251096        0.0000000000000000     
  -1.4024279230861331E-002   5.5775848489471876E-002   0.0000000000000000     
  -1.4794085395554853E-002   6.1369858057157903E-002   0.0000000000000000     
  -1.5538051827361826E-002   6.7145245901406608E-002   0.0000000000000000     
  -1.6256178526282260E-002   7.3102012022218055E-002   0.0000000000000000     
  -1.6948465492316149E-002   7.9240156419592186E-002   0.0000000000000000     
  -1.7569885248446458E-002   5.6035553372298152E-002   0.0000000000000000     
  -1.8532829318601670E-002   6.1622904388223224E-002   0.0000000000000000     
  -1.9466270696059138E-002   6.7391245186611728E-002   0.0000000000000000     
  -2.0370209380818856E-002   7.3340575767463667E-002   0.0000000000000000     
  -2.1244645372880823E-002   7.9470896130778998E-002   0.0000000000000000     
  -2.1238327894635315E-002   5.6354942435991394E-002   0.0000000000000000     
  -2.2397651981277168E-002   6.1933194913343460E-002   0.0000000000000000     
  -2.3520845864770566E-002   6.7692343123985532E-002   0.0000000000000000     
  -2.4607909545115519E-002   7.3632387067917623E-002   0.0000000000000000     
  -2.5658843022312035E-002   7.9753326745139755E-002   0.0000000000000000     
  -2.5029607169427901E-002   5.6734015680551593E-002   0.0000000000000000     
  -2.6388553383581332E-002   6.2300729632518571E-002   0.0000000000000000     
  -2.7701777333496123E-002   6.8048539713528033E-002   0.0000000000000000     
  -2.8969279019172275E-002   7.3977445923579993E-002   0.0000000000000000     
  -3.0191058440609791E-002   8.0087448262674443E-002   0.0000000000000000     
  -2.8943723072824216E-002   5.7172773105978764E-002   0.0000000000000000     
  -3.0505533525514172E-002   6.2725508545748584E-002   0.0000000000000000     
  -3.2009065102235799E-002   6.8459834955239246E-002   0.0000000000000000     
  -3.3454317802989110E-002   7.4375752334450734E-002   0.0000000000000000     
  -3.4841291627774086E-002   8.0473260683383036E-002   0.0000000000000000     
  -1.6948465492316149E-002   7.9240156419592186E-002   0.0000000000000000     
  -1.7619155675290973E-002   8.5554971360066581E-002   0.0000000000000000     
  -1.8272492025034212E-002   9.2041749110178872E-002   0.0000000000000000     
  -1.8908474541545872E-002   9.8700489669929017E-002   0.0000000000000000     
  -1.9527103224825940E-002  0.10553119303931702        0.0000000000000000     
  -2.1244645372880823E-002   7.9470896130778998E-002   0.0000000000000000     
  -2.2092467766843687E-002   8.5777398745125730E-002   0.0000000000000000     
  -2.2916565657306088E-002   9.2255276079071941E-002   0.0000000000000000     
  -2.3716939044268019E-002   9.8904528132617534E-002   0.0000000000000000     
  -2.4493587927729495E-002  0.10572515490576258        0.0000000000000000     
  -2.5658843022312035E-002   7.9753326745139755E-002   0.0000000000000000     
  -2.6677177603778895E-002   8.6049965183727997E-002   0.0000000000000000     
  -2.7666444596934889E-002   9.2517105411758532E-002   0.0000000000000000     
  -2.8626644001780024E-002   9.9154747429231346E-002   0.0000000000000000     
  -2.9557775818314296E-002  0.10596289123614645        0.0000000000000000     
  -3.0191058440609791E-002   8.0087448262674443E-002   0.0000000000000000     
  -3.1373285186096597E-002   8.6372670675873300E-002   0.0000000000000000     
  -3.2522128843920618E-002   9.2827237108238661E-002   0.0000000000000000     
  -3.3637589414081868E-002   9.9451147559770414E-002   0.0000000000000000     
  -3.4719666896580334E-002  0.10624440203046862        0.0000000000000000     
  -3.4841291627774086E-002   8.0473260683383036E-002   0.0000000000000000     
  -3.6180790513796801E-002   8.6745515221561723E-002   0.0000000000000000     
  -3.7483618398263287E-002   9.3185671168512285E-002   0.0000000000000000     
  -3.8749775281173564E-002   9.9793728524234737E-002   0.0000000000000000     
  -3.9979261162527618E-002  0.10656968728872906        0.0000000000000000     
  -1.9527103224825940E-002  0.10553119303931702        0.0000000000000000     
  -2.0117840313975233E-002  0.11250635312963483        0.0000000000000000     
  -2.0670148048094545E-002  0.11959846385217436        0.0000000000000000     
  -2.1184026427183887E-002  0.12680752520693558        0.0000000000000000     
  -2.1659475451243249E-002  0.13413353719391855        0.0000000000000000     
  -2.4493587927729495E-002  0.10572515490576258        0.0000000000000000     
  -2.5234418457436777E-002  0.11269002060177978        0.0000000000000000     
  -2.5927336783136135E-002  0.11977198942394188        0.0000000000000000     
  -2.6572342904827559E-002  0.12697106137224887        0.0000000000000000     
  -2.7169436822511061E-002  0.13428723644670079        0.0000000000000000     
  -2.9557775818314296E-002  0.10596289123614645        0.0000000000000000     
  -3.0446206698772710E-002  0.11291504715059222        0.0000000000000000     
  -3.1278303295390275E-002  0.11998472549065718        0.0000000000000000     
  -3.2054065608167009E-002  0.12717192625634124        0.0000000000000000     
  -3.2773493637102871E-002  0.13447664944764443        0.0000000000000000     
  -3.4719666896580334E-002  0.10624440203046862        0.0000000000000000     
  -3.5753205037983050E-002  0.11318143277607220        0.0000000000000000     
  -3.6723047584857005E-002  0.12023667205232022        0.0000000000000000     
  -3.7629194537202218E-002  0.12741011985921261        0.0000000000000000     
  -3.8471645895018683E-002  0.13470177619674942        0.0000000000000000     
  -3.9979261162527618E-002  0.10656968728872906        0.0000000000000000     
  -4.1155413475067758E-002  0.11348917747821970        0.0000000000000000     
  -4.2261569651536296E-002  0.12052782910893102        0.0000000000000000     
  -4.3297729691933198E-002  0.12768564218086303        0.0000000000000000     
  -4.4263893596258500E-002  0.13496261669401577        0.0000000000000000     
  -2.1659475451243249E-002  0.13413353719391855        0.0000000000000000     
  -2.2105340682649570E-002  0.14157912839795661        0.0000000000000000     
  -2.2530467683779754E-002  0.14914692740388322        0.0000000000000000     
  -2.2934856454633827E-002  0.15683693421169834        0.0000000000000000     
  -2.3318506995211763E-002  0.16464914882140200        0.0000000000000000     
  -2.7169436822511061E-002  0.13428723644670079        0.0000000000000000     
  -2.7729789718080322E-002  0.14172284887765638        0.0000000000000000     
  -2.8264572773429034E-002  0.14928023289547440        0.0000000000000000     
  -2.8773785988557198E-002  0.15695938850015478        0.0000000000000000     
  -2.9257429363464808E-002  0.16476031569169769        0.0000000000000000     
  -3.2773493637102871E-002  0.13447664944764443        0.0000000000000000     
  -3.3449432793515685E-002  0.14190070694829507        0.0000000000000000     
  -3.4094728488723219E-002  0.14944591064202151        0.0000000000000000     
  -3.4709380722725502E-002  0.15711226052882368        0.0000000000000000     
  -3.5293389495522520E-002  0.16489975660870163        0.0000000000000000     
  -3.8471645895018683E-002  0.13470177619674942        0.0000000000000000     
  -3.9264269908955637E-002  0.14211270260987266        0.0000000000000000     
  -4.0020934829662333E-002  0.14964396064352450        0.0000000000000000     
  -4.0741640657138749E-002  0.15729555029770487        0.0000000000000000     
  -4.1426387391384885E-002  0.16506747157241380        0.0000000000000000     
  -4.4263893596258500E-002  0.13496261669401577        0.0000000000000000     
  -4.5174301064400214E-002  0.14235883586238918        0.0000000000000000     
  -4.6043191796246344E-002  0.14987438289998342        0.0000000000000000     
  -4.6870565791796923E-002  0.15750925780679842        0.0000000000000000     
  -4.7656423051051909E-002  0.16526346058283420        0.0000000000000000     
  -2.3318506995211763E-002  0.16464914882140200        0.0000000000000000     
  -2.3675764454232133E-002  0.17256523919019187        0.0000000000000000     
  -2.4000973980413492E-002  0.18056687327526574        0.0000000000000000     
  -2.4294135573755826E-002  0.18865405107662359        0.0000000000000000     
  -2.4555249234259155E-002  0.19682677259426540        0.0000000000000000     
  -2.9257429363464808E-002  0.16476031569169769        0.0000000000000000     
  -2.9708248066689209E-002  0.17266511070160398        0.0000000000000000     
  -3.0118987266767750E-002  0.18065586976137468        0.0000000000000000     
  -3.0489646963700427E-002  0.18873259287100982        0.0000000000000000     
  -3.0820227157487230E-002  0.19689528003050941        0.0000000000000000     
  -3.5293389495522520E-002  0.16489975660870163        0.0000000000000000     
  -3.5838486182468279E-002  0.17279096366120450        0.0000000000000000     
  -3.6336402158916786E-002  0.18076844646588142        0.0000000000000000     
  -3.6787137424868062E-002  0.18883220502273237        0.0000000000000000     
  -3.7190691980322106E-002  0.19698223933175737        0.0000000000000000     
  -4.1426387391384885E-002  0.16506747157241380        0.0000000000000000     
  -4.2066478801569315E-002  0.17294279806899340        0.0000000000000000     
  -4.2653218656860600E-002  0.18090460338878586        0.0000000000000000     
  -4.3186606957258754E-002  0.18895288753179118        0.0000000000000000     
  -4.3666643702763755E-002  0.19708765049800939        0.0000000000000000     
  -4.7656423051051909E-002  0.16526346058283420        0.0000000000000000     
  -4.8392225923992331E-002  0.17312061392497077        0.0000000000000000     
  -4.9069436760599196E-002  0.18106434053008816        0.0000000000000000     
  -4.9688055560872482E-002  0.18909464039818633        0.0000000000000000     
  -5.0248082324812218E-002  0.19721151352926530        0.0000000000000000     
  -2.4555249234259155E-002  0.19682677259426540        0.0000000000000000     
  -2.4785991193454142E-002  0.20507121804933609        0.0000000000000000     
  -2.4988037682871476E-002  0.21337356766298057        0.0000000000000000     
  -2.5161388702511150E-002  0.22173382143519885        0.0000000000000000     
  -2.5306044252373164E-002  0.23015197936599091        0.0000000000000000     
  -3.0820227157487230E-002  0.19689528003050941        0.0000000000000000     
  -3.1112598152274983E-002  0.20513165852049139        0.0000000000000000     
  -3.1368630252210497E-002  0.21342945562157398        0.0000000000000000     
  -3.1588323457293774E-002  0.22178867133375696        0.0000000000000000     
  -3.1771677767524806E-002  0.23020930565704054        0.0000000000000000     
  -3.7190691980322106E-002  0.19698223933175737        0.0000000000000000     
  -3.7548609683112653E-002  0.20520788384561331        0.0000000000000000     
  -3.7862434391073514E-002  0.21349847301695701        0.0000000000000000     
  -3.8132166104204661E-002  0.22185400684578849        0.0000000000000000     
  -3.8357804822506107E-002  0.23027448533210776        0.0000000000000000     
  -4.3666643702763755E-002  0.19708765049800939        0.0000000000000000     
  -4.4094025785967168E-002  0.20529989402470172        0.0000000000000000     
  -4.4469450099460517E-002  0.21358061984912971        0.0000000000000000     
  -4.4792916643243821E-002  0.22192982797129335        0.0000000000000000     
  -4.5064425417317075E-002  0.23034751839119261        0.0000000000000000     
  -5.0248082324812218E-002  0.19721151352926530        0.0000000000000000     
  -5.0748846460838513E-002  0.20540768905775669        0.0000000000000000     
  -5.1189677377371526E-002  0.21367589611809212        0.0000000000000000     
  -5.1570575074411255E-002  0.22201613471027160        0.0000000000000000     
  -5.1891539551957695E-002  0.23042840483429508        0.0000000000000000     
  -2.5306044252373164E-002  0.23015197936599091        0.0000000000000000     
  -2.5428007310484557E-002  0.23860025505491314        0.0000000000000000     
  -2.5533280854872366E-002  0.24705086210152172        0.0000000000000000     
  -2.5621864885536590E-002  0.25550380050581678        0.0000000000000000     
  -2.5693759402477229E-002  0.26395907026779825        0.0000000000000000     
  -3.1771677767524806E-002  0.23020930565704054        0.0000000000000000     
  -3.1926223010176398E-002  0.23866617483428032        0.0000000000000000     
  -3.2059489012521335E-002  0.24713409510833215        0.0000000000000000     
  -3.2171475774559637E-002  0.25561306647919602        0.0000000000000000     
  -3.2262183296291283E-002  0.26410308894687201        0.0000000000000000     
  -3.8357804822506107E-002  0.23027448533210776        0.0000000000000000     
  -3.8547661727942238E-002  0.23873878970137233        0.0000000000000000     
  -3.8710048002477439E-002  0.24722580117903986        0.0000000000000000     
  -3.8844963646111716E-002  0.25573551976511028        0.0000000000000000     
  -3.8952408658845063E-002  0.26426794545958354        0.0000000000000000     
  -4.5064425417317075E-002  0.23034751839119261        0.0000000000000000     
  -4.5292323463782085E-002  0.23881809965618916        0.0000000000000000     
  -4.5484957824740671E-002  0.24732598031364475        0.0000000000000000     
  -4.5642328500192848E-002  0.25587116036355928        0.0000000000000000     
  -4.5764435490138596E-002  0.26445363980593295        0.0000000000000000     
  -5.1891539551957695E-002  0.23042840483429508        0.0000000000000000     
  -5.2160208217695930E-002  0.23890410469873080        0.0000000000000000     
  -5.2384218479311032E-002  0.24743463251214690        0.0000000000000000     
  -5.2563570336803006E-002  0.25601998827454331        0.0000000000000000     
  -5.2698263790171854E-002  0.26466017198592012        0.0000000000000000     
  -2.5693759402477229E-002  0.26395907026779825        0.0000000000000000     
  -2.5761227833141130E-002  0.27236159182996134        0.0000000000000000     
  -2.5836533604975134E-002  0.28065628563480111        0.0000000000000000     
  -2.5919676717979248E-002  0.28884315168231767        0.0000000000000000     
  -2.6010657172153475E-002  0.29692218997251096        0.0000000000000000     
  -3.2262183296291283E-002  0.26410308894687201        0.0000000000000000     
  -3.2346536973510677E-002  0.27255133638121098        0.0000000000000000     
  -3.2439462202012229E-002  0.28090498265206415        0.0000000000000000     
  -3.2540958981795938E-002  0.28916402775943140        0.0000000000000000     
  -3.2651027312861798E-002  0.29732847170331267        0.0000000000000000     
  -3.8952408658845063E-002  0.26426794545958354        0.0000000000000000     
  -3.9051317697833973E-002  0.27277198853067547        0.0000000000000000     
  -3.9160625420234928E-002  0.28119655924660175        0.0000000000000000     
  -3.9280331826047885E-002  0.28954165760736233        0.0000000000000000     
  -3.9410436915272906E-002  0.29780728361295722        0.0000000000000000     
  -4.5764435490138596E-002  0.26445363980593295        0.0000000000000000     
  -4.5875570006111012E-002  0.27302354827835479        0.0000000000000000     
  -4.6000023259643183E-002  0.28153101541841408        0.0000000000000000     
  -4.6137795250735122E-002  0.28997604122611065        0.0000000000000000     
  -4.6288885979386810E-002  0.29835862570144472        0.0000000000000000     
  -5.2698263790171854E-002  0.26466017198592012        0.0000000000000000     
  -5.2819293898341786E-002  0.27330601562424878        0.0000000000000000     
  -5.2957655720237050E-002  0.28190835116750079        0.0000000000000000     
  -5.3113349255857610E-002  0.29046717861567634        0.0000000000000000     
  -5.3286374505203501E-002  0.29898249796877507        0.0000000000000000     
  -2.8943723072824216E-002   5.7172773105978764E-002   0.0000000000000000     
  -3.0505533525514172E-002   6.2725508545748584E-002   0.0000000000000000     
  -3.2009065102235799E-002   6.8459834955239246E-002   0.0000000000000000     
  -3.3454317802989110E-002   7.4375752334450734E-002   0.0000000000000000     
  -3.4841291627774086E-002   8.0473260683383036E-002   0.0000000000000000     
  -3.2981916668641059E-002   5.7669042653147540E-002   0.0000000000000000     
  -3.4739822905792674E-002   6.3207750090515505E-002   0.0000000000000000     
  -3.6429149368787966E-002   6.8927736319745844E-002   0.0000000000000000     
  -3.8049896057626910E-002   7.4829001340838530E-002   0.0000000000000000     
  -3.9602062972309525E-002   8.0911545153793576E-002   0.0000000000000000     
  -3.7145429020695217E-002   5.8220652262932555E-002   0.0000000000000000     
  -3.9082652023133851E-002   6.3747672704301345E-002   0.0000000000000000     
  -4.0948470330950976E-002   6.9453751277674516E-002   0.0000000000000000     
  -4.2742883944146583E-002   7.5338887983052091E-002   0.0000000000000000     
  -4.4465892862720686E-002   8.1403082820434028E-002   0.0000000000000000     
  -4.1434260128986704E-002   5.8827601935333818E-002   0.0000000000000000     
  -4.3534020877537695E-002   6.4345276387106118E-002   0.0000000000000000     
  -4.5567027988724841E-002   7.0037879829025304E-002   0.0000000000000000     
  -4.7533281462548142E-002   7.5905412261091376E-002   0.0000000000000000     
  -4.9432781299007592E-002   8.1947873683304376E-002   0.0000000000000000     
  -4.5848409993515499E-002   5.9489891670351333E-002   0.0000000000000000     
  -4.8093929469004197E-002   6.5000561138929797E-002   0.0000000000000000     
  -5.0284822342109549E-002   7.0680121973798166E-002   0.0000000000000000     
  -5.2421088612831554E-002   7.6528574174956454E-002   0.0000000000000000     
  -5.4502728281170219E-002   8.2545917742404620E-002   0.0000000000000000     
  -3.4841291627774086E-002   8.0473260683383036E-002   0.0000000000000000     
  -3.6180790513796801E-002   8.6745515221561723E-002   0.0000000000000000     
  -3.7483618398263287E-002   9.3185671168512285E-002   0.0000000000000000     
  -3.8749775281173564E-002   9.9793728524234737E-002   0.0000000000000000     
  -3.9979261162527618E-002  0.10656968728872906        0.0000000000000000     
  -3.9602062972309525E-002   8.0911545153793576E-002   0.0000000000000000     
  -4.1099892892280415E-002   8.7168166257569082E-002   0.0000000000000000     
  -4.2557628596984205E-002   9.3591663151123161E-002   0.0000000000000000     
  -4.3975270086420909E-002  0.10018203583445574        0.0000000000000000     
  -4.5352817360590519E-002  0.10693928430756687        0.0000000000000000     
  -4.4465892862720686E-002   8.1403082820434028E-002   0.0000000000000000     
  -4.6130791626948366E-002   8.7640291220671337E-002   0.0000000000000000     
  -4.7750874777104706E-002   9.4044468614614921E-002   0.0000000000000000     
  -4.9326142313189721E-002  0.10061561500226482        0.0000000000000000     
  -5.0856594235203403E-002  0.10735373038362099        0.0000000000000000     
  -4.9432781299007592E-002   8.1947873683304376E-002   0.0000000000000000     
  -5.1273486717800645E-002   8.8161890110868391E-002   0.0000000000000000     
  -5.3063356938624795E-002   9.4544087558987605E-002   0.0000000000000000     
  -5.4802391961479999E-002  0.10109446602766194        0.0000000000000000     
  -5.6490591786366284E-002  0.10781302551689148        0.0000000000000000     
  -5.4502728281170219E-002   8.2545917742404620E-002   0.0000000000000000     
  -5.6527978164837268E-002   8.8732962928160353E-002   0.0000000000000000     
  -5.8495075081544445E-002   9.5090519984241173E-002   0.0000000000000000     
  -6.0404019031291729E-002  0.10161858891064718        0.0000000000000000     
  -6.2254810014079141E-002  0.10831716970737830        0.0000000000000000     
  -3.9979261162527618E-002  0.10656968728872906        0.0000000000000000     
  -4.1155413475067758E-002  0.11348917747821970        0.0000000000000000     
  -4.2261569651536296E-002  0.12052782910893102        0.0000000000000000     
  -4.3297729691933198E-002  0.12768564218086303        0.0000000000000000     
  -4.4263893596258500E-002  0.13496261669401577        0.0000000000000000     
  -4.5352817360590519E-002  0.10693928430756687        0.0000000000000000     
  -4.6672115456922084E-002  0.11383993973141608        0.0000000000000000     
  -4.7915009412844697E-002  0.12086053326696294        0.0000000000000000     
  -4.9081499228358333E-002  0.12800106491420743        0.0000000000000000     
  -5.0171584903463025E-002  0.13526153467314955        0.0000000000000000     
  -5.0856594235203403E-002  0.10735373038362099        0.0000000000000000     
  -5.2322594430441259E-002  0.11423537801004276        0.0000000000000000     
  -5.3704506786198813E-002  0.12123712113288937        0.0000000000000000     
  -5.5002331302476025E-002  0.12835895975216072        0.0000000000000000     
  -5.6216067979272956E-002  0.13560089386785690        0.0000000000000000     
  -5.6490591786366284E-002  0.10781302551689148        0.0000000000000000     
  -5.8106850395625256E-002  0.11467549231409971        0.0000000000000000     
  -5.9630061771598596E-002  0.12165759270671017        0.0000000000000000     
  -6.1060225914286267E-002  0.12875932669472287        0.0000000000000000     
  -6.2397342823688300E-002  0.13598069427813778        0.0000000000000000     
  -6.2254810014079141E-002  0.10831716970737830        0.0000000000000000     
  -6.4024883352474124E-002  0.11516028264358695        0.0000000000000000     
  -6.5691674369044092E-002  0.12212194798842552        0.0000000000000000     
  -6.7255183063789067E-002  0.12920216574189392        0.0000000000000000     
  -6.8715409436709035E-002  0.13640093590399227        0.0000000000000000     
  -4.4263893596258500E-002  0.13496261669401577        0.0000000000000000     
  -4.5174301064400214E-002  0.14235883586238918        0.0000000000000000     
  -4.6043191796246344E-002  0.14987438289998342        0.0000000000000000     
  -4.6870565791796923E-002  0.15750925780679842        0.0000000000000000     
  -4.7656423051051909E-002  0.16526346058283420        0.0000000000000000     
  -5.0171584903463025E-002  0.13526153467314955        0.0000000000000000     
  -5.1200165797554147E-002  0.14264115729603438        0.0000000000000000     
  -5.2182141270027127E-002  0.15013914753510713        0.0000000000000000     
  -5.3117511320881973E-002  0.15775550539036770        0.0000000000000000     
  -5.4006275950118664E-002  0.16549023086181611        0.0000000000000000     
  -5.6216067979272956E-002  0.13560089386785690        0.0000000000000000     
  -5.7362503646122227E-002  0.14296171750099809        0.0000000000000000     
  -5.8458425132556523E-002  0.15044022467260448        0.0000000000000000     
  -5.9503832438575856E-002  0.15803641538267602        0.0000000000000000     
  -6.0498725564180199E-002  0.16575028963121277        0.0000000000000000     
  -6.2397342823688300E-002  0.13598069427813778        0.0000000000000000     
  -6.3661314610104450E-002  0.14332051647728025        0.0000000000000000     
  -6.4872043383834538E-002  0.15077761431247544        0.0000000000000000     
  -6.6029529144878585E-002  0.15835198778372339        0.0000000000000000     
  -6.7133771893236535E-002  0.16604363689102414        0.0000000000000000     
  -6.8715409436709035E-002  0.13640093590399227        0.0000000000000000     
  -7.0096598689500814E-002  0.14371755422488086        0.0000000000000000     
  -7.1422996023861166E-002  0.15115131645472007        0.0000000000000000     
  -7.2694601439790132E-002  0.15870222259350986        0.0000000000000000     
  -7.3911414937287659E-002  0.16637027264125029        0.0000000000000000     
  -4.7656423051051909E-002  0.16526346058283420        0.0000000000000000     
  -4.8392225923992331E-002  0.17312061392497077        0.0000000000000000     
  -4.9069436760599196E-002  0.18106434053008816        0.0000000000000000     
  -4.9688055560872482E-002  0.18909464039818633        0.0000000000000000     
  -5.0248082324812218E-002  0.19721151352926530        0.0000000000000000     
  -5.4006275950118664E-002  0.16549023086181611        0.0000000000000000     
  -5.4840012586025250E-002  0.17332748357529493        0.0000000000000000     
  -5.5610298656889781E-002  0.18125142315664669        0.0000000000000000     
  -5.6317134162712251E-002  0.18926204960587142        0.0000000000000000     
  -5.6960519103492646E-002  0.19735936292296907        0.0000000000000000     
  -6.0498725564180199E-002  0.16575028963121277        0.0000000000000000     
  -6.1434123823955973E-002  0.17356647936612424        0.0000000000000000     
  -6.2301046532489586E-002  0.18146961653531998        0.0000000000000000     
  -6.3099493689781017E-002  0.18945970113880012        0.0000000000000000     
  -6.3829465295830265E-002  0.19753673317656451        0.0000000000000000     
  -6.7133771893236535E-002  0.16604363689102414        0.0000000000000000     
  -6.8174559637784501E-002  0.17383760129745873        0.0000000000000000     
  -6.9141680387398610E-002  0.18171892066610815        0.0000000000000000     
  -7.0035134142078764E-002  0.18968759499697246        0.0000000000000000     
  -7.0854920901825061E-002  0.19774362429005160        0.0000000000000000     
  -7.3911414937287659E-002  0.16637027264125029        0.0000000000000000     
  -7.5061320027510869E-002  0.17414084936929836        0.0000000000000000     
  -7.6132200221616833E-002  0.18199933554901104        0.0000000000000000     
  -7.7124055519605550E-002  0.18994573118038838        0.0000000000000000     
  -7.8036885921477006E-002  0.19798003626343036        0.0000000000000000     
  -5.0248082324812218E-002  0.19721151352926530        0.0000000000000000     
  -5.0748846460838513E-002  0.20540768905775669        0.0000000000000000     
  -5.1189677377371526E-002  0.21367589611809212        0.0000000000000000     
  -5.1570575074411255E-002  0.22201613471027160        0.0000000000000000     
  -5.1891539551957695E-002  0.23042840483429508        0.0000000000000000     
  -5.6960519103492646E-002  0.19735936292296907        0.0000000000000000     
  -5.7538814498396262E-002  0.20553748168919397        0.0000000000000000     
  -5.8050381366588313E-002  0.21379052448580035        0.0000000000000000     
  -5.8495219708068841E-002  0.22211849131278830        0.0000000000000000     
  -5.8873329522837824E-002  0.23052138217015772        0.0000000000000000     
  -6.3829465295830265E-002  0.19753673317656451        0.0000000000000000     
  -6.4489672689309954E-002  0.20569548466342932        0.0000000000000000     
  -6.5078827208892701E-002  0.21393072761421070        0.0000000000000000     
  -6.5596928854578476E-002  0.22224246202890857        0.0000000000000000     
  -6.6043977626367295E-002  0.23063068790752295        0.0000000000000000     
  -7.0854920901825061E-002  0.19774362429005160        0.0000000000000000     
  -7.1601421033579610E-002  0.20588169798046274        0.0000000000000000     
  -7.2275014904284673E-002  0.21409650550332299        0.0000000000000000     
  -7.2875702513940141E-002  0.22238804685863231        0.0000000000000000     
  -7.3403483862546109E-002  0.23075632204639071        0.0000000000000000     
  -7.8036885921477006E-002  0.19798003626343036        0.0000000000000000     
  -7.8874059531205215E-002  0.20609612164029423        0.0000000000000000     
  -7.9638944452764177E-002  0.21428785815313733        0.0000000000000000     
  -8.0331540686153863E-002  0.22255524580195965        0.0000000000000000     
  -8.0951848231374302E-002  0.23089828458676118        0.0000000000000000     
  -5.1891539551957695E-002  0.23042840483429508        0.0000000000000000     
  -5.2160208217695930E-002  0.23890410469873080        0.0000000000000000     
  -5.2384218479311032E-002  0.24743463251214690        0.0000000000000000     
  -5.2563570336803006E-002  0.25601998827454331        0.0000000000000000     
  -5.2698263790171854E-002  0.26466017198592012        0.0000000000000000     
  -5.8873329522837824E-002  0.23052138217015772        0.0000000000000000     
  -5.9190361606289238E-002  0.23899820191553400        0.0000000000000000     
  -5.9451966753817059E-002  0.24754795540654234        0.0000000000000000     
  -5.9658144965421260E-002  0.25617064264318279        0.0000000000000000     
  -5.9808896241101889E-002  0.26486626362545540        0.0000000000000000     
  -6.6043977626367295E-002  0.23063068790752295        0.0000000000000000     
  -6.6421829246167477E-002  0.23910178839313531        0.0000000000000000     
  -6.6732339435887258E-002  0.24766214662882710        0.0000000000000000     
  -6.6975508195526695E-002  0.25631176261459843        0.0000000000000000     
  -6.7151335525085745E-002  0.26505063635044906        0.0000000000000000     
  -7.3403483862546109E-002  0.23075632204639071        0.0000000000000000     
  -7.3854611137330592E-002  0.23921486413153489        0.0000000000000000     
  -7.4225336525521685E-002  0.24777720617900131        0.0000000000000000     
  -7.4515660027119263E-002  0.25644334818879005        0.0000000000000000     
  -7.4725581642123437E-002  0.26521329016090106        0.0000000000000000     
  -8.0951848231374302E-002  0.23089828458676118        0.0000000000000000     
  -8.1488707279778666E-002  0.23933742913073264        0.0000000000000000     
  -8.1930958022720254E-002  0.24789313405706484        0.0000000000000000     
  -8.2278600460198997E-002  0.25656539936575773        0.0000000000000000     
  -8.2531634592214950E-002  0.26535422505681139        0.0000000000000000     
  -5.2698263790171854E-002  0.26466017198592012        0.0000000000000000     
  -5.2819293898341786E-002  0.27330601562424878        0.0000000000000000     
  -5.2957655720237050E-002  0.28190835116750079        0.0000000000000000     
  -5.3113349255857610E-002  0.29046717861567634        0.0000000000000000     
  -5.3286374505203501E-002  0.29898249796877507        0.0000000000000000     
  -5.9808896241101889E-002  0.26486626362545540        0.0000000000000000     
  -5.9941252110515750E-002  0.27359070258500634        0.0000000000000000     
  -6.0092244103319682E-002  0.28229984375348199        0.0000000000000000     
  -6.0261872219513707E-002  0.29099368713088225        0.0000000000000000     
  -6.0450136459097789E-002  0.29967223271720711        0.0000000000000000     
  -6.7151335525085745E-002  0.26505063635044906        0.0000000000000000     
  -6.7300207378622343E-002  0.27384892117727627        0.0000000000000000     
  -6.7462509710194310E-002  0.28267677043597711        0.0000000000000000     
  -6.7638242519801703E-002  0.29153418412655158        0.0000000000000000     
  -6.7827405807444494E-002  0.30042116224899967        0.0000000000000000     
  -7.4725581642123437E-002  0.26521329016090106        0.0000000000000000     
  -7.4896159702661530E-002  0.27408067140105841        0.0000000000000000     
  -7.5068452540860933E-002  0.28303913121498608        0.0000000000000000     
  -7.5242460156721633E-002  0.29208866960268415        0.0000000000000000     
  -7.5418182550243601E-002  0.30122928656415271        0.0000000000000000     
  -8.2531634592214950E-002  0.26535422505681139        0.0000000000000000     
  -8.2729109082633367E-002  0.27428595325635274        0.0000000000000000     
  -8.2910072595319517E-002  0.28338692609050903        0.0000000000000000     
  -8.3074525130273441E-002  0.29265714355928024        0.0000000000000000     
  -8.3222466687495111E-002  0.30209660566266627        0.0000000000000000     
  -4.5848409993515499E-002   5.9489891670351333E-002   0.0000000000000000     
  -4.8093929469004197E-002   6.5000561138929797E-002   0.0000000000000000     
  -5.0284822342109549E-002   7.0680121973798166E-002   0.0000000000000000     
  -5.2421088612831554E-002   7.6528574174956454E-002   0.0000000000000000     
  -5.4502728281170219E-002   8.2545917742404620E-002   0.0000000000000000     
  -5.0409776261073048E-002   6.0219064676514319E-002   0.0000000000000000     
  -5.2825119198892878E-002   6.5711462819456445E-002   0.0000000000000000     
  -5.5188677912740618E-002   7.1370605968996456E-002   0.0000000000000000     
  -5.7500452402616274E-002   7.7196494125134324E-002   0.0000000000000000     
  -5.9760442668519820E-002   8.3189127287870063E-002   0.0000000000000000     
  -5.5140256578450744E-002   6.1026664162352029E-002   0.0000000000000000     
  -5.7790331468563244E-002   6.6475917288370115E-002   0.0000000000000000     
  -6.0365419222253559E-002   7.2099460071623475E-002   0.0000000000000000     
  -6.2865519839521683E-002   7.7897292512112096E-002   0.0000000000000000     
  -6.5290633320367650E-002   8.3869414609835963E-002   0.0000000000000000     
  -6.0039850945648607E-002   6.1912690127864441E-002   0.0000000000000000     
  -6.2989566278015316E-002   6.7293924545670805E-002   0.0000000000000000     
  -6.5815046270648367E-002   7.2866684281679237E-002   0.0000000000000000     
  -6.8516290923547815E-002   7.8630969335889742E-002   0.0000000000000000     
  -7.1093300236713661E-002   8.4586779708302307E-002   0.0000000000000000     
  -6.5108559362666629E-002   6.2877142573051575E-002   0.0000000000000000     
  -6.8422823627249038E-002   6.8165484591358488E-002   0.0000000000000000     
  -7.1537559057925054E-002   7.3672278599163726E-002   0.0000000000000000     
  -7.4452765654694678E-002   7.9397524596467275E-002   0.0000000000000000     
  -7.7168443417557908E-002   8.5341222583269122E-002   0.0000000000000000     
  -5.4502728281170219E-002   8.2545917742404620E-002   0.0000000000000000     
  -5.6527978164837268E-002   8.8732962928160353E-002   0.0000000000000000     
  -5.8495075081544445E-002   9.5090519984241173E-002   0.0000000000000000     
  -6.0404019031291729E-002  0.10161858891064718        0.0000000000000000     
  -6.2254810014079141E-002  0.10831716970737830        0.0000000000000000     
  -5.9760442668519820E-002   8.3189127287870063E-002   0.0000000000000000     
  -6.1962695584708079E-002   8.9350952706027914E-002   0.0000000000000000     
  -6.4101258025437827E-002   9.5684417628432189E-002   0.0000000000000000     
  -6.6176129990709084E-002  0.10218952205508283        0.0000000000000000     
  -6.8187311480521817E-002  0.10886626598597990        0.0000000000000000     
  -6.5290633320367650E-002   8.3869414609835963E-002   0.0000000000000000     
  -6.7646068594062941E-002   9.0013302477951987E-002   0.0000000000000000     
  -6.9937134589879116E-002   9.6326432229617120E-002   0.0000000000000000     
  -7.2163831307816187E-002  0.10280880386483135        0.0000000000000000     
  -7.4326158747874127E-002  0.10946041738359467        0.0000000000000000     
  -7.1093300236713661E-002   8.4586779708302307E-002   0.0000000000000000     
  -7.3578097192901856E-002   9.0720012243932530E-002   0.0000000000000000     
  -7.6002704774868299E-002   9.7016563787795995E-002   0.0000000000000000     
  -7.8367122982613058E-002  0.10347643433989270        0.0000000000000000     
  -8.0671351816136064E-002  0.11009962390022264        0.0000000000000000     
  -7.7168443417557908E-002   8.5341222583269122E-002   0.0000000000000000     
  -7.9758781381224775E-002   9.1471082003969556E-002   0.0000000000000000     
  -8.2297968580405348E-002   9.7754812302968813E-002   0.0000000000000000     
  -8.4786005015099641E-002  0.10419241348026691        0.0000000000000000     
  -8.7222890685307627E-002  0.11078388553586380        0.0000000000000000     
  -6.2254810014079141E-002  0.10831716970737830        0.0000000000000000     
  -6.4024883352474124E-002  0.11516028264358695        0.0000000000000000     
  -6.5691674369044092E-002  0.12212194798842552        0.0000000000000000     
  -6.7255183063789067E-002  0.12920216574189392        0.0000000000000000     
  -6.8715409436709035E-002  0.13640093590399227        0.0000000000000000     
  -6.8187311480521817E-002  0.10886626598597990        0.0000000000000000     
  -7.0110153349645737E-002  0.11568765852072488        0.0000000000000000     
  -7.1920006452850557E-002  0.12262670875891934        0.0000000000000000     
  -7.3616870790136235E-002  0.12968341670056330        0.0000000000000000     
  -7.5200746361502813E-002  0.13685778234565671        0.0000000000000000     
  -7.4326158747874127E-002  0.10946041738359467        0.0000000000000000     
  -7.6396120435798104E-002  0.11625552946773388        0.0000000000000000     
  -7.8345719897333299E-002  0.12316839679907575        0.0000000000000000     
  -8.0174957132479657E-002  0.13019901937762030        0.0000000000000000     
  -8.1883832141237262E-002  0.13734739720336755        0.0000000000000000     
  -8.0671351816136064E-002  0.11009962390022264        0.0000000000000000     
  -8.2882784610931223E-002  0.11686389548461394        0.0000000000000000     
  -8.4968814702492290E-002  0.12374701210889473        0.0000000000000000     
  -8.6929442090819362E-002  0.13074897377306502        0.0000000000000000     
  -8.8764666775912354E-002  0.13786978047712481        0.0000000000000000     
  -8.7222890685307627E-002  0.11078388553586380        0.0000000000000000     
  -8.9570145875045026E-002  0.11751275657136508        0.0000000000000000     
  -9.1789290868327600E-002  0.12436255468837627        0.0000000000000000     
  -9.3880325665155265E-002  0.13133327988689741        0.0000000000000000     
  -9.5843250265528118E-002  0.13842493216692844        0.0000000000000000     
  -6.8715409436709035E-002  0.13640093590399227        0.0000000000000000     
  -7.0096598689500814E-002  0.14371755422488086        0.0000000000000000     
  -7.1422996023861166E-002  0.15115131645472007        0.0000000000000000     
  -7.2694601439790132E-002  0.15870222259350986        0.0000000000000000     
  -7.3911414937287659E-002  0.16637027264125029        0.0000000000000000     
  -7.5200746361502813E-002  0.13685778234565671        0.0000000000000000     
  -7.6699716255286710E-002  0.14414971115225578        0.0000000000000000     
  -7.8141863559824346E-002  0.15155910857841659        0.0000000000000000     
  -7.9527188275115721E-002  0.15908597462413923        0.0000000000000000     
  -8.0855690401160835E-002  0.16673030928942356        0.0000000000000000     
  -8.1883832141237262E-002  0.13734739720336755        0.0000000000000000     
  -8.3502027678437521E-002  0.14461386766786077        0.0000000000000000     
  -8.5059226498911955E-002  0.15199876816264332        0.0000000000000000     
  -8.6555428602660578E-002  0.15950209868771523        0.0000000000000000     
  -8.7990633989683362E-002  0.16712385924307632        0.0000000000000000     
  -8.8764666775912354E-002  0.13786978047712481        0.0000000000000000     
  -9.0503532958953289E-002  0.14511002377169593        0.0000000000000000     
  -9.2175084841124050E-002  0.15247029520740030        0.0000000000000000     
  -9.3779322422424718E-002  0.15995059478423787        0.0000000000000000     
  -9.5316245702855226E-002  0.16755092250220865        0.0000000000000000     
  -9.5843250265528118E-002  0.13842493216692844        0.0000000000000000     
  -9.7704232096833932E-002  0.14563817946376117        0.0000000000000000     
  -9.9489438586460602E-002  0.15297368971268743        0.0000000000000000     
 -0.10119886973440809       0.16043146291370719        0.0000000000000000     
 -0.10283252554067641       0.16801149906682045        0.0000000000000000     
  -7.3911414937287659E-002  0.16637027264125029        0.0000000000000000     
  -7.5061320027510869E-002  0.17414084936929836        0.0000000000000000     
  -7.6132200221616833E-002  0.18199933554901104        0.0000000000000000     
  -7.7124055519605550E-002  0.18994573118038838        0.0000000000000000     
  -7.8036885921477006E-002  0.19798003626343036        0.0000000000000000     
  -8.0855690401160835E-002  0.16673030928942356        0.0000000000000000     
  -8.2113945037439448E-002  0.17447739590340827        0.0000000000000000     
  -8.3288527283431224E-002  0.18231251779523180        0.0000000000000000     
  -8.4379437139136218E-002  0.19023567496489419        0.0000000000000000     
  -8.5386674604554375E-002  0.19824686741239536        0.0000000000000000     
  -8.7990633989683362E-002  0.16712385924307632        0.0000000000000000     
  -8.9351974711874643E-002  0.17484841322155353        0.0000000000000000     
  -9.0626582821128732E-002  0.18266012401597342        0.0000000000000000     
  -9.1814458317445669E-002  0.19055899162633597        0.0000000000000000     
  -9.2915601200825371E-002  0.19854501605264119        0.0000000000000000     
  -9.5316245702855226E-002  0.16755092250220865        0.0000000000000000     
  -9.6775409050816483E-002  0.17525390132373417        0.0000000000000000     
  -9.8146366834709370E-002  0.18304215421123587        0.0000000000000000     
  -9.9429119054533874E-002  0.19091568116471380        0.0000000000000000     
 -0.10062366571028999       0.19887448218416792        0.0000000000000000     
 -0.10283252554067641       0.16801149906682045        0.0000000000000000     
 -0.10438424805426497       0.17569386020995015        0.0000000000000000     
 -0.10584787932417311       0.18345860838101918        0.0000000000000000     
 -0.10722341935040089       0.19130574358002761        0.0000000000000000     
 -0.10851086813294825       0.19923526580697543        0.0000000000000000     
  -7.8036885921477006E-002  0.19798003626343036        0.0000000000000000     
  -7.8874059531205215E-002  0.20609612164029423        0.0000000000000000     
  -7.9638944452764177E-002  0.21428785815313733        0.0000000000000000     
  -8.0331540686153863E-002  0.22255524580195965        0.0000000000000000     
  -8.0951848231374302E-002  0.23089828458676118        0.0000000000000000     
  -8.5386674604554375E-002  0.19824686741239536        0.0000000000000000     
  -8.6316558287231754E-002  0.20633953452296863        0.0000000000000000     
  -8.7175406794714361E-002  0.21450711568184713        0.0000000000000000     
  -8.7963220127002209E-002  0.22274961088903097        0.0000000000000000     
  -8.8679998284095257E-002  0.23106702014451999        0.0000000000000000     
  -9.2915601200825371E-002  0.19854501605264119        0.0000000000000000     
  -9.3937887406704154E-002  0.20661271550853066        0.0000000000000000     
  -9.4889192870518266E-002  0.21475660820764578        0.0000000000000000     
  -9.5769517592267719E-002  0.22297669414998667        0.0000000000000000     
  -9.6578861571952473E-002  0.23127297333555313        0.0000000000000000     
 -0.10062366571028999       0.19887448218416792        0.0000000000000000     
 -0.10173804688962244       0.20691566459698033        0.0000000000000000     
 -0.10278030268017589       0.21503633573053327        0.0000000000000000     
 -0.10375043308195041       0.22323649558482667        0.0000000000000000     
 -0.10464843809494595       0.23151614415986055        0.0000000000000000     
 -0.10851086813294825       0.19923526580697543        0.0000000000000000     
 -0.10971703673598658       0.20724838178831773        0.0000000000000000     
 -0.11084873622368728       0.21534629825050960        0.0000000000000000     
 -0.11190596659605030       0.22352901519355112        0.0000000000000000     
 -0.11288872785307566       0.23179653261744221        0.0000000000000000     
  -8.0951848231374302E-002  0.23089828458676118        0.0000000000000000     
  -8.1488707279778666E-002  0.23933742913073264        0.0000000000000000     
  -8.1930958022720254E-002  0.24789313405706484        0.0000000000000000     
  -8.2278600460198997E-002  0.25656539936575773        0.0000000000000000     
  -8.2531634592214950E-002  0.26535422505681139        0.0000000000000000     
  -8.8679998284095257E-002  0.23106702014451999        0.0000000000000000     
  -8.9310760147828544E-002  0.23948452741805404        0.0000000000000000     
  -8.9840524600037025E-002  0.24802731667937278        0.0000000000000000     
  -9.0269291640720770E-002  0.25669538792847618        0.0000000000000000     
  -9.0597061269879681E-002  0.26548874116536419        0.0000000000000000     
  -9.6578861571952473E-002  0.23127297333555313        0.0000000000000000     
  -9.7307412215797084E-002  0.23967120302082456        0.0000000000000000     
  -9.7945356930026053E-002  0.24819714046228011        0.0000000000000000     
  -9.8492695714639367E-002  0.25685078565991970        0.0000000000000000     
  -9.8949428569637038E-002  0.26563213861374352        0.0000000000000000     
 -0.10464843809494595       0.23151614415986055        0.0000000000000000     
 -0.10547866348368430       0.23989745593904421        0.0000000000000000     
 -0.10624545501268726       0.24840260540578687        0.0000000000000000     
 -0.10694881268195483       0.25703159256008862        0.0000000000000000     
 -0.10758873649148699       0.26578441740194952        0.0000000000000000     
 -0.11288872785307566       0.23179653261744221        0.0000000000000000     
 -0.11382451395149018       0.24016328617271288        0.0000000000000000     
 -0.11474081884802069       0.24864371150989312        0.0000000000000000     
 -0.11563764254266717       0.25723780862898282        0.0000000000000000     
 -0.11651498503542961       0.26594557752998205        0.0000000000000000     
  -8.2531634592214950E-002  0.26535422505681139        0.0000000000000000     
  -8.2729109082633367E-002  0.27428595325635274        0.0000000000000000     
  -8.2910072595319517E-002  0.28338692609050903        0.0000000000000000     
  -8.3074525130273441E-002  0.29265714355928024        0.0000000000000000     
  -8.3222466687495111E-002  0.30209660566266627        0.0000000000000000     
  -9.0597061269879681E-002  0.26548874116536419        0.0000000000000000     
  -9.0854222618578562E-002  0.27447040025111380        0.0000000000000000     
  -9.1071164817882105E-002  0.28370338904680192        0.0000000000000000     
  -9.1247887867790353E-002  0.29318770755242851        0.0000000000000000     
  -9.1384391768303291E-002  0.30292335576799367        0.0000000000000000     
  -9.8949428569637038E-002  0.26563213861374352        0.0000000000000000     
  -9.9326667410537875E-002  0.27463964589329570        0.0000000000000000     
  -9.9635524152860713E-002  0.28397175406812064        0.0000000000000000     
  -9.9875998796605497E-002  0.29362846313821811        0.0000000000000000     
 -0.10004809134177232       0.30360977310358839        0.0000000000000000     
 -0.10758873649148699       0.26578441740194952        0.0000000000000000     
 -0.10814644345851132       0.27479369018289856        0.0000000000000000     
 -0.10860315060025529       0.28419202115446501        0.0000000000000000     
 -0.10895885791671896       0.29397941031664898        0.0000000000000000     
 -0.10921356540790225       0.30415585766945036        0.0000000000000000     
 -0.11651498503542961       0.26594557752998205        0.0000000000000000     
 -0.11731355076249889       0.27493253311992238        0.0000000000000000     
 -0.11797404416006591       0.28436419030583543        0.0000000000000000     
 -0.11849646522813061       0.29424054908772113        0.0000000000000000     
 -0.11888081396669306       0.30456160946557959        0.0000000000000000     
 </DataArray>
 <DataArray  type="Float64" Name="stress" NumberOfComponents="3" format="ascii">
   6567938153.3498144        43343232.473677397        19089710.751905531     
   6213624153.1843033        139281227.19004321       -112763493.66414580     
   5839199408.7538052        168183407.68980074       -179398619.39694384     
   5444663920.0583172        130049773.97291684       -180815666.44649819     
   5030017687.0978403        24880326.039404869       -117014634.81280051     
   5768990794.4548922       -45762110.399791241        222513573.56342691     
   5557793580.5314655        45353421.727401972        118708477.03658402     
   5332619713.3497620        89880109.660343885        60888013.379443675     
   5093469192.9097881        87817953.399051189        49052182.592004620     
   4840342019.2115431        39166952.943516016        83200984.674280941     
   5134469567.0396128       -85539613.829377174        403990947.98188293     
   5011436437.0338612       -15732354.988676310        335390398.85206795     
   4880560744.7765598        27933029.680162907        293541036.77841890     
   4741842490.2676954        45456540.177136421        278442861.76093358     
   4595281673.5072708        36838176.502238512        290095873.79961604     
   4664374471.1039572       -75989277.815072536        563521834.00727105     
   4574552722.6914968       -43976102.958181381        537282271.78232336     
   4483022503.0341816       -17657832.250776052        518560450.79999471     
   4389783812.1320238        2965534.3071410656        507356371.06029326     
   4294836649.9850173        17893996.715561152        503670032.56321055     
   4358705506.6479702       -17111102.356864214        701106231.63958359     
   4247142437.5043755       -39377822.181112051        724384095.82733810     
   4140004988.1226416       -46892476.132466793        735946255.44416976     
   4037293158.5027781       -39655064.210935354        735792710.49008524     
   3939006948.6447835       -17665586.416510344        723923460.96507275     
   5030017687.0978403        24880326.039404869       -117014634.81280051     
   4921925572.9990063       -8061855.1183869839       -72529561.296118364     
   4820929498.4072666       -17350571.252512693       -36513138.247394711     
   4727029463.3226376       -2985822.3629329205       -8965365.6666423604     
   4640225467.7451258        35032391.550346851        10113756.446146376     
   4840342019.2115431        39166952.943516016        83200984.674280941     
   4717788832.4763994        15868306.845206976        117072485.19506331     
   4600100315.4401608        8785226.4099304676        146063302.98832321     
   4487276468.1028385        17917711.637706995        170173438.05404374     
   4379317290.4644365        43265762.528532982        189402890.39223477     
   4595281673.5072708        36838176.502238512        290095873.79961604     
   4468518750.5370512        26258466.383780241        310750536.54828489     
   4344389127.4575520        24456422.567735672        330112484.30984366     
   4222892804.2687688        31432045.054079294        348181717.08430499     
   4104029780.9707117        47185333.842818499        364958234.87166363     
   4294836649.9850173        17893996.715561152        503670032.56321055     
   4174115327.1809673        23108623.497352123        508504592.76352715     
   4053795934.4594398        29663017.220883131        515634405.71717519     
   3933878471.8204365        37557177.886166573        525059471.42415214     
   3814362939.2639580        46791105.493193626        536779789.88445741     
   3939006948.6447835       -17665586.416510344        723923460.96507275     
   3834578562.4081335        6418778.1858756542        710334653.84081316     
   3728320736.4458156        24405010.369373798        702629067.21031439     
   3620233470.7578292        36293110.133966446        700806701.07357693     
   3510316765.3441663        42083077.479653835        704867555.43060029     
   4640225467.7451258        35032391.550346851        10113756.446146376     
   4393777596.8982706        33444729.633857965        1199823.4208012202     
   4145697831.6548829        26417419.728947639       -6576140.1604076568     
   3895986172.0149822        13950461.835638523       -13214134.297471929     
   3644642617.9785447       -3956144.0461041927       -18714158.990375582     
   4379317290.4644365        43265762.528532982        189402890.39223477     
   4135695570.2031112        33770652.267699957        174780092.61457413     
   3891070016.4858909        20929430.487212181        163018083.15342093     
   3645440629.3127584        4742097.1870083809        154116862.00877255     
   3398807408.6837254       -14791347.632853985        148076429.18061623     
   4104029780.9707117        47185333.842818499        364958234.87166363     
   3868156550.9302254        31259477.128239155        345359310.10577351     
   3631907548.3744459        14081045.362699986        330343992.52872449     
   3395282773.3033915       -4349961.4537649155        319912282.14052987     
   3158282225.7170510       -24033543.321179867        314064178.94118685     
   3814362939.2639580        46791105.493193626        536779789.88445741     
   3591160539.0795922        25911204.215446472        512937475.89437312     
   3368210427.3205619        5872264.3554832935        495401587.96549869     
   3145512603.9868708       -13325714.086677909        484172126.09782147     
   2923067069.0785193       -31682731.111053228        479249090.29134786     
   3510316765.3441663        42083077.479653835        704867555.43060029     
   3304707534.6512222        17725833.529326081        677514589.98038757     
   3099978653.3242311       -3696912.5344775915        658190869.46373367     
   2896130121.3632011       -22185160.711747646        646896393.88063455     
   2693161938.7681336       -37738911.002485871        643631163.23109663     
   3644642617.9785447       -3956144.0461041927       -18714158.990375582     
   3502095869.4996510        5850218.2653963566       -19138921.340268776     
   3357933054.8849459        10269693.457546234       -12524100.140225681     
   3212154174.1344433        9302281.5303597450        1130304.6097613873     
   3064759227.2481384        2947982.4838321209        21824292.909677058     
   3398807408.6837254       -14791347.632853985        148076429.18061623     
   3273625884.7463870       -1251566.0222177505        147068424.52524549     
   3147231304.6537342        8244695.0707093477        151517143.05211219     
   3019623668.4057932        13697435.646012187        161422584.76120928     
   2890802976.0025468        15106655.703619957        176784749.65251946     
   3158282225.7170510       -24033543.321179867        314064178.94118685     
   3045943468.1278300       -8117079.8694324493        312943110.29092330     
   2932794664.3638020        5099229.6663097143        315695904.45518875     
   2818835814.4249644        15615385.286011100        322322561.43397290     
   2704066918.3113270        23431386.989712596        332823081.22728348     
   2923067069.0785193       -31682731.111053228        479249090.29134786     
   2819048619.6439762       -14746323.276223063        478485135.95676470     
   2714623134.0151248        833297.24423992634        480012184.06900692     
   2609790612.1919675        15056130.450352788        483830234.62807053     
   2504551054.1745038        27922176.342114210        489939287.63395917     
   2693161938.7681336       -37738911.002485871        643631163.23109663     
   2592941339.2948284       -21139296.242618561        643694501.52277994     
   2492716713.6077204       -4553102.1954269409        644465981.89357913     
   2392488061.7068005        12019671.139052033        645945604.34349704     
   2292255383.5920715        28579023.760846376        648133368.87253535     
   3064759227.2481384        2947982.4838321209        21824292.909677058     
   2891643667.0987039       -10319919.736762524        16255991.780708903     
   2720673347.2421246       -16437020.981206656        10017200.055816984     
   2551848267.6783938       -15403321.249478340        3107917.7350192321     
   2385168428.4075160       -7218820.5415617228       -4471855.1816715403     
   2890802976.0025468        15106655.703619957        176784749.65251946     
   2718052264.8021913        3786566.2831314802        169461552.07496247     
   2546811112.7204943       -2501659.4085133076        162640002.86949760     
   2377079519.7574410       -3758021.3713476658        156320102.03613570     
   2208857485.9130106        17480.394596338272        150501849.57485181     
   2704066918.3113270        23431386.989712596        332823081.22728348     
   2535030024.5400867        15063800.913384318        323003359.16455466     
   2366867008.7132854        9609141.3185050488        314857424.44192350     
   2199577870.8309150        7067408.2050572634        308385277.05940193     
   2033162610.8929708        7438601.5730470419        303586917.01698643     
   2504551054.1745038        27922176.342114210        489939287.63395917     
   2342576946.3123984        23511784.153957248        476881413.04947770     
   2180841035.2205029        19895381.199838519        466669464.77310991     
   2019343320.8988400        17072967.479824305        459303442.80485100     
   1858083803.3473830        15044542.993856907        454783347.14470851     
   2292255383.5920715        28579023.760846376        648133368.87253535     
   2140693030.1191053        29130516.004825354        631095713.72973287     
   1988733192.2421479        28357060.235515475        618076123.86304450     
   1836375869.9612103        26258656.452925444        609074599.27247977     
   1683621063.2762694        22835304.657002330        604091139.95802784     
   2385168428.4075160       -7218820.5415617228       -4471855.1816715403     
   2246302259.2203770        6496290.2657623291       -9517887.3169360776     
   2103435800.7783387        6877103.5567429066       -12390430.182337346     
   1956569053.0814250       -6076380.6685142517       -13089483.777880466     
   1805702016.1296220       -32364162.410082221       -11615048.103560314     
   2208857485.9130106        17480.394596338272        150501849.57485181     
   2073955610.8839476        11947053.714875579        141306173.30403438     
   1936329687.0064023        14796464.206902981        133398511.92042737     
   1795979714.2803526        8565711.8705834150        126778865.42402051     
   1652905692.7058418       -6745203.2939517498        121447233.81482920     
   2033162610.8929708        7438601.5730470419        303586917.01698643     
   1899695103.2144260        16823659.364094377        291730543.75140446     
   1764779787.0937803        21382689.014820457        280276710.99037749     
   1628416662.5310533        21115690.525267124        269225418.73390585     
   1490605729.5262370        16022663.895411074        258576666.98200649     
   1858083803.3473830        15044542.993856907        454783347.14470851     
   1723520736.2117875        21126107.213354707        441755224.02516067     
   1588786101.0404961        26635777.980557680        428244167.02751207     
   1453879897.8335073        31573555.295436502        414250176.15178752     
   1318802126.5908296        35939439.158016622        399773251.39796221     
   1683621063.2762694        22835304.657002330        604091139.95802784     
   1545432509.8760483        24854397.262701631        591380214.12530756     
   1408348628.8465369        30555731.104094028        577300880.03184545     
   1272369420.1877344        39939306.181178212        561853137.67763662     
   1137494883.8996186        53005122.493901074        545036987.06271410     
   1805702016.1296220       -32364162.410082221       -11615048.103560314     
   1773066895.7535200       -16468203.356549025       -7060151.1057268353     
   1748858987.1525698        27518461.614144802       -41158510.822464779     
   1733078290.3267188        99595832.501831174       -113910127.25383180     
   1725724805.2760279        199763909.30673879       -225315000.39978305     
   1652905692.7058418       -6745203.2939517498        121447233.81482920     
   1529028895.3063271       -13691157.633784175        136378896.63043681     
   1409594252.4073102       -5829930.3052951694        125049121.54109529     
   1294601764.0088034        16838478.691557109        87457908.546829626     
   1184051430.1108062        54314069.356764257        23605257.647613548     
   1490605729.5262370        16022663.895411074        258576666.98200649     
   1310892451.7023466       -3143644.8580989838        279235862.12829089     
   1131636271.1043394       -20786296.192023635        286025438.17931956     
   952837187.73221135       -36905290.106346905        278945395.13506043     
   774495201.58595359       -51500626.601086110        257995732.99554434     
   1318802126.5908296        35939439.158016622        399773251.39796221     
   1118657564.9416161        15174334.970569491        421510745.38787991     
   914985043.24364591       -17350636.046068013        441770439.09218955     
   707784561.49692416       -61635473.891872644        460552332.51088589     
   497056119.70145023       -117680178.56683847        477856425.64397734     
   1137494883.8996186        53005122.493901074        545036987.06271410     
   952324235.02411819        41262781.852214456        563203546.40917277     
   759640568.82523167        4477050.1325746775        592284124.27969778     
   559443885.30298173       -57352072.664954096        632278720.67429376     
   351734184.45732486       -144224586.54048407        683187335.59292400     
   1725724805.2760279        199763909.30673879       -225315000.39978305     
   1456155184.1235738        184861414.50007999       -97082986.391712368     
   1154154572.6590018        61855618.653017402        60170487.028593086     
   819722970.88237464       -169253478.23423535        246445419.86114356     
   452860378.79364395       -508465876.16181099        461741812.10593390     
   1184051430.1108062        54314069.356764257        23605257.647613548     
   977457168.56354976        12065413.019008279        155342917.30754808     
   732853014.90602326       -156882883.68631494        312812354.52796078     
   450238969.13817596       -452530820.75938535        496013569.30886573     
   129615031.26006305       -874878398.19998503        704946561.65018988     
   774495201.58595359       -51500626.601086110        257995732.99554434     
   621477208.63888383       -123915171.77136937        386730319.54276156     
   424870421.78332376       -341625696.63663340        537907001.79870033     
   184674841.01926675       -704632201.19688952        711525779.76335371     
  -99109533.653274179       -1212934685.4520862        907586653.43671966     
   497056119.70145023       -117680178.56683847        477856425.64397734     
   388215304.34954435       -223080339.87116572        597079220.31392491     
   230206793.29092014       -492372820.19785488        735454428.84081352     
   23030586.525612473       -925557619.54683328        892982051.22465706     
  -233313315.94638586       -1522634737.9181459        1069662087.4654565     
   351734184.45732486       -144224586.54048407        683187335.59292400     
   277671455.69552660       -285430091.28037220        786389619.62102473     
   148862129.42881674       -609124254.36997116        905454635.65430439     
  -34693794.342783511       -1115307075.8092325        1040382383.6927816     
  -272996315.61928540       -1803978555.5981157        1191172863.7364364     
   4358705506.6479702       -17111102.356864214        701106231.63958359     
   4247142437.5043755       -39377822.181112051        724384095.82733810     
   4140004988.1226416       -46892476.132466793        735946255.44416976     
   4037293158.5027781       -39655064.210935354        735792710.49008524     
   3939006948.6447835       -17665586.416510344        723923460.96507275     
   4098992352.3684950        11227880.602231503        796592936.60640204     
   3963324364.0039902       -13775587.415056705        811938697.39604294     
   3830873989.6166258       -28053675.508568287        821089474.47737861     
   3701641229.2063875       -31606383.678311586        824045267.85041845     
   3575626082.7732878       -24433711.924271822        820806077.51514924     
   3795990578.5352015        26580277.695181608        894513052.98863292     
   3651991159.1287065        3572107.9385254383        900517370.29797292     
   3510001347.9146018       -12737367.843471766        905847424.76162934     
   3370021144.8929014       -22348149.650813103        910503216.37959540     
   3232050550.0635948       -25260237.483495712        914484745.15187776     
   3449700185.1480885        28946088.921985865        994866580.78627837     
   3313142822.8785000        12665263.879632235        990120114.53312600     
   3177387063.0165772       -943553.13717901707        990220106.29690576     
   3042432905.5623155       -11880362.128444433        995166556.07761788     
   2908280350.5157185       -20145163.094171166        1004959463.8752574     
   3060121172.2071624        18325314.282646179        1097653519.9993393     
   2946779355.2533927        13503880.408269763        1080746930.1015043     
   2833031134.9225497        7327768.6103211641        1074207519.0832167     
   2718876511.2146316       -203021.11120975018        1078035286.9444811     
   2604315484.1296453       -9088488.7563092709        1092230233.6852930     
   3939006948.6447835       -17665586.416510344        723923460.96507275     
   3834578562.4081335        6418778.1858756542        710334653.84081316     
   3728320736.4458156        24405010.369373798        702629067.21031439     
   3620233470.7578292        36293110.133966446        700806701.07357693     
   3510316765.3441663        42083077.479653835        704867555.43060029     
   3575626082.7732878       -24433711.924271822        820806077.51514924     
   3484245231.1992617       -3691283.9374611378        811948564.69854176     
   3391743118.0272636        13313605.389451742        808015612.65532255     
   3298119743.2572894        26580956.056441188        809007221.38549411     
   3203375106.8893471        36110768.063529968        814923390.88905263     
   3232050550.0635948       -25260237.483495712        914484745.15187776     
   3150978205.3796983       -8681454.4440037012        911184734.45857215     
   3069492777.2255278        6520383.6945710182        911850624.81827903     
   2987594265.6010780        20345276.932224154        916482416.23100114     
   2905282670.5063562        32793225.268956304        925080108.69673824     
   2908280350.5157185       -20145163.094171166        1004959463.8752574     
   2834777484.9494505       -8551733.3337557316        1008043163.1208975     
   2761569714.0406055        4025345.2847410440        1014134103.6991811     
   2688657037.7891788        17586072.761295080        1023232285.6101032     
   2616039456.1951742        32130449.095922828        1035337708.8536652     
   2604315484.1296453       -9088488.7563092709        1092230233.6852930     
   2535643069.9085131       -3302120.6067112684        1102523850.6855257     
   2467973928.4724970        5828490.1599448919        1114866049.2980299     
   2401308059.8216000        18303343.543660283        1129256829.5227969     
   2335645463.9558220        34122439.544444799        1145696191.3598340     
   3510316765.3441663        42083077.479653835        704867555.43060029     
   3304707534.6512222        17725833.529326081        677514589.98038757     
   3099978653.3242311       -3696912.5344775915        658190869.46373367     
   2896130121.3632011       -22185160.711747646        646896393.88063455     
   2693161938.7681336       -37738911.002485871        643631163.23109663     
   3203375106.8893471        36110768.063529968        814923390.88905263     
   3019251264.9372768        17866920.402109385        790995042.26486301     
   2835615784.8073883        1250945.4813206196        774153887.05649996     
   2652468666.4997029       -13737156.698814988        764399925.26396465     
   2469809910.0142026       -27097386.138319254        761733156.88725519     
   2905282670.5063562        32793225.268956304        925080108.69673824     
   2739952641.5302024        19855301.166954041        904119058.09751832     
   2574718986.8324785        7238624.6597021818        889303149.39638710     
   2409581706.4131799       -5056804.2527897358        880632382.59334791     
   2244540800.2723055       -17030985.570533991        878106757.68840790     
   2616039456.1951742        32130449.095922828        1035337708.8536652     
   2466811664.4300032        23690975.823862791        1016886637.4783446     
   2317288259.3994856        14266125.000667214        1003638656.4833901     
   2167469241.1036277        3855896.6263232231        995593765.86879539     
   2017354609.5424311       -7539709.2991392612        992751965.63456082     
   2335645463.9558220        34122439.544444799        1145696191.3598340     
   2199828333.6366758        29373944.372833014        1129297780.4073524     
   2063323602.5084143        22333446.504187107        1117160408.3175075     
   1926131270.5710578        13000945.938544035        1109284075.0902946     
   1788251337.8245854        1376442.6758540869        1105668780.7257092     
   2693161938.7681336       -37738911.002485871        643631163.23109663     
   2592941339.2948284       -21139296.242618561        643694501.52277994     
   2492716713.6077204       -4553102.1954269409        644465981.89357913     
   2392488061.7068005        12019671.139052033        645945604.34349704     
   2292255383.5920715        28579023.760846376        648133368.87253535     
   2469809910.0142026       -27097386.138319254        761733156.88725519     
   2371463256.7099667       -14164280.602917790        761658457.22927928     
   2273287387.0915828       -661896.11467826366        763163230.05865550     
   2175282301.1590443        13409767.326384068        766247475.37537956     
   2077447998.9123518        28050709.720263243        770911193.17944872     
   2244540800.2723055       -17030985.570533991        878106757.68840790     
   2150557608.5892167       -7017534.6239814758        878097964.96371663     
   2056920010.4916325        4147894.9409260750        880539975.13460124     
   1963628005.9795570        16465303.124186873        885432788.20105875     
   1870681595.0529845        29934689.925792336        892776404.16309762     
   2017354609.5424311       -7539709.2991392612        992751965.63456082     
   1930224394.9325666        300941.69417369366        993013024.72608256     
   1843614583.8078792        9876270.9713999033        996596217.12140799     
   1757525176.1683421        21186278.532469511        1003501542.8205421     
   1671956172.0139771        34230964.377436161        1013729001.8234758     
   1788251337.8245854        1376442.6758540869        1105668780.7257092     
   1710463615.7400322        7791148.3515735865        1106403636.5163801     
   1633371107.0403066        16523231.976706982        1111331956.0190794     
   1556973811.7254026        27572693.551254809        1120453739.2338181     
   1481271729.7953117        40939533.075169384        1133768986.1605823     
   2292255383.5920715        28579023.760846376        648133368.87253535     
   2140693030.1191053        29130516.004825354        631095713.72973287     
   1988733192.2421479        28357060.235515475        618076123.86304450     
   1836375869.9612103        26258656.452925444        609074599.27247977     
   1683621063.2762694        22835304.657002330        604091139.95802784     
   2077447998.9123518        28050709.720263243        770911193.17944872     
   1936454499.3007314        29541146.502731442        756216950.98160434     
   1795156537.0569360        30016707.844614744        745417851.58441150     
   1653554112.1809540        29477393.745888233        738513894.98787439     
   1511647224.6727982        27923204.206576347        735505081.19198561     
   1870681595.0529845        29934689.925792336        892776404.16309762     
   1739905742.2299552        32258709.124928594        880534100.31065392     
   1608918448.5465569        33877925.456162930        872064016.78340149     
   1477719714.0027881        34792338.919497848        867366153.58133590     
   1346309538.5986483        35001949.514930069        866440510.70445108     
   1671956172.0139771        34230964.377436161        1013729001.8234758     
   1551046758.9067769        37283203.871402502        1004047161.7168851     
   1430018926.7110150        39940713.070159495        998014619.46001446     
   1308872675.4266925        42203491.973718762        995631375.05286527     
   1187608005.0538113        44071540.582076013        996897428.49543869     
   1481271729.7953117        40939533.075169384        1133768986.1605823     
   1369877549.3311827        44614630.742135108        1126756135.2002840     
   1258457971.5503106        48205070.686612189        1123269659.6142459     
   1147012996.4526811        51710852.908571064        1123309559.4024591     
   1035542624.0383065        55131977.408034980        1126875834.5649273     
   1683621063.2762694        22835304.657002330        604091139.95802784     
   1545432509.8760483        24854397.262701631        591380214.12530756     
   1408348628.8465369        30555731.104094028        577300880.03184545     
   1272369420.1877344        39939306.181178212        561853137.67763662     
   1137494883.8996186        53005122.493901074        545036987.06271410     
   1511647224.6727982        27923204.206576347        735505081.19198561     
   1371326146.2990973        26786346.458337307        726828692.87878966     
   1231271017.8437977        26535988.438112855        718608605.23610556     
   1091481839.3068893        27172130.145858943        710844818.26391482     
   951958610.68837798        28694771.581597567        703537331.96224940     
   1346309538.5986483        35001949.514930069        866440510.70445108     
   1209069389.3407438        32273177.639570534        860820150.38309264     
   1071256467.5489272        27635163.984498203        857480799.66348386     
   932870773.22319818        21087908.549719036        856422458.54562342     
   793912306.36354852        12631411.335207433        857645127.02951729     
   1187608005.0538113        44071540.582076013        996897428.49543869     
   1058662239.0009829        41314890.806372344        993354586.63821161     
   928304977.96192443        33853257.743250847        993917463.31398523     
   796536221.93664491        21686641.392717123        998586058.52275813     
   663355970.92513287        4815041.7547430396        1007360372.2645239     
   1035542624.0383065        55131977.408034980        1126875834.5649273     
   920104695.27981234        53911485.958751261        1124432001.6441472     
   802416549.08278096        45190269.714337945        1127918596.1876087     
   682478185.44722342        28968328.674834013        1137335618.1953115     
   560289604.37312710        5245662.8402016759        1152683067.6672585     
   1137494883.8996186        53005122.493901074        545036987.06271410     
   952324235.02411819        41262781.852214456        563203546.40917277     
   759640568.82523167        4477050.1325746775        592284124.27969778     
   559443885.30298173       -57352072.664954096        632278720.67429376     
   351734184.45732486       -144224586.54048407        683187335.59292400     
   951958610.68837798        28694771.581597567        703537331.96224940     
   792432993.97821438        11514790.496700972        721479176.46739638     
   624266544.21132290       -34467967.443963110        749488790.37024987     
   447459261.38770169       -109253502.24037778        787566173.67082798     
   262011145.50736195       -212841813.89253217        835711326.36910486     
   793912306.36354852        12631411.335207433        857645127.02951729     
   657613867.17202151       -10711566.586909264        874046471.67110312     
   511546779.19042861       -66616707.142591566        899669336.58405697     
   355711042.41875845       -155084010.33186755        934513721.76837707     
   190106656.85701340       -276113476.15471929        978579627.22407281     
   663355970.92513287        4815041.7547430396        1007360372.2645239     
   547866854.60555291       -25416289.398583919        1020905432.0203075     
   421481273.76254553       -91969168.963335901        1042825762.9211198     
   284199228.39612287       -194843596.93946147        1073121364.9669491     
   136020718.50627750       -334039573.32701761        1111792238.1578050     
   560289604.37312710        5245662.8402016759        1152683067.6672585     
   463191956.27878326       -32599377.938378900        1162056057.5150101     
   354070027.92768365       -110525352.90614547        1178958069.3814335     
   232923819.31980491       -228532262.06318128        1203389103.2665386     
   99753330.455166757       -386620105.40941501        1235349159.1703248     
   351734184.45732486       -144224586.54048407        683187335.59292400     
   277671455.69552660       -285430091.28037220        786389619.62102473     
   148862129.42881674       -609124254.36997116        905454635.65430439     
  -34693794.342783511       -1115307075.8092325        1040382383.6927816     
  -272996315.61928540       -1803978555.5981157        1191172863.7364364     
   262011145.50736195       -212841813.89253217        835711326.36910486     
   223396510.05617163       -352531842.22854543        885023760.80347466     
   140575392.84026083       -639576809.78029656        945391501.99375439     
   13547793.859588385       -1073976716.5479326        1016814549.9399588     
  -157686286.88581938       -1655731562.5313249        1099292904.6420848     
   190106656.85701340       -276113476.15471929        978579627.22407281     
   173204614.00425813       -418408678.30042303        986299013.76155090     
   122636205.12691054       -672925100.52810788        1000266281.8056890     
   38401430.224981964       -1039662742.8377362        1020481431.3564832     
  -79499710.701533854       -1518621605.2293015        1046944462.4139166     
   136020718.50627750       -334039573.32701761        1111792238.1578050     
   127095767.53975290       -483060599.49609637        1090215378.4952724     
   95044566.288784027       -709169126.61333489        1070078975.0901035     
   39867114.753396809       -1012365154.6786355        1051383027.9423332     
  -38436587.066420436       -1392648683.6920230        1034127537.0519378     
   99753330.455166757       -386620105.40941501        1235349159.1703248     
   85069970.662665516       -546487605.81555104        1196772855.0046122     
   57800476.325881928       -748308888.03597808        1154829581.8470116     
   17944847.444829524       -992083952.07063484        1109519339.6975164     
  -34496915.980494142       -1277812797.9195011        1060842128.5561361     
   3060121172.2071624        18325314.282646179        1097653519.9993393     
   2946779355.2533927        13503880.408269763        1080746930.1015043     
   2833031134.9225497        7327768.6103211641        1074207519.0832167     
   2718876511.2146316       -203021.11120975018        1078035286.9444811     
   2604315484.1296453       -9088488.7563092709        1092230233.6852930     
   2656631501.6333933        11872030.259259343        1198868931.0722129     
   2568238325.6682925        9850416.5674915314        1183991100.3825428     
   2479625120.0706682        7095370.7673081160        1177291240.7624679     
   2390791884.8405170        3606892.8587055206        1178769352.2119901     
   2301738619.9778438       -615017.15831446648        1188425434.7311072     
   2263109780.6845937        8409131.1233597994        1298173788.6989796     
   2193410366.2511535        7310873.7771017551        1285542153.2527807     
   2123677295.9297376        6100430.1375796795        1278899281.0662200     
   2053910569.7203438        4777800.2048031092        1278245172.1393063     
   1984110187.6229701        3342983.9787622690        1283579826.4720297     
   1879556009.3607614        7936616.8749523163        1395568092.8796344     
   1822295477.0019770        5885252.0370991230        1385400088.7122064     
   1765187662.4997599        4342946.7211374044        1379031639.9944711     
   1708232565.8541136        3309700.9270834923        1376462746.7264235     
   1651430187.0650349        2785514.6549153328        1377693408.9080648     
   1505970187.6619020        10454487.514036655        1491051843.6141825     
   1454893657.9207625        5573551.3474881649        1483564906.7608347     
   1404156219.7807326        1822920.5179835558        1477688317.5472214     
   1353757873.2418251       -797404.97445356846        1473422075.9733469     
   1303698618.3040318       -2287425.1298453212        1470766182.0392065     
   2604315484.1296453       -9088488.7563092709        1092230233.6852930     
   2535643069.9085131       -3302120.6067112684        1102523850.6855257     
   2467973928.4724970        5828490.1599448919        1114866049.2980299     
   2401308059.8216000        18303343.543660283        1129256829.5227969     
   2335645463.9558220        34122439.544444799        1145696191.3598340     
   2301738619.9778438       -615017.15831446648        1188425434.7311072     
   2239021072.8463182        3978260.3862974644        1194895732.2147243     
   2177126504.0784969        11314799.143251538        1204173443.6792340     
   2116054913.6743770        21394599.112550974        1216258569.1246357     
   2055806301.6339557        34217660.294174552        1231151108.5509288     
   1984110187.6229701        3342983.9787622690        1283579826.4720297     
   1929515600.0628376        7393598.6629234552        1286016460.9473810     
   1875563696.4449930        13586493.154710293        1292019341.7722464     
   1822254476.7694345        21921667.454115748        1301588468.9466248     
   1769587941.0361593        32399121.561137199        1314723842.4705186     
   1651430187.0650349        2785514.6549153328        1377693408.9080648     
   1607126651.5580776        6943894.2231673598        1375886036.8834934     
   1563285505.5719898        12643572.194319248        1378403743.5770619     
   1519906749.1067719        19884548.568372786        1385246528.9887686     
   1476990382.1624210        28666823.345311224        1396414393.1186123     
   1303698618.3040318       -2287425.1298453212        1470766182.0392065     
   1271854227.3320289        2629147.0670196414        1464504460.0230610     
   1240291931.4594831        8486036.2620755434        1463326649.0936799     
   1209011730.6863899        15283242.455306113        1467232749.2510593     
   1178013625.0127470        23020765.646704614        1476222760.4952016     
   2335645463.9558220        34122439.544444799        1145696191.3598340     
   2199828333.6366758        29373944.372833014        1129297780.4073524     
   2063323602.5084143        22333446.504187107        1117160408.3175075     
   1926131270.5710578        13000945.938544035        1109284075.0902946     
   1788251337.8245854        1376442.6758540869        1105668780.7257092     
   2055806301.6339557        34217660.294174552        1231151108.5509288     
   1931753760.8348651        28360998.751682162        1212207958.6684840     
   1807182498.3117211        20775264.795686483        1198309184.8705804     
   1682092514.0645275        11460458.426193595        1189454787.1572163     
   1556483808.0932822        416579.64319205284        1185644765.5283875     
   1769587941.0361593        32399121.561137199        1314723842.4705186     
   1659538096.1054258        26105725.552247643        1293432979.2573450     
   1549138408.5357034        18646187.413386166        1277969829.3506167     
   1438388878.3269846        10020507.144542813        1268334392.7503362     
   1327289505.4792764        228684.74573093653        1264526669.4565022     
   1476990382.1624210        28666823.345311224        1396414393.1186123     
   1383181339.4483604        22608124.774522841        1372972842.1739364     
   1289191333.1803622        15946214.357281685        1356142341.7576175     
   1195020363.3584301        8681092.0935900807        1345922891.8696487     
   1100668429.9825647        812757.98345893621        1342314492.5100396     
   1178013625.0127470        23020765.646704614        1476222760.4952016     
   1102683490.8636637        17868196.418508530        1450827547.4182613     
   1027341272.2457043        12675345.627395511        1432826722.0915852     
   951986969.15885782        7442213.2733262181        1422220284.5151701     
   876620581.60314226        2168799.3563602567        1419008234.6890137     
   1788251337.8245854        1376442.6758540869        1105668780.7257092     
   1710463615.7400322        7791148.3515735865        1106403636.5163801     
   1633371107.0403066        16523231.976706982        1111331956.0190794     
   1556973811.7254026        27572693.551254809        1120453739.2338181     
   1481271729.7953117        40939533.075169384        1133768986.1605823     
   1556483808.0932822        416579.64319205284        1185644765.5283875     
   1489424446.9043725        7023571.7098340988        1187932124.5243907     
   1422940555.1856167        15548795.343667090        1194234231.3301742     
   1357032132.9370241        25992250.544707537        1204551085.9457500     
   1291699180.1585865        38353937.312926173        1218882688.3710978     
   1327289505.4792764        228684.74573093653        1264526669.4565022     
   1270447888.3224325        6874778.1442057490        1268226830.4240627     
   1214061996.7210889        15039956.727682829        1275763023.2991598     
   1158131830.6752381        24724220.496141434        1287135248.0817955     
   1102657390.1848869        35927569.449587345        1302343504.7719665     
   1100668429.9825647        812757.98345893621        1342314492.5100396     
   1053533939.9942197        7344767.6546978951        1347287754.2153933     
   1006735431.6467133        14996716.128737390        1355918331.9260333     
   960272904.94003952        23768603.405549765        1368206225.6419585     
   914146359.87420404        33660429.485158503        1384151435.3631706     
   876620581.60314226        2168799.3563602567        1419008234.6890137     
   838682601.91973078        8433540.2413038611        1425114895.8983846     
   800960859.96249676        15419073.546841413        1434700157.2107904     
   763455355.73143256        23125399.272940993        1447764018.6262352     
   726166089.22654116        31552517.419622362        1464306480.1447203     
   1481271729.7953117        40939533.075169384        1133768986.1605823     
   1369877549.3311827        44614630.742135108        1126756135.2002840     
   1258457971.5503106        48205070.686612189        1123269659.6142459     
   1147012996.4526811        51710852.908571064        1123309559.4024591     
   1035542624.0383065        55131977.408034980        1126875834.5649273     
   1291699180.1585865        38353937.312926173        1218882688.3710978     
   1189910700.4535062        40508956.098130405        1212329381.7231185     
   1088028063.4287996        42350117.151250303        1209989487.7190113     
   986051269.08445990        43877420.472258449        1211863006.3587818     
   883980317.42049968        45090866.061198056        1217949937.6424277     
   1102657390.1848869        35927569.449587345        1302343504.7719665     
   1012437574.8663423        37151398.441284537        1296169522.4329352     
   922054842.22528958        37832169.691296160        1294895990.0074050     
   831509192.26173210        37969883.199617267        1298522907.4953706     
   740800624.97566772        37564538.966256946        1307050274.8968372     
   914146359.87420404        33660429.485158503        1384151435.3631706     
   837458172.56968188        34541957.771593839        1378276557.3297408     
   760538307.93977296        34651228.306736380        1377989166.4794278     
   683386765.98448551        33988241.090618730        1383289262.8122363     
   606003546.70380557        32552996.123198509        1394176846.3281634     
   726166089.22654116        31552517.419622362        1464306480.1447203     
   664972493.56352997        32680634.089039087        1458650486.4135315     
   603478460.57225478        32807292.997581035        1459269017.1350815     
   541683990.25271690        31932494.145244896        1466162072.3093669     
   479589082.60492039        30056237.532046407        1479329651.9363964     
   1035542624.0383065        55131977.408034980        1126875834.5649273     
   920104695.27981234        53911485.958751261        1124432001.6441472     
   802416549.08278096        45190269.714337945        1127918596.1876087     
   682478185.44722342        28968328.674834013        1137335618.1953115     
   560289604.37312710        5245662.8402016759        1152683067.6672585     
   883980317.42049968        45090866.061198056        1217949937.6424277     
   783681581.18509257        43291471.311851799        1215778182.2304754     
   681139966.02743602        34015813.488345921        1219455125.1335907     
   576355471.94754660        17263892.590726227        1228980766.3517728     
   469328098.94540572       -6964291.3810619712        1244355105.8850186     
   740800624.97566772        37564538.966256946        1307050274.8968372     
   655407569.40855265        35116187.360412896        1305159158.5960562     
   567778973.43548155        25216034.401386023        1309035011.4611599     
   477914837.05645871        7864080.0891889036        1318677833.4921582     
   385815160.27148640       -16939675.576181620        1334087624.6890426     
   606003546.70380557        32552996.123198509        1394176846.3281634     
   535282659.95018893        29385634.104413569        1392574930.7408872     
   462333571.30691373        18790932.453434646        1396658255.1703284     
   387156280.77396774        768891.17022040486        1406426819.6164796     
   309750788.35136598       -24680489.745176613        1421880624.0793350     
   479589082.60492039        30056237.532046407        1479329651.9363964     
   423306852.81001097        26099811.543893263        1478025498.6649673     
   364803759.64173174        14740507.644499019        1482324856.2610810     
   304079803.10007763       -4021674.1661378592        1492227724.7247250     
   241134983.18505499       -30186733.888008788        1507734104.0559039     
   560289604.37312710        5245662.8402016759        1152683067.6672585     
   463191956.27878326       -32599377.938378900        1162056057.5150101     
   354070027.92768365       -110525352.90614547        1178958069.3814335     
   232923819.31980491       -228532262.06318128        1203389103.2665386     
   99753330.455166757       -386620105.40941501        1235349159.1703248     
   469328098.94540572       -6964291.3810619712        1244355105.8850186     
   391319111.42321801       -41306662.887951598        1242799545.6372192     
   303144407.32056022       -109534756.32974720        1247590240.1327806     
   204803986.63743609       -211648571.70642346        1258727189.3716998     
   96297849.373855382       -347648109.01796341        1276210393.3539894     
   385815160.27148640       -16939675.576181620        1334087624.6890426     
   323515498.24910188       -48793178.333121210        1323771838.6347156     
   252908683.32255763       -108337190.77060017        1318619540.0484319     
   173994715.49184975       -195571712.88862449        1318630728.9301870     
   86773594.756977618       -310496744.68719494        1323805405.2799866     
   309750788.35136598       -24680489.745176613        1421880624.0793350     
   259781116.75644982       -55058924.273855761        1404972936.5075061     
   203362855.93367723       -106932656.22872604        1392045969.1283910     
   140496005.88303912       -180301685.60980931        1383099721.9420035     
   71180566.604541242       -275166012.41709411        1378134194.9483290     
   241134983.18505499       -30186733.888008788        1507734104.0559039     
   200115966.94526961       -60103900.710112110        1486402839.2555783     
   154506925.15391806       -105321152.70410559        1467869527.3726535     
   104307857.81101388       -165838489.86994103        1452134168.4071350     
   49518764.916547358       -241655912.20765379        1439196762.3590176     
   99753330.455166757       -386620105.40941501        1235349159.1703248     
   85069970.662665516       -546487605.81555104        1196772855.0046122     
   57800476.325881928       -748308888.03597808        1154829581.8470116     
   17944847.444829524       -992083952.07063484        1109519339.6975164     
  -34496915.980494142       -1277812797.9195011        1060842128.5561361     
   96297849.373855382       -347648109.01796341        1276210393.3539894     
   79521379.877652884       -488809594.29994357        1221932091.3709035     
   51362814.895569444       -667911397.86819923        1165093901.2712929     
   11822154.427588820       -884953519.72277749        1105695823.0551496     
  -39100601.526274264       -1139935959.8636332        1043737856.7224623     
   86773594.756977618       -310496744.68719494        1323805405.2799866     
   70209960.915239006       -432260431.23753327        1255229817.7143207     
   43468270.646002829       -587950972.54619825        1184901422.9074786     
   6548523.9492489696       -777568368.61324704        1112820220.8594453     
  -40549279.175006926       -1001112619.4386512        1038986211.5702527     
   71180566.604541242       -275166012.41709411        1378134194.9483290     
   57135713.775423080       -376840116.62832850        1296666034.0348632     
   34116843.577181906       -508427612.06997269        1214252146.7555673     
   2123956.0098099709       -669928498.74204767        1130892533.1104376     
  -38842948.926688224       -861342776.64455390        1046587193.0994827     
   49518764.916547358       -241655912.20765379        1439196762.3590176     
   40298638.458195448       -322548650.47236067        1346240740.3325195     
   23308533.689104170       -429341316.43952918        1253146072.8155444     
  -1451549.3907323480       -562033910.10918748        1159912759.8080959     
  -33981610.781318337       -720626431.48134112        1066540801.3101896     
   1505970187.6619020        10454487.514036655        1491051843.6141825     
   1454893657.9207625        5573551.3474881649        1483564906.7608347     
   1404156219.7807326        1822920.5179835558        1477688317.5472214     
   1353757873.2418251       -797404.97445356846        1473422075.9733469     
   1303698618.3040318       -2287425.1298453212        1470766182.0392065     
   1134342496.5171559        9300320.5996266007        1486313369.7948983     
   1089263540.1722648        3608149.0838798881        1478827469.6798971     
   1044438902.7100451       -1236292.8229609132        1474531948.0797856     
   999868584.13049674       -5233005.1208990812        1473426804.9945612     
   955552584.43361688       -8381987.8099404573        1475512040.4242215     
   759471563.04449856        7173180.9868430495        1480620305.4326272     
   724904554.02485931        2024086.3006009459        1473036540.5511258     
   690507091.16944635       -2559854.5048868954        1470223185.0596604     
   656279174.47826004       -6578641.4296204150        1472180238.9582326     
   622220803.95129848       -10032274.473603338        1478907702.2468400     
   381357387.24393088        4073068.6756864488        1473972650.5273752     
   361816699.47854471        821362.99764755368        1466192119.3745143     
   342360785.15894037       -2147764.5277843177        1464762028.4868429     
   322989644.28511715       -4834313.9006135464        1469682377.8643606     
   303703276.85707527       -7238285.1208375990        1480953167.5070617     
  -30.884549039091002       -16.333843847068778        1466370405.0791306     
  -23.466679423831675       -20.824973659436221        1458294206.1500642     
  -15.321472890772093       -22.891650548583108        1458148478.3613369     
  -6.4489296229160544       -22.533869573406971        1465933221.7129450     
   3.1509474516757168       -19.751643269667778        1481648436.2048922     
   1303698618.3040318       -2287425.1298453212        1470766182.0392065     
   1271854227.3320289        2629147.0670196414        1464504460.0230610     
   1240291931.4594831        8486036.2620755434        1463326649.0936799     
   1209011730.6863899        15283242.455306113        1467232749.2510593     
   1178013625.0127470        23020765.646704614        1476222760.4952016     
   955552584.43361688       -8381987.8099404573        1475512040.4242215     
   935698133.09430778       -3485905.7945173383        1474253247.6019320     
   916055253.11224115        2115414.0783786774        1477138302.6829805     
   896623944.48740792        8421971.8087219000        1484167205.6673627     
   877404207.21981645        15433767.396534622        1495339956.5550802     
   622220803.95129848       -10032274.473603338        1478907702.2468400     
   611670397.43489313       -5962451.0825566053        1482569560.9191582     
   601261038.53351188       -1422468.9747643769        1489435204.3113823     
   590992727.24715197        3587671.8497654200        1499504632.4235165     
   580865463.57581699        9067971.3910472989        1512777845.2555592     
   303703276.85707527       -7238285.1208375990        1480953167.5070617     
   299771020.35378176       -4800488.7971094996        1489453399.9747345     
   295909287.72329515       -2127612.8973569274        1500217353.9788902     
   292118078.96561766        780342.57842715085        1513245029.5195243     
   288397394.08074856        3923377.6302359551        1528536426.5966423     
   3.1509474516757168       -19.751643269667778        1481648436.2048922     
   1.8509739071141169       -18.938171337910980        1494904764.7686682     
  0.68159424990501716       -17.689386448312518        1509484751.6855006     
 -0.35719545453317991       -16.005301022254997        1525388396.9553878     
  -1.2653866965239970       -13.885888775818316        1542615700.5783262     
   1178013625.0127470        23020765.646704614        1476222760.4952016     
   1102683490.8636637        17868196.418508530        1450827547.4182613     
   1027341272.2457043        12675345.627395511        1432826722.0915852     
   951986969.15885782        7442213.2733262181        1422220284.5151701     
   876620581.60314226        2168799.3563602567        1419008234.6890137     
   877404207.21981645        15433767.396534622        1495339956.5550802     
   821548901.21960294        11762029.485192955        1471282208.8100703     
   765684531.85378110        8060080.3551553190        1454468980.0485058     
   709811099.12234998        4327920.0064194798        1444900270.2703838     
   653928603.02530241        565548.43896403909        1442576079.4757013     
   580865463.57581699        9067971.3910472989        1512777845.2555592     
   544056789.24784720        6748605.8535688221        1490061087.4629619     
   507242072.65753734        4409099.4416222572        1474438979.8869903     
   470421313.80488408        2049452.1551986635        1465911522.5276406     
   433594512.68989140       -330336.00569033623        1464478715.3849115     
   288397394.08074856        3923377.6302359551        1528536426.5966423     
   270207154.94839644        2827925.5236378759        1507164183.3769367     
   252013894.65697077        1722402.8867923766        1492736721.6070385     
   233817613.20647034        606809.71970018744        1485254041.2869370     
   215618310.59690145       -518853.97762165964        1484716142.4166420     
  -1.2653866965239970       -13.885888775818316        1542615700.5783262     
  -1.6787508196745162       -11.504605372754154        1522591496.5519927     
  -2.1479191593840987       -9.3093353309974827        1509362205.2086434     
  -2.6728918757810649       -7.3000805720881452        1502927826.5482786     
  -3.2536670244500909       -5.4768332268629489        1503288360.5708961     
   876620581.60314226        2168799.3563602567        1419008234.6890137     
   838682601.91973078        8433540.2413038611        1425114895.8983846     
   800960859.96249676        15419073.546841413        1434700157.2107904     
   763455355.73143256        23125399.272940993        1447764018.6262352     
   726166089.22654116        31552517.419622362        1464306480.1447203     
   653928603.02530241        565548.43896403909        1442576079.4757013     
   624725126.45594692        5039106.9900116324        1449816243.2862155     
   595683828.14901710        10053259.749149442        1460710005.3123298     
   566804708.10451484        15608006.716375411        1475257365.5540354     
   538087766.32243836        21703347.891689867        1493458324.0113358     
   433594512.68989140       -330336.00569033623        1464478715.3849115     
   413625533.84189373        2502038.5936336368        1472789312.4222031     
   393764673.79257888        5694809.1885623783        1484928505.7876458     
   374011932.54194808        9247975.7791082114        1500896295.4812443     
   354367310.08999753        13161538.365252659        1520692681.5029995     
   215618310.59690145       -518853.97762165964        1484716142.4166420     
   205383824.07757521        822335.05217850953        1494034103.3063390     
   195203396.89318377        2343721.8650953770        1507355658.6367450     
   185077029.04373080        4045306.4611393064        1524680808.4078646     
   175004720.52921474        5927088.8403078616        1546009552.6196995     
  -3.2536670244500909       -5.4768332268629489        1503288360.5708961     
  -2.8370128590682451       -3.6343641466282142        1513550615.9386251     
  -2.5491682940350375       -2.2212604008889389        1527991463.8596263     
  -2.3901278621120845       -1.2375041124618729        1546610904.3338952     
  -2.3599024749006783      -0.68313061251724028        1569408937.3614452     
   726166089.22654116        31552517.419622362        1464306480.1447203     
   664972493.56352997        32680634.089039087        1458650486.4135315     
   603478460.57225478        32807292.997581035        1459269017.1350815     
   541683990.25271690        31932494.145244896        1466162072.3093669     
   479589082.60492039        30056237.532046407        1479329651.9363964     
   538087766.32243836        21703347.891689867        1493458324.0113358     
   492959676.14279938        22779567.436191350        1488931391.4176536     
   447606257.95685774        23104693.626349479        1490499991.7718792     
   402027511.76460862        22678726.462151974        1498164125.0740180     
   356223437.56605750        21501665.943612948        1511923791.3240705     
   354367310.08999753        13161538.365252659        1520692681.5029995     
   324793321.09422654        14032439.494992644        1517382437.5890996     
   295069113.41410768        14402611.676906198        1519988735.1182828     
   265194687.04964265        14272054.910998613        1528511574.0905542     
   235170042.00082976        13640769.197263375        1542950954.5059121     
   175004720.52921474        5927088.8403078616        1546009552.6196995     
   160473428.41781136        6439250.2654503658        1544003624.9278743     
   145867026.94401118        6701047.1492718607        1547735247.1743023     
   131185516.10782222        6712479.4917938188        1557204419.3589869     
   116428895.90923937        6473547.2930083349        1572411141.4819355     
  -2.3599024749006783      -0.68313061251724028        1569408937.3614452     
  -1.8864552777029888      -0.25247066342310681        1568794953.4339657     
  -1.4534397952580647        4.3416209272417516E-002   1573739527.9399221     
  -1.0608577203510126       0.20452575073109264        1584242660.8793099     
 -0.70871037975934792       0.23085215058241892        1600304352.2521293     
   479589082.60492039        30056237.532046407        1479329651.9363964     
   423306852.81001097        26099811.543893263        1478025498.6649673     
   364803759.64173174        14740507.644499019        1482324856.2610810     
   304079803.10007763       -4021674.1661378592        1492227724.7247250     
   241134983.18505499       -30186733.888008788        1507734104.0559039     
   356223437.56605750        21501665.943612948        1511923791.3240705     
   314667234.51650512        18730987.216644362        1509085322.5933843     
   271445383.94374043        10408150.078967929        1511697421.8928597     
   226557885.84775293       -3466845.4694503099        1519760089.2224872     
   180004740.22855413       -22893999.428574435        1533273324.5822811     
   235170042.00082976        13640769.197263375        1542950954.5059121     
   207902886.16128191        11924743.870898582        1539225922.1411481     
   179525298.64867011        6507279.6343198121        1540798514.9691651     
   150037279.46299219       -2611623.5124802515        1547668732.9899647     
   119438828.60424900       -15431965.569498040        1559836576.2035544     
   116428895.90923937        6473547.2930083349        1572411141.4819355     
   103013807.74433418        5681081.5066262856        1568447297.3082685     
   89043503.756515384        3037896.3105330393        1569628135.4900103     
   74517983.945783451       -1456008.2952712551        1575953656.0271556     
   59437248.312148489       -7800632.3107519262        1587423858.9197173     
 -0.70871037975934792       0.23085215058241892        1600304352.2521293     
 -0.73433475417655225       0.12384095580521726        1596749448.0947423     
 -0.73271453007514797       0.10764370164459625        1598186283.4553871     
 -0.70385270414228285       0.18225282775626400        1604614858.3340642     
 -0.64775090053663975       0.34766118555446779        1616035172.7307744     
   241134983.18505499       -30186733.888008788        1507734104.0559039     
   200115966.94526961       -60103900.710112110        1486402839.2555783     
   154506925.15391806       -105321152.70410559        1467869527.3726535     
   104307857.81101388       -165838489.86994103        1452134168.4071350     
   49518764.916547358       -241655912.20765379        1439196762.3590176     
   180004740.22855413       -22893999.428574435        1533273324.5822811     
   148633646.50534934       -45513923.964302577        1507524721.6804264     
   113820033.61609995       -79608912.386846066        1484715665.7309177     
   75563901.560802668       -125178964.69621593        1464846156.7337484     
   33865250.339458585       -182224080.89240843        1447916194.6889184     
   119438828.60424900       -15431965.569498040        1559836576.2035544     
   98120211.783176169       -30633281.503167264        1531009392.6499329     
   74506582.181569517       -53484640.038615257        1505263350.0836005     
   48597939.799430400       -83986041.175839543        1482598448.5045547     
   20394284.636753224       -122137484.91485801        1463014687.9127865     
   59437248.312148489       -7800632.3107519262        1587423858.9197173     
   48575662.778752804       -15461973.326697841        1556856852.1640973     
   36566570.850335002       -26948335.659388162        1529512580.4307072     
   23409972.526890334       -42259719.308833271        1505391043.7195389     
   9105867.8084370717       -61396124.274972506        1484492242.0305951     
 -0.64775090053663975       0.34766118555446779        1616035172.7307744     
 -0.50792794878498548       0.56508104056801922        1585067100.2229238     
 -0.37760454104189167       0.75083574888636895        1557463356.7722366     
 -0.25679689601871392       0.90487090119363645        1533223942.3787196     
 -0.14550137651502149        1.0271996623253437        1512348857.0423620     
   49518764.916547358       -241655912.20765379        1439196762.3590176     
   40298638.458195448       -322548650.47236067        1346240740.3325195     
   23308533.689104170       -429341316.43952918        1253146072.8155444     
  -1451549.3907323480       -562033910.10918748        1159912759.8080959     
  -33981610.781318337       -720626431.48134112        1066540801.3101896     
   33865250.339458585       -182224080.89240843        1447916194.6889184     
   29753544.635630623       -242052617.82248396        1347465149.8469753     
   19814355.203927517       -321306100.51213908        1246221335.3832870     
   4047682.0443419218       -419984528.96141016        1144184751.2978601     
  -17546474.843122721       -538087903.17026699        1041355397.5907204     
   20394284.636753224       -122137484.91485801        1463014687.9127865     
   19522073.598156065       -161462498.33705351        1357334863.9353783     
   14764873.414537206       -213737475.57598722        1250208146.2049870     
   6122684.0859018564       -278962416.63164407        1141634534.7215986     
  -6404494.3877563328       -357137321.50404155        1031614029.4852351     
   9105867.8084370717       -61396124.274972506        1484492242.0305951     
   9604225.3457516059       -80778292.016128674        1375849882.5977447     
   8160088.3209119141       -106635441.63113211        1265106505.2806463     
   4773456.7339216545       -138967573.11997491        1152262110.0793166     
  -555669.41522672027       -177774686.48266721        1037316696.9937338     
 -0.14550137651502149        1.0271996623253437        1512348857.0423620     
 -0.12156594412434452        1.1403355366206731        1403010205.8340714     
  -7.6927109371216773E-002   1.3224855276817338        1290916412.6102853     
  -1.1577895235943547E-002   1.5736683819598032        1176067477.3709807     
   7.4473211480469703E-002   1.8938582387310627        1058463400.1162009     
  -30.884549039091002       -16.333843847068778        1466370405.0791306     
  -23.466679423831675       -20.824973659436221        1458294206.1500642     
  -15.321472890772093       -22.891650548583108        1458148478.3613369     
  -6.4489296229160544       -22.533869573406971        1465933221.7129450     
   3.1509474516757168       -19.751643269667778        1481648436.2048922     
  -381357454.39147997       -4073101.2702652812        1473972653.6782155     
  -361816750.02542239       -821403.00816743076        1466192120.4531882     
  -342360817.84459043        2147721.3031808287        1464762028.4895320     
  -322989657.84898031        4834271.6637868434        1469682377.7872441     
  -303703270.03859240        7238248.0736534148        1480953168.3463261     
  -759471647.43947768       -7173217.0690034330        1480620312.2463288     
  -724904617.20800340       -2024127.3785151243        1473036542.9940250     
  -690507132.07431364        2559811.9860287905        1470223185.1241233     
  -656279192.03840399        6578601.0246396661        1472180238.6366193     
  -622220797.10027647        10032239.737308472        1478907703.5315168     
  -1134342610.0285406       -9300363.7300611734        1486313380.7834764     
  -1089263625.0144212       -3608193.9360134006        1478827473.7725792     
  -1044438958.0106415        1236249.1569012403        1474531948.2651093     
  -999868609.01720285        5232965.5486774445        1473426804.2610691     
  -955552578.03410637        8381955.2393156290        1475512041.7604609     
  -1505970342.1586733       -10454541.253443062        1491051859.2896562     
  -1454893773.4446735       -5573602.6806604266        1483564912.7888398     
  -1404156295.6535769       -1822967.1842151880        1477688317.9124870     
  -1353757908.7853787        797365.23590046167        1473422074.6605957     
  -1303698612.8400788        2287394.5796867609        1470766183.0331628     
   3.1509474516757168       -19.751643269667778        1481648436.2048922     
   1.8509739071141169       -18.938171337910980        1494904764.7686682     
  0.68159424990501716       -17.689386448312518        1509484751.6855006     
 -0.35719545453317991       -16.005301022254997        1525388396.9553878     
  -1.2653866965239970       -13.885888775818316        1542615700.5783262     
  -303703270.03859240        7238248.0736534148        1480953168.3463261     
  -299771016.40062344        4800452.4377747178        1489453401.0188680     
  -295909286.26579547        2127578.4580918401        1500217355.2404690     
  -292118079.63411146       -780373.86540371180        1513245031.0111265     
  -288397396.50556880       -3923404.5327041745        1528536428.3308463     
  -622220797.10027647        10032239.737308472        1478907703.5315168     
  -611670393.67863858        5962416.1057954431        1482569562.7401304     
  -601261037.39387834        1422435.3513588011        1489435206.6938083     
  -590992728.24599421       -3587702.5259997845        1499504635.3925512     
  -580865466.23498976       -9067997.5262895525        1512777848.8363531     
  -955552578.03410637        8381955.2393156290        1475512041.7604609     
  -935698129.98307288        3485872.0658887029        1474253249.9324579     
  -916055252.70265245       -2115447.0095815063        1477138306.0455239     
  -896623946.19284558       -8422001.9870963693        1484167210.0996547     
  -877404210.45364881       -15433792.866645575        1495339962.0948551     
  -1303698612.8400788        2287394.5796867609        1470766183.0331628     
  -1271854225.3139250       -2629179.6819432974        1464504462.5958500     
  -1240291932.1921165       -8486068.6247223020        1463326653.2956104     
  -1209011733.4746571       -15283272.248666883        1467232755.1324418     
  -1178013629.1615465       -23020790.553773046        1476222768.1063452     
  -1.2653866965239970       -13.885888775818316        1542615700.5783262     
  -1.6787508196745162       -11.504605372754154        1522591496.5519927     
  -2.1479191593840987       -9.3093353309974827        1509362205.2086434     
  -2.6728918757810649       -7.3000805720881452        1502927826.5482786     
  -3.2536670244500909       -5.4768332268629489        1503288360.5708961     
  -288397396.50556880       -3923404.5327041745        1528536428.3308463     
  -270207158.10331500       -2827947.4523593783        1507164184.8323059     
  -252013898.72614038       -1722420.4556120038        1492736722.8091667     
  -233817618.37404042       -606823.54244735837        1485254042.2614264     
  -215618317.04702842        518843.28709056973        1484716143.1890888     
  -580865466.23498976       -9067997.5262895525        1512777848.8363531     
  -544056792.46735537       -6748626.7819562554        1490061090.4014547     
  -507242076.69407368       -4409116.0187985599        1474438982.2343676     
  -470421318.91514772       -2049465.2368249893        1465911524.3351018     
  -433594519.13057148        330325.56397986412        1464478716.7036517     
  -877404210.45364881       -15433792.866645575        1495339962.0948551     
  -821548904.77087259       -11762049.493396193        1471282213.2594399     
  -765684536.05172181       -8060095.9988980591        1454468983.4842567     
  -709811104.29620159       -4327932.3831683099        1444900272.7693088     
  -653928609.50430751       -565558.64619210362        1442576081.1145961     
  -1178013629.1615465       -23020790.553773046        1476222768.1063452     
  -1102683495.0138650       -17868215.586677015        1450827553.4062600     
  -1027341276.7990863       -12675360.395920873        1432826726.5588257     
  -951986974.51721191       -7442224.9815139771        1422220287.5640440     
  -876620588.16823435       -2168809.3434312940        1419008236.4219134     
  -3.2536670244500909       -5.4768332268629489        1503288360.5708961     
  -2.8370128590682451       -3.6343641466282142        1513550615.9386251     
  -2.5491682940350375       -2.2212604008889389        1527991463.8596263     
  -2.3901278621120845       -1.2375041124618729        1546610904.3338952     
  -2.3599024749006783      -0.68313061251724028        1569408937.3614452     
  -215618317.04702842        518843.28709056973        1484716143.1890888     
  -205383829.83054039       -822342.60606032610        1494034103.8033805     
  -195203402.15351760       -2343726.9640936777        1507355658.8801849     
  -185077034.01595306       -4045309.7869891152        1524680808.4195023     
  -175004725.41785192       -5927091.0747631192        1546009552.4213326     
  -433594519.13057148        330325.56397986412        1464478716.7036517     
  -413625539.65928310       -2502046.4283243716        1472789313.2520802     
  -393764679.13810408       -5694814.9209972769        1484928506.1722636     
  -374011937.56704080       -9247979.9140526503        1500896295.4642003     
  -354367314.94608778       -13161541.407478213        1520692681.1278932     
  -653928609.50430751       -565558.64619210362        1442576081.1145961     
  -624725132.32323515       -5039115.1011395752        1449816244.2847347     
  -595683833.50292778       -10053266.091969132        1460710005.7358637     
  -566804713.04338539       -15608011.618683368        1475257365.4679918     
  -538087770.94460726       -21703351.681276739        1493458323.4811163     
  -876620588.16823435       -2168809.3434312940        1419008236.4219134     
  -838682607.82240844       -8433548.6245444417        1425114896.9013283     
  -800960865.24799109       -15419080.477020383        1434700157.5709810     
  -763455360.44499826       -23125404.900908113        1447764018.4308732     
  -726166093.41341603       -31552521.896168709        1464306479.4810026     
  -2.3599024749006783      -0.68313061251724028        1569408937.3614452     
  -1.8864552777029888      -0.25247066342310681        1568794953.4339657     
  -1.4534397952580647        4.3416209272417516E-002   1573739527.9399221     
  -1.0608577203510126       0.20452575073109264        1584242660.8793099     
 -0.70871037975934792       0.23085215058241892        1600304352.2521293     
  -175004725.41785192       -5927091.0747631192        1546009552.4213326     
  -160473432.35440609       -6439251.5586298630        1544003624.7069256     
  -145867029.99482092       -6701047.7220308259        1547735246.9162784     
  -131185518.33909056       -6712479.5649484321        1557204419.0494015     
  -116428897.38721986       -6473547.0873982906        1572411141.1062887     
  -354367314.94608778       -13161541.407478213        1520692681.1278932     
  -324793325.03454638       -14032441.528457567        1517382437.1858830     
  -295069116.49028325       -14402612.873694718        1519988734.6579781     
  -265194689.31330353       -14272055.443213120        1528511573.5441754     
  -235170043.50361016       -13640769.237016320        1542950953.8444712     
  -538087770.94460726       -21703351.681276739        1493458323.4811163     
  -492959679.92687035       -22779570.161937863        1488931390.8708494     
  -447606260.93982917       -23104695.411587447        1490499991.1650190     
  -402027513.98350465       -22678727.430289343        1498164124.3636241     
  -356223439.05787951       -21501666.217993051        1511923790.4666746     
  -726166093.41341603       -31552521.896168709        1464306479.4810026     
  -664972497.03137422       -32680637.459062129        1458650485.7618144     
  -603478463.34345865       -32807295.335703582        1459269016.4373999     
  -541683992.34967756       -31932495.526130050        1466162071.5077608     
  -479589084.05003035       -30056238.030334234        1479329650.9728851     
 -0.70871037975934792       0.23085215058241892        1600304352.2521293     
 -0.73433475417655225       0.12384095580521726        1596749448.0947423     
 -0.73271453007514797       0.10764370164459625        1598186283.4553871     
 -0.70385270414228285       0.18225282775626400        1604614858.3340642     
 -0.64775090053663975       0.34766118555446779        1616035172.7307744     
  -116428897.38721986       -6473547.0873982906        1572411141.1062887     
  -103013809.21234797       -5681081.3030080870        1568447296.9924333     
  -89043505.186405286       -3037896.0150461867        1569628135.2321362     
  -74517985.309376478        1456008.7765344791        1575953655.8254097     
  -59437249.581281178        7800633.0716738850        1587423858.7722471     
  -235170043.50361016       -13640769.237016320        1542950953.8444712     
  -207902887.59814435       -11924743.702187084        1539225921.5686100     
  -179525300.01777151       -6507279.2509987429        1540798514.4818478     
  -150037280.76249337        2611624.1165381968        1547668732.5841842     
  -119438829.83230825        15431966.400434211        1559836575.8756175     
  -356223439.05787951       -21501666.217993051        1511923790.4666746     
  -314667235.89172632       -18730987.073700935        1509085321.8232763     
  -271445385.22683519       -10408149.600283861        1511697421.2045178     
  -226557887.06320265        3466846.2022708505        1519760088.6103852     
  -180004741.40083247        22894000.333953723        1533273324.0408859     
  -479589084.05003035       -30056238.030334234        1479329650.9728851     
  -423306854.09309125       -26099811.417549625        1478025497.7564325     
  -364803760.81358504       -14740507.062866464        1482324855.4001441     
  -304079804.21150774        4021675.0337152034        1492227723.9040179     
  -241134984.28685713        30186734.872209787        1507734103.2680597     
 -0.64775090053663975       0.34766118555446779        1616035172.7307744     
 -0.50792794878498548       0.56508104056801922        1585067100.2229238     
 -0.37760454104189167       0.75083574888636895        1557463356.7722366     
 -0.25679689601871392       0.90487090119363645        1533223942.3787196     
 -0.14550137651502149        1.0271996623253437        1512348857.0423620     
  -59437249.581281178        7800633.0716738850        1587423858.7722471     
  -48575663.791665450        15461974.442927249        1556856852.0048432     
  -36566571.617337465        26948337.096557915        1529512580.2600014     
  -23409973.058276236        42259721.032633781        1505391043.5377176     
  -9105868.1144945174        61396126.251106091        1484492241.8379869     
  -119438829.83230825        15431966.400434211        1559836575.8756175     
  -98120212.777512997        30633282.610083826        1531009392.3086059     
  -74506582.943755209        53484641.416273803        1505263349.7295444     
  -48597940.331039324        83986042.818991348        1482598448.1384375     
  -20394284.939361021        122137486.81825048        1463014687.5352750     
  -180004741.40083247        22894000.333953723        1533273324.0408859     
  -148633647.46544462        45513925.066633500        1507524721.1342075     
  -113820034.35686129        79608913.709970281        1484715665.1808667     
  -75563902.075077325        125178966.26397654        1464846156.1808743     
  -33865250.620093614        182224082.72864175        1447916194.1342216     
  -241134984.28685713        30186734.872209787        1507734103.2680597     
  -200115967.85546306        60103901.812573761        1486402838.4816537     
  -154506925.85663873        105321153.97770531        1467869526.6139784     
  -104307858.29038814        165838491.36758989        1452134167.6650403     
  -49518765.156707987        241655913.98224181        1439196761.6348355     
 -0.14550137651502149        1.0271996623253437        1512348857.0423620     
 -0.12156594412434452        1.1403355366206731        1403010205.8340714     
  -7.6927109371216773E-002   1.3224855276817338        1290916412.6102853     
  -1.1577895235943547E-002   1.5736683819598032        1176067477.3709807     
   7.4473211480469703E-002   1.8938582387310627        1058463400.1162009     
  -9105868.1144945174        61396126.251106091        1484492241.8379869     
  -9604225.6006309353        80778294.230718896        1375849882.4564054     
  -8160088.4890286848        106635444.20278838        1265106505.1903019     
  -4773456.7796818167        138967576.16734046        1152262110.0397012     
   555669.52741084248        177774690.12438297        1037316697.0045892     
  -20394284.939361021        122137486.81825048        1463014687.5352750     
  -19522073.847026996        161462500.49088961        1357334863.6535993     
  -14764873.579915762        213737478.07944891        1250208146.0184064     
  -6122684.1380185187        278962419.58396596        1141634534.6296926     
   6404494.4786534160        357137325.00439918        1031614029.4874641     
  -33865250.620093614        182224082.72864175        1447916194.1342216     
  -29753544.860747293        242052619.92086974        1347465149.4256690     
  -19814355.349581301        321306102.95249254        1246221335.0945950     
  -4047682.0865939260        419984531.82351494        1144184751.1409912     
   17546474.928200006        538087906.53390670        1041355397.5648475     
  -49518765.156707987        241655913.98224181        1439196761.6348355     
  -40298638.641790316        322548652.52066630        1346240739.7726185     
  -23308533.798035830        429341318.82187623        1253146072.4188554     
   1451549.3745877147        562033912.88598526        1159912759.5735583     
   33981610.876055211        720626434.71290660        1066540801.2367098     
  -1505970342.1586733       -10454541.253443062        1491051859.2896562     
  -1454893773.4446735       -5573602.6806604266        1483564912.7888398     
  -1404156295.6535769       -1822967.1842151880        1477688317.9124870     
  -1353757908.7853787        797365.23590046167        1473422074.6605957     
  -1303698612.8400788        2287394.5796867609        1470766183.0331628     
  -1879556201.1980531       -7936671.7006850243        1395568093.1493294     
  -1822295621.0183854       -5885304.3673820496        1385400084.4029295     
  -1765187757.8305111       -4342993.6733946800        1379031633.9070835     
  -1708232611.6344361       -3309739.6187301874        1376462741.6617823     
  -1651430182.4301577       -2785542.2033884525        1377693407.6670299     
  -2263109996.2613921       -8409182.9551130533        1298173772.4674513     
  -2193410528.5415211       -7310924.0389298201        1285542137.7284279     
  -2123677403.8823392       -6100475.3250440359        1278899267.8660393     
  -2053910622.2838497       -4777836.8134713173        1278245162.8802874     
  -1984110183.7460499       -3343008.5041974783        1283579822.7711728     
  -2656631727.3486991       -11872075.016731381        1198868897.2440317     
  -2568238496.0140853       -9850461.6953092813        1183991072.7653339     
  -2479625233.8090544       -7095412.1391636133        1177291219.7893610     
  -2390791940.7336154       -3606926.3483177423        1178769338.3161116     
  -2301738616.7877617        614995.67723929882        1188425428.3455861     
  -3060121394.4599652       -18325347.885539412        1097653467.4790628     
  -2946779523.4360752       -13503917.336508155        1080746889.5136456     
  -2833031247.6106601       -7327804.1157419682        1074207489.6770456     
  -2718876566.9837360        202991.77673041821        1078035267.9692557     
  -2604315481.5552897        9088470.3409409523        1092230224.3902755     
  -1303698612.8400788        2287394.5796867609        1470766183.0331628     
  -1271854225.3139250       -2629179.6819432974        1464504462.5958500     
  -1240291932.1921165       -8486068.6247223020        1463326653.2956104     
  -1209011733.4746571       -15283272.248666883        1467232755.1324418     
  -1178013629.1615465       -23020790.553773046        1476222768.1063452     
  -1651430182.4301577       -2785542.2033884525        1377693407.6670299     
  -1607126650.3667779       -6943924.3950822949        1375886038.0818546     
  -1563285507.1125507       -12643602.617288828        1378403747.2951815     
  -1519906752.6674769       -19884576.870000899        1385246535.3070104     
  -1476990387.0315564       -28666847.153231800        1396414402.1173401     
  -1984110183.7460499       -3343008.5041974783        1283579822.7711728     
  -1929515599.5413604       -7393626.3447419405        1286016460.5658615     
  -1875563698.5506291       -13586521.565148830        1292019344.8204839     
  -1822254480.7738533       -21921694.165405154        1301588475.5350382     
  -1769587946.2110364       -32399144.145526409        1314723852.7095258     
  -2301738616.7877617        614995.67723929882        1188425428.3455861     
  -2239021072.8376765       -3978285.5309290886        1194895730.0478714     
  -2177126506.5063505       -11314825.468294978        1204173445.8715153     
  -2116054917.7937932       -21394624.134886622        1216258575.8165228     
  -2055806306.6999891       -34217681.530667067        1231151119.8828928     
  -2604315481.5552897        9088470.3409409523        1092230224.3902755     
  -2535643070.2557201        3302098.0463789701        1102523846.5278783     
  -2467973930.9797201       -5828514.3267505169        1114866050.4482772     
  -2401308063.7272806       -18303366.778413057        1129256836.1514673     
  -2335645468.4984117       -34122459.308645368        1145696203.6374500     
  -1178013629.1615465       -23020790.553773046        1476222768.1063452     
  -1102683495.0138650       -17868215.586677015        1450827553.4062600     
  -1027341276.7990863       -12675360.395920873        1432826726.5588257     
  -951986974.51721191       -7442224.9815139771        1422220287.5640440     
  -876620588.16823435       -2168809.3434312940        1419008236.4219134     
  -1476990387.0315564       -28666847.153231800        1396414402.1173401     
  -1383181344.1259708       -22608143.118675470        1372972849.2486708     
  -1289191338.0352745       -15946228.467080832        1356142347.0178618     
  -1195020368.7594588       -8681103.1984236240        1345922895.4249139     
  -1100668436.2985263       -812767.31270956993        1342314494.4698279     
  -1769587946.2110364       -32399144.145526409        1314723852.7095258     
  -1659538100.8755231       -26105742.941918790        1293432987.3099577     
  -1549138413.2368743       -18646200.727860093        1277969835.3334610     
  -1438388883.2950904       -10020517.503351748        1268334396.7800360     
  -1327289511.0501707       -228693.26838862896        1264526671.6496849     
  -2055806306.6999891       -34217681.530667067        1231151119.8828928     
  -1931753765.2625113       -28361015.056380630        1212207967.5901158     
  -1807182502.4038846       -20775277.178258061        1198309191.5056250     
  -1682092518.1241047       -11460467.896296501        1189454791.6294131     
  -1556483812.4231653       -416587.21046537161        1185644767.9614804     
  -2335645468.4984117       -34122459.308645368        1145696203.6374500     
  -2199828337.2869473       -29373959.462088585        1129297790.0891540     
  -2063323605.5363126       -22333457.818295240        1117160415.5343521     
  -1926131273.2465031       -13000954.377253294        1109284079.9730403     
  -1788251340.4175196       -1376449.1389665604        1105668783.4052222     
  -876620588.16823435       -2168809.3434312940        1419008236.4219134     
  -838682607.82240844       -8433548.6245444417        1425114896.9013283     
  -800960865.24799109       -15419080.477020383        1434700157.5709810     
  -763455360.44499826       -23125404.900908113        1447764018.4308732     
  -726166093.41341603       -31552521.896168709        1464306479.4810026     
  -1100668436.2985263       -812767.31270956993        1342314494.4698279     
  -1053533945.4766805       -7344775.3180875182        1347287755.5350673     
  -1006735436.3450290       -14996722.290764928        1355918332.6356821     
  -960272908.90356696       -23768608.230746329        1368206225.7716739     
  -914146363.15229559       -33660433.138032287        1384151434.9430416     
  -1327289511.0501707       -228693.26838862896        1264526671.6496849     
  -1270447893.0519235       -6874784.9879401922        1268226832.0621808     
  -1214062000.6626360       -15039962.070686460        1275763024.3551905     
  -1158131833.8823125       -24724224.516650856        1287135248.5287118     
  -1102657392.7109489       -35927572.325814724        1302343504.5827498     
  -1556483812.4231653       -416587.21046537161        1185644767.9614804     
  -1489424450.5481195       -7023577.6340696216        1187932126.4826672     
  -1422940558.2008090       -15548799.816781342        1194234232.7295043     
  -1357032135.3812296       -25992253.758600116        1204551086.7019908     
  -1291699182.0893836       -38353939.459531546        1218882688.4001319     
  -1788251340.4175196       -1376449.1389665604        1105668783.4052222     
  -1710463617.9652796       -7791153.2564916611        1106403638.7965305     
  -1633371108.9595466       -16523235.529036403        1111331957.7586277     
  -1556973813.4003210       -27572695.956602812        1120453740.2915151     
  -1481271731.2875986       -40939534.539189160        1133768986.3951869     
  -726166093.41341603       -31552521.896168709        1464306479.4810026     
  -664972497.03137422       -32680637.459062129        1458650485.7618144     
  -603478463.34345865       -32807295.335703582        1459269016.4373999     
  -541683992.34967756       -31932495.526130050        1466162071.5077608     
  -479589084.05003035       -30056238.030334234        1479329650.9728851     
  -914146363.15229559       -33660433.138032287        1384151434.9430416     
  -837458175.29581451       -34541960.416631192        1378276556.8396995     
  -760538310.14664984       -34651230.052960932        1377989165.8717127     
  -683386767.70480371       -33988242.047010034        1383289262.0390663     
  -606003547.97027016       -32552996.398776323        1394176845.3417640     
  -1102657392.7109489       -35927572.325814724        1302343504.5827498     
  -1012437576.9783945       -37151400.399643898        1296169522.0798824     
  -922054843.96634173       -37832170.875142694        1294895989.4529319     
  -831509193.67478955       -37969883.752314836        1298522906.7019002     
  -740800626.10374093       -37564539.031164378        1307050273.8267817     
  -1291699182.0893836       -38353939.459531546        1218882688.4001319     
  -1189910702.0791214       -40508957.408096373        1212329381.4823520     
  -1088028064.8025467       -42350117.802284539        1209989487.1810606     
  -986051270.25966132       -43877420.642102003        1211863005.4962595     
  -883980318.45045733       -45090865.927531153        1217949936.4279454     
  -1481271731.2875986       -40939534.539189160        1133768986.3951869     
  -1369877550.5979943       -44614631.442002714        1126756135.0471091     
  -1258457972.6552653       -48205070.834395587        1123269659.0560925     
  -1147012997.4593995       -51710852.716336191        1123309558.4221387     
  -1035542625.0104146       -55131977.087876737        1126875833.1452448     
  -479589084.05003035       -30056238.030334234        1479329650.9728851     
  -423306854.09309125       -26099811.417549625        1478025497.7564325     
  -364803760.81358504       -14740507.062866464        1482324855.4001441     
  -304079804.21150774        4021675.0337152034        1492227723.9040179     
  -241134984.28685713        30186734.872209787        1507734103.2680597     
  -606003547.97027016       -32552996.398776323        1394176845.3417640     
  -535282661.10603797       -29385633.905667961        1392574929.7499256     
  -462333572.38771504       -18790931.898927122        1396658254.1773033     
  -387156281.81530058       -768890.37854570150        1406426818.6238947     
  -309750789.38878703        24680490.655498162        1421880623.0897059     
  -740800626.10374093       -37564539.031164378        1307050273.8267817     
  -655407570.44922042       -35116187.092873663        1305159157.4796710     
  -567778974.40907800       -25216033.869178504        1309035010.3108261     
  -477914837.98331648       -7864079.3600870669        1318677832.3202488     
  -385815161.17192847        16939676.434423059        1334087623.5079484     
  -883980318.45045733       -45090865.927531153        1217949936.4279454     
  -783681582.12263370       -43291470.979136944        1215778180.9456723     
  -681139966.87766254       -34015812.973575920        1219455123.8007195     
  -576355472.71554983       -17263891.910880208        1228980764.9930885     
  -469328099.63629103        6964292.2089683115        1244355104.5227871     
  -1035542625.0104146       -55131977.087876737        1126875833.1452448     
  -920104696.12628126       -53911485.564470530        1124432000.1479235     
  -802416549.79348063       -45190269.212166756        1127918594.6469796     
  -682478186.01200521       -28968328.030954152        1137335616.6424069     
  -560289604.78185809       -5245662.0208277702        1152683066.1342132     
  -241134984.28685713        30186734.872209787        1507734103.2680597     
  -200115967.85546306        60103901.812573761        1486402838.4816537     
  -154506925.85663873        105321153.97770531        1467869526.6139784     
  -104307858.29038814        165838491.36758989        1452134167.6650403     
  -49518765.156707987        241655913.98224181        1439196761.6348355     
  -309750789.38878703        24680490.655498162        1421880623.0897059     
  -259781117.60046020        55058925.320708528        1404972935.5694702     
  -203362856.57439280        106932657.44505009        1392045968.2377844     
  -140496006.31057876        180301687.02854878        1383099721.0946581     
  -71180566.809023842        275166014.07118374        1378134194.1400912     
  -385815161.17192847        16939676.434423059        1334087623.5079484     
  -323515498.97003514        48793179.341478288        1323771837.5359080     
  -252908683.86008835        108337191.94203907        1318619539.0222473     
  -173994715.84208983        195571714.23611158        1318630727.9669607     
  -86773594.916040018        310496746.22368234        1323805404.3700528     
  -469328099.63629103        6964292.2089683115        1244355104.5227871     
  -391319111.96419173        41306663.874882698        1242799544.3809695     
  -303144407.71373940        109534757.46863474        1247590238.9673536     
  -204803986.88492221        211648572.99027127        1258727188.2819295     
  -96297849.477744818        347648110.43977761        1276210392.3247144     
  -560289604.78185809       -5245662.0208277702        1152683066.1342132     
  -463191956.58293706        32599378.920880497        1162056056.1046484     
  -354070028.13533914        110525354.02485079        1178958068.0731058     
  -232923819.43907458        228532263.29103625        1203389102.0395882     
  -99753330.494134843        386620106.71948069        1235349158.0040784     
  -49518765.156707987        241655913.98224181        1439196761.6348355     
  -40298638.641790316        322548652.52066630        1346240739.7726185     
  -23308533.798035830        429341318.82187623        1253146072.4188554     
   1451549.3745877147        562033912.88598526        1159912759.5735583     
   33981610.876055211        720626434.71290660        1066540801.2367098     
  -71180566.809023842        275166014.07118374        1378134194.1400912     
  -57135713.941137522        376840118.50325298        1296666033.4151170     
  -34116843.687114477        508427614.22244227        1214252146.3238952     
  -2123956.0469455421        669928501.22878003        1130892532.8664110     
   38842948.979356200        861342779.52223837        1046587193.0426935     
  -86773594.916040018        310496746.22368234        1323805404.3700528     
  -70209961.051494986        432260432.94252992        1255229817.0158281     
  -43468270.743527085        587950974.47279310        1184901422.4206295     
  -6548523.9921275079        777568370.81448650        1112820220.5844848     
   40549279.202692270        1001112621.9675807        1038986211.5073696     
  -96297849.477744818        347648110.43977761        1276210392.3247144     
  -79521379.972853720        488809595.83852309        1221932090.5747366     
  -51362814.967257172        667911399.57295620        1165093900.7090800     
  -11822154.460942447        884953521.64310658        1105695822.7277606     
   39100601.546070695        1139935962.0489354        1043737856.6307561     
  -99753330.494134843        386620106.71948069        1235349158.0040784     
  -85069970.705220133        546487607.19122744        1196772854.0918500     
  -57800476.358320862        748308889.52290583        1154829581.1892352     
  -17944847.453411102        992083953.71462071        1109519339.2962363     
   34496916.009484112        1277812799.7663009        1060842128.4128559     
  -3060121394.4599652       -18325347.885539412        1097653467.4790628     
  -2946779523.4360752       -13503917.336508155        1080746889.5136456     
  -2833031247.6106601       -7327804.1157419682        1074207489.6770456     
  -2718876566.9837360        202991.77673041821        1078035267.9692557     
  -2604315481.5552897        9088470.3409409523        1092230224.3902755     
  -3449700397.0533028       -28946128.440350771        994866511.38556659     
  -3313142982.9426799       -12665302.672152519        990120062.39210570     
  -3177387170.2192345        943518.47209930420        990220069.51674366     
  -3042432958.8829727        11880334.992405057        995166532.75948238     
  -2908280348.9338956        20145146.888772249        1004959452.1203238     
  -3795990767.3067961       -26580319.293205500        894512968.75848114     
  -3651991301.5686107       -3572145.7436029911        900517308.18348920     
  -3510001443.4063048        12737335.886395931        905847381.71588635     
  -3370021192.8198881        22348125.596778154        910503189.35567081     
  -3232050549.8093534        25260223.387552857        914484731.10284531     
  -4098992505.2204318       -11227920.444106340        796592839.59780812     
  -3963324479.3138733        13775553.449149132        811938626.88780165     
  -3830874067.1718836        28053648.127140999        821089426.27447283     
  -3701641268.7944860        31606363.589841843        824045237.75782442     
  -3575626084.1816669        24433699.837279558        820806061.33784926     
  -4358705610.7942219        17111068.106949806        701106123.90354562     
  -4247142516.1784487        39377794.906114578        724384018.50504458     
  -4140005041.5159645        46892455.194331646        735946203.19250715     
  -4037293186.8067622        39655048.971609592        735792677.96593678     
  -3939006952.0508409        17665576.237941265        723923442.82532787     
  -2604315481.5552897        9088470.3409409523        1092230224.3902755     
  -2535643070.2557201        3302098.0463789701        1102523846.5278783     
  -2467973930.9797201       -5828514.3267505169        1114866050.4482772     
  -2401308063.7272806       -18303366.778413057        1129256836.1514673     
  -2335645468.4984117       -34122459.308645368        1145696203.6374500     
  -2908280348.9338956        20145146.888772249        1004959452.1203238     
  -2834777485.6528988        8551713.4493415356        1008043157.2349501     
  -2761569716.3706827       -4025366.6526827812        1014134103.8936219     
  -2688657041.0872455       -17586093.417305589        1023232292.0963331     
  -2616039459.8025856       -32130466.844523430        1035337721.8430892     
  -3232050549.8093534        25260223.387552857        914484731.10284531     
  -3150978206.6576500        8681437.1700390577        911184726.89008355     
  -3069492779.4799356       -6520402.2941122055        911850623.98261440     
  -2987594268.2762146       -20345295.004899383        916482422.38043749     
  -2905282673.0464797       -32793240.962314487        925080122.08355010     
  -3575626084.1816669        24433699.837279558        820806061.33784926     
  -3484245233.2699752        3691269.2084579468        811948555.49328256     
  -3391743120.3074808       -13313621.251030684        808015610.71525717     
  -3298119745.2941890       -26580971.541194797        809007227.00377476     
  -3203375108.2300959       -36110781.662022114        814923404.35883212     
  -3939006952.0508409        17665576.237941265        723923442.82532787     
  -3834578565.4898682       -6418790.4353871346        710334643.04454422     
  -3728320738.8533077       -24405023.523417234        702629064.09154880     
  -3620233472.1411667       -36293123.026183844        700806705.96634936     
  -3510316765.3534355       -42083088.943649769        704867568.66893506     
  -2335645468.4984117       -34122459.308645368        1145696203.6374500     
  -2199828337.2869473       -29373959.462088585        1129297790.0891540     
  -2063323605.5363126       -22333457.818295240        1117160415.5343521     
  -1926131273.2465031       -13000954.377253294        1109284079.9730403     
  -1788251340.4175196       -1376449.1389665604        1105668783.4052222     
  -2616039459.8025856       -32130466.844523430        1035337721.8430892     
  -2466811667.0318413       -23690989.559416294        1016886647.6391056     
  -2317288261.1855063       -14266135.355673790        1003638663.9244865     
  -2167469242.2635813       -3855904.2333070040        995593770.69923794     
  -2017354610.2660718        7539703.8076820374        992751967.96335113     
  -2905282673.0464797       -32793240.962314487        925080122.08355010     
  -2739952643.0139575       -19855313.527904630        904119068.51636362     
  -2574718987.3694286       -7238634.0534806252        889303156.93441892     
  -2409581706.1128974        5056797.4609581232        880632387.33771336     
  -2244540799.2443566        17030981.015422344        878106759.72625029     
  -3203375108.2300959       -36110781.662022114        814923404.35883212     
  -3019251265.2332954       -17866931.367557406        790995052.72092855     
  -2835615784.0880737       -1250953.9116911888        774153894.56414187     
  -2652468664.7944355        13737150.705565095        764399929.88846672     
  -2469809907.3523707        27097382.484241366        761733158.69390428     
  -3510316765.3534355       -42083088.943649769        704867568.66893506     
  -3304707533.6898642       -17725843.078392863        677514600.25279999     
  -3099978651.3414526        3696905.0696591139        658190876.81365752     
  -2896130118.3082061        22185155.500496507        646896398.35150015     
  -2693161934.5901203        37738908.214136481        643631164.86632967     
  -1788251340.4175196       -1376449.1389665604        1105668783.4052222     
  -1710463617.9652796       -7791153.2564916611        1106403638.7965305     
  -1633371108.9595466       -16523235.529036403        1111331957.7586277     
  -1556973813.4003210       -27572695.956602812        1120453740.2915151     
  -1481271731.2875986       -40939534.539189160        1133768986.3951869     
  -2017354610.2660718        7539703.8076820374        992751967.96335113     
  -1930224395.5848155       -300945.61091268063        993013026.54851067     
  -1843614584.4833484       -9876273.6288084984        996596218.34699011     
  -1757525176.9616771       -21186280.246018410        1003501543.3587865     
  -1671956173.0197947       -34230965.462541461        1013729001.5839009     
  -2244540799.2443566        17030981.015422344        878106759.72625029     
  -2150557607.6411343        7017531.7036598921        878097966.34975564     
  -2056920009.7509947       -4147896.6517136097        880539975.82911360     
  -1963628005.5739326       -16465304.050683975        885432788.16431546     
  -1870681595.1099558       -29934690.493260264        892776403.35536683     
  -2469809907.3523707        27097382.484241366        761733158.69390428     
  -2371463254.1342478        14164278.687176347        761658458.20026195     
  -2273287384.7624941        661895.40220856667        763163230.20499372     
  -2175282299.2371092       -13409767.370645761        766247474.70810342     
  -2077447997.5580831       -28050709.631377101        770911191.70959163     
  -2693161934.5901203        37738908.214136481        643631164.86632967     
  -2592941335.0641494        21139295.339669943        643694502.10003102     
  -2492716709.5178409        4553102.5329890251        644465981.47463596     
  -2392488057.9511828       -12019670.205853701        645945602.99014819     
  -2292255380.3641820       -28579022.876891971        648133366.64656723     
  -1481271731.2875986       -40939534.539189160        1133768986.3951869     
  -1369877550.5979943       -44614631.442002714        1126756135.0471091     
  -1258457972.6552653       -48205070.834395587        1123269659.0560925     
  -1147012997.4593995       -51710852.716336191        1123309558.4221387     
  -1035542625.0104146       -55131977.087876737        1126875833.1452448     
  -1671956173.0197947       -34230965.462541461        1013729001.5839009     
  -1551046759.8330564       -37283204.442604244        1004047161.1816413     
  -1430018927.5964148       -39940713.256327569        998014618.59178936     
  -1308872676.3098786       -42203491.903734505        995631373.81434798     
  -1187608005.9734368       -44071540.384797156        996897426.84931362     
  -1870681595.1099558       -29934690.493260264        892776403.35536683     
  -1739905742.4108071       -32258709.446010709        880534099.32849145     
  -1608918448.8649831       -33877925.576510966        872064015.56937420     
  -1477719714.4724801       -34792338.884759247        867366152.07801282     
  -1346309539.2333062       -35001949.370761752        866440508.85440600     
  -2077447997.5580831       -28050709.631377101        770911191.70959163     
  -1936454498.3312480       -29541146.452224851        756216949.48766875     
  -1795156536.4609556       -30016707.794896007        745417849.98885536     
  -1653554111.9472232       -29477393.659421802        738513893.21314120     
  -1511647224.7900422       -27923204.045794606        735505079.16053140     
  -2292255380.3641820       -28579022.876891971        648133366.64656723     
  -2140693027.5943809       -29130515.461256862        631095711.65916860     
  -1988733190.3843448       -28357059.911521077        618076121.85022378     
  -1836375868.7340953       -26258656.227736592        609074597.21972692     
  -1683621062.6436245       -22835304.409874737        604091137.76768506     
  -1035542625.0104146       -55131977.087876737        1126875833.1452448     
  -920104696.12628126       -53911485.564470530        1124432000.1479235     
  -802416549.79348063       -45190269.212166756        1127918594.6469796     
  -682478186.01200521       -28968328.030954152        1137335616.6424069     
  -560289604.78185809       -5245662.0208277702        1152683066.1342132     
  -1187608005.9734368       -44071540.384797156        996897426.84931362     
  -1058662239.7122281       -41314890.467959821        993354584.99440897     
  -928304978.46543646       -33853257.265850067        993917461.68855202     
  -796536222.23306072       -21686640.778458416        998586056.93174267     
  -663355971.01510775       -4815041.0058078468        1007360370.7239783     
  -1346309539.2333062       -35001949.370761752        866440508.85440600     
  -1209069389.7302446       -32273177.301046729        860820148.60164595     
  -1071256467.7046809       -27635163.489691615        857480797.95060623     
  -932870773.15663815       -21087907.936718881        856422456.90128088     
  -793912306.08610535       -12631410.642122239        857645125.45367718     
  -1511647224.7900422       -27923204.045794606        735505079.16053140     
  -1371326146.1803343       -26786346.063760519        726828690.96964312     
  -1231271017.5112383       -26535987.883747935        718608603.43313944     
  -1091481838.7827473       -27172129.505752325        710844816.55103314     
  -951958609.99485207       -28694770.929759741        703537330.32331252     
  -1683621062.6436245       -22835304.409874737        604091137.76768506     
  -1545432509.0625124       -24854396.756107628        591380212.09839296     
  -1408348627.8850870       -30555730.447973251        577300878.13615680     
  -1272369419.1113667       -39939305.485514402        561853135.88098276     
  -1137494882.7413423       -53005121.868713617        545036985.33287728     
  -560289604.78185809       -5245662.0208277702        1152683066.1342132     
  -463191956.58293706        32599378.920880497        1162056056.1046484     
  -354070028.13533914        110525354.02485079        1178958068.0731058     
  -232923819.43907458        228532263.29103625        1203389102.0395882     
  -99753330.494134843        386620106.71948069        1235349158.0040784     
  -663355971.01510775       -4815041.0058078468        1007360370.7239783     
  -547866854.67204273        25416290.226716906        1020905430.6140565     
  -421481273.80531818        91969169.871444911        1042825761.6268108     
  -284199228.41493785        194843597.92835578        1073121363.7622406     
  -136020718.50089085        334039574.39749026        1111792237.0203395     
  -793912306.08610535       -12631410.642122239        857645125.45367718     
  -657613866.95703447        10711567.273762584        874046470.25089049     
  -511546779.02931136        66616707.851815611        899669335.29542458     
  -355711042.30294317        155084011.09203285        934513720.58729255     
  -190106656.77791572        276113476.99442589        978579626.12647963     
  -951958609.99485207       -28694770.929759741        703537330.32331252     
  -792432993.43790221       -11514789.937948763        721479175.01513302     
  -624266543.80731809        34467967.965981841        749488789.07894754     
  -447459261.10308480        109253502.78206235        787566172.51473618     
  -262011145.32522309        212841814.51026008        835711325.32250166     
  -1137494882.7413423       -53005121.868713617        545036985.33287728     
  -952324234.11464703       -41262781.408413291        563203544.90681040     
  -759640568.13932586       -4477049.7860372365        592284122.97737420     
  -559443884.81536579        57352072.998468727        632278719.54457819     
  -351734184.14278603        144224586.94505090        683187334.60841405     
  -99753330.494134843        386620106.71948069        1235349158.0040784     
  -85069970.705220133        546487607.19122744        1196772854.0918500     
  -57800476.358320862        748308889.52290583        1154829581.1892352     
  -17944847.453411102        992083953.71462071        1109519339.2962363     
   34496916.009484112        1277812799.7663009        1060842128.4128559     
  -136020718.50089085        334039574.39749026        1111792237.0203395     
  -127095767.53537175        483060600.64571387        1090215377.6293073     
  -95044566.282288343        709169127.85248780        1070078974.4930234     
  -39867114.741655588        1012365156.0177521        1051383027.6114644     
   38436587.086542070        1392648685.1415784        1034127536.9846551     
  -190106656.77791572        276113476.99442589        978579626.12647963     
  -173204613.93543407        418408679.22929370        986299012.94114375     
  -122636205.07583869        672925101.52119482        1000266281.2556576     
  -38401430.199122190        1039662743.8701665        1020481431.0700306     
   79499710.694704711        1518621606.2761738        1046944462.3842711     
  -262011145.32522309        212841814.51026008        835711325.32250166     
  -223396509.90542904        352531842.94186044        885023760.02734005     
  -140575392.73897639        639576810.52900577        945391501.47715473     
  -13547793.825832546        1073976717.2717829        1016814549.6719478     
   157686286.83397889        1655731563.1701028        1099292904.6117301     
  -351734184.14278603        144224586.94505090        683187334.60841405     
  -277671455.44535232        285430091.78346205        786389618.88791370     
  -148862129.27168894        609124254.87597239        905454635.15751207     
   34693794.378219366        1115307076.2226350        1040382383.4172071     
   272996315.50434870        1803978555.8233736        1191172863.6670048     
  -4358705610.7942219        17111068.106949806        701106123.90354562     
  -4247142516.1784487        39377794.906114578        724384018.50504458     
  -4140005041.5159645        46892455.194331646        735946203.19250715     
  -4037293186.8067622        39655048.971609592        735792677.96593678     
  -3939006952.0508409        17665576.237941265        723923442.82532787     
  -4664374525.1990023        75989234.760967255        563521733.29888844     
  -4574552763.2550106        43976074.486205816        537282200.46390748     
  -4483022531.2096319        17657814.549405813        518560403.27403909     
  -4389783829.0628710       -2965545.0494449139        507356341.72927952     
  -4294836656.8147178       -17894004.310336828        503670015.82963061     
  -5134469571.4202862        85539561.870032310        403990859.16013527     
  -5011436440.5505161        15732325.000618696        335390337.28579664     
  -4880560749.5246925       -27933044.681942463        293540996.61571002     
  -4741842498.3428059       -45456547.177644014        278442837.14987862     
  -4595281687.0048704       -36838182.486498594        290095858.88830251     
  -5768990749.4580841        45762049.434141874        222513501.48729491     
  -5557793548.0649729       -45353453.550649405        118708428.97070701     
  -5332619696.4611416       -89880122.499699831        60887983.217514589     
  -5093469194.6465778       -87817957.412995577        49052164.227729633     
  -4840342042.6212931       -39166958.290541172        83200972.001343161     
  -6567938059.3123837       -43343302.546695709        19089660.280363202     
  -6213624085.7983789       -139281261.16761541       -112763524.48135996     
  -5839199372.0189772       -168183418.90387654       -179398636.92053729     
  -5444663917.9741745       -130049775.75549388       -180815677.03716835     
  -5030017723.6639862       -24880331.722471476       -117014644.83125196     
  -3939006952.0508409        17665576.237941265        723923442.82532787     
  -3834578565.4898682       -6418790.4353871346        710334643.04454422     
  -3728320738.8533077       -24405023.523417234        702629064.09154880     
  -3620233472.1411667       -36293123.026183844        700806705.96634936     
  -3510316765.3534355       -42083088.943649769        704867568.66893506     
  -4294836656.8147178       -17894004.310336828        503670015.82963061     
  -4174115332.1992168       -23108631.859766960        508504582.64731061     
  -4053795937.4644823       -29663025.678422451        515634402.72747505     
  -3933878472.6105232       -37557185.766335249        525059476.07012451     
  -3814362937.6373405       -46791112.123492718        536779802.67526734     
  -4595281687.0048704       -36838182.486498594        290095858.88830251     
  -4468518760.2356997       -26258471.682285786        310750527.35535830     
  -4344389133.3036613       -24456427.001836061        330112481.51959485     
  -4222892806.2087536       -31432048.445152521        348181721.38101363     
  -4104029778.9509749       -47185336.012254238        364958246.93962437     
  -4840342042.6212931       -39166958.290541172        83200972.001343161     
  -4717788849.5993195       -15868309.902934313        117072477.16868398     
  -4600100326.3708344       -8785227.4936194420        146063300.46791130     
  -4487276472.9358463       -17917711.062634945        170173441.89902118     
  -4379317289.2943430       -43265760.609932423        189402901.46200335     
  -5030017723.6639862       -24880331.722471476       -117014644.83125196     
  -4921925600.2900782        8061853.4782583714       -72529567.912700012     
  -4820929516.6660223        17350572.846154451       -36513140.427578628     
  -4727029472.7918129        2985826.3812348843       -8965362.3758691773     
  -4640225468.6674557       -35032385.916547298        10113766.242415300     
  -3510316765.3534355       -42083088.943649769        704867568.66893506     
  -3304707533.6898642       -17725843.078392863        677514600.25279999     
  -3099978651.3414526        3696905.0696591139        658190876.81365752     
  -2896130118.3082061        22185155.500496507        646896398.35150015     
  -2693161934.5901203        37738908.214136481        643631164.86632967     
  -3814362937.6373405       -46791112.123492718        536779802.67526734     
  -3591160536.3530483       -25911209.724879265        512937485.39647353     
  -3368210423.5204549       -5872268.8319096565        495401594.41816300     
  -3145512599.1395431        13325710.555449605        484172129.74033803     
  -2923067063.2103186        31682728.437173724        479249091.36298937     
  -4104029778.9509749       -47185336.012254238        364958246.93962437     
  -3868156547.1217074       -31259478.803013325        345359318.47222978     
  -3631907542.8806534       -14081046.887827635        330343997.62880564     
  -3395282766.2278085        4349959.7333307266        319912284.40936428     
  -3158282217.1631889        24033541.060407877        314064178.81388772     
  -4379317289.2943430       -43265760.609932423        189402901.46200335     
  -4135695565.9958262       -33770650.312772751        174780099.48005781     
  -3891070009.4220538       -20929429.098104477        163018086.44557983     
  -3645440619.5730205       -4742096.9658887386        154116862.35856721     
  -3398807396.4487295        14791346.083838463        148076427.21901941     
  -4640225468.6674557       -35032385.916547298        10113766.242415300     
  -4393777592.9754276       -33444724.254204035        1199828.4199664046     
  -4145697823.1446657       -26417415.462766171       -6576139.1315204250     
  -3895986159.1751599       -13950459.542163372       -13214136.412033979     
  -3644642601.0669370        3956143.5074758530       -18714163.421607886     
  -2693161934.5901203        37738908.214136481        643631164.86632967     
  -2592941335.0641494        21139295.339669943        643694502.10003102     
  -2492716709.5178409        4553102.5329890251        644465981.47463596     
  -2392488057.9511828       -12019670.205853701        645945602.99014819     
  -2292255380.3641820       -28579022.876891971        648133366.64656723     
  -2923067063.2103186        31682728.437173724        479249091.36298937     
  -2819048614.0774064        14746321.037509084        478485136.18086112     
  -2714623128.7406034       -833299.01583492756        480012183.44589794     
  -2609790607.1999030       -15056131.722866178        483830233.15810311     
  -2504551049.4553094       -27922177.083580136        489939285.31747979     
  -3158282217.1631889        24033541.060407877        314064178.81388772     
  -3045943460.4054451        8117076.5409202576        312943109.76340461     
  -2932794657.2602520       -5099233.3537374735        315695903.46634722     
  -2818835807.7276125       -15615388.623575211        322322559.92272657     
  -2704066911.8075247       -23431389.268581510        332823079.13253284     
  -3398807396.4487295        14791346.083838463        148076427.21901941     
  -3273625874.0482559        1251561.8499066830        147068422.84765714     
  -3147231295.0767808       -8244700.4806843996        151517141.53598151     
  -3019623659.5343146       -13697440.907972336        161422583.28400928     
  -2890802967.4208436       -15106659.431917310        176784748.09172535     
  -3644642601.0669370        3956143.5074758530       -18714163.421607886     
  -3502095855.0058460       -5850223.0355608463       -19138924.566370212     
  -3357933042.1901994       -10269700.396724939       -12524102.345188815     
  -3212154162.6200037       -9302288.5760688782        1130303.2419625644     
  -3064759216.2952614       -2947987.5735894442        21824292.195061512     
  -2292255380.3641820       -28579022.876891971        648133366.64656723     
  -2140693027.5943809       -29130515.461256862        631095711.65916860     
  -1988733190.3843448       -28357059.911521077        618076121.85022378     
  -1836375868.7340953       -26258656.227736592        609074597.21972692     
  -1683621062.6436245       -22835304.409874737        604091137.76768506     
  -2504551049.4553094       -27922177.083580136        489939285.31747979     
  -2342576942.3407393       -23511784.537254810        476881410.99486929     
  -2180841032.0260892       -19895381.323982596        466669462.88270169     
  -2019343318.5113459       -17072967.443745494        459303440.98097330     
  -1858083801.7965126       -15044542.896531463        454783345.28968281     
  -2704066911.8075247       -23431389.268581510        332823079.13253284     
  -2535030018.8282390       -15063802.135609984        323003357.36122662     
  -2366867003.8889999       -9609141.8028000593        314857422.83235174     
  -2199577866.9897976       -7067408.2701048851        308385275.54589772     
  -2033162608.1306336       -7438601.5375447273        303586915.50187850     
  -2890802967.4208436       -15106659.431917310        176784748.09172535     
  -2718052257.0568743       -3786568.2563183308        169461550.75823706     
  -2546811105.9730725        2501658.6520537138        162640001.69916734     
  -2377079514.1694417        3758021.2931832075        156320100.91450876     
  -2208857481.6459870       -17480.332927823067        150501848.40426832     
  -3064759216.2952614       -2947987.5735894442        21824292.195061512     
  -2891643657.0266275        10319917.100671172        16255991.185902648     
  -2720673338.2783208        16437020.040527940        10017199.483156474     
  -2551848260.0502987        15403321.246092558        3107917.0868061781     
  -2385168422.3425870        7218820.7172886133       -4471856.0031426363     
  -1683621062.6436245       -22835304.409874737        604091137.76768506     
  -1545432509.0625124       -24854396.756107628        591380212.09839296     
  -1408348627.8850870       -30555730.447973251        577300878.13615680     
  -1272369419.1113667       -39939305.485514402        561853135.88098276     
  -1137494882.7413423       -53005121.868713617        545036985.33287728     
  -1858083801.7965126       -15044542.896531463        454783345.28968281     
  -1723520734.6170352       -21126106.878161192        441755222.38259190     
  -1588786099.4298778       -26635777.500844479        428244165.52919108     
  -1453879896.2350500       -31573554.764625728        414250174.72948438     
  -1318802125.0325379       -35939438.669462681        399773249.98346329     
  -2033162608.1306336       -7438601.5375447273        303586915.50187850     
  -1899695100.6481419       -16823659.143166661        291730542.50359619     
  -1764779784.7466040       -21382688.685302138        280276709.90562952     
  -1628416660.4260080       -21115690.163899362        269225417.70798820     
  -1490605727.6863608       -16022663.579013169        258576665.91066411     
  -2208857481.6459870       -17480.332927823067        150501848.40426832     
  -2073955607.1558318       -11947053.551162004        141306172.46139753     
  -1936329683.8352566       -14796464.001321316        133398511.26547596     
  -1795979711.6842442       -8565711.6833664179        126778864.81649964     
  -1652905690.7028067        6745203.4026794434        121447233.11446732     
  -2385168422.3425870        7218820.7172886133       -4471856.0031426363     
  -2246302254.1401038       -6496290.1021255255       -9517887.7439995911     
  -2103435796.6958432       -6877103.4489376545       -12390430.391285589     
  -1956569050.0097601        6076380.6769915819       -13089483.944985257     
  -1805702014.0818856        32364162.275548816       -11615048.405119091     
  -1137494882.7413423       -53005121.868713617        545036985.33287728     
  -952324234.11464703       -41262781.408413291        563203544.90681040     
  -759640568.13932586       -4477049.7860372365        592284122.97737420     
  -559443884.81536579        57352072.998468727        632278719.54457819     
  -351734184.14278603        144224586.94505090        683187334.60841405     
  -1318802125.0325379       -35939438.669462681        399773249.98346329     
  -1118657563.6897125       -15174334.618667841        421510744.18498731     
  -914985042.27968824        17350636.322786152        441770438.07370472     
  -707784560.80249393        61635474.154801577        460552331.64962429     
  -497056119.25810719        117680178.87747267        477856424.91274047     
  -1490605727.6863608       -16022663.579013169        258576665.91066411     
  -1310892450.2257915        3143645.0827751756        279235861.24475020     
  -1131636269.9794650        20786296.363737702        286025437.45660919     
  -952837186.94740546        36905290.263812542        278945394.54622489     
  -774495201.12960434        51500626.783038229        257995732.51360613     
  -1652905690.7028067        6745203.4026794434        121447233.11446732     
  -1529028893.7228947        13691157.695903420        136378896.08612287     
  -1409594251.2386513        5829930.3368601799        125049121.12609704     
  -1294601763.2501192       -16838478.674530447        87457908.234396249     
  -1184051429.7572870       -54314069.338263512        23605257.411025394     
  -1805702014.0818856        32364162.275548816       -11615048.405119091     
  -1773066894.1810007        16468203.220737457       -7060151.2909286888     
  -1748858986.0572200       -27518461.757765532       -41158510.917841054     
  -1733078289.7106192       -99595832.660191000       -113910127.28588085     
  -1725724805.1411393       -199763909.48636281       -225315000.39501509     
  -351734184.14278603        144224586.94505090        683187334.60841405     
  -277671455.44535232        285430091.78346205        786389618.88791370     
  -148862129.27168894        609124254.87597239        905454635.15751207     
   34693794.378219366        1115307076.2226350        1040382383.4172071     
   272996315.50434870        1803978555.8233736        1191172863.6670048     
  -497056119.25810719        117680178.87747267        477856424.91274047     
  -388215304.00304401        223080340.26431781        597079219.76611757     
  -230206793.06725839        492372820.58689916        735454428.47023654     
  -23030586.450771987        925557619.84517050        892982051.02510238     
   233313315.84642664        1522634738.0391576        1069662087.4307100     
  -774495201.12960434        51500626.783038229        257995732.51360613     
  -621477208.28648031        123915172.02747679        386730319.17942846     
  -424870421.55818462        341625696.88918465        537907001.55663347     
  -184674840.94469249        704632201.36822033        711525779.64523804     
   99109533.554011166        1212934685.4646065        907586653.44523597     
  -1184051429.7572870       -54314069.338263512        23605257.411025394     
  -977457168.29570198       -12065412.927126586        155342917.12784052     
  -732853014.74444914        156882883.78289241        312812354.41669536     
  -450238969.10352039        452530820.79184783        496013569.27760351     
  -129615031.37292415        874878398.09967327        704946561.71051598     
  -1725724805.1411393       -199763909.48636281       -225315000.39501509     
  -1456155184.0306695       -184861414.59942687       -97082986.388635337     
  -1154154572.6260619       -61855618.732010961        60170487.050428182     
  -819722970.92730093        169253478.11591136        246445419.92217711     
  -452860378.93435770        508465875.94443035        461741812.22661173     
 </DataArray>
 <DataArray  type="Float64" Name="VM" NumberOfComponents="1" format="ascii">
   6546457653.0323505     
   6148270488.2299824     
   5765330045.4521294     
   5389924280.5099411     
   5021715419.7926311     
   5804815847.3929777     
   5539073620.0278559     
   5289304022.9529400     
   5050847525.0881357     
   4823031274.6863966     
   5224836969.9472141     
   5052825400.2469921     
   4893140465.0061092     
   4743857083.3950472     
   4604471279.1742249     
   4803048677.3252859     
   4689952476.3638077     
   4580794455.6034565     
   4475424462.4304285     
   4373801636.7195892     
   4532972378.4407129     
   4447607184.9787960     
   4354403054.8169174     
   4252714477.7989445     
   4142205718.4631467     
   5021715419.7926311     
   4927563069.3384304     
   4830042213.0138378     
   4728548579.2029171     
   4622842018.5756531     
   4823031274.6863966     
   4714237780.4419012     
   4602672118.9952021     
   4488033691.5895681     
   4370175936.9055634     
   4604471279.1742249     
   4487840301.2425594     
   4369781407.3438587     
   4250266930.1179457     
   4129312342.6437864     
   4373801636.7195892     
   4254767382.1422324     
   4136608523.3309946     
   4019468540.0822554     
   3903520642.9309978     
   4142205718.4631467     
   4024070899.4880371     
   3910376481.9229612     
   3801237711.2438626     
   3696874985.4638734     
   4622842018.5756531     
   4377151555.0497656     
   4132568146.8819299     
   3889097054.7863941     
   3646766355.8685327     
   4370175936.9055634     
   4130023899.6510549     
   3890906156.8136234     
   3652838465.7746024     
   3415869349.6449451     
   4129312342.6437864     
   3898783767.4603992     
   3669767175.3171816     
   3442348760.1980433     
   3216696732.1553817     
   3903520642.9309978     
   3686918588.2493324     
   3472947616.1096516     
   3261841697.7504001     
   3054009611.2138190     
   3696874985.4638734     
   3498557625.3709769     
   3304691714.8358278     
   3115724282.8361626     
   2932399303.5400348     
   3646766355.8685327     
   3499331446.7091513     
   3352880177.3730288     
   3207513747.6197686     
   3063519520.8072796     
   3415869349.6449451     
   3284145630.6173277     
   3154054094.5712104     
   3025743771.4187799     
   2899492754.7720084     
   3216696732.1553817     
   3097799515.0203700     
   2980829962.3050613     
   2865961877.3581586     
   2753448837.4374804     
   3054009611.2138190     
   2945448565.5394025     
   2838688509.9816370     
   2733901144.2378373     
   2631300938.9668117     
   2932399303.5400348     
   2832248655.7244153     
   2733315961.3250613     
   2635739715.8122587     
   2539679443.2901444     
   3063519520.8072796     
   2896954245.5091543     
   2728984139.9016790     
   2559590349.9708018     
   2388798576.3882146     
   2899492754.7720084     
   2731974015.2706089     
   2563587265.4853024     
   2394318734.9459763     
   2224177421.3977184     
   2753448837.4374804     
   2588708262.0321097     
   2424214059.4720645     
   2260077848.3797493     
   2096467671.3659267     
   2631300938.9668117     
   2472931263.9454598     
   2316552600.6153240     
   2162508198.5384893     
   2011276066.4291103     
   2539679443.2901444     
   2390795086.0021534     
   2246224274.3178525     
   2106575584.2512619     
   1972671704.0771894     
   2388798576.3882146     
   2243121748.9476995     
   2100115350.4040530     
   1959745453.8805401     
   1822210737.3749788     
   2224177421.3977184     
   2082440696.0980825     
   1942762530.0526407     
   1805118085.5897083     
   1669592825.6535211     
   2096467671.3659267     
   1957673320.0030134     
   1820119304.6413076     
   1683819626.6762898     
   1548826772.1641915     
   2011276066.4291103     
   1876166781.1154001     
   1741496880.6924243     
   1607379580.1541572     
   1473970705.6781380     
   1972671704.0771894     
   1843843882.5124550     
   1714985512.8630102     
   1586423141.1301572     
   1458631910.4045129     
   1822210737.3749788     
   1781400062.2947552     
   1736727146.9078786     
   1696997014.2609351     
   1680950545.8913443     
   1669592825.6535211     
   1553978312.7346714     
   1429027511.6847703     
   1295154351.7373495     
   1158571871.0318983     
   1548826772.1641915     
   1398745110.0340216     
   1244984699.0056317     
   1085291223.5901482     
   917642367.55552375     
   1473970705.6781380     
   1329535275.5257971     
   1199523909.2951894     
   1088442881.7995622     
   1002221210.1487905     
   1458631910.4045129     
   1349415882.0325503     
   1275176199.7837586     
   1244058330.3271143     
   1263123585.3026500     
   1680950545.8913443     
   1383347416.4115179     
   1129322545.8492243     
   1010712366.5061994     
   1154772974.3655310     
   1158571871.0318983     
   1008052048.2561109     
   984993696.62106395     
   1161608654.4638395     
   1544816695.6775935     
   917642367.55552375     
   962953979.10498536     
   1144727685.2959545     
   1476328547.9207203     
   1957539389.2067859     
   1002221210.1487905     
   1164727413.8603342     
   1425290630.1849227     
   1808522679.2292421     
   2334551698.4888115     
   1263123585.3026500     
   1446738906.9229536     
   1715637524.6874604     
   2110356797.1539044     
   2663280776.0676064     
   4532972378.4407129     
   4447607184.9787960     
   4354403054.8169174     
   4252714477.7989445     
   4142205718.4631467     
   4319666919.2554665     
   4211942574.0784230     
   4099562952.8209805     
   3982121803.3329363     
   3859304672.9171119     
   4087763851.5068045     
   3969483780.3325934     
   3850540033.8190484     
   3730938757.8467851     
   3610717137.8500228     
   3843265858.0766034     
   3725067444.9178853     
   3611148715.9618530     
   3501964271.0239625     
   3398075746.4885869     
   3594875446.1609988     
   3485389468.6393743     
   3386314322.8553910     
   3298381687.0512691     
   3222593937.1303654     
   4142205718.4631467     
   4024070899.4880371     
   3910376481.9229612     
   3801237711.2438626     
   3696874985.4638734     
   3859304672.9171119     
   3759071854.9019613     
   3663005595.4369268     
   3571289860.1045580     
   3484184284.2417855     
   3610717137.8500228     
   3528011756.3727303     
   3449091016.5045571     
   3374191762.6644988     
   3303602401.1075068     
   3398075746.4885869     
   3332976423.3452835     
   3271172749.6635361     
   3212929496.4963589     
   3158545993.5976734     
   3222593937.1303654     
   3175617452.5908027     
   3131345341.0303698     
   3090036634.9361649     
   3051977300.3294225     
   3696874985.4638734     
   3498557625.3709769     
   3304691714.8358278     
   3115724282.8361626     
   2932399303.5400348     
   3484184284.2417855     
   3307457055.8524532     
   3136098526.1459370     
   2970713357.2894487     
   2812175823.0352645     
   3303602401.1075068     
   3147320438.0198441     
   2997194206.0987201     
   2853915649.4169283     
   2718399277.9267364     
   3158545993.5976734     
   3021498829.2311840     
   2891166085.4861684     
   2768248739.1210217     
   2653611902.8564615     
   3051977300.3294225     
   2932819517.3715725     
   2820614131.3444538     
   2715997541.4743166     
   2619712517.5071697     
   2932399303.5400348     
   2832248655.7244153     
   2733315961.3250613     
   2635739715.8122587     
   2539679443.2901444     
   2812175823.0352645     
   2719926376.2434168     
   2629942016.4037623     
   2542492568.8436575     
   2457888391.0854044     
   2718399277.9267364     
   2636893436.2906237     
   2558995347.7718678     
   2485105226.9465628     
   2415677247.8384414     
   2653611902.8564615     
   2585229201.0934119     
   2521986577.5025430     
   2464377045.9657979     
   2412947574.0900502     
   2619712517.5071697     
   2566087883.8560677     
   2519198636.5133924     
   2479565987.6961336     
   2447753204.8437243     
   2539679443.2901444     
   2390795086.0021534     
   2246224274.3178525     
   2106575584.2512619     
   1972671704.0771894     
   2457888391.0854044     
   2325750599.6978197     
   2199215002.3046975     
   2079080559.3526638     
   1966354539.8602409     
   2415677247.8384414     
   2301783310.4672270     
   2194708731.6423035     
   2095334070.7433283     
   2004696617.3113134     
   2412947574.0900502     
   2318111343.7311277     
   2231038537.9108462     
   2152564824.2806516     
   2083609562.4634905     
   2447753204.8437243     
   2371956270.4752703     
   2304469640.5362821     
   2245990406.1974411     
   2197235533.1549525     
   1972671704.0771894     
   1843843882.5124550     
   1714985512.8630102     
   1586423141.1301572     
   1458631910.4045129     
   1966354539.8602409     
   1851853108.9137833     
   1741624088.9264669     
   1636555562.9314575     
   1537734269.5942981     
   2004696617.3113134     
   1909686840.5504878     
   1823340269.6091230     
   1746825282.7259521     
   1681396313.0667551     
   2083609562.4634905     
   2009724893.1307185     
   1948097995.2576702     
   1899786413.4419434     
   1865796076.9917016     
   2197235533.1549525     
   2143113824.8348985     
   2103866473.2629664     
   2080250540.3280740     
   2072932133.6817136     
   1458631910.4045129     
   1349415882.0325503     
   1275176199.7837586     
   1244058330.3271143     
   1263123585.3026500     
   1537734269.5942981     
   1476670087.2792625     
   1448314295.5158172     
   1456648222.2902830     
   1504977962.8439136     
   1681396313.0667551     
   1652720942.7500122     
   1651789998.9158669     
   1680980124.6466408     
   1742906900.2716558     
   1865796076.9917016     
   1855120622.5085292     
   1867438028.4469686     
   1904960897.3527417     
   1970727357.5177150     
   2072932133.6817136     
   2069258833.4633417     
   2084836094.5601277     
   2122297601.4945977     
   2185464506.9567447     
   1263123585.3026500     
   1446738906.9229536     
   1715637524.6874604     
   2110356797.1539044     
   2663280776.0676064     
   1504977962.8439136     
   1613301042.9823806     
   1788861082.9500825     
   2066372433.1494873     
   2475996866.0417027     
   1742906900.2716558     
   1787706130.1152244     
   1884672574.7312820     
   2060690389.2130268     
   2340957053.7981925     
   1970727357.5177150     
   1968909482.1997244     
   2003637699.4298551     
   2093573854.7698140     
   2257360926.7678256     
   2185464506.9567447     
   2156193657.1747146     
   2146498028.5272434     
   2166899830.6720867     
   2228468767.6000624     
   3594875446.1609988     
   3485389468.6393743     
   3386314322.8553910     
   3298381687.0512691     
   3222593937.1303654     
   3367217309.9859433     
   3282704934.6751823     
   3207653537.6360493     
   3142573320.2682972     
   3088119444.4898529     
   3187235693.0448952     
   3122966957.9894280     
   3066567664.4828510     
   3018358898.7619452     
   2978725075.6623573     
   3059527311.8345189     
   3011323793.7718601     
   2968741319.3766251     
   2931955796.6713657     
   2901162995.3692851     
   2986974749.9682584     
   2951530483.2479668     
   2918867355.4739094     
   2889058384.7298889     
   2862180448.4262300     
   3222593937.1303654     
   3175617452.5908027     
   3131345341.0303698     
   3090036634.9361649     
   3051977300.3294225     
   3088119444.4898529     
   3047564800.7814822     
   3010892747.6289368     
   2978376856.7603683     
   2950316029.2945738     
   2978725075.6623573     
   2944543099.6521697     
   2915541695.3692231     
   2891979029.7369304     
   2874135423.9501500     
   2901162995.3692851     
   2872443512.7285805     
   2850306397.4985299     
   2834962627.6031165     
   2826641332.9814768     
   2862180448.4262300     
   2837004782.5951052     
   2819901695.3773804     
   2811010698.0319953     
   2810485402.3084359     
   3051977300.3294225     
   2932819517.3715725     
   2820614131.3444538     
   2715997541.4743166     
   2619712517.5071697     
   2950316029.2945738     
   2843595413.8955636     
   2745292371.7758284     
   2656067975.1705284     
   2576675018.1193495     
   2874135423.9501500     
   2780347347.1390219     
   2696462982.9096651     
   2623102358.9113674     
   2560952370.9138608     
   2826641332.9814768     
   2745467880.8606505     
   2675645157.2054071     
   2617689867.2206178     
   2572158950.5101876     
   2810485402.3084359     
   2740662128.9949970     
   2683569655.3214979     
   2639579758.0274024     
   2609084177.2494464     
   2619712517.5071697     
   2566087883.8560677     
   2519198636.5133924     
   2479565987.6961336     
   2447753204.8437243     
   2576675018.1193495     
   2538015293.8108635     
   2506284655.6191740     
   2481888281.8682084     
   2465246655.2414327     
   2560952370.9138608     
   2535852703.2073178     
   2517663036.8533425     
   2506670731.8913789     
   2503162824.0440369     
   2572158950.5101876     
   2558867449.5374560     
   2552290534.7749147     
   2552612285.5395527     
   2560010082.1583691     
   2609084177.2494464     
   2605617770.7839785     
   2608547411.0920434     
   2617977390.1324177     
   2634004704.9501805     
   2447753204.8437243     
   2371956270.4752703     
   2304469640.5362821     
   2245990406.1974411     
   2197235533.1549525     
   2465246655.2414327     
   2403862308.7897577     
   2351966021.1093268     
   2310149948.7462683     
   2278991246.4739819     
   2503162824.0440369     
   2455394650.6251631     
   2418057059.8500524     
   2391602426.3675299     
   2376449050.5652871     
   2560010082.1583691     
   2524389173.2995992     
   2499965613.3088360     
   2487049077.1453648     
   2485912307.7012043     
   2634004704.9501805     
   2608545273.2974429     
   2594968645.1450477     
   2593460540.5647907     
   2604178004.5685515     
   2197235533.1549525     
   2143113824.8348985     
   2103866473.2629664     
   2080250540.3280740     
   2072932133.6817136     
   2278991246.4739819     
   2239744183.7519140     
   2214306122.8039422     
   2203114773.5098271     
   2206545896.2085681     
   2376449050.5652871     
   2349063239.1337342     
   2334397065.7609229     
   2332689383.5893888     
   2344151284.6223607     
   2485912307.7012043     
   2467682360.9069490     
   2461174637.5657234     
   2466516185.3716178     
   2483834335.4601045     
   2604178004.5685515     
   2592778391.3837371     
   2592254349.3019586     
   2602678304.6923876     
   2624142294.5767932     
   2072932133.6817136     
   2069258833.4633417     
   2084836094.5601277     
   2122297601.4945977     
   2185464506.9567447     
   2206545896.2085681     
   2191951894.0636911     
   2192383056.2076149     
   2209811909.1656394     
   2247164692.0173311     
   2344151284.6223607     
   2319470638.6470633     
   2306376300.4915929     
   2306276630.9097571     
   2321263245.9612956     
   2483834335.4601045     
   2450850431.9024177     
   2426502238.8212800     
   2411736721.6786175     
   2407930866.5290756     
   2624142294.5767932     
   2585317549.3459082     
   2552481269.4225731     
   2526214899.9463320     
   2507324899.6979060     
   2185464506.9567447     
   2156193657.1747146     
   2146498028.5272434     
   2166899830.6720867     
   2228468767.6000624     
   2247164692.0173311     
   2182540581.6478415     
   2134333849.2349968     
   2112210764.0908511     
   2127105265.0408812     
   2321263245.9612956     
   2224619786.1309133     
   2141286341.1269162     
   2079628310.0541828     
   2049817886.8497093     
   2407930866.5290756     
   2282724776.1810784     
   2168002160.6870384     
   2070503650.7120142     
   1998999079.1286163     
   2507324899.6979060     
   2357064334.3843713     
   2214951423.7838683     
   2085967697.3110986     
   1976991906.7324581     
   2986974749.9682584     
   2951530483.2479668     
   2918867355.4739094     
   2889058384.7298889     
   2862180448.4262300     
   2811343441.5193453     
   2782691127.0716681     
   2759506981.3206582     
   2741889227.5808926     
   2729939152.0256343     
   2673594986.0068307     
   2652080954.5318885     
   2638795716.8297968     
   2633819854.6371584     
   2637234468.2611032     
   2581023609.9992995     
   2565106783.0711513     
   2560182460.4406328     
   2566282523.3493996     
   2583438254.9429812     
   2539828044.3124104     
   2525839657.4352336     
   2525587249.5010834     
   2539070820.5099525     
   2566290370.4618478     
   2862180448.4262300     
   2837004782.5951052     
   2819901695.3773804     
   2811010698.0319953     
   2810485402.3084359     
   2729939152.0256343     
   2720123676.8856640     
   2717174370.7961988     
   2721159857.3015165     
   2732152896.2681718     
   2637234468.2611032     
   2640428145.1379247     
   2649079806.0035295     
   2663213738.1472263     
   2682854835.9467201     
   2583438254.9429812     
   2597448565.1982474     
   2615368567.0002279     
   2637202530.5074306     
   2662954708.6307230     
   2566290370.4618478     
   2589251005.0561342     
   2614504283.1697774     
   2642050204.8027744     
   2671888769.9551196     
   2810485402.3084359     
   2740662128.9949970     
   2683569655.3214979     
   2639579758.0274024     
   2609084177.2494464     
   2732152896.2681718     
   2675711470.6029482     
   2631844662.9943905     
   2600766982.0178962     
   2582698268.2120419     
   2682854835.9467201     
   2636895493.1678591     
   2603264949.2364478     
   2582058497.0907488     
   2573371575.5565491     
   2662954708.6307230     
   2624287980.5769663     
   2597666002.4750290     
   2583112050.0552835     
   2580649040.4837842     
   2671888769.9551196     
   2637205831.2003841     
   2614292026.4455724     
   2603147355.6906834     
   2603771818.9357142     
   2609084177.2494464     
   2605617770.7839785     
   2608547411.0920434     
   2617977390.1324177     
   2634004704.9501805     
   2582698268.2120419     
   2587094941.6986537     
   2598070993.2093353     
   2615686789.1963735     
   2639997058.7603054     
   2573371575.5565491     
   2584063178.7456994     
   2601514681.1806417     
   2625753352.2428370     
   2656803359.7418857     
   2580649040.4837842     
   2595848224.1142502     
   2618017494.5164185     
   2647163742.6620212     
   2683292962.8420506     
   2603771818.9357142     
   2621546566.6328673     
   2646558848.9364166     
   2678808665.8463550     
   2718296017.3627048     
   2634004704.9501805     
   2608545273.2974429     
   2594968645.1450477     
   2593460540.5647907     
   2604178004.5685515     
   2639997058.7603054     
   2623556518.8987460     
   2618265467.8222175     
   2624216113.4053750     
   2641484187.7378621     
   2656803359.7418857     
   2647353084.4733348     
   2648418531.0700388     
   2660035702.1742043     
   2682233409.4940424     
   2683292962.8420506     
   2678917960.2923374     
   2684547972.7124271     
   2700190905.8332129     
   2725852945.4508047     
   2718296017.3627048     
   2717232566.0052795     
   2725796820.2714057     
   2743988780.1610756     
   2771808445.6742897     
   2604178004.5685515     
   2592778391.3837371     
   2592254349.3019586     
   2602678304.6923876     
   2624142294.5767932     
   2641484187.7378621     
   2631632159.5187817     
   2631853523.2475719     
   2642184346.7513876     
   2662673118.0829015     
   2682233409.4940424     
   2673674613.5416117     
   2674562328.1981945     
   2684910681.5529466     
   2704739800.5386128     
   2725852945.4508047     
   2718481131.5761976     
   2720085462.0046830     
   2730669025.4460254     
   2750236500.3893237     
   2771808445.6742897     
   2765651171.0576577     
   2768139842.9044061     
   2779274461.2145352     
   2799055025.9880481     
   2624142294.5767932     
   2585317549.3459082     
   2552481269.4225731     
   2526214899.9463320     
   2507324899.6979060     
   2662673118.0829015     
   2617025169.5516090     
   2577109910.7853756     
   2543258043.5496898     
   2515930733.4428444     
   2704739800.5386128     
   2654343798.2129750     
   2609568940.3715014     
   2570562475.7944579     
   2537530360.3789625     
   2750236500.3893237     
   2697176211.8235188     
   2649768845.8073382     
   2608050956.7665262     
   2572073699.5356874     
   2799055025.9880481     
   2745416750.9919734     
   2697605664.8562870     
   2655621767.5809989     
   2619465059.1660919     
   2507324899.6979060     
   2357064334.3843713     
   2214951423.7838683     
   2085967697.3110986     
   1976991906.7324581     
   2515930733.4428444     
   2348119174.3048410     
   2183849706.9159107     
   2026222985.6166589     
   1879805340.1177504     
   2537530360.3789625     
   2357260514.0429664     
   2176722017.9056616     
   1997386729.8320725     
   1821533232.6039245     
   2572073699.5356874     
   2384592603.5400233     
   2194035384.4424095     
   2000780357.4953122     
   1805431569.8891494     
   2619465059.1660919     
   2430084960.0422802     
   2235932814.9655628     
   2037008623.9358995     
   1833312386.9533656     
   2539828044.3124104     
   2525839657.4352336     
   2525587249.5010834     
   2539070820.5099525     
   2566290370.4618478     
   2581023622.9092522     
   2565106789.2335463     
   2560182461.9034824     
   2566282522.1993113     
   2583438253.2937951     
   2673595016.1593218     
   2652080970.2658000     
   2638795722.0568600     
   2633819853.3604636     
   2637234464.5630002     
   2811343496.0018888     
   2782691158.0321498     
   2759506994.2776198     
   2741889228.2066360     
   2729939146.1421862     
   2986974837.7077422     
   2951530536.6188655     
   2918867381.3089814     
   2889058390.0599818     
   2862180440.4854493     
   2566290370.4618478     
   2589251005.0561342     
   2614504283.1697774     
   2642050204.8027744     
   2671888769.9551196     
   2583438253.2937951     
   2597448564.3692627     
   2615368567.0294271     
   2637202531.4255118     
   2662954710.4607148     
   2637234464.5630002     
   2640428143.2006235     
   2649079805.9292889     
   2663213740.0209408     
   2682854839.8343196     
   2729939146.1421862     
   2720123673.7583337     
   2717174370.6167164     
   2721159860.2346692     
   2732152902.4476476     
   2862180440.4854493     
   2837004778.3950901     
   2819901695.2202926     
   2811010702.1881123     
   2810485411.0079169     
   2671888769.9551196     
   2637205831.2003841     
   2614292026.4455724     
   2603147355.6906834     
   2603771818.9357142     
   2662954710.4607148     
   2624287982.3023200     
   2597666004.1002698     
   2583112051.5810328     
   2580649041.9078245     
   2682854839.8343196     
   2636895496.7040076     
   2603264952.4211278     
   2582058499.9169230     
   2573371578.0125971     
   2732152902.4476476     
   2675711476.0414910     
   2631844667.6777840     
   2600766985.9222608     
   2582698271.3080440     
   2810485411.0079169     
   2740662136.4297805     
   2683569661.4522886     
   2639579762.8023171     
   2609084180.6104708     
   2603771818.9357142     
   2621546566.6328673     
   2646558848.9364166     
   2678808665.8463550     
   2718296017.3627048     
   2580649041.9078245     
   2595848225.1302881     
   2618017495.1412430     
   2647163742.9147830     
   2683292962.7446847     
   2573371578.0125971     
   2584063180.4735727     
   2601514682.2212195     
   2625753352.6406069     
   2656803359.5456443     
   2582698271.3080440     
   2587094943.8249488     
   2598070994.4382911     
   2615686789.6043782     
   2639997058.4285150     
   2609084180.6104708     
   2605617772.9979544     
   2608547412.2706604     
   2617977390.3911591     
   2634004704.4090056     
   2718296017.3627048     
   2717232566.0052795     
   2725796820.2714057     
   2743988780.1610756     
   2771808445.6742897     
   2683292962.7446847     
   2678917960.1057601     
   2684547972.4139771     
   2700190905.4016328     
   2725852944.8660045     
   2656803359.5456443     
   2647353084.1390190     
   2648418530.5517020     
   2660035701.4282537     
   2682233408.4789615     
   2639997058.4285150     
   2623556518.4299483     
   2618265467.1457644     
   2624216112.4532371     
   2641484186.4444456     
   2634004704.4090056     
   2608545272.6791372     
   2594968644.3526654     
   2593460539.5031390     
   2604178003.1442165     
   2771808445.6742897     
   2765651171.0576577     
   2768139842.9044061     
   2779274461.2145352     
   2799055025.9880481     
   2725852944.8660045     
   2718481131.0870547     
   2720085461.6087799     
   2730669025.1411223     
   2750236500.1735749     
   2682233408.4789615     
   2673674612.6671185     
   2674562327.4581380     
   2684910680.9419479     
   2704739800.0520658     
   2641484186.4444456     
   2631632158.3610187     
   2631853522.2140436     
   2642184345.8325596     
   2662673117.2703080     
   2604178003.1442165     
   2592778390.0420580     
   2592254348.0242338     
   2602678303.4634800     
   2624142293.3829198     
   2799055025.9880481     
   2745416750.9919734     
   2697605664.8562870     
   2655621767.5809989     
   2619465059.1660919     
   2750236500.1735749     
   2697176211.5853424     
   2649768845.5507488     
   2608050956.4964228     
   2572073699.2575970     
   2704739800.0520658     
   2654343797.6980767     
   2609568939.8362918     
   2570562475.2489247     
   2537530359.8349776     
   2662673117.2703080     
   2617025168.7210207     
   2577109909.9489431     
   2543258042.7227607     
   2515930732.6444550     
   2624142293.3829198     
   2585317548.1603589     
   2552481268.2618198     
   2526214898.8313694     
   2507324898.6557460     
   2619465059.1660919     
   2430084960.0422802     
   2235932814.9655628     
   2037008623.9358995     
   1833312386.9533656     
   2572073699.2575970     
   2384592603.3801985     
   2194035384.4206100     
   2000780357.6438615     
   1805431570.2603986     
   2537530359.8349776     
   2357260513.7232442     
   2176722017.8477244     
   1997386730.0951383     
   1821533233.2792616     
   2515930732.6444550     
   2348119173.8236022     
   2183849706.8038340     
   2026222985.9514761     
   1879805341.0105016     
   2507324898.6557460     
   2357064333.7385149     
   2214951423.5965953     
   2085967697.6692166     
   1976991907.7480521     
   2986974837.7077422     
   2951530536.6188655     
   2918867381.3089814     
   2889058390.0599818     
   2862180440.4854493     
   3059527413.1076536     
   3011323859.1031971     
   2968741353.6166239     
   2931955804.9575419     
   2901162983.1509194     
   3187235807.7332821     
   3122967035.0794401     
   3066567707.0633483     
   3018358910.3274112     
   2978725060.1572719     
   3367217434.0394750     
   3282705020.2902660     
   3207653586.4414740     
   3142573334.4208088     
   3088119426.7298584     
   3594875572.5459671     
   3485389557.2822900     
   3386314374.2496920     
   3298381702.3262491     
   3222593918.1021805     
   2862180440.4854493     
   2837004778.3950901     
   2819901695.2202926     
   2811010702.1881123     
   2810485411.0079169     
   2901162983.1509194     
   2872443505.4178910     
   2850306395.5263100     
   2834962631.3733087     
   2826641342.8589931     
   2978725060.1572719     
   2944543089.8109913     
   2915541691.7655363     
   2891979032.9276729     
   2874135434.4601469     
   3088119426.7298584     
   3047564789.0224314     
   3010892742.5915794     
   2978376859.1613626     
   2950316039.8289690     
   3222593918.1021805     
   3175617439.5074501     
   3131345334.7541227     
   3090036636.3367267     
   3051977310.2655878     
   2810485411.0079169     
   2740662136.4297805     
   2683569661.4522886     
   2639579762.8023171     
   2609084180.6104708     
   2826641342.8589931     
   2745467889.3420630     
   2675645164.2134385     
   2617689872.6633501     
   2572158954.2869940     
   2874135434.4601469     
   2780347356.1756625     
   2696462990.3682885     
   2623102364.6709599     
   2560952374.8418908     
   2950316039.8289690     
   2843595422.9154973     
   2745292379.1607432     
   2656067980.7831430     
   2576675021.8089204     
   3051977310.2655878     
   2932819525.7674580     
   2820614138.0739074     
   2715997546.3961191     
   2619712520.4666762     
   2609084180.6104708     
   2605617772.9979544     
   2608547412.2706604     
   2617977390.3911591     
   2634004704.4090056     
   2572158954.2869940     
   2558867452.3157287     
   2552290536.5662680     
   2552612286.3580599     
   2560010082.0217462     
   2560952374.8418908     
   2535852706.3323321     
   2517663039.0912781     
   2506670733.1566262     
   2503162824.2511020     
   2576675021.8089204     
   2538015296.9719744     
   2506284658.0799661     
   2481888283.4479537     
   2465246655.7521715     
   2619712520.4666762     
   2566087886.6654840     
   2519198638.9253426     
   2479565989.4439411     
   2447753205.6418147     
   2634004704.4090056     
   2608545272.6791372     
   2594968644.3526654     
   2593460539.5031390     
   2604178003.1442165     
   2560010082.0217462     
   2524389172.9801211     
   2499965612.7185783     
   2487049076.1978831     
   2485912306.3120532     
   2503162824.2511020     
   2455394650.5468197     
   2418057059.4023614     
   2391602425.4678507     
   2376449049.1333342     
   2465246655.7521715     
   2403862308.9143238     
   2351966020.7633357     
   2310149947.8463111     
   2278991244.9394245     
   2447753205.6418147     
   2371956270.7877564     
   2304469640.2746911     
   2245990405.2737451     
   2197235531.4840178     
   2604178003.1442165     
   2592778390.0420580     
   2592254348.0242338     
   2602678303.4634800     
   2624142293.3829198     
   2485912306.3120532     
   2467682359.4923062     
   2461174636.1219211     
   2466516183.8988547     
   2483834333.9608879     
   2376449049.1333342     
   2349063237.5888147     
   2334397064.1162577     
   2332689381.8624949     
   2344151282.8341150     
   2278991244.9394245     
   2239744182.0304232     
   2214306120.9281120     
   2203114771.5175576     
   2206545894.1426258     
   2197235531.4840178     
   2143113822.9073067     
   2103866471.1335006     
   2080250538.0590272     
   2072932131.3429177     
   2624142293.3829198     
   2585317548.1603589     
   2552481268.2618198     
   2526214898.8313694     
   2507324898.6557460     
   2483834333.9608879     
   2450850430.4671459     
   2426502237.4608860     
   2411736720.4090700     
   2407930865.3725338     
   2344151282.8341150     
   2319470636.9653955     
   2306376298.9223199     
   2306276629.4639320     
   2321263244.6553292     
   2206545894.1426258     
   2191951892.1352439     
   2192383054.4178586     
   2209811907.5206575     
   2247164690.5266075     
   2072932131.3429177     
   2069258831.2831666     
   2084836092.5356545     
   2122297599.6265826     
   2185464505.2459393     
   2507324898.6557460     
   2357064333.7385149     
   2214951423.5965953     
   2085967697.6692166     
   1976991907.7480521     
   2407930865.3725338     
   2282724775.4757767     
   2168002160.4980688     
   2070503651.1240821     
   1998999080.2410944     
   2321263244.6553292     
   2224619785.3242879     
   2141286340.8826332     
   2079628310.4474397     
   2049817887.9579690     
   2247164690.5266075     
   2182540580.6973438     
   2134333848.8812270     
   2112210764.3938167     
   2127105266.0519834     
   2185464505.2459393     
   2156193656.0377321     
   2146498028.0104980     
   2166899830.8172011     
   2228468768.4322457     
   3594875572.5459671     
   3485389557.2822900     
   3386314374.2496920     
   3298381702.3262491     
   3222593918.1021805     
   3843265976.1506262     
   3725067528.3131514     
   3611148764.7852793     
   3501964285.6793933     
   3398075727.6698794     
   4087763951.8512349     
   3969483851.6850710     
   3850540075.9725647     
   3730938770.4885163     
   3610717120.5395350     
   4319666991.6321869     
   4211942625.9031439     
   4099562983.6145158     
   3982121812.1117988     
   3859304658.2287540     
   4532972412.1938353     
   4447607209.4102392     
   4354403069.1962538     
   4252714480.5436525     
   4142205707.3156247     
   3222593918.1021805     
   3175617439.5074501     
   3131345334.7541227     
   3090036636.3367267     
   3051977310.2655878     
   3398075727.6698794     
   3332976410.0968456     
   3271172742.8167658     
   3212929496.9146452     
   3158546002.1710010     
   3610717120.5395350     
   3528011743.8950410     
   3449091009.6048360     
   3374191762.1438832     
   3303602407.8297324     
   3859304658.2287540     
   3759071844.0168290     
   3663005588.9744458     
   3571289858.7613096     
   3484184288.8086348     
   4142205707.3156247     
   4024070890.8880744     
   3910376476.3409662     
   3801237709.2447886     
   3696874987.7326741     
   3051977310.2655878     
   2932819525.7674580     
   2820614138.0739074     
   2715997546.3961191     
   2619712520.4666762     
   3158546002.1710010     
   3021498836.1047091     
   2891166090.5638633     
   2768248742.2727556     
   2653611903.9183311     
   3303602407.8297324     
   3147320442.9832850     
   2997194209.2570634     
   2853915650.6758056     
   2718399277.1404867     
   3484184288.8086348     
   3307457058.6780062     
   3136098527.2475796     
   2970713356.6294193     
   2812175820.5129523     
   3696874987.7326741     
   3498557625.9716444     
   3304691713.8568373     
   3115724280.3112817     
   2932399299.4364295     
   2619712520.4666762     
   2566087886.6654840     
   2519198638.9253426     
   2479565989.4439411     
   2447753205.6418147     
   2653611903.9183311     
   2585229202.2186732     
   2521986578.4870162     
   2464377046.5893998     
   2412947574.1173596     
   2718399277.1404867     
   2636893435.7021842     
   2558995347.2092881     
   2485105226.2282233     
   2415677246.7739630     
   2812175820.5129523     
   2719926373.9615598     
   2629942014.2095256     
   2542492566.5823693     
   2457888388.6019793     
   2932399299.4364295     
   2832248651.8089280     
   2733315957.4499350     
   2635739711.8360877     
   2539679439.0796394     
   2447753205.6418147     
   2371956270.7877564     
   2304469640.2746911     
   2245990405.2737451     
   2197235531.4840178     
   2412947574.1173596     
   2318111343.4660501     
   2231038537.2489467     
   2152564823.1103582     
   2083609560.6672266     
   2415677246.7739630     
   2301783309.3586507     
   2194708730.3838506     
   2095334069.2154412     
   2004696615.3790898     
   2457888388.6019793     
   2325750597.4598975     
   2199215000.2194681     
   2079080557.3103683     
   1966354537.7294927     
   2539679439.0796394     
   2390795082.3539581     
   2246224271.1625209     
   2106575581.5039983     
   1972671701.6312582     
   2197235531.4840178     
   2143113822.9073067     
   2103866471.1335006     
   2080250538.0590272     
   2072932131.3429177     
   2083609560.6672266     
   2009724891.1427798     
   1948097993.1107945     
   1899786411.1774323     
   1865796074.6595142     
   2004696615.3790898     
   1909686838.4862001     
   1823340267.4207106     
   1746825280.4285572     
   1681396310.6838081     
   1966354537.7294927     
   1851853106.7191374     
   1741624086.6496477     
   1636555560.5570741     
   1537734267.1115153     
   1972671701.6312582     
   1843843880.0912502     
   1714985510.4253564     
   1586423138.6329529     
   1458631907.8042161     
   2072932131.3429177     
   2069258831.2831666     
   2084836092.5356545     
   2122297599.6265826     
   2185464505.2459393     
   1865796074.6595142     
   1855120620.3405981     
   1867438026.4365520     
   1904960895.4954786     
   1970727355.8101604     
   1681396310.6838081     
   1652720940.5516214     
   1651789996.8955326     
   1680980122.7975364     
   1742906898.5868080     
   1537734267.1115153     
   1476670085.0083213     
   1448314293.4570882     
   1456648220.4408131     
   1504977961.1969285     
   1458631907.8042161     
   1349415879.6665294     
   1275176197.6636810     
   1244058328.4644663     
   1263123583.7021480     
   2185464505.2459393     
   2156193656.0377321     
   2146498028.0104980     
   2166899830.8172011     
   2228468768.4322457     
   1970727355.8101604     
   1968909481.0795662     
   2003637698.9397302     
   2093573854.9285605     
   2257360927.5514345     
   1742906898.5868080     
   1787706129.0050144     
   1884672574.2299676     
   2060690389.3109591     
   2340957054.4217501     
   1504977961.1969285     
   1613301041.8729804     
   1788861082.4020731     
   2066372433.1234345     
   2475996866.4221225     
   1263123583.7021480     
   1446738905.8023236     
   1715637524.0609677     
   2110356796.9526398     
   2663280776.1426234     
   4532972412.1938353     
   4447607209.4102392     
   4354403069.1962538     
   4252714480.5436525     
   4142205707.3156247     
   4803048673.2526398     
   4689952477.4559565     
   4580794458.3615618     
   4475424463.7951002     
   4373801633.9333344     
   5224836927.3035564     
   5052825376.5160217     
   4893140455.1043959     
   4743857083.6626816     
   4604471286.8342342     
   5804815763.4325981     
   5539073568.7894077     
   5289303998.7738018     
   5050847524.3353214     
   4823031294.7895756     
   6546457523.8686075     
   6148270406.1870193     
   5765330005.0665207     
   5389924278.6383009     
   5021715454.2109146     
   4142205707.3156247     
   4024070890.8880744     
   3910376476.3409662     
   3801237709.2447886     
   3696874987.7326741     
   4373801633.9333344     
   4254767379.3681078     
   4136608521.0636268     
   4019468538.8899698     
   3903520643.4679871     
   4604471286.8342342     
   4487840306.3546019     
   4369781410.3279238     
   4250266931.4346833     
   4129312342.7944527     
   4823031294.7895756     
   4714237795.4312010     
   4602672129.1299105     
   4488033697.1346760     
   4370175938.1204138     
   5021715454.2109146     
   4927563096.0909662     
   4830042232.1214247     
   4728548590.6643648     
   4622842022.3470516     
   3696874987.7326741     
   3498557625.9716444     
   3304691713.8568373     
   3115724280.3112817     
   2932399299.4364295     
   3903520643.4679871     
   3686918586.9246340     
   3472947613.0255547     
   3261841692.9710045     
   3054009604.7639260     
   4129312342.7944527     
   3898783765.1030207     
   3669767170.5190539     
   3442348752.9966598     
   3216696722.5608635     
   4370175938.1204138     
   4130023897.2896428     
   3890906150.8693948     
   3652838456.2152357     
   3415869336.4121227     
   4622842022.3470516     
   4377151553.7900591     
   4132568140.4795594     
   3889097043.1089525     
   3646766338.7560782     
   2932399299.4364295     
   2832248651.8089280     
   2733315957.4499350     
   2635739711.8360877     
   2539679439.0796394     
   3054009604.7639260     
   2945448559.2244635     
   2838688503.7757535     
   2733901138.1053391     
   2631300932.8610115     
   3216696722.5608635     
   3097799505.6121473     
   2980829953.2001839     
   2865961868.6561322     
   2753448829.2187796     
   3415869336.4121227     
   3284145617.6449895     
   3154054082.1239967     
   3025743759.7470636     
   2899492744.1137543     
   3646766338.7560782     
   3499331429.8899536     
   3352880161.2497377     
   3207513732.5964041     
   3063519507.2989569     
   2539679439.0796394     
   2390795082.3539581     
   2246224271.1625209     
   2106575581.5039983     
   1972671701.6312582     
   2631300932.8610115     
   2472931258.8354998     
   2316552596.4219298     
   2162508195.1728988     
   2011276063.7880356     
   2753448829.2187796     
   2588708255.1889648     
   2424214053.9098091     
   2260077843.9964623     
   2096467668.0507882     
   2899492744.1137543     
   2731974006.3462725     
   2563587258.1795058     
   2394318729.1352158     
   2224177416.9530964     
   3063519507.2989569     
   2896954234.1025681     
   2728984130.4572992     
   2559590342.3387580     
   2388798570.4162126     
   1972671701.6312582     
   1843843880.0912502     
   1714985510.4253564     
   1586423138.6329529     
   1458631907.8042161     
   2011276063.7880356     
   1876166778.6493037     
   1741496878.3415062     
   1607379577.8540220     
   1473970703.3586087     
   2096467668.0507882     
   1957673317.0712113     
   1820119302.0340464     
   1683819624.3318124     
   1548826770.0153909     
   2224177416.9530964     
   2082440692.3049014     
   1942762526.8700404     
   1805118082.9771447     
   1669592823.5678849     
   2388798570.4162126     
   2243121743.9544764     
   2100115346.3791201     
   1959745450.8166983     
   1822210735.2643292     
   1458631907.8042161     
   1349415879.6665294     
   1275176197.6636810     
   1244058328.4644663     
   1263123583.7021480     
   1473970703.3586087     
   1329535273.4795482     
   1199523907.5371742     
   1088442880.3354325     
   1002221208.9704332     
   1548826770.0153909     
   1398745108.2251823     
   1244984697.5565760     
   1085291222.5082247     
   917642366.83806109     
   1669592823.5678849     
   1553978311.0574853     
   1429027510.4363718     
   1295154350.9289162     
   1158571870.6730163     
   1822210735.2643292     
   1781400060.6556818     
   1736727145.7502997     
   1696997013.5846996     
   1680950545.6881027     
   1263123583.7021480     
   1446738905.8023236     
   1715637524.0609677     
   2110356796.9526398     
   2663280776.1426234     
   1002221208.9704332     
   1164727413.0100062     
   1425290629.7023242     
   1808522679.0681210     
   2334551698.5365367     
   917642366.83806109     
   962953978.53272271     
   1144727684.9597948     
   1476328547.8153052     
   1957539389.2517993     
   1158571870.6730163     
   1008052047.9583622     
   984993696.43328619     
   1161608654.4225466     
   1544816695.7405894     
   1680950545.6881027     
   1383347416.2802718     
   1129322545.7839139     
   1010712366.5232470     
   1154772974.4581134     
 </DataArray>
 <DataArray  type="Float64" Name="strain" NumberOfComponents="3" format="ascii">
  0.10924891972679518       -3.2117303558854449E-002   8.2722079924923975E-004
  0.10286399641712152       -2.8746766979420801E-002  -4.8864180587796513E-003
   9.6479073107447744E-002  -2.6392940248939012E-002  -7.7739401738675662E-003
   9.0094149797774026E-002  -2.5055823367409635E-002  -7.8353455460149213E-003
   8.3709226488100308E-002  -2.4735416334832450E-002  -5.0706341752213557E-003
   9.6378657126247158E-002  -2.9607655812270983E-002   9.6422548544151665E-003
   9.2403125900220762E-002  -2.7033077540533967E-002   5.1440340049186406E-003
   8.8427594674194310E-002  -2.5165096739076409E-002   2.6384805797758926E-003
   8.4452063448167886E-002  -2.4003713407898086E-002   2.1255945789868669E-003
   8.0476532222141461E-002  -2.3548927546999110E-002   3.6053760025521742E-003
   8.6002190853140426E-002  -2.7098008065687684E-002   1.7506274412548262E-002
   8.3602602392174402E-002  -2.5319388101647244E-002   1.4533583950256279E-002
   8.1203013931208518E-002  -2.3937253229213418E-002   1.2720111593731487E-002
   7.8803425470242577E-002  -2.2951603448386204E-002   1.2065857342973788E-002
   7.6403837009276665E-002  -2.2362438759165715E-002   1.2570821197983362E-002
   7.8119520907474649E-002  -2.4588360319104330E-002   2.4419279473648414E-002
   7.6462425892982522E-002  -2.3605698662760508E-002   2.3282231777234014E-002
   7.4805330878490242E-002  -2.2709409719350510E-002   2.2470952867999772E-002
   7.3148235863998018E-002  -2.1899493488874433E-002   2.1985442745946042E-002
   7.1491140849505821E-002  -2.1175949971332403E-002   2.1825701411072457E-002
   7.2730647289250494E-002  -2.2078712572520920E-002   3.0381270037715291E-002
   7.0982596402645148E-002  -2.1892009223873743E-002   3.1389977485851317E-002
   6.9234545516039692E-002  -2.1481566209487657E-002   3.1891004402580692E-002
   6.7486494629434318E-002  -2.0847383529362815E-002   3.1884350787903692E-002
   6.5738443742828945E-002  -1.9989461183499091E-002   3.1370016641819820E-002
   8.3709226488100308E-002  -2.4735416334832450E-002  -5.0706341752213557E-003
   8.2072402158908708E-002  -2.4743992116968150E-002  -3.1429476561651293E-003
   8.0435577829716998E-002  -2.4393823679578208E-002  -1.5822359907204375E-003
   7.8798753500525287E-002  -2.3684911022662070E-002  -3.8849917888783558E-004
   7.7161929171333687E-002  -2.2617254146219845E-002   4.3826277933300961E-004
   8.0476532222141461E-002  -2.3548927546999110E-002   3.6053760025521742E-003
   7.8550472340380623E-002  -2.3324472381628547E-002   5.0731410251194098E-003
   7.6624412458619701E-002  -2.2854081137035298E-002   6.3294097961606732E-003
   7.4698352576858765E-002  -2.2137753813219072E-002   7.3741823156752290E-003
   7.2772292695097940E-002  -2.1175490410179965E-002   8.2074585836635072E-003
   7.6403837009276665E-002  -2.2362438759165715E-002   1.2570821197983362E-002
   7.4344020177031941E-002  -2.1904952646288917E-002   1.3465856583759012E-002
   7.2284203344787190E-002  -2.1314338594492166E-002   1.4304874320093225E-002
   7.0224386512542411E-002  -2.0590596603775851E-002   1.5087874406986550E-002
   6.8164569680297771E-002  -1.9733726674139918E-002   1.5814856844438757E-002
   7.1491140849505821E-002  -2.1175949971332403E-002   2.1825701411072457E-002
   6.9453045668862692E-002  -2.0485432910948967E-002   2.2035199019752844E-002
   6.7414950488219577E-002  -1.9774596051949145E-002   2.2344157581077592E-002
   6.5376855307576448E-002  -1.9043439394332742E-002   2.2752577095046592E-002
   6.3338760126933333E-002  -1.8291962938099898E-002   2.3260457561659821E-002
   6.5738443742828945E-002  -1.9989461183499091E-002   3.1370016641819820E-002
   6.3877548815872848E-002  -1.9065913175609406E-002   3.0781168333101905E-002
   6.2016653888916723E-002  -1.8234853509406179E-002   3.0447259579113622E-002
   6.0155758961960654E-002  -1.7496282184889703E-002   3.0368290379855001E-002
   5.8294864035004501E-002  -1.6850199202059934E-002   3.0544260735326012E-002
   7.7161929171333687E-002  -2.2617254146219845E-002   4.3826277933300961E-004
   7.3062402966801887E-002  -2.1411475823927051E-002   5.1992348234719543E-005
   6.8962876762269976E-002  -2.0288198829458620E-002  -2.8496607361766513E-004
   6.4863350557738175E-002  -1.9247423162814269E-002  -5.7261248622378358E-004
   6.0763824353206264E-002  -1.8289148823994461E-002  -8.1094688958294192E-004
   7.2772292695097940E-002  -2.1175490410179965E-002   8.2074585836635072E-003
   6.8759406242046683E-002  -2.0115633646553888E-002   7.5738040132982132E-003
   6.4746519788995455E-002  -1.9106526240975918E-002   7.0641169366482404E-003
   6.0733633335944268E-002  -1.8148168193446987E-002   6.6783973537134778E-003
   5.6720746882893025E-002  -1.7240559503966191E-002   6.4166452644933702E-003
   6.8164569680297771E-002  -1.9733726674139918E-002   1.5814856844438757E-002
   6.4312978463195891E-002  -1.8819791469180475E-002   1.4965570104583520E-002
   6.0461387246093928E-002  -1.7924853652493897E-002   1.4314906342911396E-002
   5.6609796028992021E-002  -1.7048913224079709E-002   1.3862865559422961E-002
   5.2758204811890086E-002  -1.6191970183938253E-002   1.3609447754118098E-002
   6.3338760126933333E-002  -1.8291962938099898E-002   2.3260457561659821E-002
   5.9723119630249302E-002  -1.7523949291807187E-002   2.2227290622089502E-002
   5.6107479133565286E-002  -1.6743181064011424E-002   2.1467402145171611E-002
   5.2491838636881241E-002  -1.5949658254712319E-002   2.0980792130905597E-002
   4.8876198140197252E-002  -1.5143380863910150E-002   2.0767460579291741E-002
   5.8294864035004501E-002  -1.6850199202059934E-002   3.0544260735326012E-002
   5.4989829743207069E-002  -1.6228107114434009E-002   2.9358965565816797E-002
   5.1684795451409582E-002  -1.5561508475529118E-002   2.8521604343428458E-002
   4.8379761159612095E-002  -1.4850403285345135E-002   2.8032177068160830E-002
   4.5074726867814663E-002  -1.4094791543882101E-002   2.7890683740014188E-002
   6.0763824353206264E-002  -1.8289148823994461E-002  -8.1094688958294192E-004
   5.8339013400333872E-002  -1.7412975709741652E-002  -8.2935325807831362E-004
   5.5914202447461370E-002  -1.6618503716798960E-002  -5.4271100607644618E-004
   5.3489391494588923E-002  -1.5905732845166221E-002   4.8979866422993457E-005
   5.1064580541716476E-002  -1.5274663094843488E-002   9.4571935941933916E-004
   5.6720746882893025E-002  -1.7240559503966191E-002   6.4166452644933702E-003
   5.4566689242550870E-002  -1.6388988857435560E-002   6.3729650627606382E-003
   5.2412631602208687E-002  -1.5598744938756848E-002   6.5657428655915284E-003
   5.0258573961866490E-002  -1.4869827747928763E-002   6.9949786729857355E-003
   4.8104516321524349E-002  -1.4202237284952401E-002   7.6606724849425101E-003
   5.2758204811890086E-002  -1.6191970183938253E-002   1.3609447754118098E-002
   5.0806309868144328E-002  -1.5365002005129691E-002   1.3560868112606678E-002
   4.8854414924398487E-002  -1.4578986160713847E-002   1.3680155859724846E-002
   4.6902519980652688E-002  -1.3833922650691305E-002   1.3967310995472160E-002
   4.4950625036906888E-002  -1.3129811475061426E-002   1.4422333519848951E-002
   4.8876198140197252E-002  -1.5143380863910150E-002   2.0767460579291741E-002
   4.7057875277114053E-002  -1.4341015152823600E-002   2.0734355891459805E-002
   4.5239552414030874E-002  -1.3559227382671624E-002   2.0800527976323632E-002
   4.3421229550947696E-002  -1.2798017553453958E-002   2.0965976833883057E-002
   4.1602906687864497E-002  -1.2057385665170617E-002   2.1230702464138232E-002
   4.5074726867814663E-002  -1.4094791543882101E-002   2.7890683740014188E-002
   4.3321385469460238E-002  -1.3317028300517786E-002   2.7893428399320463E-002
   4.1568044071105814E-002  -1.2539468604629053E-002   2.7926859215388428E-002
   3.9814702672751418E-002  -1.1762112456216469E-002   2.7990976188218206E-002
   3.8061361274396965E-002  -1.0984959855279586E-002   2.8085779317809867E-002
   5.1064580541716476E-002  -1.5274663094843488E-002   9.4571935941933916E-004
   4.8245660716995542E-002  -1.4630216997772894E-002   7.0442631049738580E-004
   4.5426740892274775E-002  -1.3877317085897400E-002   4.3407866908540260E-004
   4.2607821067553953E-002  -1.3015963359216606E-002   1.3467643518416672E-004
   3.9788901242833075E-002  -1.2046155817730275E-002  -1.9378039120576673E-004
   4.8104516321524349E-002  -1.4202237284952401E-002   7.6606724849425101E-003
   4.5281938248620868E-002  -1.3527151885958766E-002   7.3433339232483741E-003
   4.2459360175717470E-002  -1.2775749887077692E-002   7.0477334576782291E-003
   3.9636782102814086E-002  -1.1948031288309666E-002   6.7738710882325470E-003
   3.6814204029910536E-002  -1.1043996089655117E-002   6.5217468149102453E-003
   4.4950625036906888E-002  -1.3129811475061426E-002   1.4422333519848951E-002
   4.2175181404434520E-002  -1.2424086774144028E-002   1.3996812230464034E-002
   3.9399737771962234E-002  -1.1674182688258011E-002   1.3643821725816685E-002
   3.6624294139489963E-002  -1.0880099217403620E-002   1.3363362005907417E-002
   3.3848850507017608E-002  -1.0041836361580736E-002   1.3155433070736078E-002
   4.1602906687864497E-002  -1.2057385665170617E-002   2.1230702464138232E-002
   3.8925390184436859E-002  -1.1321021662329372E-002   2.0664861232144033E-002
   3.6247873681009186E-002  -1.0572615489438539E-002   2.0222343473501429E-002
   3.3570357177581542E-002  -9.8121671464971270E-003   1.9903149188210210E-002
   3.0892840674153765E-002  -9.0396766335059664E-003   1.9707278376270704E-002
   3.8061361274396965E-002  -1.0984959855279586E-002   2.8085779317809867E-002
   3.5532564588627635E-002  -1.0217956550515106E-002   2.7347480928288426E-002
   3.3003767902858222E-002  -9.4710482906188165E-003   2.6783298700731928E-002
   3.0474971217088878E-002  -8.7442350755906270E-003   2.6393232635140790E-002
   2.7946174531319479E-002  -8.0375169054313078E-003   2.6177282731514540E-002
   3.9788901242833075E-002  -1.2046155817730275E-002  -1.9378039120576673E-004
   3.7405889535677472E-002  -1.1123239791672512E-002  -4.1244178373389673E-004
   3.5022877828521926E-002  -1.0402560611279310E-002  -5.3691864123461830E-004
   3.2639866121366323E-002  -9.8841182765490310E-003  -5.6721096370815349E-004
   3.0256854414210776E-002  -9.5679127874828129E-003  -5.0331875115428026E-004
   3.6814204029910536E-002  -1.1043996089655117E-002   6.5217468149102453E-003
   3.4506191579491419E-002  -1.0170660492505146E-002   6.1232675098414902E-003
   3.2198179129072191E-002  -9.4350406982502966E-003   5.7806021832185195E-003
   2.9890166678652963E-002  -8.8371367068920403E-003   5.4937508350408892E-003
   2.7582154228233791E-002  -8.3769485184284065E-003   5.2627134653092655E-003
   3.3848850507017608E-002  -1.0041836361580736E-002   1.3155433070736078E-002
   3.1577466756753297E-002  -9.2180811933372242E-003   1.2641656895894193E-002
   2.9306083006488903E-002  -8.4675207852218937E-003   1.2145324142916358E-002
   2.7034699256224551E-002  -7.7901551372341477E-003   1.1666434811802587E-002
   2.4763315505960226E-002  -7.1859842493743331E-003   1.1204988902553614E-002
   3.0892840674153765E-002  -9.0396766335059664E-003   1.9707278376270704E-002
   2.8619715067463018E-002  -8.2655018941696912E-003   1.9142726374423630E-002
   2.6346589460772146E-002  -7.5000008721931855E-003   1.8557247237858857E-002
   2.4073463854081274E-002  -6.7431735675769280E-003   1.7950840966577460E-002
   2.1800338247390409E-002  -5.9950199803205373E-003   1.7323507560578363E-002
   2.7946174531319479E-002  -8.0375169054313078E-003   2.6177282731514540E-002
   2.5632936511620630E-002  -7.3129225950018806E-003   2.5626475945429994E-002
   2.3319698491921809E-002  -6.5324809591644495E-003   2.5016371468046639E-002
   2.1006460472223015E-002  -5.6961919979190354E-003   2.4346969299364252E-002
   1.8693222452524139E-002  -4.8040557112664084E-003   2.3618269439384276E-002
   3.0256854414210776E-002  -9.5679127874828129E-003  -5.0331875115428026E-004
   2.9633455946008080E-002  -9.1398045347100831E-003  -3.0593988124816285E-004
   2.9010057477805440E-002  -8.2856539088604353E-003  -1.7835354689734739E-003
   2.8386659009602827E-002  -7.0054609099364090E-003  -4.9361055143327115E-003
   2.7763260541400103E-002  -5.2992255379344932E-003  -9.7636500173239327E-003
   2.7582154228233791E-002  -8.3769485184284065E-003   5.2627134653092655E-003
   2.5552270709941038E-002  -7.8733304370947055E-003   5.9097521873189285E-003
   2.3522387191648314E-002  -7.1451367671248045E-003   5.4187952667807959E-003
   2.1492503673355604E-002  -6.1923675085180652E-003   3.7898427036959503E-003
   1.9462620155062949E-002  -5.0150226612746263E-003   1.0228944980632537E-003
   2.4763315505960226E-002  -7.1859842493743331E-003   1.1204988902553614E-002
   2.1863925752662938E-002  -6.6068563394800495E-003   1.2100220692225938E-002
   1.8964535999365775E-002  -6.0046196253887574E-003   1.2394435654437180E-002
   1.6065146246068591E-002  -5.3792741071001723E-003   1.2087633789185953E-002
   1.3165756492771324E-002  -4.7308197846145372E-003   1.1179815096473589E-002
   2.1800338247390409E-002  -5.9950199803205373E-003   1.7323507560578363E-002
   1.8568421074174085E-002  -5.3403822418652547E-003   1.8265465633474795E-002
   1.5336503900957772E-002  -4.8641024836526964E-003   1.9143385693994881E-002
   1.2104586727741432E-002  -4.5661807056824981E-003   1.9957267742138390E-002
   8.8726695545250298E-003  -4.4466169079545592E-003   2.0707111777905685E-002
   1.8693222452524139E-002  -4.8040557112664084E-003   2.3618269439384276E-002
   1.5665756674474229E-002  -4.0739081442503489E-003   2.4405487011064153E-002
   1.2638290896424320E-002  -3.7235853419165799E-003   2.5665645385453573E-002
   9.6108251183744664E-003  -3.7530873042641438E-003   2.7398744562552729E-002
   6.5833593403245017E-003  -4.1624140312946922E-003   2.9604784542360041E-002
   2.7763260541400103E-002  -5.2992255379344932E-003  -9.7636500173239327E-003
   2.3344945996225830E-002  -4.1997523456165364E-003  -4.2069294103075361E-003
   1.8926631451051612E-002  -4.7398458857447201E-003   2.6073877712390336E-003
   1.4508316905877422E-002  -6.9195061583157969E-003   1.0679301527316221E-002
   1.0090002360703121E-002  -1.0738733163331737E-002   2.0008811857923803E-002
   1.9462620155062949E-002  -5.0150226612746263E-003   1.0228944980632537E-003
   1.6230625744297456E-002  -4.6861956258342774E-003   6.7315264166604161E-003
   1.2998631333531963E-002  -6.2789798026353649E-003   1.3555202029544966E-002
   9.7666369227665251E-003  -9.7933751916806366E-003   2.1493921336717514E-002
   6.5346425120009766E-003  -1.5229381792966734E-002   3.0547684338174896E-002
   1.3165756492771324E-002  -4.7308197846145372E-003   1.1179815096473589E-002
   1.0977529336171576E-002  -5.1726389060505751E-003   1.6758313846853001E-002
   8.7893021795718979E-003  -7.8181137195271755E-003   2.3309303411277016E-002
   6.6010750229722262E-003  -1.2667244225044491E-002   3.0832783789745327E-002
   4.4128478663725268E-003  -1.9720030422601731E-002   3.9328754982257852E-002
   8.8726695545250298E-003  -4.4466169079545592E-003   2.0707111777905685E-002
   7.5856567718482343E-003  -5.6590821862671503E-003   2.5873432880270081E-002
   6.2986439891712757E-003  -9.3572476364188473E-003   3.1869691916435253E-002
   5.0116312064943744E-003  -1.5541113258408616E-002   3.8695888886401804E-002
   3.7246184238176328E-003  -2.4210679052237172E-002   4.6352023790169783E-002
   6.5833593403245017E-003  -4.1624140312946922E-003   2.9604784542360041E-002
   6.0550080513273041E-003  -6.1455254664838366E-003   3.4076883516911072E-002
   5.5266567623301344E-003  -1.0896381553310269E-002   3.9236367545019857E-002
   4.9983054733331034E-003  -1.8414982291773289E-002   4.5083236626687201E-002
   4.4699541843358226E-003  -2.8701327681872169E-002   5.1617490761912244E-002
   7.2730647289250494E-002  -2.2078712572520920E-002   3.0381270037715291E-002
   7.0982596402645148E-002  -2.1892009223873743E-002   3.1389977485851317E-002
   6.9234545516039692E-002  -2.1481566209487657E-002   3.1891004402580692E-002
   6.7486494629434318E-002  -2.0847383529362815E-002   3.1884350787903692E-002
   6.5738443742828945E-002  -1.9989461183499091E-002   3.1370016641819820E-002
   6.8260399803130423E-002  -2.0307830418471950E-002   3.4519027252944090E-002
   6.6124284003808459E-002  -2.0046214943604229E-002   3.5184010220495193E-002
   6.3988168204486606E-002  -1.9621931206559265E-002   3.5580543894019739E-002
   6.1852052405164684E-002  -1.9034979207337131E-002   3.5708628273518131E-002
   5.9715936605842818E-002  -1.8285358945937635E-002   3.5568263358989799E-002
   6.3133608253777451E-002  -1.8536948264422981E-002   3.8762232296174093E-002
   6.0848658779119144E-002  -1.8200420663334771E-002   3.9022419379578829E-002
   5.8563709304460726E-002  -1.7762296203630873E-002   3.9253388406337270E-002
   5.6278759829802419E-002  -1.7222574885311391E-002   3.9455139376449136E-002
   5.3993810355144056E-002  -1.6581256708376235E-002   3.9627672289914706E-002
   5.7350272641191552E-002  -1.6766066110374012E-002   4.3110885167405397E-002
   5.5155720728576843E-002  -1.6354626383065299E-002   4.2905204963102128E-002
   5.2961168815962183E-002  -1.5902661200702536E-002   4.2909537939532581E-002
   5.0766616903347481E-002  -1.5410170563285652E-002   4.3123884096696777E-002
   4.8572064990732834E-002  -1.4877154470814780E-002   4.3548243434594486E-002
   5.0910392965372808E-002  -1.4995183956325042E-002   4.7564985866638043E-002
   4.9045469852181861E-002  -1.4508832102795799E-002   4.6832366971065187E-002
   4.7180546738990886E-002  -1.4043026197774061E-002   4.6548992493606056E-002
   4.5315623625799911E-002  -1.3597766241259988E-002   4.6714862434260845E-002
   4.3450700512608964E-002  -1.3173052233253379E-002   4.7329976793029360E-002
   6.5738443742828945E-002  -1.9989461183499091E-002   3.1370016641819820E-002
   6.3877548815872848E-002  -1.9065913175609406E-002   3.0781168333101905E-002
   6.2016653888916723E-002  -1.8234853509406179E-002   3.0447259579113622E-002
   6.0155758961960654E-002  -1.7496282184889703E-002   3.0368290379855001E-002
   5.8294864035004501E-002  -1.6850199202059934E-002   3.0544260735326012E-002
   5.9715936605842818E-002  -1.8285358945937635E-002   3.5568263358989799E-002
   5.8089210273008327E-002  -1.7482747554953992E-002   3.5184437803603474E-002
   5.6462483940173808E-002  -1.6736822166978790E-002   3.5014009881730646E-002
   5.4835757607339289E-002  -1.6047582782012428E-002   3.5056979593371410E-002
   5.3209031274504798E-002  -1.5415029400054570E-002   3.5313346938525614E-002
   5.3993810355144056E-002  -1.6581256708376235E-002   3.9627672289914706E-002
   5.2559710695214985E-002  -1.5899581934298551E-002   3.9484671826538129E-002
   5.1125611035285942E-002  -1.5238790824551457E-002   3.9513527075458757E-002
   4.9691511375356844E-002  -1.4598883379134987E-002   3.9714238036676716E-002
   4.8257411715427828E-002  -1.3979859598049177E-002   4.0086804710191992E-002
   4.8572064990732834E-002  -1.4877154470814780E-002   4.3548243434594486E-002
   4.7289050082492949E-002  -1.4316416313643179E-002   4.3681870401905562E-002
   4.6006035174253057E-002  -1.3740759482124013E-002   4.3945811160297846E-002
   4.4723020266013172E-002  -1.3150183976257643E-002   4.4340065709771143E-002
   4.3440005357773294E-002  -1.2544689796043826E-002   4.4864634050325494E-002
   4.3450700512608964E-002  -1.3173052233253379E-002   4.7329976793029360E-002
   4.2277228434842107E-002  -1.2733250692987752E-002   4.7776033529706108E-002
   4.1103756357075222E-002  -1.2242728139696735E-002   4.8310862136247967E-002
   3.9930284279308365E-002  -1.1701484573380327E-002   4.8934462612654536E-002
   3.8756812201541480E-002  -1.1109519994038364E-002   4.9646834958926134E-002
   5.8294864035004501E-002  -1.6850199202059934E-002   3.0544260735326012E-002
   5.4989829743207069E-002  -1.6228107114434009E-002   2.9358965565816797E-002
   5.1684795451409582E-002  -1.5561508475529118E-002   2.8521604343428458E-002
   4.8379761159612095E-002  -1.4850403285345135E-002   2.8032177068160830E-002
   4.5074726867814663E-002  -1.4094791543882101E-002   2.7890683740014188E-002
   5.3209031274504798E-002  -1.5415029400054570E-002   3.5313346938525614E-002
   5.0231519813610737E-002  -1.4798474317984561E-002   3.4276451831477400E-002
   4.7254008352716537E-002  -1.4157229832681598E-002   3.3546668439114996E-002
   4.4276496891822462E-002  -1.3491295944145432E-002   3.3123996761438471E-002
   4.1298985430928303E-002  -1.2800672652376333E-002   3.3008436798447727E-002
   4.8257411715427828E-002  -1.3979859598049177E-002   4.0086804710191992E-002
   4.5566600853001939E-002  -1.3368841521535113E-002   3.9178492517559130E-002
   4.2875789990576132E-002  -1.2752951189834022E-002   3.8536469807176774E-002
   4.0184979128150285E-002  -1.2132188602945730E-002   3.8160736579045076E-002
   3.7494168265724423E-002  -1.1506553760870425E-002   3.8051292833164344E-002
   4.3440005357773294E-002  -1.2544689796043826E-002   4.4864634050325494E-002
   4.0995072861380745E-002  -1.1939208725085637E-002   4.4065087624061597E-002
   3.8550140364988092E-002  -1.1348672546986308E-002   4.3491008447613569E-002
   3.6105207868595508E-002  -1.0773081261746083E-002   4.3142396520981133E-002
   3.3660275372202883E-002  -1.0212434869364476E-002   4.3019251844164302E-002
   3.8756812201541480E-002  -1.1109519994038364E-002   4.9646834958926134E-002
   3.6516935838747100E-002  -1.0509575928636161E-002   4.8936237150985273E-002
   3.4277059475952637E-002  -9.9443939041389540E-003   4.8410284360425326E-002
   3.2037183113158244E-002  -9.4139739205462217E-003   4.8068976587246098E-002
   2.9797306750363822E-002  -8.9183159778586929E-003   4.7912313831447395E-002
   4.5074726867814663E-002  -1.4094791543882101E-002   2.7890683740014188E-002
   4.3321385469460238E-002  -1.3317028300517786E-002   2.7893428399320463E-002
   4.1568044071105814E-002  -1.2539468604629053E-002   2.7926859215388428E-002
   3.9814702672751418E-002  -1.1762112456216469E-002   2.7990976188218206E-002
   3.8061361274396965E-002  -1.0984959855279586E-002   2.8085779317809867E-002
   4.1298985430928303E-002  -1.2800672652376333E-002   3.3008436798447727E-002
   3.9595209014847366E-002  -1.2093387626931795E-002   3.3005199813268771E-002
   3.7891432598766442E-002  -1.1377468537369220E-002   3.3070406635875071E-002
   3.6187656182685483E-002  -1.0652915383688819E-002   3.3204057266266448E-002
   3.4483879766604553E-002  -9.9197281658907066E-003   3.3406151704442777E-002
   3.7494168265724423E-002  -1.1506553760870425E-002   3.8051292833164344E-002
   3.5877714482940193E-002  -1.0869746953345777E-002   3.8050911815094388E-002
   3.4261260700155907E-002  -1.0215468470109394E-002   3.8156732255832722E-002
   3.2644806917371684E-002  -9.5437183111613377E-003   3.8368754155379214E-002
   3.1028353134587447E-002  -8.8544964765017165E-003   3.8686977513734233E-002
   3.3660275372202883E-002  -1.0212434869364476E-002   4.3019251844164302E-002
   3.2168901873738574E-002  -9.6461062797599390E-003   4.3030564404796912E-002
   3.0677528375274321E-002  -9.0534684028493982E-003   4.3185836075261011E-002
   2.9186154876810019E-002  -8.4345212386338839E-003   4.3485066855556823E-002
   2.7694781378345770E-002  -7.7892647871126153E-003   4.3928256745683951E-002
   2.9797306750363822E-002  -8.9183159778586929E-003   4.7912313831447395E-002
   2.8468771187242670E-002  -8.4224656061739345E-003   4.7944157582376468E-002
   2.7140235624121573E-002  -7.8914683355897491E-003   4.8157718094160112E-002
   2.5811700061000434E-002  -7.3253241661060987E-003   4.8552995366798787E-002
   2.4483164497879351E-002  -6.7240330977237361E-003   4.9129989400291896E-002
   3.8061361274396965E-002  -1.0984959855279586E-002   2.8085779317809867E-002
   3.5532564588627635E-002  -1.0217956550515106E-002   2.7347480928288426E-002
   3.3003767902858222E-002  -9.4710482906188165E-003   2.6783298700731928E-002
   3.0474971217088878E-002  -8.7442350755906270E-003   2.6393232635140790E-002
   2.7946174531319479E-002  -8.0375169054313078E-003   2.6177282731514540E-002
   3.4483879766604553E-002  -9.9197281658907066E-003   3.3406151704442777E-002
   3.2126535922498534E-002  -9.1899200547914672E-003   3.2769401209202853E-002
   2.9769192078392528E-002  -8.4755042212077691E-003   3.2301440235324497E-002
   2.7411848234286461E-002  -7.7764806651399662E-003   3.2002268782807888E-002
   2.5054504390180421E-002  -7.0928493865877185E-003   3.1871886851652709E-002
   3.1028353134587447E-002  -8.8544964765017165E-003   3.8686977513734233E-002
   2.8837135491541280E-002  -8.1618835590676342E-003   3.8156477680128337E-002
   2.6645917848495133E-002  -7.4799601517967357E-003   3.7789440727280729E-002
   2.4454700205448977E-002  -6.8087262546889758E-003   3.7585866655191223E-002
   2.2263482562402820E-002  -6.1481818677444067E-003   3.7545755463859548E-002
   2.7694781378345770E-002  -7.7892647871126153E-003   4.3928256745683951E-002
   2.5664363295755936E-002  -7.1338470633438428E-003   4.3508710341065022E-002
   2.3633945213166120E-002  -6.4844160823857508E-003   4.3247300176600625E-002
   2.1603527130576283E-002  -5.8409718442381502E-003   4.3144026252290829E-002
   1.9573109047986474E-002  -5.2035143489011226E-003   4.3198888568135675E-002
   2.4483164497879351E-002  -6.7240330977237361E-003   4.9129989400291896E-002
   2.2608219335142371E-002  -6.1058105676203289E-003   4.8826099192012307E-002
   2.0733274172405447E-002  -5.4888720129746826E-003   4.8675018583283991E-002
   1.8858329009668495E-002  -4.8732174337872206E-003   4.8676747574106560E-002
   1.6983383846931599E-002  -4.2588468300576166E-003   4.8831286164480181E-002
   2.7946174531319479E-002  -8.0375169054313078E-003   2.6177282731514540E-002
   2.5632936511620630E-002  -7.3129225950018806E-003   2.5626475945429994E-002
   2.3319698491921809E-002  -6.5324809591644495E-003   2.5016371468046639E-002
   2.1006460472223015E-002  -5.6961919979190354E-003   2.4346969299364252E-002
   1.8693222452524139E-002  -4.8040557112664084E-003   2.3618269439384276E-002
   2.5054504390180421E-002  -7.0928493865877185E-003   3.1871886851652709E-002
   2.2721504039359935E-002  -6.4101916238565315E-003   3.1495910024747553E-002
   2.0388503688539394E-002  -5.7140886152504400E-003   3.1139706226897906E-002
   1.8055503337718860E-002  -5.0045403607701308E-003   3.0803275458102977E-002
   1.5722502986898312E-002  -4.2815468604152640E-003   3.0486617718364140E-002
   2.2263482562402820E-002  -6.1481818677444067E-003   3.7545755463859548E-002
   1.9989790600814544E-002  -5.5074606527108771E-003   3.7302206516600683E-002
   1.7716098639226296E-002  -4.8956962713363333E-003   3.7157501318750966E-002
   1.5442406677638042E-002  -4.3128887236206746E-003   3.7111639870310346E-002
   1.3168714716049773E-002  -3.7590380095642861E-003   3.7164622171279083E-002
   1.9573109047986474E-002  -5.2035143489011226E-003   4.3198888568135675E-002
   1.7437796195984519E-002  -4.6047296815653754E-003   4.3045365420989169E-002
   1.5302483343982487E-002  -4.0773039274221087E-003   4.3069756743606025E-002
   1.3167170491980495E-002  -3.6212370864712722E-003   4.3272062535986186E-002
   1.1031857639978500E-002  -3.2365291587132805E-003   4.3652282798129369E-002
   1.6983383846931599E-002  -4.2588468300576166E-003   4.8831286164480181E-002
   1.5065520824869783E-002  -3.7019987104198737E-003   4.8725386737913046E-002
   1.3147657802807994E-002  -3.2589115835082727E-003   4.8876472501463042E-002
   1.1229794780746219E-002  -2.9295854493222168E-003   4.9284543455130170E-002
   9.3119317586844441E-003  -2.7140203078622749E-003   4.9949599598914540E-002
   1.8693222452524139E-002  -4.8040557112664084E-003   2.3618269439384276E-002
   1.5665756674474229E-002  -4.0739081442503489E-003   2.4405487011064153E-002
   1.2638290896424320E-002  -3.7235853419165799E-003   2.5665645385453573E-002
   9.6108251183744664E-003  -3.7530873042641438E-003   2.7398744562552729E-002
   6.5833593403245017E-003  -4.1624140312946922E-003   2.9604784542360041E-002
   1.5722502986898312E-002  -4.2815468604152640E-003   3.0486617718364140E-002
   1.3149642613820067E-002  -3.7702517949460557E-003   3.1264097646920508E-002
   1.0576782240741864E-002  -3.6957988451226664E-003   3.2477847582710828E-002
   8.0039218676635840E-003  -4.0581880109448049E-003   3.4127867525735878E-002
   5.4310614945853597E-003  -4.8574192924123460E-003   3.6214157475994546E-002
   1.3168714716049773E-002  -3.7590380095642861E-003   3.7164622171279083E-002
   1.1013788952468240E-002  -3.4665954456419290E-003   3.7875347105747803E-002
   8.8588631888867689E-003  -3.6680123483286697E-003   3.8985671251975801E-002
   6.7039374253053119E-003  -4.3632887176249177E-003   4.0495594609963007E-002
   4.5490116617238202E-003  -5.5524245535303884E-003   4.2405117179709823E-002
   1.1031857639978500E-002  -3.2365291587132805E-003   4.3652282798129369E-002
   9.2581956904188023E-003  -3.1629390963374970E-003   4.4239235387546663E-002
   7.4845337408591048E-003  -3.6402258515349922E-003   4.5189116393248525E-002
   5.7108717912993552E-003  -4.6683894243049716E-003   4.6501925815234463E-002
   3.9372098417397132E-003  -6.2474298146483476E-003   4.8177663653504878E-002
   9.3119317586844441E-003  -2.7140203078622749E-003   4.9949599598914540E-002
   7.8828628276716162E-003  -2.8592827470335647E-003   5.0355762492317102E-002
   6.4537938966587882E-003  -3.6124393547408429E-003   5.1088183006528787E-002
   5.0247249656459880E-003  -4.9734901309853793E-003   5.2146861141550011E-002
   3.5956560346331878E-003  -6.9424350757660847E-003   5.3531796897380746E-002
   6.5833593403245017E-003  -4.1624140312946922E-003   2.9604784542360041E-002
   6.0550080513273041E-003  -6.1455254664838366E-003   3.4076883516911072E-002
   5.5266567623301344E-003  -1.0896381553310269E-002   3.9236367545019857E-002
   4.9983054733331034E-003  -1.8414982291773289E-002   4.5083236626687201E-002
   4.4699541843358226E-003  -2.8701327681872169E-002   5.1617490761912244E-002
   5.4310614945853597E-003  -4.8574192924123460E-003   3.6214157475994546E-002
   5.4859343787455883E-003  -6.9925132540899493E-003   3.8351029634817235E-002
   5.5408072629058308E-003  -1.1362490460539582E-002   4.0966965086396023E-002
   5.5956801470661358E-003  -1.7967350911763484E-002   4.4061963830731549E-002
   5.6505530312263019E-003  -2.6807094607759652E-002   4.7636025867823673E-002
   4.5490116617238202E-003  -5.5524245535303884E-003   4.2405117179709823E-002
   4.9787869582397504E-003  -7.8395010416950073E-003   4.2739623929667209E-002
   5.4085622547557152E-003  -1.1828599367769685E-002   4.3344872211579857E-002
   5.8383375512717148E-003  -1.7519719531753849E-002   4.4220862025447609E-002
   6.2681128477876102E-003  -2.4912861533647357E-002   4.5367593371269721E-002
   3.9372098417397132E-003  -6.2474298146483476E-003   4.8177663653504878E-002
   4.5335657898096966E-003  -8.6864888293003706E-003   4.7242666401461804E-002
   5.1299217378797425E-003  -1.2294708274999504E-002   4.6370088920571151E-002
   5.7262776859497901E-003  -1.7072088151744241E-002   4.5559931210834438E-002
   6.3226336340197753E-003  -2.3018628459534951E-002   4.4812193272250639E-002
   3.5956560346331878E-003  -6.9424350757660847E-003   5.3531796897380746E-002
   4.1502708734555138E-003  -9.5334766169058449E-003   5.1860157050199862E-002
   4.7048857122779231E-003  -1.2760817182229045E-002   5.0042615213370500E-002
   5.2595005511003323E-003  -1.6624456771734727E-002   4.8079171386892383E-002
   5.8141153899226028E-003  -2.1124395385422545E-002   4.5969825570765899E-002
   5.0910392965372808E-002  -1.4995183956325042E-002   4.7564985866638043E-002
   4.9045469852181861E-002  -1.4508832102795799E-002   4.6832366971065187E-002
   4.7180546738990886E-002  -1.4043026197774061E-002   4.6548992493606056E-002
   4.5315623625799911E-002  -1.3597766241259988E-002   4.6714862434260845E-002
   4.3450700512608964E-002  -1.3173052233253379E-002   4.7329976793029360E-002
   4.4217831542593594E-002  -1.3085290337179312E-002   5.1950987013129224E-002
   4.2754720011634079E-002  -1.2677018018883268E-002   5.1306281016576860E-002
   4.1291608480674591E-002  -1.2279869420898204E-002   5.1015953766373606E-002
   3.9828496949715089E-002  -1.1893844543224161E-002   5.1080005262519573E-002
   3.8365385418755629E-002  -1.1518943385861125E-002   5.1498435505014650E-002
   3.7676450689126423E-002  -1.1175396718033637E-002   5.6254197510289122E-002
   3.6520285068633716E-002  -1.0845203934970737E-002   5.5706826640953833E-002
   3.5364119448141065E-002  -1.0516712644022361E-002   5.5418968846202871E-002
   3.4207953827648387E-002  -1.0189922845188337E-002   5.5390624126036604E-002
   3.3051788207155694E-002  -9.8648345384688141E-003   5.5621792480454624E-002
   3.1286250404971259E-002  -9.2655030988879339E-003   6.0474617358117495E-002
   3.0342165023180788E-002  -9.0133898510582344E-003   6.0034003844195605E-002
   2.9398079641390313E-002  -8.7535558671465105E-003   5.9758037733093752E-002
   2.8453994259599810E-002  -8.4860011471525106E-003   5.9646719024811688E-002
   2.7509908877809339E-002  -8.2107256910765869E-003   5.9700047719349475E-002
   2.5047230690128180E-002  -7.3556094797422311E-003   6.4612246556614572E-002
   2.4220359875275266E-002  -7.1815757671456759E-003   6.4287812626302843E-002
   2.3393489060422296E-002  -6.9903990902706048E-003   6.4033160427046265E-002
   2.2566618245569353E-002  -6.7820794491166847E-003   6.3848289958845034E-002
   2.1739747430716425E-002  -6.5566168436842487E-003   6.3733201221698954E-002
   4.3450700512608964E-002  -1.3173052233253379E-002   4.7329976793029360E-002
   4.2277228434842107E-002  -1.2733250692987752E-002   4.7776033529706108E-002
   4.1103756357075222E-002  -1.2242728139696735E-002   4.8310862136247967E-002
   3.9930284279308365E-002  -1.1701484573380327E-002   4.8934462612654536E-002
   3.8756812201541480E-002  -1.1109519994038364E-002   4.9646834958926134E-002
   3.8365385418755629E-002  -1.1518943385861125E-002   5.1498435505014650E-002
   3.7297126578840489E-002  -1.1128801024459969E-002   5.1778815062638053E-002
   3.6228867738925356E-002  -1.0697052534671625E-002   5.2180849226100140E-002
   3.5160608899010196E-002  -1.0223697916496036E-002   5.2704537995400882E-002
   3.4092350059095056E-002  -9.7087371699335345E-003   5.3349881370540253E-002
   3.3051788207155694E-002  -9.8648345384688141E-003   5.5621792480454624E-002
   3.2121625341066010E-002  -9.5243513559321313E-003   5.5727379974386509E-002
   3.1191462474976332E-002  -9.1513769296464598E-003   5.5987504810130678E-002
   3.0261299608886662E-002  -8.7459112596119104E-003   5.6402166987687075E-002
   2.9331136742796970E-002  -8.3079543458285110E-003   5.6971366507055810E-002
   2.7509908877809339E-002  -8.2107256910765869E-003   5.9700047719349475E-002
   2.6750724721518789E-002  -7.9199016874042655E-003   5.9621728264951379E-002
   2.5991540565228233E-002  -7.6057013246212946E-003   5.9730828888339346E-002
   2.5232356408937669E-002  -7.2681246027276464E-003   6.0027349589513307E-002
   2.4473172252647130E-002  -6.9071715217235846E-003   6.0511290368473199E-002
   2.1739747430716425E-002  -6.5566168436842487E-003   6.3733201221698954E-002
   2.1184424720198713E-002  -6.3154520188764829E-003   6.3461859934332648E-002
   2.0629102009681009E-002  -6.0600257195961571E-003   6.3410821460726130E-002
   2.0073779299163302E-002  -5.7903379458435142E-003   6.3580085800879232E-002
   1.9518456588645594E-002  -5.5063886976186582E-003   6.3969652954792067E-002
   3.8756812201541480E-002  -1.1109519994038364E-002   4.9646834958926134E-002
   3.6516935838747100E-002  -1.0509575928636161E-002   4.8936237150985273E-002
   3.4277059475952637E-002  -9.9443939041389540E-003   4.8410284360425326E-002
   3.2037183113158244E-002  -9.4139739205462217E-003   4.8068976587246098E-002
   2.9797306750363822E-002  -8.9183159778586929E-003   4.7912313831447395E-002
   3.4092350059095056E-002  -9.7087371699335345E-003   5.3349881370540253E-002
   3.2054091020156009E-002  -9.1860854916462897E-003   5.2529011542300968E-002
   3.0015831981216920E-002  -8.6896580782971633E-003   5.1926731344391824E-002
   2.7977572942277824E-002  -8.2194549298860789E-003   5.1543040776812710E-002
   2.5939313903338743E-002  -7.7754760464132100E-003   5.1377939839563458E-002
   2.9331136742796970E-002  -8.3079543458285110E-003   5.6971366507055810E-002
   2.7528439640662525E-002  -7.8625950546563350E-003   5.6048762434484950E-002
   2.5725742538528128E-002  -7.4349222524554143E-003   5.5378692605193389E-002
   2.3923045436393699E-002  -7.0249359392258771E-003   5.4961157019181230E-002
   2.2120348334259285E-002  -6.6326361149675328E-003   5.4796155676448424E-002
   2.4473172252647130E-002  -6.9071715217235846E-003   6.0511290368473199E-002
   2.2939981700266728E-002  -6.5391046176664219E-003   5.9495489827537239E-002
   2.1406791147886295E-002  -6.1801864266137832E-003   5.8766168142830089E-002
   1.9873600595505886E-002  -5.8304169485656494E-003   5.8323325314351443E-002
   1.8340410043125453E-002  -5.4897961835218417E-003   5.8166961342101711E-002
   1.9518456588645594E-002  -5.5063886976186582E-003   6.3969652954792067E-002
   1.8288717198968518E-002  -5.2156141806765088E-003   6.2869193721457994E-002
   1.7058977809291428E-002  -4.9254506007719301E-003   6.2089157957302021E-002
   1.5829238419614332E-002  -4.6358979579055187E-003   6.1629545662324037E-002
   1.4599499029937235E-002  -4.3469562520763727E-003   6.1490356836523929E-002
   2.9797306750363822E-002  -8.9183159778586929E-003   4.7912313831447395E-002
   2.8468771187242670E-002  -8.4224656061739345E-003   4.7944157582376468E-002
   2.7140235624121573E-002  -7.8914683355897491E-003   4.8157718094160112E-002
   2.5811700061000434E-002  -7.3253241661060987E-003   4.8552995366798787E-002
   2.4483164497879351E-002  -6.7240330977237361E-003   4.9129989400291896E-002
   2.5939313903338743E-002  -7.7754760464132100E-003   5.1377939839563458E-002
   2.4788622923190368E-002  -7.3300627060246260E-003   5.1477058729390263E-002
   2.3637931943041944E-002  -6.8555561868669651E-003   5.1750150024307551E-002
   2.2487240962893531E-002  -6.3519564889399950E-003   5.2197213724315836E-002
   2.1336549982745145E-002  -5.8192636122441632E-003   5.2818249829414243E-002
   2.2120348334259285E-002  -6.6326361149675328E-003   5.4796155676448424E-002
   2.1139757581319515E-002  -6.2376598058754007E-003   5.4956495985042722E-002
   2.0159166828379732E-002  -5.8196440381440631E-003   5.5283064342963588E-002
   1.9178576075439931E-002  -5.3785888117738340E-003   5.5775860750211140E-002
   1.8197985322500179E-002  -4.9144941267646458E-003   5.6434885206785218E-002
   1.8340410043125453E-002  -5.4897961835218417E-003   5.8166961342101711E-002
   1.7522175161630172E-002  -5.1452569057261338E-003   5.8382469349333707E-002
   1.6703940280134867E-002  -4.7837318894212756E-003   5.8756461050128106E-002
   1.5885705398639576E-002  -4.4052211346077017E-003   5.9288936444484866E-002
   1.5067470517144275E-002  -4.0097246412850451E-003   5.9979895532404064E-002
   1.4599499029937235E-002  -4.3469562520763727E-003   6.1490356836523929E-002
   1.3935875664122327E-002  -4.0528540055769224E-003   6.1754978822263329E-002
   1.3272252298307405E-002  -3.7478197406984604E-003   6.2170340145800917E-002
   1.2608628932492504E-002  -3.4318534574414791E-003   6.2736440807136862E-002
   1.1945005566677575E-002  -3.1049551558056665E-003   6.3453280806271217E-002
   2.4483164497879351E-002  -6.7240330977237361E-003   4.9129989400291896E-002
   2.2608219335142371E-002  -6.1058105676203289E-003   4.8826099192012307E-002
   2.0733274172405447E-002  -5.4888720129746826E-003   4.8675018583283991E-002
   1.8858329009668495E-002  -4.8732174337872206E-003   4.8676747574106560E-002
   1.6983383846931599E-002  -4.2588468300576166E-003   4.8831286164480181E-002
   2.1336549982745145E-002  -5.8192636122441632E-003   5.2818249829414243E-002
   1.9629300227067784E-002  -5.2744042339653574E-003   5.2534273208001803E-002
   1.7922050471390408E-002  -4.7343050312898260E-003   5.2432877801157157E-002
   1.6214800715713039E-002  -4.1989660042179924E-003   5.2514063608880543E-002
   1.4507550960035670E-002  -3.6683871527491974E-003   5.2777830631171863E-002
   1.8197985322500179E-002  -4.9144941267646458E-003   5.6434885206785218E-002
   1.6688202588899283E-002  -4.4429979003103026E-003   5.6167345972093857E-002
   1.5178419855298345E-002  -3.9797380496048446E-003   5.6112159566987549E-002
   1.3668637121697448E-002  -3.5247145746483723E-003   5.6269325991466064E-002
   1.2158854388096510E-002  -3.0779274754407226E-003   5.6638845245529618E-002
   1.5067470517144275E-002  -4.0097246412850451E-003   5.9979895532404064E-002
   1.3784926420636728E-002  -3.6115915666551784E-003   5.9725317484288769E-002
   1.2502382324129202E-002  -3.2251710679199255E-003   5.9712863880775208E-002
   1.1219838227621664E-002  -2.8504631450787816E-003   5.9942534721863575E-002
   9.9372941311141015E-003  -2.4874677981323867E-003   6.0414330007553751E-002
   1.1945005566677575E-002  -3.1049551558056665E-003   6.3453280806271217E-002
   1.0919471722280305E-002  -2.7801852330003318E-003   6.3208187744586364E-002
   9.8939378778830078E-003  -2.4706040862349232E-003   6.3234990742520203E-002
   8.8684040334857245E-003  -2.1762117155095032E-003   6.3533689800072568E-002
   7.8428701890884411E-003  -1.8970081208238287E-003   6.4104284917243848E-002
   1.6983383846931599E-002  -4.2588468300576166E-003   4.8831286164480181E-002
   1.5065520824869783E-002  -3.7019987104198737E-003   4.8725386737913046E-002
   1.3147657802807994E-002  -3.2589115835082727E-003   4.8876472501463042E-002
   1.1229794780746219E-002  -2.9295854493222168E-003   4.9284543455130170E-002
   9.3119317586844441E-003  -2.7140203078622749E-003   4.9949599598914540E-002
   1.4507550960035670E-002  -3.6683871527491974E-003   5.2777830631171863E-002
   1.2844902329858951E-002  -3.1968833840612665E-003   5.2683721229987268E-002
   1.1182253699682204E-002  -2.8387696053314149E-003   5.2843055422455598E-002
   9.5196050695054782E-003  -2.5940458165589625E-003   5.3255833208576825E-002
   7.8569564393287383E-003  -2.4627120177447281E-003   5.3922054588350810E-002
   1.2158854388096510E-002  -3.0779274754407226E-003   5.6638845245529618E-002
   1.0747878553340480E-002  -2.6917680577025482E-003   5.6556896872495765E-002
   9.3369027185844292E-003  -2.4186276271543072E-003   5.6724850496650270E-002
   7.9259268838283679E-003  -2.2585061837958123E-003   5.7142706117993519E-002
   6.5149510490723483E-003  -2.2114037276271259E-003   5.7810463736525181E-002
   9.9372941311141015E-003  -2.4874677981323867E-003   6.0414330007553751E-002
   8.7744494953144146E-003  -2.1866527313440520E-003   6.0344913665438440E-002
   7.6116048595147225E-003  -1.9984856489773245E-003   6.0521857724047563E-002
   6.4487602237150278E-003  -1.9229665510328321E-003   6.0945162183380780E-002
   5.2859155879153158E-003  -1.9600954375097734E-003   6.1614827043437854E-002
   7.8428701890884411E-003  -1.8970081208238287E-003   6.4104284917243848E-002
   6.9246151557807167E-003  -1.6815374049851672E-003   6.4047771608815252E-002
   6.0063601224730340E-003  -1.5783436708003418E-003   6.4234077104646847E-002
   5.0881050891653165E-003  -1.5874269182693523E-003   6.4663201404738080E-002
   4.1698500558576268E-003  -1.7087871473920879E-003   6.5335144509089171E-002
   9.3119317586844441E-003  -2.7140203078622749E-003   4.9949599598914540E-002
   7.8828628276716162E-003  -2.8592827470335647E-003   5.0355762492317102E-002
   6.4537938966587882E-003  -3.6124393547408429E-003   5.1088183006528787E-002
   5.0247249656459880E-003  -4.9734901309853793E-003   5.2146861141550011E-002
   3.5956560346331878E-003  -6.9424350757660847E-003   5.3531796897380746E-002
   7.8569564393287383E-003  -2.4627120177447281E-003   5.3922054588350810E-002
   6.7285185048267249E-003  -2.6450399385819501E-003   5.3854646977612830E-002
   5.6000805703247392E-003  -3.3413013087652543E-003   5.4062243739087162E-002
   4.4716426358227188E-003  -4.5514961282942384E-003   5.4544844872773654E-002
   3.3432047013207400E-003  -6.2756243971686665E-003   5.5302450378672874E-002
   6.5149510490723483E-003  -2.2114037276271259E-003   5.7810463736525181E-002
   5.6358908624839707E-003  -2.4307971301308628E-003   5.7363446340837676E-002
   4.7568306758956277E-003  -3.0701632627894576E-003   5.7140180068765381E-002
   3.8777704893072848E-003  -4.1295021256029900E-003   5.7140664920308108E-002
   2.9987103027189349E-003  -5.6088137185714704E-003   5.7364900895466087E-002
   5.2859155879153158E-003  -1.9600954375097734E-003   6.1614827043437854E-002
   4.6049799006434421E-003  -2.2165543216798450E-003   6.0882160581991931E-002
   3.9240442133715841E-003  -2.7990252168138205E-003   6.0321991995563609E-002
   3.2431085260996983E-003  -3.7075081229120174E-003   5.9934321284153484E-002
   2.5621728388278246E-003  -4.9420030399742743E-003   5.9719148447760925E-002
   4.1698500558576268E-003  -1.7087871473920879E-003   6.5335144509089171E-002
   3.6357856193050542E-003  -2.0023115132282165E-003   6.4410789701075055E-002
   3.1017211827524954E-003  -2.5278871708380168E-003   6.3607679519481652E-002
   2.5676567461999367E-003  -3.2855141202207533E-003   6.2925813964309185E-002
   2.0335923096473918E-003  -4.2751923613769671E-003   6.2365193035557431E-002
   3.5956560346331878E-003  -6.9424350757660847E-003   5.3531796897380746E-002
   4.1502708734555138E-003  -9.5334766169058449E-003   5.1860157050199862E-002
   4.7048857122779231E-003  -1.2760817182229045E-002   5.0042615213370500E-002
   5.2595005511003323E-003  -1.6624456771734727E-002   4.8079171386892383E-002
   5.8141153899226028E-003  -2.1124395385422545E-002   4.5969825570765899E-002
   3.3432047013207400E-003  -6.2756243971686665E-003   5.5302450378672874E-002
   3.7694043027939328E-003  -8.5444334710539915E-003   5.2950390626072485E-002
   4.1956039042671534E-003  -1.1388670705614501E-002   5.0487402388422697E-002
   4.6218035057403670E-003  -1.4808336100850902E-002   4.7913485665723149E-002
   5.0480031072135945E-003  -1.8803429656762516E-002   4.5228640457973368E-002
   2.9987103027189349E-003  -5.6088137185714704E-003   5.7364900895466087E-002
   3.3314681714416497E-003  -7.5553903252017496E-003   5.4393292100953894E-002
   3.6642260401643714E-003  -1.0016524228999985E-002   5.1345728325990742E-002
   3.9969839088870515E-003  -1.2992215429967029E-002   4.8222209570575963E-002
   4.3297417776098079E-003  -1.6482463928102487E-002   4.5022735834710947E-002
   2.5621728388278246E-003  -4.9420030399742743E-003   5.9719148447760925E-002
   2.8364624793986940E-003  -6.5663471793492578E-003   5.6188861474844073E-002
   3.1107521199695617E-003  -8.6443777523854542E-003   5.2617593026074584E-002
   3.3850417605404051E-003  -1.1176094759083179E-002   4.9005343101452298E-002
   3.6593314011112987E-003  -1.4161498199442457E-002   4.5352111700977582E-002
   2.0335923096473918E-003  -4.2751923613769671E-003   6.2365193035557431E-002
   2.2843872266650606E-003  -5.5773040334969881E-003   5.8337098747742511E-002
   2.5351821436827154E-003  -7.2722312757710073E-003   5.4302996488673594E-002
   2.7859770607003981E-003  -9.3599740881994617E-003   5.0262886258350820E-002
   3.0367719777180668E-003  -1.1840532470782428E-002   4.6216768056774882E-002
   2.5047230690128180E-002  -7.3556094797422311E-003   6.4612246556614572E-002
   2.4220359875275266E-002  -7.1815757671456759E-003   6.4287812626302843E-002
   2.3393489060422296E-002  -6.9903990902706048E-003   6.4033160427046265E-002
   2.2566618245569353E-002  -6.7820794491166847E-003   6.3848289958845034E-002
   2.1739747430716425E-002  -6.5566168436842487E-003   6.3733201221698954E-002
   1.8859206672287798E-002  -5.5167071392586697E-003   6.4406912691112261E-002
   1.8136351590785013E-002  -5.3861818827966590E-003   6.4082523686128878E-002
   1.7413496509282221E-002  -5.2427993939329065E-003   6.3896384416790714E-002
   1.6690641427779439E-002  -5.0865596726674678E-003   6.3848494883097656E-002
   1.5967786346276651E-002  -4.9174627190004261E-003   6.3938855085049595E-002
   1.2621993479140760E-002  -3.6778047987751084E-003   6.4160213235413849E-002
   1.2071622135577983E-002  -3.5907879984476143E-003   6.3831583423882121E-002
   1.1521250792015207E-002  -3.4951996975953470E-003   6.3709671352585290E-002
   1.0970879448452434E-002  -3.3910398962183064E-003   6.3794477021523410E-002
   1.0420508104889658E-002  -3.2783085943165480E-003   6.4086000430696399E-002
   6.3355911106870826E-003  -1.8389024582915470E-003   6.3872148189519598E-002
   6.0261715096541733E-003  -1.7953941140985974E-003   6.3534991839562294E-002
   5.7167519086212606E-003  -1.7476000012577736E-003   6.3473021234429855E-002
   5.4073323075883540E-003  -1.6955201197691450E-003   6.3686236374122296E-002
   5.0979127065554431E-003  -1.6391544696326699E-003   6.4174637258639339E-002
  -4.3307326474950614E-010  -1.1780798558902461E-010   6.3542717553428996E-002
  -2.8698645543334678E-010  -2.2974949720477866E-010   6.3192748933169451E-002
  -1.4089962876995266E-010  -3.0492014468919137E-010   6.3186434062324603E-002
   5.1871874851006083E-012  -3.4331984477553590E-010   6.3523772940894285E-002
   1.5127400720960082E-010  -3.4494879175284154E-010   6.4204765568878663E-002
   2.1739747430716425E-002  -6.5566168436842487E-003   6.3733201221698954E-002
   2.1184424720198713E-002  -6.3154520188764829E-003   6.3461859934332648E-002
   2.0629102009681009E-002  -6.0600257195961571E-003   6.3410821460726130E-002
   2.0073779299163302E-002  -5.7903379458435142E-003   6.3580085800879232E-002
   1.9518456588645594E-002  -5.5063886976186582E-003   6.3969652954792067E-002
   1.5967786346276651E-002  -4.9174627190004261E-003   6.3938855085049595E-002
   1.5612398413877716E-002  -4.7365890953801615E-003   6.3884307396083723E-002
   1.5257010481478792E-002  -4.5450193642548944E-003   6.4009326449595824E-002
   1.4901622549079856E-002  -4.3427535256250083E-003   6.4313912245585719E-002
   1.4546234616680934E-002  -4.1297915794901718E-003   6.4798064784053477E-002
   1.0420508104889658E-002  -3.2783085943165480E-003   6.4086000430696399E-002
   1.0224318879327669E-002  -3.1577261718837429E-003   6.4244680973163520E-002
   1.0028129653765686E-002  -3.0300130089136318E-003   6.4542192186826566E-002
   9.8319404282037060E-003  -2.8951691054063360E-003   6.4978534071685717E-002
   9.6357512026417139E-003  -2.7531944613616299E-003   6.5553706627740904E-002
   5.0979127065554431E-003  -1.6391544696326699E-003   6.4174637258639339E-002
   5.0201861165485775E-003  -1.5788632483874007E-003   6.4542980665571834E-002
   4.9424595265417041E-003  -1.5150066535724246E-003   6.5009418672418579E-002
   4.8647329365348255E-003  -1.4475846851876358E-003   6.5573951279179393E-002
   4.7870063465279625E-003  -1.3765973432331435E-003   6.6236578485854500E-002
   1.5127400720960082E-010  -3.4494879175284154E-010   6.4204765568878663E-002
   1.2554042180812353E-010  -3.2489105850075362E-010   6.4779206473308953E-002
   9.9806836406646227E-011  -2.9823107872140042E-010   6.5411005906371694E-002
   7.4073247535721976E-011  -2.6496903976491737E-010   6.6100163868066802E-002
   4.8339665603691628E-011  -2.2510454611435193E-010   6.6846680358394139E-002
   1.9518456588645594E-002  -5.5063886976186582E-003   6.3969652954792067E-002
   1.8288717198968518E-002  -5.2156141806765088E-003   6.2869193721457994E-002
   1.7058977809291428E-002  -4.9254506007719301E-003   6.2089157957302021E-002
   1.5829238419614332E-002  -4.6358979579055187E-003   6.1629545662324037E-002
   1.4599499029937235E-002  -4.3469562520763727E-003   6.1490356836523929E-002
   1.4546234616680934E-002  -4.1297915794901718E-003   6.4798064784053477E-002
   1.3633671539567419E-002  -3.9117106813447988E-003   6.3755562381769715E-002
   1.2721108462453910E-002  -3.6940879866829840E-003   6.3026989135435252E-002
   1.1808545385340402E-002  -3.4769234955047586E-003   6.2612345045049964E-002
   1.0895982308226887E-002  -3.2602172078104452E-003   6.2511630110613725E-002
   9.6357512026417139E-003  -2.7531944613616299E-003   6.5553706627740904E-002
   9.0338701248629423E-003  -2.6078071820130888E-003   6.4569313790061686E-002
   8.4319890470841777E-003  -2.4627253725939824E-003   6.3892355795102912E-002
   7.8301079693054079E-003  -2.3179490331044425E-003   6.3522832642864430E-002
   7.2282268915266415E-003  -2.1734781635442957E-003   6.3460744333346170E-002
   4.7870063465279625E-003  -1.3765973432331435E-003   6.6236578485854500E-002
   4.4893129548550844E-003  -1.3039036826813510E-003   6.5310447946333922E-002
   4.1916195631822176E-003  -1.2313627585049808E-003   6.4685257936305002E-002
   3.8939261715093382E-003  -1.1589745707040154E-003   6.4361008455767268E-002
   3.5962327798364658E-003  -1.0867391192782017E-003   6.4337699504721152E-002
   4.8339665603691628E-011  -2.2510454611435193E-010   6.6846680358394139E-002
   2.9543846535862173E-011  -1.8334966878086334E-010   6.5978964850586352E-002
   1.0748023998585765E-011  -1.4441599305303754E-010   6.5405695559041216E-002
  -8.0477950692436906E-012  -1.0830355015589710E-010   6.5126872483758744E-002
  -2.6843617606520098E-011  -7.5012218658798702E-011   6.5142495624738839E-002
   1.4599499029937235E-002  -4.3469562520763727E-003   6.1490356836523929E-002
   1.3935875664122327E-002  -4.0528540055769224E-003   6.1754978822263329E-002
   1.3272252298307405E-002  -3.7478197406984604E-003   6.2170340145800917E-002
   1.2608628932492504E-002  -3.4318534574414791E-003   6.2736440807136862E-002
   1.1945005566677575E-002  -3.1049551558056665E-003   6.3453280806271217E-002
   1.0895982308226887E-002  -3.2602172078104452E-003   6.2511630110613725E-002
   1.0386889905982390E-002  -3.0396405157795403E-003   6.2825370542402670E-002
   9.8777975037378715E-003  -2.8108648115925949E-003   6.3297433563534289E-002
   9.3687051014933707E-003  -2.5738900952496507E-003   6.3927819174008207E-002
   8.8596126992488561E-003  -2.3287163667506938E-003   6.4716527373824551E-002
   7.2282268915266415E-003  -2.1734781635442957E-003   6.3460744333346170E-002
   6.8812487043967280E-003  -2.0264270259822414E-003   6.3820870204962132E-002
   6.5342705172668353E-003  -1.8739098824868544E-003   6.4346901917464658E-002
   6.1872923301369270E-003  -1.7159267330579368E-003   6.5038839470853926E-002
   5.8403141430070291E-003  -1.5524775776957767E-003   6.5896682865129980E-002
   3.5962327798364658E-003  -1.0867391192782017E-003   6.4337699504721152E-002
   3.4189520593653610E-003  -1.0132135361849010E-003   6.4741477809941356E-002
   3.2416713388942527E-003  -9.3695495338099594E-004   6.5318745207592288E-002
   3.0643906184231501E-003  -8.5796337086633222E-004   6.6069501697674130E-002
   2.8871098979520397E-003  -7.7623878864094276E-004   6.6993747280186977E-002
  -2.6843617606520098E-011  -7.5012218658798702E-011   6.5142495624738839E-002
  -2.9111726917996350E-011  -4.6387671481795678E-011   6.5587193357340423E-002
  -3.1379836229472602E-011  -2.4275165211307126E-011   6.6212963433917138E-002
  -3.3647943806225378E-011  -8.6744292304707926E-012   6.7019805854468789E-002
  -3.5916054852425106E-011   4.1400216588272087E-013   6.8007720618995959E-002
   1.1945005566677575E-002  -3.1049551558056665E-003   6.3453280806271217E-002
   1.0919471722280305E-002  -2.7801852330003318E-003   6.3208187744586364E-002
   9.8939378778830078E-003  -2.4706040862349232E-003   6.3234990742520203E-002
   8.8684040334857245E-003  -2.1762117155095032E-003   6.3533689800072568E-002
   7.8428701890884411E-003  -1.8970081208238287E-003   6.4104284917243848E-002
   8.8596126992488561E-003  -2.3287163667506938E-003   6.4716527373824551E-002
   8.1020967651990322E-003  -2.0851389234441409E-003   6.4520360294764989E-002
   7.3445808311492153E-003  -1.8529530626784640E-003   6.4588332976781432E-002
   6.5870648970993845E-003  -1.6321587844538438E-003   6.4920445419874115E-002
   5.8295489630495606E-003  -1.4227560887700719E-003   6.5516697624043052E-002
   5.8403141430070291E-003  -1.5524775776957767E-003   6.5896682865129980E-002
   5.3430598207621464E-003  -1.3900926138879222E-003   6.5753238962194316E-002
   4.8458054985172638E-003  -1.2353020391221020E-003   6.5866178521792260E-002
   4.3485511762723847E-003  -1.0881058533982364E-003   6.6235501543924019E-002
   3.8512968540275125E-003  -9.4850405671642601E-004   6.6861208028589525E-002
   2.8871098979520397E-003  -7.7623878864094276E-004   6.6993747280186977E-002
   2.6423608889696044E-003  -6.9504630433155079E-004   6.6906823746874552E-002
   2.3976118799871604E-003  -6.1765101556552487E-004   6.7068527377553103E-002
   2.1528628710047347E-003  -5.4405292234254755E-004   6.7478858172222766E-002
   1.9081138620222812E-003  -4.7425202466272465E-004   6.8137816130883877E-002
  -3.5916054852425106E-011   4.1400216588272087E-013   6.8007720618995959E-002
  -3.0178567977934279E-011   5.2244319981298304E-012   6.7981114648805185E-002
  -2.4441077633996500E-011   7.9908024641639486E-012   6.8195379544063295E-002
  -1.8703590759505673E-011   8.7130511139399403E-012   6.8650515304770093E-002
  -1.2966100415567894E-011   7.3910877418370546E-012   6.9346521930925609E-002
   7.8428701890884411E-003  -1.8970081208238287E-003   6.4104284917243848E-002
   6.9246151557807167E-003  -1.6815374049851672E-003   6.4047771608815252E-002
   6.0063601224730340E-003  -1.5783436708003418E-003   6.4234077104646847E-002
   5.0881050891653165E-003  -1.5874269182693523E-003   6.4663201404738080E-002
   4.1698500558576268E-003  -1.7087871473920879E-003   6.5335144509089171E-002
   5.8295489630495606E-003  -1.4227560887700719E-003   6.5516697624043052E-002
   5.1507989725251974E-003  -1.2611530523051195E-003   6.5393697312379984E-002
   4.4720489820008341E-003  -1.1837577517359033E-003   6.5506888282023917E-002
   3.7932989914764674E-003  -1.1905701870629365E-003   6.5856270532974451E-002
   3.1145490009521076E-003  -1.2815903582856780E-003   6.6441844065232181E-002
   3.8512968540275125E-003  -9.4850405671642601E-004   6.6861208028589525E-002
   3.4054243833335392E-003  -8.4076869962476652E-004   6.6699789959449751E-002
   2.9595519126395693E-003  -7.8917183267135371E-004   6.6767935648663818E-002
   2.5136794419456047E-003  -7.9371345585629860E-004   6.7065645096231807E-002
   2.0678069712516400E-003  -8.5439356917954568E-004   6.7592918302154026E-002
   1.9081138620222812E-003  -4.7425202466272465E-004   6.8137816130883877E-002
   1.6884913882057716E-003  -4.2038434694456617E-004   6.7966049550024971E-002
   1.4688689143892578E-003  -3.9458591360702622E-004   6.8017219204567117E-002
   1.2492464405727470E-003  -3.9685672465010480E-004   6.8291325094510080E-002
   1.0296239667562344E-003  -4.2719678007327455E-004   6.8788367219854415E-002
  -1.2966100415567894E-011   7.3910877418370546E-012   6.9346521930925609E-002
  -1.2858117348635290E-011   5.7356897009697150E-012   6.9192476084105503E-002
  -1.2750127342808781E-011   5.4576343444523445E-012   6.9254738949733441E-002
  -1.2642142541152701E-011   6.5568106499824808E-012   6.9533310527809450E-002
  -1.2534154270049669E-011   9.0331075952576612E-012   7.0028190818333558E-002
   4.1698500558576268E-003  -1.7087871473920879E-003   6.5335144509089171E-002
   3.6357856193050542E-003  -2.0023115132282165E-003   6.4410789701075055E-002
   3.1017211827524954E-003  -2.5278871708380168E-003   6.3607679519481652E-002
   2.5676567461999367E-003  -3.2855141202207533E-003   6.2925813964309185E-002
   2.0335923096473918E-003  -4.2751923613769671E-003   6.2365193035557431E-002
   3.1145490009521076E-003  -1.2815903582856780E-003   6.6441844065232181E-002
   2.7047970615773353E-003  -1.5017336319317898E-003   6.5326071272818476E-002
   2.2950451222025631E-003  -1.8959153745279345E-003   6.4337678848339769E-002
   1.8852931828277908E-003  -2.4641355860742786E-003   6.3476666791795769E-002
   1.4755412434530185E-003  -3.2063942665707668E-003   6.2743035103186462E-002
   2.0678069712516400E-003  -8.5439356917954568E-004   6.7592918302154026E-002
   1.7885032705687726E-003  -1.0011557506353352E-003   6.6343740348163760E-002
   1.5091995698859016E-003  -1.2639435782181019E-003   6.5228078503622694E-002
   1.2298958692030376E-003  -1.6427570519278109E-003   6.4245932768530703E-002
   9.5059216852017708E-004  -2.1375961717647329E-003   6.3397303142887412E-002
   1.0296239667562344E-003  -4.2719678007327455E-004   6.8788367219854415E-002
   8.8690424627936928E-004  -5.0057786933872805E-004   6.7463796927110881E-002
   7.4418452580252408E-004  -6.3197178190814440E-004   6.6278878485330650E-002
   6.0146480532567194E-004  -8.2137851778167278E-004   6.5233611894513349E-002
   4.5874508484881373E-004  -1.0687980769583938E-003   6.4327997154659117E-002
  -1.2534154270049669E-011   9.0331075952576612E-012   7.0028190818333558E-002
  -1.1290871015923187E-011   1.1957657086725249E-011   6.8686241009660032E-002
  -1.0047587761796706E-011   1.4401951853315609E-011   6.7490078793463582E-002
  -8.8043027729467482E-012   1.6365166166654177E-011   6.6439704169744512E-002
  -7.5610212535437427E-012   1.7847501254664166E-011   6.5535117138502352E-002
   2.0335923096473918E-003  -4.2751923613769671E-003   6.2365193035557431E-002
   2.2843872266650606E-003  -5.5773040334969881E-003   5.8337098747742511E-002
   2.5351821436827154E-003  -7.2722312757710073E-003   5.4302996488673594E-002
   2.7859770607003981E-003  -9.3599740881994617E-003   5.0262886258350820E-002
   3.0367719777180668E-003  -1.1840532470782428E-002   4.6216768056774882E-002
   1.4755412434530185E-003  -3.2063942665707668E-003   6.2743035103186462E-002
   1.7061554997062633E-003  -4.1829780202195521E-003   5.8390156493368928E-002
   1.9367697559594874E-003  -5.4541734512219553E-003   5.4002924533275765E-002
   2.1673840122127495E-003  -7.0199805595785453E-003   4.9581339222907278E-002
   2.3979982684659562E-003  -8.8803993452888363E-003   4.5125400562264550E-002
   9.5059216852017708E-004  -2.1375961717647329E-003   6.3397303142887412E-002
   1.1326803849878685E-003  -2.7886520069416720E-003   5.8817844103866396E-002
   1.3147686014555564E-003  -3.6361156266724731E-003   5.4175686335549436E-002
   1.4968568179232512E-003  -4.6799870309569107E-003   4.9470829837935944E-002
   1.6789450343909357E-003  -5.9202662197952449E-003   4.4703274611026855E-002
   4.5874508484881373E-004  -1.0687980769583938E-003   6.4327997154659117E-002
   5.6396188250983689E-004  -1.3943259936642360E-003   5.9620161579235609E-002
   6.6917868017085918E-004  -1.8180578021234281E-003   5.4821281895494678E-002
   7.7439547783190229E-004  -2.3399935023358572E-003   4.9931358103437053E-002
   8.7961227549289076E-004  -2.9601330943016535E-003   4.4950390203061796E-002
  -7.5610212535437427E-012   1.7847501254664166E-011   6.5535117138502352E-002
  -7.7277767518424412E-012   1.9613421997632940E-011   6.0797108919476428E-002
  -7.8945461279289475E-012   2.2426061008218312E-011   5.5939711213112364E-002
  -8.0613068303980739E-012   2.6285695842176438E-011   5.0962924019409162E-002
  -8.2280710023141523E-012   3.1191937921448698E-011   4.5866747338368707E-002
  -4.3307326474950614E-010  -1.1780798558902461E-010   6.3542717553428996E-002
  -2.8698645543334678E-010  -2.2974949720477866E-010   6.3192748933169451E-002
  -1.4089962876995266E-010  -3.0492014468919137E-010   6.3186434062324603E-002
   5.1871874851006083E-012  -3.4331984477553590E-010   6.3523772940894285E-002
   1.5127400720960082E-010  -3.4494879175284154E-010   6.4204765568878663E-002
  -6.3355920668400068E-003   1.8389022507863118E-003   6.3872148326056005E-002
  -6.0261721520495359E-003   1.7953936999909881E-003   6.3534991886304820E-002
  -5.7167522372590773E-003   1.7475994442759657E-003   6.3473021234546387E-002
  -5.4073323224686056E-003   1.6955194836413487E-003   6.3686236370780580E-002
  -5.0979124076781408E-003   1.6391538180871856E-003   6.4174637295007469E-002
  -1.2621994705312944E-002   3.6778046193806646E-003   6.4160213530674248E-002
  -1.2071622983240814E-002   3.5907876297314317E-003   6.3831583529741082E-002
  -1.1521251261168704E-002   3.4951991934720483E-003   6.3709671355378680E-002
  -1.0970879539096598E-002   3.3910393106026809E-003   6.3794477007586836E-002
  -1.0420507817024485E-002   3.2783079811231908E-003   6.4086000486365730E-002
  -1.8859208348492040E-002   5.5167069879750175E-003   6.4406913167283975E-002
  -1.8136352780560288E-002   5.3861815594718823E-003   6.4082523863478430E-002
  -1.7413497212628529E-002   5.2427989426682281E-003   6.3896384424821401E-002
  -1.6690641644696767E-002   5.0865591375639715E-003   6.3848494851312998E-002
  -1.5967786076765019E-002   4.9174621441591265E-003   6.3938855142953305E-002
  -2.5047232996377337E-002   7.3556093565693148E-003   6.4612247235885101E-002
  -2.4220361544007925E-002   7.1815754892123607E-003   6.4287812887516393E-002
  -2.3393490091638536E-002   6.9903986918642969E-003   6.4033160442874437E-002
  -2.2566618639269148E-002   6.7820789645252344E-003   6.3848289901959149E-002
  -2.1739747186899749E-002   6.5566163071951733E-003   6.3733201264770389E-002
   1.5127400720960082E-010  -3.4494879175284154E-010   6.4204765568878663E-002
   1.2554042180812353E-010  -3.2489105850075362E-010   6.4779206473308953E-002
   9.9806836406646227E-011  -2.9823107872140042E-010   6.5411005906371694E-002
   7.4073247535721976E-011  -2.6496903976491737E-010   6.6100163868066802E-002
   4.8339665603691628E-011  -2.2510454611435193E-010   6.6846680358394139E-002
  -5.0979124076781408E-003   1.6391538180871856E-003   6.4174637295007469E-002
  -5.0201858688659305E-003   1.5788626226326957E-003   6.4542980710817613E-002
  -4.9424593300537167E-003   1.5150060722971745E-003   6.5009418727086987E-002
  -4.8647327912415056E-003   1.4475841670804953E-003   6.5573951343815481E-002
  -4.7870062524292926E-003   1.3765969069827744E-003   6.6236578561003345E-002
  -1.0420507817024485E-002   3.2783079811231908E-003   6.4086000486365730E-002
  -1.0224318641839619E-002   3.1577255701564499E-003   6.4244681052072317E-002
  -1.0028129466654767E-002   3.0300124428253722E-003   6.4542192290065026E-002
  -9.8319402914699046E-003   2.8951685991299748E-003   6.4978534200343885E-002
  -9.6357511162850473E-003   2.7531940390701226E-003   6.5553706782908630E-002
  -1.5967786076765019E-002   4.9174621441591265E-003   6.3938855142953305E-002
  -1.5612398193380658E-002   4.7365885176801764E-003   6.3884307497073176E-002
  -1.5257010309996299E-002   4.5450188133535699E-003   6.4009326595306032E-002
  -1.4901622426611943E-002   4.3427530311792879E-003   6.4313912437651707E-002
  -1.4546234543227586E-002   4.1297911711574847E-003   6.4798065024110382E-002
  -2.1739747186899749E-002   6.5566163071951733E-003   6.3733201264770389E-002
  -2.1184424523489034E-002   6.3154514652039029E-003   6.3461860045820162E-002
  -2.0629101860078332E-002   6.0600251838818786E-003   6.3410821642809784E-002
  -2.0073779196667616E-002   5.7903374632288368E-003   6.3580086055739143E-002
  -1.9518456533256907E-002   5.5063883032448468E-003   6.3969653284608297E-002
   4.8339665603691628E-011  -2.2510454611435193E-010   6.6846680358394139E-002
   2.9543846535862173E-011  -1.8334966878086334E-010   6.5978964850586352E-002
   1.0748023998585765E-011  -1.4441599305303754E-010   6.5405695559041216E-002
  -8.0477950692436906E-012  -1.0830355015589710E-010   6.5126872483758744E-002
  -2.6843617606520098E-011  -7.5012218658798702E-011   6.5142495624738839E-002
  -4.7870062524292926E-003   1.3765969069827744E-003   6.6236578561003345E-002
  -4.4893128977934529E-003   1.3039033329772520E-003   6.5310448009399918E-002
  -4.1916195431576132E-003   1.2313624860371686E-003   6.4685257988397221E-002
  -3.8939261885217701E-003   1.1589743661627461E-003   6.4361008497995142E-002
  -3.5962328338859269E-003   1.0867389733533184E-003   6.4337699538193849E-002
  -9.6357511162850473E-003   2.7531940390701226E-003   6.5553706782908630E-002
  -9.0338700738794749E-003   2.6078068493041728E-003   6.4569313917396370E-002
  -8.4319890314739025E-003   2.4627251164903927E-003   6.3892355896822600E-002
  -7.8301079890683370E-003   2.3179488406286555E-003   6.3522832721187750E-002
  -7.2282269466627577E-003   2.1734780217191885E-003   6.3460744390491569E-002
  -1.4546234543227586E-002   4.1297911711574847E-003   6.4798065024110382E-002
  -1.3633671498714230E-002   3.9117103656310936E-003   6.3755562574575736E-002
  -1.2721108454200873E-002   3.6940877469436410E-003   6.3026989284317797E-002
  -1.1808545409687518E-002   3.4769233150948693E-003   6.2612345153336718E-002
  -1.0895982365174165E-002   3.2602170700850031E-003   6.2511630181632499E-002
  -1.9518456533256907E-002   5.5063883032448468E-003   6.3969653284608297E-002
  -1.8288717172297700E-002   5.2156138819580422E-003   6.2869193980937932E-002
  -1.7058977811338499E-002   4.9254503773967506E-003   6.2089158150882451E-002
  -1.5829238450379295E-002   4.6358977895608264E-003   6.1629545794441909E-002
  -1.4599499089420084E-002   4.3469561184506511E-003   6.1490356911616251E-002
  -2.6843617606520098E-011  -7.5012218658798702E-011   6.5142495624738839E-002
  -2.9111726917996350E-011  -4.6387671481795678E-011   6.5587193357340423E-002
  -3.1379836229472602E-011  -2.4275165211307126E-011   6.6212963433917138E-002
  -3.3647943806225378E-011  -8.6744292304707926E-012   6.7019805854468789E-002
  -3.5916054852425106E-011   4.1400216588272087E-013   6.8007720618995959E-002
  -3.5962328338859269E-003   1.0867389733533184E-003   6.4337699538193849E-002
  -3.4189521174787050E-003   1.0132134390516967E-003   6.4741477831479821E-002
  -3.2416714010714918E-003   9.3695489469936000E-004   6.5318745218141350E-002
  -3.0643906846642725E-003   8.5796334029661359E-004   6.6069501698178434E-002
  -2.8871099682570497E-003   7.7623877584320766E-004   6.6993747271591075E-002
  -7.2282269466627577E-003   2.1734780217191885E-003   6.3460744390491569E-002
  -6.8812487621797633E-003   2.0264269244910094E-003   6.3820870240923477E-002
  -6.5342705776967481E-003   1.8739098136738991E-003   6.4346901934131423E-002
  -6.1872923932137502E-003   1.7159266892676599E-003   6.5038839470115350E-002
  -5.8403142087307385E-003   1.5524775512724687E-003   6.5896682848875371E-002
  -1.0895982365174165E-002   3.2602170700850031E-003   6.2511630181632499E-002
  -1.0386889963214888E-002   3.0396404099305163E-003   6.2825370585671836E-002
  -9.8777975612556173E-003   2.8108647326484867E-003   6.3297433581887427E-002
  -9.3687051592963397E-003   2.5738900382388710E-003   6.3927819170279648E-002
  -8.8596127573370709E-003   2.3287163267017574E-003   6.4716527350848374E-002
  -1.4599499089420084E-002   4.3469561184506511E-003   6.1490356911616251E-002
  -1.3935875720584086E-002   4.0528538953696347E-003   6.1754978865724230E-002
  -1.3272252351748084E-002   3.7478196516229495E-003   6.2170340161409182E-002
  -1.2608628982912097E-002   3.4318533872098565E-003   6.2736440798671175E-002
  -1.1945005614076090E-002   3.1049551021309352E-003   6.3453280777510113E-002
  -3.5916054852425106E-011   4.1400216588272087E-013   6.8007720618995959E-002
  -3.0178567977934279E-011   5.2244319981298304E-012   6.7981114648805185E-002
  -2.4441077633996500E-011   7.9908024641639486E-012   6.8195379544063295E-002
  -1.8703590759505673E-011   8.7130511139399403E-012   6.8650515304770093E-002
  -1.2966100415567894E-011   7.3910877418370546E-012   6.9346521930925609E-002
  -2.8871099682570497E-003   7.7623877584320766E-004   6.6993747271591075E-002
  -2.6423609481136187E-003   6.9504630246153276E-004   6.6906823737300114E-002
  -2.3976119279701946E-003   6.1765102127359084E-004   6.7068527366372060E-002
  -2.1528629078267671E-003   5.4405293227964557E-004   6.7478858158807400E-002
  -1.9081138876833395E-003   4.7425203547946104E-004   6.8137816114605843E-002
  -5.8403142087307385E-003   1.5524775512724687E-003   6.5896682848875371E-002
  -5.3430598762668185E-003   1.3900925996984392E-003   6.5753238944721598E-002
  -4.8458055438029132E-003   1.2353020345565041E-003   6.5866178501845715E-002
  -4.3485512113389932E-003   1.0881058558462990E-003   6.6235501520247597E-002
  -3.8512968788750879E-003   9.4850406356777883E-004   6.6861207999927091E-002
  -8.8596127573370709E-003   2.3287163267017574E-003   6.4716527350848374E-002
  -8.1020968146381499E-003   2.0851388969353873E-003   6.4520360271070137E-002
  -7.3445808719392151E-003   1.8529530478393549E-003   6.4588332950484162E-002
  -6.5870649292402977E-003   1.6321587794127009E-003   6.4920445389090378E-002
  -5.8295489865413594E-003   1.4227560916561799E-003   6.5516697586889230E-002
  -1.1945005614076090E-002   3.1049551021309352E-003   6.3453280777510113E-002
  -1.0919471763227592E-002   2.7801851941725020E-003   6.3208187716345288E-002
  -9.8939379123791256E-003   2.4706040611222335E-003   6.3234990712287331E-002
  -8.8684040615306433E-003   2.1762117029795539E-003   6.3533689765336299E-002
  -7.8428702106821679E-003   1.8970081197445809E-003   6.4104284875491691E-002
  -1.2966100415567894E-011   7.3910877418370546E-012   6.9346521930925609E-002
  -1.2858117348635290E-011   5.7356897009697150E-012   6.9192476084105503E-002
  -1.2750127342808781E-011   5.4576343444523445E-012   6.9254738949733441E-002
  -1.2642142541152701E-011   6.5568106499824808E-012   6.9533310527809450E-002
  -1.2534154270049669E-011   9.0331075952576612E-012   7.0028190818333558E-002
  -1.9081138876833395E-003   4.7425203547946104E-004   6.8137816114605843E-002
  -1.6884914136907590E-003   4.2038435767827176E-004   6.7966049536338780E-002
  -1.4688689396981907E-003   3.9458592568125672E-004   6.8017219193392570E-002
  -1.2492464657056137E-003   3.9685673948912370E-004   6.8291325085767754E-002
  -1.0296239917130558E-003   4.2719679910097064E-004   6.8788367213464041E-002
  -3.8512968788750879E-003   9.4850406356777883E-004   6.6861207999927091E-002
  -3.4054244081248037E-003   8.4076870962093708E-004   6.6699789934639764E-002
  -2.9595519373745317E-003   7.8917184590554523E-004   6.6767935627546737E-002
  -2.5136794666242471E-003   7.9371347242143675E-004   6.7065645078647984E-002
  -2.0678069958739755E-003   8.5439358916877817E-004   6.7592918287943421E-002
  -5.8295489865413594E-003   1.4227560916561799E-003   6.5516697586889230E-002
  -5.1507989961602678E-003   1.2611530615636163E-003   6.5393697279008636E-002
  -4.4720490057791676E-003   1.1837577661294452E-003   6.5506888252195777E-002
  -3.7932990153980652E-003   1.1905702053538608E-003   6.5856270506450029E-002
  -3.1145490250169766E-003   1.2815903792367245E-003   6.6441844041771725E-002
  -7.8428702106821679E-003   1.8970081197445809E-003   6.4104284875491691E-002
  -6.9246151777971054E-003   1.6815374135062955E-003   6.4047771569445411E-002
  -6.0063601449120846E-003   1.5783436863534839E-003   6.4234077067339579E-002
  -5.0881051120270377E-003   1.5874269382861253E-003   6.4663201369174111E-002
  -4.1698500791420012E-003   1.7087871693044487E-003   6.5335144474949258E-002
  -1.2534154270049669E-011   9.0331075952576612E-012   7.0028190818333558E-002
  -1.1290871015923187E-011   1.1957657086725249E-011   6.8686241009660032E-002
  -1.0047587761796706E-011   1.4401951853315609E-011   6.7490078793463582E-002
  -8.8043027729467482E-012   1.6365166166654177E-011   6.6439704169744512E-002
  -7.5610212535437427E-012   1.7847501254664166E-011   6.5535117138502352E-002
  -1.0296239917130558E-003   4.2719679910097064E-004   6.8788367213464041E-002
  -8.8690426874239378E-004   5.0057789300711475E-004   6.7463796920209873E-002
  -7.4418454577174740E-004   6.3197180969598588E-004   6.6278878477933401E-002
  -6.0146482280110623E-004   8.2137854916861097E-004   6.5233611886634429E-002
  -4.5874509983043904E-004   1.0687981114242406E-003   6.4327997146312765E-002
  -2.0678069958739755E-003   8.5439358916877817E-004   6.7592918287943421E-002
  -1.7885032926756358E-003   1.0011557740556287E-003   6.6343740333372925E-002
  -1.5091995894772892E-003   1.2639436049900060E-003   6.5228078488280258E-002
  -1.2298958862789456E-003   1.6427570819717192E-003   6.4245932752665630E-002
  -9.5059218308060286E-004   2.1375962050009800E-003   6.3397303126528581E-002
  -3.1145490250169766E-003   1.2815903792367245E-003   6.6441844041771725E-002
  -2.7047970830905779E-003   1.5017336551044480E-003   6.5326071249148993E-002
  -2.2950451411642061E-003   1.8959154002838111E-003   6.4337678824504224E-002
  -1.8852931992378382E-003   2.4641356147749958E-003   6.3476666767837892E-002
  -1.4755412573114355E-003   3.2063942985778304E-003   6.2743035079149606E-002
  -4.1698500791420012E-003   1.7087871693044487E-003   6.5335144474949258E-002
  -3.6357856399872532E-003   2.0023115361535448E-003   6.4410789667538326E-002
  -3.1017212008325051E-003   2.5278871955782822E-003   6.3607679486605728E-002
  -2.5676567616777519E-003   3.2855141475784388E-003   6.2925813932151742E-002
  -2.0335923225230090E-003   4.2751923921542367E-003   6.2365193004176200E-002
  -7.5610212535437427E-012   1.7847501254664166E-011   6.5535117138502352E-002
  -7.7277767518424412E-012   1.9613421997632940E-011   6.0797108919476428E-002
  -7.8945461279289475E-012   2.2426061008218312E-011   5.5939711213112364E-002
  -8.0613068303980739E-012   2.6285695842176438E-011   5.0962924019409162E-002
  -8.2280710023141523E-012   3.1191937921448698E-011   4.5866747338368707E-002
  -4.5874509983043904E-004   1.0687981114242406E-003   6.4327997146312765E-002
  -5.6396189783077671E-004   1.3943260318484696E-003   5.9620161573110897E-002
  -6.6917869583108663E-004   1.8180578458249497E-003   5.4821281891579754E-002
  -7.7439549383139916E-004   2.3399935533540833E-003   4.9931358101720391E-002
  -8.7961229183173423E-004   2.9601331544359955E-003   4.4950390203532198E-002
  -9.5059218308060286E-004   2.1375962050009800E-003   6.3397303126528581E-002
  -1.1326803999048979E-003   2.7886520440832951E-003   5.8817844091655969E-002
  -1.3147686167291738E-003   3.6361156692237273E-003   5.4175686327464279E-002
  -1.4968568335534719E-003   4.6799870804228594E-003   4.9470829833953345E-002
  -1.6789450503777725E-003   5.9202662776800530E-003   4.4703274611123445E-002
  -1.4755412573114355E-003   3.2063942985778304E-003   6.2743035079149606E-002
  -1.7061555139501368E-003   4.1829780563182317E-003   5.8390156475112323E-002
  -1.9367697705888177E-003   5.4541734926227825E-003   5.4002924520765785E-002
  -2.1673840272274738E-003   7.0199806074915522E-003   4.9581339216109618E-002
  -2.3979982838661998E-003   8.8803994009241105E-003   4.5125400561143392E-002
  -2.0335923225230090E-003   4.2751923921542367E-003   6.2365193004176200E-002
  -2.2843872399665038E-003   5.5773040685533903E-003   5.8337098723480141E-002
  -2.5351821574099778E-003   7.2722313160214491E-003   5.4302996471483733E-002
  -2.7859770748534640E-003   9.3599741345601478E-003   5.0262886248187533E-002
  -3.0367719922969466E-003   1.1840532524168168E-002   4.6216768053590762E-002
  -2.5047232996377337E-002   7.3556093565693148E-003   6.4612247235885101E-002
  -2.4220361544007925E-002   7.1815754892123607E-003   6.4287812887516393E-002
  -2.3393490091638536E-002   6.9903986918642969E-003   6.4033160442874437E-002
  -2.2566618639269148E-002   6.7820789645252344E-003   6.3848289901959149E-002
  -2.1739747186899749E-002   6.5566163071951733E-003   6.3733201264770389E-002
  -3.1286253328130793E-002   9.2655031443121816E-003   6.0474617369804279E-002
  -3.0342167161802845E-002   9.0133896989688933E-003   6.0034003657460283E-002
  -2.9398080995474880E-002   8.7535555612626437E-003   5.9758037469306954E-002
  -2.8453994829146949E-002   8.4860007311933425E-003   5.9646718805343897E-002
  -2.7509908662819021E-002   8.2107252087609828E-003   5.9700047665571299E-002
  -3.7676454022914301E-002   1.1175396932055076E-002   5.6254196806922896E-002
  -3.6520287522164033E-002   1.0845203908725440E-002   5.5706825968231871E-002
  -3.5364121021413772E-002   1.0516712430660963E-002   5.5418968274195041E-002
  -3.4207954520663476E-002   1.0189922497861395E-002   5.5390623724812460E-002
  -3.3051788019913181E-002   9.8648341103269588E-003   5.5621792320084157E-002
  -4.4217835080727991E-002   1.3085290719797971E-002   5.1950985547241368E-002
  -4.2754722625091543E-002   1.2677018118481938E-002   5.1306279819831137E-002
  -4.1291610169455088E-002   1.2279869300059212E-002   5.1015952857538974E-002
  -3.9828497713818668E-002   1.1893844264529448E-002   5.1080004660364831E-002
  -3.8365385258182221E-002   1.1518943011892796E-002   5.1498435228308728E-002
  -5.0910396501571725E-002   1.4995184507540837E-002   4.7564983590759391E-002
  -4.9045472470585383E-002   1.4508832328238574E-002   4.6832365212257976E-002
  -4.7180548439598957E-002   1.4043026169457601E-002   4.6548991219338642E-002
  -4.5315624408612587E-002   1.3597766031197521E-002   4.6714861612001085E-002
  -4.3450700377626203E-002   1.3173051913458800E-002   4.7329976390245276E-002
  -2.1739747186899749E-002   6.5566163071951733E-003   6.3733201264770389E-002
  -2.1184424523489034E-002   6.3154514652039029E-003   6.3461860045820162E-002
  -2.0629101860078332E-002   6.0600251838818786E-003   6.3410821642809784E-002
  -2.0073779196667616E-002   5.7903374632288368E-003   6.3580086055739143E-002
  -1.9518456533256907E-002   5.5063883032448468E-003   6.3969653284608297E-002
  -2.7509908662819021E-002   8.2107252087609828E-003   5.9700047665571299E-002
  -2.6750724550804218E-002   7.9199011785825169E-003   5.9621728316880368E-002
  -2.5991540438789401E-002   7.6057008252746056E-003   5.9730829049457868E-002
  -2.5232356326774612E-002   7.2681241488373703E-003   6.0027349863303783E-002
  -2.4473172214759781E-002   6.9071711492705856E-003   6.0511290758418074E-002
  -3.3051788019913181E-002   9.8648341103269588E-003   5.5621792320084157E-002
  -3.2121625193965629E-002   9.5243508919611031E-003   5.5727379957853998E-002
  -3.1191462368018077E-002   9.1513764666673325E-003   5.5987504942220975E-002
  -3.0261299542070533E-002   8.7459108344458483E-003   5.6402167273184992E-002
  -2.9331136716122974E-002   8.3079539952964077E-003   5.6971366950746116E-002
  -3.8365385258182221E-002   1.1518943011892796E-002   5.1498435228308728E-002
  -3.7297126452973298E-002   1.1128800605339564E-002   5.1778814968741094E-002
  -3.6228867647764368E-002   1.0697052108060170E-002   5.2180849321098996E-002
  -3.5160608842555452E-002   1.0223697520054188E-002   5.2704538285382657E-002
  -3.4092350037346481E-002   9.7087368413221603E-003   5.3349881861592029E-002
  -4.3450700377626203E-002   1.3173051913458800E-002   4.7329976390245276E-002
  -4.2277228327827224E-002   1.2733250318718248E-002   4.7776033349541391E-002
  -4.1103756278028251E-002   1.2242727749452759E-002   4.8310862186092013E-002
  -3.9930284228229279E-002   1.1701484205662853E-002   4.8934462899896919E-002
  -3.8756812178430300E-002   1.1109519687347968E-002   4.9646835490956165E-002
  -1.9518456533256907E-002   5.5063883032448468E-003   6.3969653284608297E-002
  -1.8288717172297700E-002   5.2156138819580422E-003   6.2869193980937932E-002
  -1.7058977811338499E-002   4.9254503773967506E-003   6.2089158150882451E-002
  -1.5829238450379295E-002   4.6358977895608264E-003   6.1629545794441909E-002
  -1.4599499089420084E-002   4.3469561184506511E-003   6.1490356911616251E-002
  -2.4473172214759781E-002   6.9071711492705856E-003   6.0511290758418074E-002
  -2.2939981686506135E-002   6.5391043353185963E-003   5.9495490134109069E-002
  -2.1406791158252503E-002   6.1801862157250254E-003   5.8766168370774016E-002
  -1.9873600629998864E-002   5.8304167904902338E-003   5.8323325468412936E-002
  -1.8340410101745221E-002   5.4897960596141382E-003   5.8166961427025876E-002
  -2.9331136716122974E-002   8.3079539952964077E-003   5.6971366950746116E-002
  -2.7528439633215794E-002   7.8625947886789699E-003   5.6048762783431502E-002
  -2.5725742550308604E-002   7.4349220540533695E-003   5.5378692864449977E-002
  -2.3923045467401413E-002   7.0249357914195891E-003   5.4961157193801562E-002
  -2.2120348384494233E-002   6.6326360007777085E-003   5.4796155771486346E-002
  -3.4092350037346481E-002   9.7087368413221603E-003   5.3349881861592029E-002
  -3.2054091012426615E-002   9.1860852420395447E-003   5.2529011928905023E-002
  -3.0015831987506788E-002   8.6896578923817899E-003   5.1926731631910417E-002
  -2.7977572962586929E-002   8.2194547923489149E-003   5.1543040970607905E-002
  -2.5939313937667095E-002   7.7754759419414038E-003   5.1377939944997481E-002
  -3.8756812178430300E-002   1.1109519687347968E-002   4.9646835490956165E-002
  -3.6516935824138674E-002   1.0509575695399925E-002   4.8936237570530006E-002
  -3.4277059469847063E-002   9.9443937307099745E-003   4.8410284673155252E-002
  -3.2037183115555451E-002   9.4139737932782928E-003   4.8068976798831750E-002
  -2.9797306761263825E-002   8.9183158831048215E-003   4.7912313947559626E-002
  -1.4599499089420084E-002   4.3469561184506511E-003   6.1490356911616251E-002
  -1.3935875720584086E-002   4.0528538953696347E-003   6.1754978865724230E-002
  -1.3272252351748084E-002   3.7478196516229495E-003   6.2170340161409182E-002
  -1.2608628982912097E-002   3.4318533872098565E-003   6.2736440798671175E-002
  -1.1945005614076090E-002   3.1049551021309352E-003   6.3453280777510113E-002
  -1.8340410101745221E-002   5.4897960596141382E-003   5.8166961427025876E-002
  -1.7522175214687571E-002   5.1452568054152770E-003   5.8382469406519588E-002
  -1.6703940327629993E-002   4.7837318102123966E-003   5.8756461080879563E-002
  -1.5885705440572384E-002   4.4052210740053964E-003   5.9288936450105870E-002
  -1.5067470553514765E-002   4.0097245967942730E-003   5.9979895514198467E-002
  -2.2120348384494233E-002   6.6326360007777085E-003   5.4796155771486346E-002
  -2.1139757625925688E-002   6.2376597154606139E-003   5.4956496056027829E-002
  -2.0159166867357168E-002   5.8196439688017396E-003   5.5283064388724927E-002
  -1.9178576108788623E-002   5.3785887608007159E-003   5.5775860769577509E-002
  -1.8197985350220075E-002   4.9144940914578328E-003   5.6434885198585832E-002
  -2.5939313937667095E-002   7.7754759419414038E-003   5.1377939944997481E-002
  -2.4788622954298310E-002   7.3300626255061035E-003   5.1477058814248911E-002
  -2.3637931970929581E-002   6.8555561273910236E-003   5.1750150084945185E-002
  -2.2487240987560827E-002   6.3519564475961457E-003   5.2197213757086275E-002
  -2.1336550004192070E-002   5.8192635861213926E-003   5.2818249830672383E-002
  -2.9797306761263825E-002   8.9183158831048215E-003   4.7912313947559626E-002
  -2.8468771199805537E-002   8.4224655355515377E-003   4.7944157681182986E-002
  -2.7140235638347263E-002   7.8914682859804602E-003   4.8157718169540537E-002
  -2.5811700076889002E-002   7.3253241343915580E-003   4.8552995412632319E-002
  -2.4483164515430700E-002   6.7240330807848414E-003   4.9129989410458097E-002
  -1.1945005614076090E-002   3.1049551021309352E-003   6.3453280777510113E-002
  -1.0919471763227592E-002   2.7801851941725020E-003   6.3208187716345288E-002
  -9.8939379123791256E-003   2.4706040611222335E-003   6.3234990712287331E-002
  -8.8684040615306433E-003   2.1762117029795539E-003   6.3533689765336299E-002
  -7.8428702106821679E-003   1.8970081197445809E-003   6.4104284875491691E-002
  -1.5067470553514765E-002   4.0097245967942730E-003   5.9979895514198467E-002
  -1.3784926452847086E-002   3.6115915362018858E-003   5.9725317463053651E-002
  -1.2502382352179360E-002   3.2251710498505670E-003   5.9712863854440884E-002
  -1.1219838251511679E-002   2.8504631377405179E-003   5.9942534688359542E-002
  -9.9372941508439547E-003   2.4874677998717454E-003   6.0414329964809776E-002
  -1.8197985350220075E-002   4.9144940914578328E-003   5.6434885198585832E-002
  -1.6688202614308357E-002   4.4429978782312418E-003   5.6167345956794901E-002
  -1.5178419878396649E-002   3.9797380385793307E-003   5.6112159542960380E-002
  -1.3668637142484919E-002   3.5247145725020336E-003   5.6269325957082346E-002
  -1.2158854406573194E-002   3.0779274799992984E-003   5.6638845199160542E-002
  -2.1336550004192070E-002   5.8192635861213926E-003   5.2818249830672383E-002
  -1.9629300247611541E-002   5.2744042202606672E-003   5.2534273197568586E-002
  -1.7922050491031020E-002   4.7343050273079904E-003   5.2432877777845957E-002
  -1.6214800734450512E-002   4.1989660072632735E-003   5.2514063571504573E-002
  -1.4507550977869968E-002   3.6683871601267681E-003   5.2777830578544301E-002
  -2.4483164515430700E-002   6.7240330807848414E-003   4.9129989410458097E-002
  -2.2608219352756559E-002   6.1058105622899261E-003   4.8826099185374727E-002
  -2.0733274190082446E-002   5.4888720160364002E-003   4.8675018559097338E-002
  -1.8858329027408312E-002   4.8732174420247285E-003   4.8676747531626013E-002
  -1.6983383864734192E-002   4.2588468402541269E-003   4.8831286102960614E-002
  -7.8428702106821679E-003   1.8970081197445809E-003   6.4104284875491691E-002
  -6.9246151777971054E-003   1.6815374135062955E-003   6.4047771569445411E-002
  -6.0063601449120846E-003   1.5783436863534839E-003   6.4234077067339579E-002
  -5.0881051120270377E-003   1.5874269382861253E-003   6.4663201369174111E-002
  -4.1698500791420012E-003   1.7087871693044487E-003   6.5335144474949258E-002
  -9.9372941508439547E-003   2.4874677998717454E-003   6.0414329964809776E-002
  -8.7744495155722933E-003   2.1866527404357239E-003   6.0344913622496776E-002
  -7.6116048803006146E-003   1.9984856636231230E-003   6.0521857681016478E-002
  -6.4487602450289481E-003   1.9229665694340745E-003   6.0945162140368769E-002
  -5.2859156097572746E-003   1.9600954578689045E-003   6.1614827000553929E-002
  -1.2158854406573194E-002   3.0779274799992984E-003   5.6638845199160542E-002
  -1.0747878572022640E-002   2.6917680673648747E-003   5.6556896824119074E-002
  -9.3369027374720741E-003   2.4186276408924151E-003   5.6724850446802463E-002
  -7.9259269029215065E-003   2.2585062005817981E-003   5.7142706067210787E-002
  -6.5149510683709232E-003   2.2114037464333602E-003   5.7810463685344426E-002
  -1.4507550977869968E-002   3.6683871601267681E-003   5.2777830578544301E-002
  -1.2844902347148211E-002   3.1968833942942199E-003   5.2683721174312463E-002
  -1.1182253716426496E-002   2.8387696181620473E-003   5.2843055364697841E-002
  -9.5196050857047614E-003   2.5940458317297455E-003   5.3255833149700504E-002
  -7.8569564549830252E-003   2.4627120349975939E-003   5.3922054529320779E-002
  -1.6983383864734192E-002   4.2588468402541269E-003   4.8831286102960614E-002
  -1.5065520840949004E-002   3.7019987212235650E-003   4.8725386673076687E-002
  -1.3147657817163844E-002   3.2589115954312908E-003   4.8876472434702445E-002
  -1.1229794793378649E-002   2.9295854628774570E-003   4.9284543387837637E-002
  -9.3119317695934956E-003   2.7140203235621607E-003   4.9949599532482569E-002
  -4.1698500791420012E-003   1.7087871693044487E-003   6.5335144474949258E-002
  -3.6357856399872532E-003   2.0023115361535448E-003   6.4410789667538326E-002
  -3.1017212008325051E-003   2.5278871955782822E-003   6.3607679486605728E-002
  -2.5676567616777519E-003   3.2855141475784388E-003   6.2925813932151742E-002
  -2.0335923225230090E-003   4.2751923921542367E-003   6.2365193004176200E-002
  -5.2859156097572746E-003   1.9600954578689045E-003   6.1614827000553929E-002
  -4.6049799199445463E-003   2.2165543433474433E-003   6.0882160541343711E-002
  -3.9240442301317971E-003   2.7990252402894655E-003   6.0321991956970661E-002
  -3.2431085403190566E-003   3.7075081486953737E-003   5.9934321247435182E-002
  -2.5621728505063161E-003   4.9420030685648486E-003   5.9719148412737288E-002
  -6.5149510683709232E-003   2.2114037464333602E-003   5.7810463685344426E-002
  -5.6358908795413106E-003   2.4307971505414805E-003   5.7363446293222681E-002
  -4.7568306907116676E-003   3.0701632850010929E-003   5.7140180024297382E-002
  -3.8777705018820546E-003   4.1295021498123086E-003   5.7140664878568295E-002
  -2.9987103130524120E-003   5.6088137449749054E-003   5.7364900856035628E-002
  -7.8569564549830252E-003   2.4627120349975939E-003   5.3922054529320779E-002
  -6.7285185187776087E-003   2.6450399577356704E-003   5.3854646923175348E-002
  -5.6000805825721636E-003   3.3413013297126093E-003   5.4062243688585324E-002
  -4.4716426463667263E-003   4.5514961509291324E-003   5.4544844825550276E-002
  -3.3432047101613015E-003   6.2756244213850176E-003   5.5302450334070954E-002
  -9.3119317695934956E-003   2.7140203235621607E-003   4.9949599532482569E-002
  -7.8828628376533538E-003   2.8592827649293606E-003   5.0355762431201434E-002
  -6.4537939057132399E-003   3.6124393744242089E-003   5.1088182949834582E-002
  -5.0247249737730912E-003   4.9734901520459771E-003   5.2146861088382152E-002
  -3.5956560418329842E-003   6.9424350977953520E-003   5.3531796846843394E-002
  -2.0335923225230090E-003   4.2751923921542367E-003   6.2365193004176200E-002
  -2.2843872399665038E-003   5.5773040685533903E-003   5.8337098723480141E-002
  -2.5351821574099778E-003   7.2722313160214491E-003   5.4302996471483733E-002
  -2.7859770748534640E-003   9.3599741345601478E-003   5.0262886248187533E-002
  -3.0367719922969466E-003   1.1840532524168168E-002   4.6216768053590762E-002
  -2.5621728505063161E-003   4.9420030685648486E-003   5.9719148412737288E-002
  -2.8364624915352236E-003   6.5663472114265709E-003   5.6188861447988403E-002
  -3.1107521325641190E-003   8.6443777888096096E-003   5.2617593007368790E-002
  -3.3850417735929927E-003   1.1176094800714395E-002   4.9005343090877812E-002
  -3.6593314146219219E-003   1.4161498247140525E-002   4.5352111698516717E-002
  -2.9987103130524120E-003   5.6088137449749054E-003   5.7364900856035628E-002
  -3.3314681822375659E-003   7.5553903542996403E-003   5.4393292070685884E-002
  -3.6642260514227502E-003   1.0016524261597520E-002   5.1345728304893951E-002
  -3.9969839206078911E-003   1.2992215466868746E-002   4.8222209558661008E-002
  -4.3297417897930311E-003   1.6482463970112882E-002   4.5022735831986016E-002
  -3.3432047101613015E-003   6.2756244213850176E-003   5.5302450334070954E-002
  -3.7694043120735112E-003   8.5444334971729874E-003   5.2950390591571916E-002
  -4.1956039139857343E-003   1.1388670734385556E-002   5.0487402364060137E-002
  -4.6218035158979076E-003   1.4808336133023157E-002   4.7913485651536289E-002
  -5.0480031178101658E-003   1.8803429693085238E-002   4.5228640453999436E-002
  -3.5956560418329842E-003   6.9424350977953520E-003   5.3531796846843394E-002
  -4.1502708810431388E-003   9.5334766400465565E-003   5.1860157010646835E-002
  -4.7048857202532102E-003   1.2760817207173369E-002   5.0042615184866857E-002
  -5.2595005594632885E-003   1.6624456799177401E-002   4.8079171369503571E-002
  -5.8141153986734362E-003   2.1124395416057595E-002   4.5969825564557087E-002
  -5.0910396501571725E-002   1.4995184507540837E-002   4.7564983590759391E-002
  -4.9045472470585383E-002   1.4508832328238574E-002   4.6832365212257976E-002
  -4.7180548439598957E-002   1.4043026169457601E-002   4.6548991219338642E-002
  -4.5315624408612587E-002   1.3597766031197521E-002   4.6714861612001085E-002
  -4.3450700377626203E-002   1.3173051913458800E-002   4.7329976390245276E-002
  -5.7350275975353290E-002   1.6766066511260669E-002   4.3110882160041220E-002
  -5.5155723202350571E-002   1.6354626536844191E-002   4.2905202703657913E-002
  -5.2961170429347733E-002   1.5902661158964493E-002   4.2909536345725557E-002
  -5.0766617656344909E-002   1.5410170377621615E-002   4.3123883086244236E-002
  -4.8572064883342127E-002   1.4877154192815684E-002   4.3548242925214031E-002
  -6.3133611191980576E-002   1.8536948514980556E-002   3.8762228646200853E-002
  -6.0848660964092166E-002   1.8200420745449669E-002   3.9022416687951200E-002
  -5.8563710736203728E-002   1.7762296148471454E-002   3.9253386541021743E-002
  -5.6278760508315359E-002   1.7222574724045741E-002   3.9455138205412403E-002
  -5.3993810280426990E-002   1.6581256472172651E-002   3.9627671681123300E-002
  -6.8260402151453334E-002   2.0307830518700387E-002   3.4519023049238352E-002
  -6.6124285755810308E-002   2.0046214954055189E-002   3.5184007165138073E-002
  -6.3988169360167102E-002   1.9621931137978436E-002   3.5580541805227156E-002
  -6.1852052964523979E-002   1.9034979070469797E-002   3.5708626969505726E-002
  -5.9715936568880842E-002   1.8285358751529660E-002   3.5568262657973471E-002
  -7.2730648853771784E-002   2.2078712522420274E-002   3.0381265369153643E-002
  -7.0982597577504719E-002   2.1892009162660819E-002   3.1389974135218601E-002
  -6.9234546301237737E-002   2.1481566127485349E-002   3.1891002138341978E-002
  -6.7486495024970755E-002   2.0847383416893971E-002   3.1884349378523927E-002
  -6.5738443748703718E-002   1.9989461030886557E-002   3.1370015855764211E-002
  -4.3450700377626203E-002   1.3173051913458800E-002   4.7329976390245276E-002
  -4.2277228327827224E-002   1.2733250318718248E-002   4.7776033349541391E-002
  -4.1103756278028251E-002   1.2242727749452759E-002   4.8310862186092013E-002
  -3.9930284228229279E-002   1.1701484205662853E-002   4.8934462899896919E-002
  -3.8756812178430300E-002   1.1109519687347968E-002   4.9646835490956165E-002
  -4.8572064883342127E-002   1.4877154192815684E-002   4.3548242925214031E-002
  -4.7289049994795024E-002   1.4316415985753519E-002   4.3681870146847837E-002
  -4.6006035106247969E-002   1.3740759137642035E-002   4.3945811168723620E-002
  -4.4723020217700901E-002   1.3150183648481134E-002   4.4340065990841102E-002
  -4.3440005329153805E-002   1.2544689518270868E-002   4.4864634613200532E-002
  -5.3993810280426990E-002   1.6581256472172651E-002   3.9627671681123300E-002
  -5.2559710630144363E-002   1.5899581652788902E-002   3.9484671498570288E-002
  -5.1125610979861708E-002   1.5238790525831145E-002   3.9513527039246626E-002
  -4.9691511329579080E-002   1.4598883091299416E-002   3.9714238303152294E-002
  -4.8257411679296425E-002   1.3979859349193824E-002   4.0086805290287172E-002
  -5.9715936568880842E-002   1.8285358751529660E-002   3.5568262657973471E-002
  -5.8089210233875206E-002   1.7482747319824174E-002   3.5184437404708911E-002
  -5.6462483898869528E-002   1.6736821914020227E-002   3.5014009797661144E-002
  -5.4835757563863843E-002   1.6047582534117699E-002   3.5056979836830239E-002
  -5.3209031228858159E-002   1.5415029180116779E-002   3.5313347522216057E-002
  -6.5738443748703718E-002   1.9989461030886557E-002   3.1370015855764211E-002
  -6.3877548805987533E-002   1.9065912986859557E-002   3.0781167865263581E-002
  -6.2016653863271376E-002   1.8234853302209586E-002   3.0447259443967117E-002
  -6.0155758920555191E-002   1.7496281976936104E-002   3.0368290591875138E-002
  -5.8294863977839007E-002   1.6850199011039679E-002   3.0544261308987186E-002
  -3.8756812178430300E-002   1.1109519687347968E-002   4.9646835490956165E-002
  -3.6516935824138674E-002   1.0509575695399925E-002   4.8936237570530006E-002
  -3.4277059469847063E-002   9.9443937307099745E-003   4.8410284673155252E-002
  -3.2037183115555451E-002   9.4139737932782928E-003   4.8068976798831750E-002
  -2.9797306761263825E-002   8.9183158831048215E-003   4.7912313947559626E-002
  -4.3440005329153805E-002   1.2544689518270868E-002   4.4864634613200532E-002
  -4.0995072836066945E-002   1.1939208509168936E-002   4.4065088064361241E-002
  -3.8550140342980065E-002   1.1348672383332967E-002   4.3491008770061082E-002
  -3.6105207849893156E-002   1.0773081140762791E-002   4.3142396730300313E-002
  -3.3660275356806268E-002   1.0212434781458390E-002   4.3019251945078552E-002
  -4.8257411679296425E-002   1.3979859349193824E-002   4.0086805290287172E-002
  -4.5566600815926436E-002   1.3368841322938044E-002   3.9178492969042425E-002
  -4.2875789952556406E-002   1.2752951035955799E-002   3.8536470133824823E-002
  -4.0184979089186418E-002   1.2132188488247124E-002   3.8160736784634247E-002
  -3.7494168225816388E-002   1.1506553679812154E-002   3.8051292921470845E-002
  -5.3209031228858159E-002   1.5415029180116779E-002   3.5313347522216057E-002
  -5.0231519763717133E-002   1.4798474136707186E-002   3.4276452284573572E-002
  -4.7254008298576108E-002   1.4157229688578851E-002   3.3546668764446147E-002
  -4.4276496833435083E-002   1.3491295835731595E-002   3.3123996961833560E-002
  -4.1298985368294051E-002   1.2800672578165875E-002   3.3008436876735853E-002
  -5.8294863977839007E-002   1.6850199011039679E-002   3.0544261308987186E-002
  -5.4989829679439106E-002   1.6228106950476107E-002   2.9358966010954668E-002
  -5.1684795381039178E-002   1.5561508341201583E-002   2.8521604661925160E-002
  -4.8379761082639250E-002   1.4850403183215972E-002   2.8032177261898342E-002
  -4.5074726784239350E-002   1.4094791476519541E-002   2.7890683810874284E-002
  -2.9797306761263825E-002   8.9183158831048215E-003   4.7912313947559626E-002
  -2.8468771199805537E-002   8.4224655355515377E-003   4.7944157681182986E-002
  -2.7140235638347263E-002   7.8914682859804602E-003   4.8157718169540537E-002
  -2.5811700076889002E-002   7.3253241343915580E-003   4.8552995412632319E-002
  -2.4483164515430700E-002   6.7240330807848414E-003   4.9129989410458097E-002
  -3.3660275356806268E-002   1.0212434781458390E-002   4.3019251945078552E-002
  -3.2168901865025697E-002   9.6461062177422008E-003   4.3030564483768796E-002
  -3.0677528373245097E-002   9.0534683619366008E-003   4.3185836128369570E-002
  -2.9186154881464525E-002   8.4345212140414100E-003   4.3485066878880749E-002
  -2.7694781389683870E-002   7.7892647740566145E-003   4.3928256735302373E-002
  -3.7494168225816388E-002   1.1506553679812154E-002   3.8051292921470845E-002
  -3.5877714452537207E-002   1.0869746899933336E-002   3.8050911875156079E-002
  -3.4261260679258013E-002   1.0215468437893081E-002   3.8156732285928259E-002
  -3.2644806905978790E-002   9.5437182936915967E-003   3.8368754153787002E-002
  -3.1028353132699631E-002   8.8544964673287763E-003   3.8686977478732565E-002
  -4.1298985368294051E-002   1.2800672578165875E-002   3.3008436876735853E-002
  -3.9595208962340013E-002   1.2093387582124179E-002   3.3005199855344683E-002
  -3.7891432556385947E-002   1.1377468513849281E-002   3.3070406642216395E-002
  -3.6187656150431929E-002   1.0652915373341450E-002   3.3204057237351148E-002
  -3.4483879744477836E-002   9.9197281606007992E-003   3.3406151640748970E-002
  -4.5074726784239350E-002   1.4094791476519541E-002   2.7890683810874284E-002
  -4.3321385394434170E-002   1.3317028264315245E-002   2.7893428424334676E-002
  -4.1568044004628962E-002   1.2539468589805688E-002   2.7926859197234227E-002
  -3.9814702614823783E-002   1.1762112452991687E-002   2.7990976129573089E-002
  -3.8061361225018575E-002   1.0984959853872711E-002   2.8085779221351248E-002
  -2.4483164515430700E-002   6.7240330807848414E-003   4.9129989410458097E-002
  -2.2608219352756559E-002   6.1058105622899261E-003   4.8826099185374727E-002
  -2.0733274190082446E-002   5.4888720160364002E-003   4.8675018559097338E-002
  -1.8858329027408312E-002   4.8732174420247285E-003   4.8676747531626013E-002
  -1.6983383864734192E-002   4.2588468402541269E-003   4.8831286102960614E-002
  -2.7694781389683870E-002   7.7892647740566145E-003   4.3928256735302373E-002
  -2.5664363308337920E-002   7.1338470584552116E-003   4.3508710317871124E-002
  -2.3633945226991943E-002   6.4844160837099485E-003   4.3247300138977540E-002
  -2.1603527145645972E-002   5.8409718498204852E-003   4.3144026198621746E-002
  -1.9573109064299959E-002   5.2035143567872311E-003   4.3198888496803589E-002
  -3.1028353132699631E-002   8.8544964673287763E-003   3.8686977478732565E-002
  -2.8837135492950070E-002   8.1618835546205248E-003   3.8156477637567965E-002
  -2.6645917853200498E-002   7.4799601513830666E-003   3.7789440674672881E-002
  -2.4454700213450871E-002   6.8087262576164119E-003   3.7585866590047222E-002
  -2.2263482573701296E-002   6.1481818733205018E-003   3.7545755383690926E-002
  -3.4483879744477836E-002   9.9197281606007992E-003   3.3406151640748970E-002
  -3.2126535906593007E-002   9.1899200507858242E-003   3.2769401144465644E-002
  -2.9769192068708112E-002   8.4755042190565108E-003   3.2301440166183734E-002
  -2.7411848230823280E-002   7.7764806654124202E-003   3.2002268705902788E-002
  -2.5054504392938395E-002   7.0928493898536338E-003   3.1871886763623028E-002
  -3.8061361225018575E-002   1.0984959853872711E-002   2.8085779221351248E-002
  -3.5532564549266732E-002   1.0217956546950957E-002   2.7347480838563976E-002
  -3.3003767873514805E-002   9.4710482867297052E-003   2.6783298613509698E-002
  -3.0474971197762907E-002   8.7442350732081994E-003   2.6393232546188167E-002
  -2.7946174522011036E-002   8.0375169063868768E-003   2.6177282636599686E-002
  -1.6983383864734192E-002   4.2588468402541269E-003   4.8831286102960614E-002
  -1.5065520840949004E-002   3.7019987212235650E-003   4.8725386673076687E-002
  -1.3147657817163844E-002   3.2589115954312908E-003   4.8876472434702445E-002
  -1.1229794793378649E-002   2.9295854628774570E-003   4.9284543387837637E-002
  -9.3119317695934956E-003   2.7140203235621607E-003   4.9949599532482569E-002
  -1.9573109064299959E-002   5.2035143567872311E-003   4.3198888496803589E-002
  -1.7437796209530669E-002   4.6047296907618107E-003   4.3045365349757725E-002
  -1.5302483354761358E-002   4.0773039378963483E-003   4.3069756673170589E-002
  -1.3167170499992054E-002   3.6212370981909964E-003   4.3272062467042183E-002
  -1.1031857645222756E-002   3.2365291716454081E-003   4.3652282731372394E-002
  -2.2263482573701296E-002   6.1481818733205018E-003   3.7545755383690926E-002
  -1.9989790608998845E-002   5.5074606603004450E-003   3.7302206439404656E-002
  -1.7716098644296224E-002   4.8956962803618775E-003   3.7157501244526270E-002
  -1.5442406679593708E-002   4.3128887335045427E-003   3.7111639799055504E-002
  -1.3168714714891144E-002   3.7590380197284889E-003   3.7164622102992678E-002
  -2.5054504392938395E-002   7.0928493898536338E-003   3.1871886763623028E-002
  -2.2721504039353437E-002   6.4101916298389960E-003   3.1495909942017869E-002
  -2.0388503685768566E-002   5.7140886228270599E-003   3.1139706148769375E-002
  -1.8055503332183691E-002   5.0045403688178634E-003   3.0803275383878104E-002
  -1.5722502978598736E-002   4.2815468678115975E-003   3.0486617647343540E-002
  -2.7946174522011036E-002   8.0375169063868768E-003   2.6177282636599686E-002
  -2.5632936500594672E-002   7.3129225993774361E-003   2.5626475857597031E-002
  -2.3319698479178252E-002   6.5324809652925475E-003   2.5016371385900127E-002
  -2.1006460457761875E-002   5.6961920041315936E-003   2.4346969221509251E-002
  -1.8693222436345469E-002   4.8040557158948172E-003   2.3618269364424682E-002
  -9.3119317695934956E-003   2.7140203235621607E-003   4.9949599532482569E-002
  -7.8828628376533538E-003   2.8592827649293606E-003   5.0355762431201434E-002
  -6.4537939057132399E-003   3.6124393744242089E-003   5.1088182949834582E-002
  -5.0247249737730912E-003   4.9734901520459771E-003   5.2146861088382152E-002
  -3.5956560418329842E-003   6.9424350977953520E-003   5.3531796846843394E-002
  -1.1031857645222756E-002   3.2365291716454081E-003   4.3652282731372394E-002
  -9.2581956956676315E-003   3.1629391104721627E-003   4.4239235326609117E-002
  -7.4845337461125275E-003   3.6402258668840060E-003   4.5189116337161800E-002
  -5.7108717965574096E-003   4.6683894408806187E-003   4.6501925763030430E-002
  -3.9372098470022987E-003   6.2474298324626254E-003   4.8177663604214715E-002
  -1.3168714714891144E-002   3.7590380197284889E-003   3.7164622102992678E-002
  -1.1013788952319387E-002   3.4665954560145484E-003   3.7875347044205254E-002
  -8.8588631897476011E-003   3.6680123593434838E-003   3.8985671196135066E-002
  -6.7039374271758833E-003   4.3632887297152638E-003   4.0495594558782676E-002
  -4.5490116646040579E-003   5.5524245671300099E-003   4.2405117132147452E-002
  -1.5722502978598736E-002   4.2815468678115975E-003   3.0486617647343540E-002
  -1.3149642607608626E-002   3.7702518015570313E-003   3.1264097583989098E-002
  -1.0576782236618544E-002   3.6957988518029547E-003   3.2477847526754394E-002
  -8.0039218656283908E-003   4.0581880185497961E-003   3.4127867475638569E-002
  -5.4310614946383520E-003   4.8574193017971168E-003   3.6214157430641741E-002
  -1.8693222436345469E-002   4.8040557158948172E-003   2.3618269364424682E-002
  -1.5665756661535385E-002   4.0739081470996807E-003   2.4405486945961785E-002
  -1.2638290886725245E-002   3.7235853442626754E-003   2.5665645329019549E-002
  -9.6108251119151056E-003   3.7530873073846407E-003   2.7398744513598389E-002
  -6.5833593371050214E-003   4.1624140364647788E-003   2.9604784499697945E-002
  -3.5956560418329842E-003   6.9424350977953520E-003   5.3531796846843394E-002
  -4.1502708810431388E-003   9.5334766400465565E-003   5.1860157010646835E-002
  -4.7048857202532102E-003   1.2760817207173369E-002   5.0042615184866857E-002
  -5.2595005594632885E-003   1.6624456799177401E-002   4.8079171369503571E-002
  -5.8141153986734362E-003   2.1124395416057595E-002   4.5969825564557087E-002
  -3.9372098470022987E-003   6.2474298324626254E-003   4.8177663604214715E-002
  -4.5335657954847647E-003   8.6864888484387559E-003   4.7242666363936647E-002
  -5.1299217439672445E-003   1.2294708295619572E-002   4.6370088894697681E-002
  -5.7262776924496862E-003   1.7072088174004144E-002   4.5559931196496789E-002
  -6.3226336409321904E-003   2.3018628483593595E-002   4.4812193269335054E-002
  -4.5490116646040579E-003   5.5524245671300099E-003   4.2405117132147452E-002
  -4.9787869617370362E-003   7.8395010568320656E-003   4.2739623894116230E-002
  -5.4085622588699520E-003   1.1828599384065774E-002   4.3344872187745159E-002
  -5.8383375560028695E-003   1.7519719548831719E-002   4.4220862013034656E-002
  -6.2681128531357905E-003   2.4912861551129373E-002   4.5367593369985082E-002
  -5.4310614946383520E-003   4.8574193017971168E-003   3.6214157430641741E-002
  -5.4859343797997867E-003   6.9925132652248201E-003   3.8351029601184736E-002
  -5.5408072649613021E-003   1.1362490472511644E-002   4.0966965064010041E-002
  -5.5956801501227914E-003   1.7967350923658879E-002   4.4061963819117742E-002
  -5.6505530352841983E-003   2.6807094618665150E-002   4.7636025866508308E-002
  -6.5833593371050214E-003   4.1624140364647788E-003   2.9604784499697945E-002
  -6.0550080496731828E-003   6.1455254736177967E-003   3.4076883485142928E-002
  -5.5266567622413443E-003   1.0896381560957985E-002   3.9236367523492188E-002
  -4.9983054748095196E-003   1.8414982298486156E-002   4.5083236614745642E-002
  -4.4699541873777227E-003   2.8701327686201150E-002   5.1617490758903539E-002
  -7.2730648853771784E-002   2.2078712522420274E-002   3.0381265369153643E-002
  -7.0982597577504719E-002   2.1892009162660819E-002   3.1389974135218601E-002
  -6.9234546301237737E-002   2.1481566127485349E-002   3.1891002138341978E-002
  -6.7486495024970755E-002   2.0847383416893971E-002   3.1884349378523927E-002
  -6.5738443748703718E-002   1.9989461030886557E-002   3.1370015855764211E-002
  -7.8119521593788210E-002   2.4588359872011134E-002   2.4419275109618499E-002
  -7.6462426426681204E-002   2.3605698391045149E-002   2.3282228686769324E-002
  -7.4805331259574240E-002   2.2709409565204924E-002   2.2470950808541695E-002
  -7.3148236092467289E-002   2.1899493394490273E-002   2.1985441474935447E-002
  -7.1491140925360283E-002   2.1175949878901312E-002   2.1825700685950661E-002
  -8.6002190666354922E-002   2.7098007221601966E-002   1.7506270563605861E-002
  -8.3602602300845041E-002   2.5319387619429562E-002   1.4533581282384522E-002
  -8.1203013935335161E-002   2.3937253002924423E-002   1.2720109853347435E-002
  -7.8803425569825225E-002   2.2951603372086633E-002   1.2065856276494740E-002
  -7.6403837204315345E-002   2.2362438726916040E-002   1.2570820551826442E-002
  -9.6378656071472113E-002   2.9607654571192785E-002   9.6422517311161131E-003
  -9.2403125199996314E-002   2.7033076847814044E-002   5.1440319220639706E-003
  -8.8427594328520528E-002   2.5165096440644043E-002   2.6384792727589656E-003
  -8.4452063457044660E-002   2.4003713349682963E-002   2.1255937832016175E-003
  -8.0476532585568847E-002   2.3548927574930781E-002   3.6053754533915371E-003
 -0.10924891780913959        3.2117301920783659E-002   8.2721861214907211E-004
 -0.10286399512413491        2.8746766076198305E-002  -4.8864193941922651E-003
  -9.6479072439130231E-002   2.6392939878363608E-002  -7.7739409332232834E-003
  -9.0094149754125441E-002   2.5055823327279306E-002  -7.8353460049439619E-003
  -8.3709227069120762E-002   2.4735416422945411E-002  -5.0706346093542520E-003
  -6.5738443748703718E-002   1.9989461030886557E-002   3.1370015855764211E-002
  -6.3877548805987533E-002   1.9065912986859557E-002   3.0781167865263581E-002
  -6.2016653863271376E-002   1.8234853302209586E-002   3.0447259443967117E-002
  -6.0155758920555191E-002   1.7496281976936104E-002   3.0368290591875138E-002
  -5.8294863977839007E-002   1.6850199011039679E-002   3.0544261308987186E-002
  -7.1491140925360283E-002   2.1175949878901312E-002   2.1825700685950661E-002
  -6.9453045710688111E-002   2.0485432796666633E-002   2.2035198581383461E-002
  -6.7414950496015924E-002   1.9774595926015368E-002   2.2344157451523919E-002
  -6.5376855281343710E-002   1.9043439266947026E-002   2.2752577296372062E-002
  -6.3338760066671551E-002   1.8291962819461827E-002   2.3260458115928251E-002
  -7.6403837204315345E-002   2.2362438726916040E-002   1.2570820551826442E-002
  -7.4344020312183567E-002   2.1904952606473738E-002   1.3465856185398861E-002
  -7.2284203420051832E-002   2.1314338549821038E-002   1.4304874199182444E-002
  -7.0224386527920124E-002   2.0590596556957892E-002   1.5087874593177258E-002
  -6.8164569635788319E-002   1.9733726627883974E-002   1.5814857367383722E-002
  -8.0476532585568847E-002   2.3548927574930781E-002   3.6053754533915371E-003
  -7.8550472610473987E-002   2.3324472416281022E-002   5.0731406773096392E-003
  -7.6624412635379141E-002   2.2854081173627180E-002   6.3294096869428232E-003
  -7.4698352660284253E-002   2.2137753846968648E-002   7.3741824822909172E-003
  -7.2772292685189394E-002   2.1175490436306177E-002   8.2074590633534790E-003
  -8.3709227069120762E-002   2.4735416422945411E-002  -5.0706346093542520E-003
  -8.2072402605559258E-002   2.4743992226088030E-002  -3.1429479428836671E-003
  -8.0435578141997810E-002   2.4393823797432684E-002  -1.5822360851950740E-003
  -7.8798753678436390E-002   2.3684911136979646E-002  -3.8849903628766433E-004
  -7.7161929214874858E-002   2.2617254244728158E-002   4.3826320383799633E-004
  -5.8294863977839007E-002   1.6850199011039679E-002   3.0544261308987186E-002
  -5.4989829679439106E-002   1.6228106950476107E-002   2.9358966010954668E-002
  -5.1684795381039178E-002   1.5561508341201583E-002   2.8521604661925160E-002
  -4.8379761082639250E-002   1.4850403183215972E-002   2.8032177261898342E-002
  -4.5074726784239350E-002   1.4094791476519541E-002   2.7890683810874284E-002
  -6.3338760066671551E-002   1.8291962819461827E-002   2.3260458115928251E-002
  -5.9723119557259743E-002   1.7523949186350585E-002   2.2227291033847185E-002
  -5.6107479047848033E-002   1.6743180970403782E-002   2.1467402424787063E-002
  -5.2491838538436301E-002   1.5949658171621875E-002   2.0980792288747982E-002
  -4.8876198029024515E-002   1.5143380790004490E-002   2.0767460625729539E-002
  -6.8164569635788319E-002   1.9733726627883974E-002   1.5814857367383722E-002
  -6.4312978391346726E-002   1.8819791422224980E-002   1.4965570467129957E-002
  -6.0461387146905091E-002   1.7924853599606140E-002   1.4314906563914910E-002
  -5.6609795902463463E-002   1.7048913160027886E-002   1.3862865657739119E-002
  -5.2758204658021862E-002   1.6191970103489411E-002   1.3609447748601802E-002
  -7.2772292685189394E-002   2.1175490436306177E-002   8.2074590633534790E-003
  -6.8759406181699900E-002   2.0115633658099583E-002   7.5738043108025052E-003
  -6.4746519678210379E-002   1.9106526228808530E-002   7.0641170793084591E-003
  -6.0733633174720893E-002   1.8148168148433622E-002   6.6783973688712460E-003
  -5.6720746671231358E-002   1.7240559416974291E-002   6.4166451794908409E-003
  -7.7161929214874858E-002   2.2617254244728158E-002   4.3826320383799633E-004
  -7.3062402928319448E-002   2.1411475893973742E-002   5.1992564865210866E-005
  -6.8962876641763926E-002   2.0288198858010559E-002  -2.8496602903255175E-004
  -6.4863350355208516E-002   1.9247423136839741E-002  -5.7261257785480579E-004
  -6.0763824068652994E-002   1.8289148730459281E-002  -8.1094708160300844E-004
  -4.5074726784239350E-002   1.4094791476519541E-002   2.7890683810874284E-002
  -4.3321385394434170E-002   1.3317028264315245E-002   2.7893428424334676E-002
  -4.1568044004628962E-002   1.2539468589805688E-002   2.7926859197234227E-002
  -3.9814702614823783E-002   1.1762112452991687E-002   2.7990976129573089E-002
  -3.8061361225018575E-002   1.0984959853872711E-002   2.8085779221351248E-002
  -4.8876198029024515E-002   1.5143380790004490E-002   2.0767460625729539E-002
  -4.7057875173144317E-002   1.4341015087678849E-002   2.0734355901170648E-002
  -4.5239552317264217E-002   1.3559227326772436E-002   2.0800527949322245E-002
  -4.3421229461384055E-002   1.2798017507285080E-002   2.0965976770184469E-002
  -4.1602906605503920E-002   1.2057385629216877E-002   2.1230702363757459E-002
  -5.2758204658021862E-002   1.6191970103489411E-002   1.3609447748601802E-002
  -5.0806309722795352E-002   1.5365001911042564E-002   1.3560868089747533E-002
  -4.8854414787568842E-002   1.4578986063738968E-002   1.3680155816875046E-002
  -4.6902519852342332E-002   1.3833922561578475E-002   1.3967310929984818E-002
  -4.4950624917115836E-002   1.3129811404561265E-002   1.4422333429076423E-002
  -5.6720746671231358E-002   1.7240559416974291E-002   6.4166451794908409E-003
  -5.4566689043387129E-002   1.6388988734406390E-002   6.3729649900651428E-003
  -5.2412631415542921E-002   1.5598744800705829E-002   6.5657427998925318E-003
  -5.0258573787698720E-002   1.4869827615872036E-002   6.9949786089737358E-003
  -4.8104516159854477E-002   1.4202237179905597E-002   7.6606724173080981E-003
  -6.0763824068652994E-002   1.8289148730459281E-002  -8.1094708160300844E-004
  -5.8339013134919626E-002   1.7412975557769883E-002  -8.2935339787604256E-004
  -5.5914202201186369E-002   1.6618503537672247E-002  -5.4271110162484870E-004
  -5.3489391267453057E-002   1.5905732670165540E-002   4.8979807151711130E-005
  -5.1064580333719745E-002   1.5274662955249818E-002   9.4571932845266549E-004
  -3.8061361225018575E-002   1.0984959853872711E-002   2.8085779221351248E-002
  -3.5532564549266732E-002   1.0217956546950957E-002   2.7347480838563976E-002
  -3.3003767873514805E-002   9.4710482867297052E-003   2.6783298613509698E-002
  -3.0474971197762907E-002   8.7442350732081994E-003   2.6393232546188167E-002
  -2.7946174522011036E-002   8.0375169063868768E-003   2.6177282636599686E-002
  -4.1602906605503920E-002   1.2057385629216877E-002   2.1230702363757459E-002
  -3.8925390116326050E-002   1.1321021636082784E-002   2.0664861143111002E-002
  -3.6247873627148236E-002   1.0572615471397401E-002   2.0222343391583741E-002
  -3.3570357137970366E-002   9.8121671351609693E-003   1.9903149109175511E-002
  -3.0892840648792552E-002   9.0396766273737050E-003   1.9707278295886255E-002
  -4.4950624917115836E-002   1.3129811404561265E-002   1.4422333429076423E-002
  -4.2175181303125933E-002   1.2424086725214362E-002   1.3996812152319821E-002
  -3.9399737689136002E-002   1.1674182656064999E-002   1.3643821656068575E-002
  -3.6624294075146106E-002   1.0880099197113909E-002   1.3363361940322234E-002
  -3.3848850461156169E-002   1.0041836348360755E-002   1.3155433005081402E-002
  -4.8104516159854477E-002   1.4202237179905597E-002   7.6606724173080981E-003
  -4.5281938109666311E-002   1.3527151814345731E-002   7.3433338661902728E-003
  -4.2459360059478146E-002   1.2775749840732924E-002   7.0477334069639179E-003
  -3.9636782009289946E-002   1.1948031259066931E-002   6.7738710396287125E-003
  -3.6814203959101816E-002   1.1043996069347806E-002   6.5217467641849602E-003
  -5.1064580333719745E-002   1.5274662955249818E-002   9.4571932845266549E-004
  -4.8245660535947144E-002   1.4630216903477655E-002   7.0442628472244806E-004
  -4.5426740738174654E-002   1.3877317025400404E-002   4.3407864427011389E-004
  -4.2607820940402108E-002   1.3015963321019702E-002   1.3467640709493439E-004
  -3.9788901142629562E-002   1.2046155790334412E-002  -1.9378042680284757E-004
  -2.7946174522011036E-002   8.0375169063868768E-003   2.6177282636599686E-002
  -2.5632936500594672E-002   7.3129225993774361E-003   2.5626475857597031E-002
  -2.3319698479178252E-002   6.5324809652925475E-003   2.5016371385900127E-002
  -2.1006460457761875E-002   5.6961920041315936E-003   2.4346969221509251E-002
  -1.8693222436345469E-002   4.8040557158948172E-003   2.3618269364424682E-002
  -3.0892840648792552E-002   9.0396766273737050E-003   1.9707278295886255E-002
  -2.8619715042559779E-002   8.2655018917824896E-003   1.9142726303245650E-002
  -2.6346589436327075E-002   7.5000008721353151E-003   1.8557247172931612E-002
  -2.4073463830094372E-002   6.7431735684314875E-003   1.7950840904944323E-002
  -2.1800338223861654E-002   5.9950199806716453E-003   1.7323507499283408E-002
  -3.3848850461156169E-002   1.0041836348360755E-002   1.3155433005081402E-002
  -3.1577466715086530E-002   9.2180811841879318E-003   1.2641656841822502E-002
  -2.9306082969016892E-002   8.4675207789779855E-003   1.2145324095910612E-002
  -2.7034699222947305E-002   7.7901551327317180E-003   1.1666434767346155E-002
  -2.4763315476877615E-002   7.1859842454482514E-003   1.1204988856128778E-002
  -3.6814203959101816E-002   1.1043996069347806E-002   6.5217467641849602E-003
  -3.4506191518174717E-002   1.0170660476593124E-002   6.1232674733272263E-003
  -3.2198179077247667E-002   9.4350406858209265E-003   5.7806021548372916E-003
  -2.9890166636320568E-002   8.8371366970317802E-003   5.4937508087149842E-003
  -2.7582154195393511E-002   8.3769485102253571E-003   5.2627134349602506E-003
  -3.9788901142629562E-002   1.2046155790334412E-002  -1.9378042680284757E-004
  -3.7405889451824437E-002   1.1123239768998427E-002  -4.1244180223998228E-004
  -3.5022877761019366E-002   1.0402560592663590E-002  -5.3691865028904218E-004
  -3.2639866070214296E-002   9.8841182613319950E-003  -5.6721097094936113E-004
  -3.0256854379409170E-002   9.5679127750019077E-003  -5.0331876422182731E-004
  -1.8693222436345469E-002   4.8040557158948172E-003   2.3618269364424682E-002
  -1.5665756661535385E-002   4.0739081470996807E-003   2.4405486945961785E-002
  -1.2638290886725245E-002   3.7235853442626754E-003   2.5665645329019549E-002
  -9.6108251119151056E-003   3.7530873073846407E-003   2.7398744513598389E-002
  -6.5833593371050214E-003   4.1624140364647788E-003   2.9604784499697945E-002
  -2.1800338223861654E-002   5.9950199806716453E-003   1.7323507499283408E-002
  -1.8568421055068535E-002   5.3403822414707647E-003   1.8265465581349449E-002
  -1.5336503886275402E-002   4.8641024834448765E-003   1.9143385649860539E-002
  -1.2104586717482241E-002   4.5661807065924959E-003   1.9957267704817053E-002
  -8.8726695486891494E-003   4.4466169109150799E-003   2.0707111746218754E-002
  -2.4763315476877615E-002   7.1859842454482514E-003   1.1204988856128778E-002
  -2.1863925729177065E-002   6.6068563358418764E-003   1.2100220653939175E-002
  -1.8964535981476439E-002   6.0046196226262866E-003   1.2394435623119732E-002
  -1.6065146233775821E-002   5.3792741058005696E-003   1.2087633763669746E-002
  -1.3165756486075264E-002   4.7308197853653255E-003   1.1179815075589600E-002
  -2.7582154195393511E-002   8.3769485102253571E-003   5.2627134349602506E-003
  -2.5552270683861095E-002   7.8733304302128632E-003   5.9097521637319905E-003
  -2.3522387172328487E-002   7.1451367618075926E-003   5.4187952487975387E-003
  -2.1492503660796004E-002   6.1923675050084229E-003   3.7898426901571709E-003
  -1.9462620149263466E-002   5.0150226598153769E-003   1.0228944878111004E-003
  -3.0256854379409170E-002   9.5679127750019077E-003  -5.0331876422182731E-004
  -2.9633455919120366E-002   9.1398045245839610E-003  -3.0593988927357652E-004
  -2.9010057458831506E-002   8.2856539009900088E-003  -1.7835354731064457E-003
  -2.8386658998542702E-002   7.0054609042165816E-003  -4.9361055157215034E-003
  -2.7763260538253842E-002   5.2992255342663164E-003  -9.7636500171173202E-003
  -6.5833593371050214E-003   4.1624140364647788E-003   2.9604784499697945E-002
  -6.0550080496731828E-003   6.1455254736177967E-003   3.4076883485142928E-002
  -5.5266567622413443E-003   1.0896381560957985E-002   3.9236367523492188E-002
  -4.9983054748095196E-003   1.8414982298486156E-002   4.5083236614745642E-002
  -4.4699541873777227E-003   2.8701327686201150E-002   5.1617490758903539E-002
  -8.8726695486891494E-003   4.4466169109150799E-003   2.0707111746218754E-002
  -7.5856567680389897E-003   5.6590821910871836E-003   2.5873432856531764E-002
  -6.2986439873888023E-003   9.3572476417846107E-003   3.1869691900376917E-002
  -5.0116312067387189E-003   1.5541113263006702E-002   3.8695888877754436E-002
  -3.7246184260886772E-003   2.4210679054753825E-002   4.6352023788664098E-002
  -1.3165756486075264E-002   4.7308197853653255E-003   1.1179815075589600E-002
  -1.0977529331578723E-002   5.1726389085570146E-003   1.6758313831108568E-002
  -8.7893021770823337E-003   7.8181137226106673E-003   2.3309303400787448E-002
  -6.6010750225859761E-003   1.2667244227527134E-002   3.0832783784626984E-002
  -4.4128478680895145E-003   1.9720030423306723E-002   3.9328754982626890E-002
  -1.9462620149263466E-002   5.0150226598153769E-003   1.0228944878111004E-003
  -1.6230625740292735E-002   4.6861956260264015E-003   6.7315264088730897E-003
  -1.2998631331321947E-002   6.2789798034371194E-003   1.3555202024723465E-002
  -9.7666369223512461E-003   9.7933751920483997E-003   2.1493921335362820E-002
  -6.5346425133804356E-003   1.5229381791859176E-002   3.0547684340789028E-002
  -2.7763260538253842E-002   5.2992255342663164E-003  -9.7636500171173202E-003
  -2.3344945994180688E-002   4.1997523434962325E-003  -4.2069294101741983E-003
  -1.8926631450107645E-002   4.7398458842634605E-003   2.6073877721852212E-003
  -1.4508316906034574E-002   6.9195061565683613E-003   1.0679301529961008E-002
  -1.0090002361961448E-002   1.0738733160412295E-002   2.0008811863153175E-002
 </DataArray>
 </PointData>
 </Piece>
 </UnstructuredGrid>
 </VTKFile>
