 <VTKFile type="UnstructuredGrid"  version="0.1"   >
 <UnstructuredGrid>
 <Piece  NumberOfPoints="          1600 "  NumberOfCells="         1024 ">
 <Points>
 <DataArray  type="Float64" NumberOfComponents="3"  format="ascii" >
   0.0000000000000000        0.0000000000000000        0.0000000000000000     
   3.1250000000000000E-002   0.0000000000000000        0.0000000000000000     
   6.2500000000000000E-002   0.0000000000000000        0.0000000000000000     
   9.3750000000000000E-002   0.0000000000000000        0.0000000000000000     
  0.12500000000000000        0.0000000000000000        0.0000000000000000     
   0.0000000000000000        3.1250000000000000E-002   0.0000000000000000     
   3.1250000000000000E-002   3.1250000000000000E-002   0.0000000000000000     
   6.2500000000000000E-002   3.1250000000000000E-002   0.0000000000000000     
   9.3750000000000000E-002   3.1250000000000000E-002   0.0000000000000000     
  0.12500000000000000        3.1250000000000000E-002   0.0000000000000000     
   0.0000000000000000        6.2500000000000000E-002   0.0000000000000000     
   3.1250000000000000E-002   6.2500000000000000E-002   0.0000000000000000     
   6.2500000000000000E-002   6.2500000000000000E-002   0.0000000000000000     
   9.3750000000000000E-002   6.2500000000000000E-002   0.0000000000000000     
  0.12500000000000000        6.2500000000000000E-002   0.0000000000000000     
   0.0000000000000000        9.3750000000000000E-002   0.0000000000000000     
   3.1250000000000000E-002   9.3750000000000000E-002   0.0000000000000000     
   6.2500000000000000E-002   9.3750000000000000E-002   0.0000000000000000     
   9.3750000000000000E-002   9.3750000000000000E-002   0.0000000000000000     
  0.12500000000000000        9.3750000000000000E-002   0.0000000000000000     
   0.0000000000000000       0.12500000000000000        0.0000000000000000     
   3.1250000000000000E-002  0.12500000000000000        0.0000000000000000     
   6.2500000000000000E-002  0.12500000000000000        0.0000000000000000     
   9.3750000000000000E-002  0.12500000000000000        0.0000000000000000     
  0.12500000000000000       0.12500000000000000        0.0000000000000000     
  0.12500000000000000        0.0000000000000000        0.0000000000000000     
  0.15625000000000000        0.0000000000000000        0.0000000000000000     
  0.18750000000000000        0.0000000000000000        0.0000000000000000     
  0.21875000000000000        0.0000000000000000        0.0000000000000000     
  0.25000000000000000        0.0000000000000000        0.0000000000000000     
  0.12500000000000000        3.1250000000000000E-002   0.0000000000000000     
  0.15625000000000000        3.1250000000000000E-002   0.0000000000000000     
  0.18750000000000000        3.1250000000000000E-002   0.0000000000000000     
  0.21875000000000000        3.1250000000000000E-002   0.0000000000000000     
  0.25000000000000000        3.1250000000000000E-002   0.0000000000000000     
  0.12500000000000000        6.2500000000000000E-002   0.0000000000000000     
  0.15625000000000000        6.2500000000000000E-002   0.0000000000000000     
  0.18750000000000000        6.2500000000000000E-002   0.0000000000000000     
  0.21875000000000000        6.2500000000000000E-002   0.0000000000000000     
  0.25000000000000000        6.2500000000000000E-002   0.0000000000000000     
  0.12500000000000000        9.3750000000000000E-002   0.0000000000000000     
  0.15625000000000000        9.3750000000000000E-002   0.0000000000000000     
  0.18750000000000000        9.3750000000000000E-002   0.0000000000000000     
  0.21875000000000000        9.3750000000000000E-002   0.0000000000000000     
  0.25000000000000000        9.3750000000000000E-002   0.0000000000000000     
  0.12500000000000000       0.12500000000000000        0.0000000000000000     
  0.15625000000000000       0.12500000000000000        0.0000000000000000     
  0.18750000000000000       0.12500000000000000        0.0000000000000000     
  0.21875000000000000       0.12500000000000000        0.0000000000000000     
  0.25000000000000000       0.12500000000000000        0.0000000000000000     
  0.25000000000000000        0.0000000000000000        0.0000000000000000     
  0.28125000000000000        0.0000000000000000        0.0000000000000000     
  0.31250000000000000        0.0000000000000000        0.0000000000000000     
  0.34375000000000000        0.0000000000000000        0.0000000000000000     
  0.37500000000000000        0.0000000000000000        0.0000000000000000     
  0.25000000000000000        3.1250000000000000E-002   0.0000000000000000     
  0.28125000000000000        3.1250000000000000E-002   0.0000000000000000     
  0.31250000000000000        3.1250000000000000E-002   0.0000000000000000     
  0.34375000000000000        3.1250000000000000E-002   0.0000000000000000     
  0.37500000000000000        3.1250000000000000E-002   0.0000000000000000     
  0.25000000000000000        6.2500000000000000E-002   0.0000000000000000     
  0.28125000000000000        6.2500000000000000E-002   0.0000000000000000     
  0.31250000000000000        6.2500000000000000E-002   0.0000000000000000     
  0.34375000000000000        6.2500000000000000E-002   0.0000000000000000     
  0.37500000000000000        6.2500000000000000E-002   0.0000000000000000     
  0.25000000000000000        9.3750000000000000E-002   0.0000000000000000     
  0.28125000000000000        9.3750000000000000E-002   0.0000000000000000     
  0.31250000000000000        9.3750000000000000E-002   0.0000000000000000     
  0.34375000000000000        9.3750000000000000E-002   0.0000000000000000     
  0.37500000000000000        9.3750000000000000E-002   0.0000000000000000     
  0.25000000000000000       0.12500000000000000        0.0000000000000000     
  0.28125000000000000       0.12500000000000000        0.0000000000000000     
  0.31250000000000000       0.12500000000000000        0.0000000000000000     
  0.34375000000000000       0.12500000000000000        0.0000000000000000     
  0.37500000000000000       0.12500000000000000        0.0000000000000000     
  0.37500000000000000        0.0000000000000000        0.0000000000000000     
  0.40625000000000000        0.0000000000000000        0.0000000000000000     
  0.43750000000000000        0.0000000000000000        0.0000000000000000     
  0.46875000000000000        0.0000000000000000        0.0000000000000000     
  0.50000000000000000        0.0000000000000000        0.0000000000000000     
  0.37500000000000000        3.1250000000000000E-002   0.0000000000000000     
  0.40625000000000000        3.1250000000000000E-002   0.0000000000000000     
  0.43750000000000000        3.1250000000000000E-002   0.0000000000000000     
  0.46875000000000000        3.1250000000000000E-002   0.0000000000000000     
  0.50000000000000000        3.1250000000000000E-002   0.0000000000000000     
  0.37500000000000000        6.2500000000000000E-002   0.0000000000000000     
  0.40625000000000000        6.2500000000000000E-002   0.0000000000000000     
  0.43750000000000000        6.2500000000000000E-002   0.0000000000000000     
  0.46875000000000000        6.2500000000000000E-002   0.0000000000000000     
  0.50000000000000000        6.2500000000000000E-002   0.0000000000000000     
  0.37500000000000000        9.3750000000000000E-002   0.0000000000000000     
  0.40625000000000000        9.3750000000000000E-002   0.0000000000000000     
  0.43750000000000000        9.3750000000000000E-002   0.0000000000000000     
  0.46875000000000000        9.3750000000000000E-002   0.0000000000000000     
  0.50000000000000000        9.3750000000000000E-002   0.0000000000000000     
  0.37500000000000000       0.12500000000000000        0.0000000000000000     
  0.40625000000000000       0.12500000000000000        0.0000000000000000     
  0.43750000000000000       0.12500000000000000        0.0000000000000000     
  0.46875000000000000       0.12500000000000000        0.0000000000000000     
  0.50000000000000000       0.12500000000000000        0.0000000000000000     
  0.50000000000000000        0.0000000000000000        0.0000000000000000     
  0.53125000000000000        0.0000000000000000        0.0000000000000000     
  0.56250000000000000        0.0000000000000000        0.0000000000000000     
  0.59375000000000000        0.0000000000000000        0.0000000000000000     
  0.62500000000000000        0.0000000000000000        0.0000000000000000     
  0.50000000000000000        3.1250000000000000E-002   0.0000000000000000     
  0.53125000000000000        3.1250000000000000E-002   0.0000000000000000     
  0.56250000000000000        3.1250000000000000E-002   0.0000000000000000     
  0.59375000000000000        3.1250000000000000E-002   0.0000000000000000     
  0.62500000000000000        3.1250000000000000E-002   0.0000000000000000     
  0.50000000000000000        6.2500000000000000E-002   0.0000000000000000     
  0.53125000000000000        6.2500000000000000E-002   0.0000000000000000     
  0.56250000000000000        6.2500000000000000E-002   0.0000000000000000     
  0.59375000000000000        6.2500000000000000E-002   0.0000000000000000     
  0.62500000000000000        6.2500000000000000E-002   0.0000000000000000     
  0.50000000000000000        9.3750000000000000E-002   0.0000000000000000     
  0.53125000000000000        9.3750000000000000E-002   0.0000000000000000     
  0.56250000000000000        9.3750000000000000E-002   0.0000000000000000     
  0.59375000000000000        9.3750000000000000E-002   0.0000000000000000     
  0.62500000000000000        9.3750000000000000E-002   0.0000000000000000     
  0.50000000000000000       0.12500000000000000        0.0000000000000000     
  0.53125000000000000       0.12500000000000000        0.0000000000000000     
  0.56250000000000000       0.12500000000000000        0.0000000000000000     
  0.59375000000000000       0.12500000000000000        0.0000000000000000     
  0.62500000000000000       0.12500000000000000        0.0000000000000000     
  0.62500000000000000        0.0000000000000000        0.0000000000000000     
  0.65625000000000000        0.0000000000000000        0.0000000000000000     
  0.68750000000000000        0.0000000000000000        0.0000000000000000     
  0.71875000000000000        0.0000000000000000        0.0000000000000000     
  0.75000000000000000        0.0000000000000000        0.0000000000000000     
  0.62500000000000000        3.1250000000000000E-002   0.0000000000000000     
  0.65625000000000000        3.1250000000000000E-002   0.0000000000000000     
  0.68750000000000000        3.1250000000000000E-002   0.0000000000000000     
  0.71875000000000000        3.1250000000000000E-002   0.0000000000000000     
  0.75000000000000000        3.1250000000000000E-002   0.0000000000000000     
  0.62500000000000000        6.2500000000000000E-002   0.0000000000000000     
  0.65625000000000000        6.2500000000000000E-002   0.0000000000000000     
  0.68750000000000000        6.2500000000000000E-002   0.0000000000000000     
  0.71875000000000000        6.2500000000000000E-002   0.0000000000000000     
  0.75000000000000000        6.2500000000000000E-002   0.0000000000000000     
  0.62500000000000000        9.3750000000000000E-002   0.0000000000000000     
  0.65625000000000000        9.3750000000000000E-002   0.0000000000000000     
  0.68750000000000000        9.3750000000000000E-002   0.0000000000000000     
  0.71875000000000000        9.3750000000000000E-002   0.0000000000000000     
  0.75000000000000000        9.3750000000000000E-002   0.0000000000000000     
  0.62500000000000000       0.12500000000000000        0.0000000000000000     
  0.65625000000000000       0.12500000000000000        0.0000000000000000     
  0.68750000000000000       0.12500000000000000        0.0000000000000000     
  0.71875000000000000       0.12500000000000000        0.0000000000000000     
  0.75000000000000000       0.12500000000000000        0.0000000000000000     
  0.75000000000000000        0.0000000000000000        0.0000000000000000     
  0.78125000000000000        0.0000000000000000        0.0000000000000000     
  0.81250000000000000        0.0000000000000000        0.0000000000000000     
  0.84375000000000000        0.0000000000000000        0.0000000000000000     
  0.87500000000000000        0.0000000000000000        0.0000000000000000     
  0.75000000000000000        3.1250000000000000E-002   0.0000000000000000     
  0.78125000000000000        3.1250000000000000E-002   0.0000000000000000     
  0.81250000000000000        3.1250000000000000E-002   0.0000000000000000     
  0.84375000000000000        3.1250000000000000E-002   0.0000000000000000     
  0.87500000000000000        3.1250000000000000E-002   0.0000000000000000     
  0.75000000000000000        6.2500000000000000E-002   0.0000000000000000     
  0.78125000000000000        6.2500000000000000E-002   0.0000000000000000     
  0.81250000000000000        6.2500000000000000E-002   0.0000000000000000     
  0.84375000000000000        6.2500000000000000E-002   0.0000000000000000     
  0.87500000000000000        6.2500000000000000E-002   0.0000000000000000     
  0.75000000000000000        9.3750000000000000E-002   0.0000000000000000     
  0.78125000000000000        9.3750000000000000E-002   0.0000000000000000     
  0.81250000000000000        9.3750000000000000E-002   0.0000000000000000     
  0.84375000000000000        9.3750000000000000E-002   0.0000000000000000     
  0.87500000000000000        9.3750000000000000E-002   0.0000000000000000     
  0.75000000000000000       0.12500000000000000        0.0000000000000000     
  0.78125000000000000       0.12500000000000000        0.0000000000000000     
  0.81250000000000000       0.12500000000000000        0.0000000000000000     
  0.84375000000000000       0.12500000000000000        0.0000000000000000     
  0.87500000000000000       0.12500000000000000        0.0000000000000000     
  0.87500000000000000        0.0000000000000000        0.0000000000000000     
  0.90625000000000000        0.0000000000000000        0.0000000000000000     
  0.93750000000000000        0.0000000000000000        0.0000000000000000     
  0.96875000000000000        0.0000000000000000        0.0000000000000000     
   1.0000000000000000        0.0000000000000000        0.0000000000000000     
  0.87500000000000000        3.1250000000000000E-002   0.0000000000000000     
  0.90625000000000000        3.1250000000000000E-002   0.0000000000000000     
  0.93750000000000000        3.1250000000000000E-002   0.0000000000000000     
  0.96875000000000000        3.1250000000000000E-002   0.0000000000000000     
   1.0000000000000000        3.1250000000000000E-002   0.0000000000000000     
  0.87500000000000000        6.2500000000000000E-002   0.0000000000000000     
  0.90625000000000000        6.2500000000000000E-002   0.0000000000000000     
  0.93750000000000000        6.2500000000000000E-002   0.0000000000000000     
  0.96875000000000000        6.2500000000000000E-002   0.0000000000000000     
   1.0000000000000000        6.2500000000000000E-002   0.0000000000000000     
  0.87500000000000000        9.3750000000000000E-002   0.0000000000000000     
  0.90625000000000000        9.3750000000000000E-002   0.0000000000000000     
  0.93750000000000000        9.3750000000000000E-002   0.0000000000000000     
  0.96875000000000000        9.3750000000000000E-002   0.0000000000000000     
   1.0000000000000000        9.3750000000000000E-002   0.0000000000000000     
  0.87500000000000000       0.12500000000000000        0.0000000000000000     
  0.90625000000000000       0.12500000000000000        0.0000000000000000     
  0.93750000000000000       0.12500000000000000        0.0000000000000000     
  0.96875000000000000       0.12500000000000000        0.0000000000000000     
   1.0000000000000000       0.12500000000000000        0.0000000000000000     
   0.0000000000000000       0.12500000000000000        0.0000000000000000     
   3.1250000000000000E-002  0.12500000000000000        0.0000000000000000     
   6.2500000000000000E-002  0.12500000000000000        0.0000000000000000     
   9.3750000000000000E-002  0.12500000000000000        0.0000000000000000     
  0.12500000000000000       0.12500000000000000        0.0000000000000000     
   0.0000000000000000       0.15625000000000000        0.0000000000000000     
   3.1250000000000000E-002  0.15625000000000000        0.0000000000000000     
   6.2500000000000000E-002  0.15625000000000000        0.0000000000000000     
   9.3750000000000000E-002  0.15625000000000000        0.0000000000000000     
  0.12500000000000000       0.15625000000000000        0.0000000000000000     
   0.0000000000000000       0.18750000000000000        0.0000000000000000     
   3.1250000000000000E-002  0.18750000000000000        0.0000000000000000     
   6.2500000000000000E-002  0.18750000000000000        0.0000000000000000     
   9.3750000000000000E-002  0.18750000000000000        0.0000000000000000     
  0.12500000000000000       0.18750000000000000        0.0000000000000000     
   0.0000000000000000       0.21875000000000000        0.0000000000000000     
   3.1250000000000000E-002  0.21875000000000000        0.0000000000000000     
   6.2500000000000000E-002  0.21875000000000000        0.0000000000000000     
   9.3750000000000000E-002  0.21875000000000000        0.0000000000000000     
  0.12500000000000000       0.21875000000000000        0.0000000000000000     
   0.0000000000000000       0.25000000000000000        0.0000000000000000     
   3.1250000000000000E-002  0.25000000000000000        0.0000000000000000     
   6.2500000000000000E-002  0.25000000000000000        0.0000000000000000     
   9.3750000000000000E-002  0.25000000000000000        0.0000000000000000     
  0.12500000000000000       0.25000000000000000        0.0000000000000000     
  0.12500000000000000       0.12500000000000000        0.0000000000000000     
  0.15625000000000000       0.12500000000000000        0.0000000000000000     
  0.18750000000000000       0.12500000000000000        0.0000000000000000     
  0.21875000000000000       0.12500000000000000        0.0000000000000000     
  0.25000000000000000       0.12500000000000000        0.0000000000000000     
  0.12500000000000000       0.15625000000000000        0.0000000000000000     
  0.15625000000000000       0.15625000000000000        0.0000000000000000     
  0.18750000000000000       0.15625000000000000        0.0000000000000000     
  0.21875000000000000       0.15625000000000000        0.0000000000000000     
  0.25000000000000000       0.15625000000000000        0.0000000000000000     
  0.12500000000000000       0.18750000000000000        0.0000000000000000     
  0.15625000000000000       0.18750000000000000        0.0000000000000000     
  0.18750000000000000       0.18750000000000000        0.0000000000000000     
  0.21875000000000000       0.18750000000000000        0.0000000000000000     
  0.25000000000000000       0.18750000000000000        0.0000000000000000     
  0.12500000000000000       0.21875000000000000        0.0000000000000000     
  0.15625000000000000       0.21875000000000000        0.0000000000000000     
  0.18750000000000000       0.21875000000000000        0.0000000000000000     
  0.21875000000000000       0.21875000000000000        0.0000000000000000     
  0.25000000000000000       0.21875000000000000        0.0000000000000000     
  0.12500000000000000       0.25000000000000000        0.0000000000000000     
  0.15625000000000000       0.25000000000000000        0.0000000000000000     
  0.18750000000000000       0.25000000000000000        0.0000000000000000     
  0.21875000000000000       0.25000000000000000        0.0000000000000000     
  0.25000000000000000       0.25000000000000000        0.0000000000000000     
  0.25000000000000000       0.12500000000000000        0.0000000000000000     
  0.28125000000000000       0.12500000000000000        0.0000000000000000     
  0.31250000000000000       0.12500000000000000        0.0000000000000000     
  0.34375000000000000       0.12500000000000000        0.0000000000000000     
  0.37500000000000000       0.12500000000000000        0.0000000000000000     
  0.25000000000000000       0.15625000000000000        0.0000000000000000     
  0.28125000000000000       0.15625000000000000        0.0000000000000000     
  0.31250000000000000       0.15625000000000000        0.0000000000000000     
  0.34375000000000000       0.15625000000000000        0.0000000000000000     
  0.37500000000000000       0.15625000000000000        0.0000000000000000     
  0.25000000000000000       0.18750000000000000        0.0000000000000000     
  0.28125000000000000       0.18750000000000000        0.0000000000000000     
  0.31250000000000000       0.18750000000000000        0.0000000000000000     
  0.34375000000000000       0.18750000000000000        0.0000000000000000     
  0.37500000000000000       0.18750000000000000        0.0000000000000000     
  0.25000000000000000       0.21875000000000000        0.0000000000000000     
  0.28125000000000000       0.21875000000000000        0.0000000000000000     
  0.31250000000000000       0.21875000000000000        0.0000000000000000     
  0.34375000000000000       0.21875000000000000        0.0000000000000000     
  0.37500000000000000       0.21875000000000000        0.0000000000000000     
  0.25000000000000000       0.25000000000000000        0.0000000000000000     
  0.28125000000000000       0.25000000000000000        0.0000000000000000     
  0.31250000000000000       0.25000000000000000        0.0000000000000000     
  0.34375000000000000       0.25000000000000000        0.0000000000000000     
  0.37500000000000000       0.25000000000000000        0.0000000000000000     
  0.37500000000000000       0.12500000000000000        0.0000000000000000     
  0.40625000000000000       0.12500000000000000        0.0000000000000000     
  0.43750000000000000       0.12500000000000000        0.0000000000000000     
  0.46875000000000000       0.12500000000000000        0.0000000000000000     
  0.50000000000000000       0.12500000000000000        0.0000000000000000     
  0.37500000000000000       0.15625000000000000        0.0000000000000000     
  0.40625000000000000       0.15625000000000000        0.0000000000000000     
  0.43750000000000000       0.15625000000000000        0.0000000000000000     
  0.46875000000000000       0.15625000000000000        0.0000000000000000     
  0.50000000000000000       0.15625000000000000        0.0000000000000000     
  0.37500000000000000       0.18750000000000000        0.0000000000000000     
  0.40625000000000000       0.18750000000000000        0.0000000000000000     
  0.43750000000000000       0.18750000000000000        0.0000000000000000     
  0.46875000000000000       0.18750000000000000        0.0000000000000000     
  0.50000000000000000       0.18750000000000000        0.0000000000000000     
  0.37500000000000000       0.21875000000000000        0.0000000000000000     
  0.40625000000000000       0.21875000000000000        0.0000000000000000     
  0.43750000000000000       0.21875000000000000        0.0000000000000000     
  0.46875000000000000       0.21875000000000000        0.0000000000000000     
  0.50000000000000000       0.21875000000000000        0.0000000000000000     
  0.37500000000000000       0.25000000000000000        0.0000000000000000     
  0.40625000000000000       0.25000000000000000        0.0000000000000000     
  0.43750000000000000       0.25000000000000000        0.0000000000000000     
  0.46875000000000000       0.25000000000000000        0.0000000000000000     
  0.50000000000000000       0.25000000000000000        0.0000000000000000     
  0.50000000000000000       0.12500000000000000        0.0000000000000000     
  0.53125000000000000       0.12500000000000000        0.0000000000000000     
  0.56250000000000000       0.12500000000000000        0.0000000000000000     
  0.59375000000000000       0.12500000000000000        0.0000000000000000     
  0.62500000000000000       0.12500000000000000        0.0000000000000000     
  0.50000000000000000       0.15625000000000000        0.0000000000000000     
  0.53125000000000000       0.15625000000000000        0.0000000000000000     
  0.56250000000000000       0.15625000000000000        0.0000000000000000     
  0.59375000000000000       0.15625000000000000        0.0000000000000000     
  0.62500000000000000       0.15625000000000000        0.0000000000000000     
  0.50000000000000000       0.18750000000000000        0.0000000000000000     
  0.53125000000000000       0.18750000000000000        0.0000000000000000     
  0.56250000000000000       0.18750000000000000        0.0000000000000000     
  0.59375000000000000       0.18750000000000000        0.0000000000000000     
  0.62500000000000000       0.18750000000000000        0.0000000000000000     
  0.50000000000000000       0.21875000000000000        0.0000000000000000     
  0.53125000000000000       0.21875000000000000        0.0000000000000000     
  0.56250000000000000       0.21875000000000000        0.0000000000000000     
  0.59375000000000000       0.21875000000000000        0.0000000000000000     
  0.62500000000000000       0.21875000000000000        0.0000000000000000     
  0.50000000000000000       0.25000000000000000        0.0000000000000000     
  0.53125000000000000       0.25000000000000000        0.0000000000000000     
  0.56250000000000000       0.25000000000000000        0.0000000000000000     
  0.59375000000000000       0.25000000000000000        0.0000000000000000     
  0.62500000000000000       0.25000000000000000        0.0000000000000000     
  0.62500000000000000       0.12500000000000000        0.0000000000000000     
  0.65625000000000000       0.12500000000000000        0.0000000000000000     
  0.68750000000000000       0.12500000000000000        0.0000000000000000     
  0.71875000000000000       0.12500000000000000        0.0000000000000000     
  0.75000000000000000       0.12500000000000000        0.0000000000000000     
  0.62500000000000000       0.15625000000000000        0.0000000000000000     
  0.65625000000000000       0.15625000000000000        0.0000000000000000     
  0.68750000000000000       0.15625000000000000        0.0000000000000000     
  0.71875000000000000       0.15625000000000000        0.0000000000000000     
  0.75000000000000000       0.15625000000000000        0.0000000000000000     
  0.62500000000000000       0.18750000000000000        0.0000000000000000     
  0.65625000000000000       0.18750000000000000        0.0000000000000000     
  0.68750000000000000       0.18750000000000000        0.0000000000000000     
  0.71875000000000000       0.18750000000000000        0.0000000000000000     
  0.75000000000000000       0.18750000000000000        0.0000000000000000     
  0.62500000000000000       0.21875000000000000        0.0000000000000000     
  0.65625000000000000       0.21875000000000000        0.0000000000000000     
  0.68750000000000000       0.21875000000000000        0.0000000000000000     
  0.71875000000000000       0.21875000000000000        0.0000000000000000     
  0.75000000000000000       0.21875000000000000        0.0000000000000000     
  0.62500000000000000       0.25000000000000000        0.0000000000000000     
  0.65625000000000000       0.25000000000000000        0.0000000000000000     
  0.68750000000000000       0.25000000000000000        0.0000000000000000     
  0.71875000000000000       0.25000000000000000        0.0000000000000000     
  0.75000000000000000       0.25000000000000000        0.0000000000000000     
  0.75000000000000000       0.12500000000000000        0.0000000000000000     
  0.78125000000000000       0.12500000000000000        0.0000000000000000     
  0.81250000000000000       0.12500000000000000        0.0000000000000000     
  0.84375000000000000       0.12500000000000000        0.0000000000000000     
  0.87500000000000000       0.12500000000000000        0.0000000000000000     
  0.75000000000000000       0.15625000000000000        0.0000000000000000     
  0.78125000000000000       0.15625000000000000        0.0000000000000000     
  0.81250000000000000       0.15625000000000000        0.0000000000000000     
  0.84375000000000000       0.15625000000000000        0.0000000000000000     
  0.87500000000000000       0.15625000000000000        0.0000000000000000     
  0.75000000000000000       0.18750000000000000        0.0000000000000000     
  0.78125000000000000       0.18750000000000000        0.0000000000000000     
  0.81250000000000000       0.18750000000000000        0.0000000000000000     
  0.84375000000000000       0.18750000000000000        0.0000000000000000     
  0.87500000000000000       0.18750000000000000        0.0000000000000000     
  0.75000000000000000       0.21875000000000000        0.0000000000000000     
  0.78125000000000000       0.21875000000000000        0.0000000000000000     
  0.81250000000000000       0.21875000000000000        0.0000000000000000     
  0.84375000000000000       0.21875000000000000        0.0000000000000000     
  0.87500000000000000       0.21875000000000000        0.0000000000000000     
  0.75000000000000000       0.25000000000000000        0.0000000000000000     
  0.78125000000000000       0.25000000000000000        0.0000000000000000     
  0.81250000000000000       0.25000000000000000        0.0000000000000000     
  0.84375000000000000       0.25000000000000000        0.0000000000000000     
  0.87500000000000000       0.25000000000000000        0.0000000000000000     
  0.87500000000000000       0.12500000000000000        0.0000000000000000     
  0.90625000000000000       0.12500000000000000        0.0000000000000000     
  0.93750000000000000       0.12500000000000000        0.0000000000000000     
  0.96875000000000000       0.12500000000000000        0.0000000000000000     
   1.0000000000000000       0.12500000000000000        0.0000000000000000     
  0.87500000000000000       0.15625000000000000        0.0000000000000000     
  0.90625000000000000       0.15625000000000000        0.0000000000000000     
  0.93750000000000000       0.15625000000000000        0.0000000000000000     
  0.96875000000000000       0.15625000000000000        0.0000000000000000     
   1.0000000000000000       0.15625000000000000        0.0000000000000000     
  0.87500000000000000       0.18750000000000000        0.0000000000000000     
  0.90625000000000000       0.18750000000000000        0.0000000000000000     
  0.93750000000000000       0.18750000000000000        0.0000000000000000     
  0.96875000000000000       0.18750000000000000        0.0000000000000000     
   1.0000000000000000       0.18750000000000000        0.0000000000000000     
  0.87500000000000000       0.21875000000000000        0.0000000000000000     
  0.90625000000000000       0.21875000000000000        0.0000000000000000     
  0.93750000000000000       0.21875000000000000        0.0000000000000000     
  0.96875000000000000       0.21875000000000000        0.0000000000000000     
   1.0000000000000000       0.21875000000000000        0.0000000000000000     
  0.87500000000000000       0.25000000000000000        0.0000000000000000     
  0.90625000000000000       0.25000000000000000        0.0000000000000000     
  0.93750000000000000       0.25000000000000000        0.0000000000000000     
  0.96875000000000000       0.25000000000000000        0.0000000000000000     
   1.0000000000000000       0.25000000000000000        0.0000000000000000     
   0.0000000000000000       0.25000000000000000        0.0000000000000000     
   3.1250000000000000E-002  0.25000000000000000        0.0000000000000000     
   6.2500000000000000E-002  0.25000000000000000        0.0000000000000000     
   9.3750000000000000E-002  0.25000000000000000        0.0000000000000000     
  0.12500000000000000       0.25000000000000000        0.0000000000000000     
   0.0000000000000000       0.28125000000000000        0.0000000000000000     
   3.1250000000000000E-002  0.28125000000000000        0.0000000000000000     
   6.2500000000000000E-002  0.28125000000000000        0.0000000000000000     
   9.3750000000000000E-002  0.28125000000000000        0.0000000000000000     
  0.12500000000000000       0.28125000000000000        0.0000000000000000     
   0.0000000000000000       0.31250000000000000        0.0000000000000000     
   3.1250000000000000E-002  0.31250000000000000        0.0000000000000000     
   6.2500000000000000E-002  0.31250000000000000        0.0000000000000000     
   9.3750000000000000E-002  0.31250000000000000        0.0000000000000000     
  0.12500000000000000       0.31250000000000000        0.0000000000000000     
   0.0000000000000000       0.34375000000000000        0.0000000000000000     
   3.1250000000000000E-002  0.34375000000000000        0.0000000000000000     
   6.2500000000000000E-002  0.34375000000000000        0.0000000000000000     
   9.3750000000000000E-002  0.34375000000000000        0.0000000000000000     
  0.12500000000000000       0.34375000000000000        0.0000000000000000     
   0.0000000000000000       0.37500000000000000        0.0000000000000000     
   3.1250000000000000E-002  0.37500000000000000        0.0000000000000000     
   6.2500000000000000E-002  0.37500000000000000        0.0000000000000000     
   9.3750000000000000E-002  0.37500000000000000        0.0000000000000000     
  0.12500000000000000       0.37500000000000000        0.0000000000000000     
  0.12500000000000000       0.25000000000000000        0.0000000000000000     
  0.15625000000000000       0.25000000000000000        0.0000000000000000     
  0.18750000000000000       0.25000000000000000        0.0000000000000000     
  0.21875000000000000       0.25000000000000000        0.0000000000000000     
  0.25000000000000000       0.25000000000000000        0.0000000000000000     
  0.12500000000000000       0.28125000000000000        0.0000000000000000     
  0.15625000000000000       0.28125000000000000        0.0000000000000000     
  0.18750000000000000       0.28125000000000000        0.0000000000000000     
  0.21875000000000000       0.28125000000000000        0.0000000000000000     
  0.25000000000000000       0.28125000000000000        0.0000000000000000     
  0.12500000000000000       0.31250000000000000        0.0000000000000000     
  0.15625000000000000       0.31250000000000000        0.0000000000000000     
  0.18750000000000000       0.31250000000000000        0.0000000000000000     
  0.21875000000000000       0.31250000000000000        0.0000000000000000     
  0.25000000000000000       0.31250000000000000        0.0000000000000000     
  0.12500000000000000       0.34375000000000000        0.0000000000000000     
  0.15625000000000000       0.34375000000000000        0.0000000000000000     
  0.18750000000000000       0.34375000000000000        0.0000000000000000     
  0.21875000000000000       0.34375000000000000        0.0000000000000000     
  0.25000000000000000       0.34375000000000000        0.0000000000000000     
  0.12500000000000000       0.37500000000000000        0.0000000000000000     
  0.15625000000000000       0.37500000000000000        0.0000000000000000     
  0.18750000000000000       0.37500000000000000        0.0000000000000000     
  0.21875000000000000       0.37500000000000000        0.0000000000000000     
  0.25000000000000000       0.37500000000000000        0.0000000000000000     
  0.25000000000000000       0.25000000000000000        0.0000000000000000     
  0.28125000000000000       0.25000000000000000        0.0000000000000000     
  0.31250000000000000       0.25000000000000000        0.0000000000000000     
  0.34375000000000000       0.25000000000000000        0.0000000000000000     
  0.37500000000000000       0.25000000000000000        0.0000000000000000     
  0.25000000000000000       0.28125000000000000        0.0000000000000000     
  0.28125000000000000       0.28125000000000000        0.0000000000000000     
  0.31250000000000000       0.28125000000000000        0.0000000000000000     
  0.34375000000000000       0.28125000000000000        0.0000000000000000     
  0.37500000000000000       0.28125000000000000        0.0000000000000000     
  0.25000000000000000       0.31250000000000000        0.0000000000000000     
  0.28125000000000000       0.31250000000000000        0.0000000000000000     
  0.31250000000000000       0.31250000000000000        0.0000000000000000     
  0.34375000000000000       0.31250000000000000        0.0000000000000000     
  0.37500000000000000       0.31250000000000000        0.0000000000000000     
  0.25000000000000000       0.34375000000000000        0.0000000000000000     
  0.28125000000000000       0.34375000000000000        0.0000000000000000     
  0.31250000000000000       0.34375000000000000        0.0000000000000000     
  0.34375000000000000       0.34375000000000000        0.0000000000000000     
  0.37500000000000000       0.34375000000000000        0.0000000000000000     
  0.25000000000000000       0.37500000000000000        0.0000000000000000     
  0.28125000000000000       0.37500000000000000        0.0000000000000000     
  0.31250000000000000       0.37500000000000000        0.0000000000000000     
  0.34375000000000000       0.37500000000000000        0.0000000000000000     
  0.37500000000000000       0.37500000000000000        0.0000000000000000     
  0.37500000000000000       0.25000000000000000        0.0000000000000000     
  0.40625000000000000       0.25000000000000000        0.0000000000000000     
  0.43750000000000000       0.25000000000000000        0.0000000000000000     
  0.46875000000000000       0.25000000000000000        0.0000000000000000     
  0.50000000000000000       0.25000000000000000        0.0000000000000000     
  0.37500000000000000       0.28125000000000000        0.0000000000000000     
  0.40625000000000000       0.28125000000000000        0.0000000000000000     
  0.43750000000000000       0.28125000000000000        0.0000000000000000     
  0.46875000000000000       0.28125000000000000        0.0000000000000000     
  0.50000000000000000       0.28125000000000000        0.0000000000000000     
  0.37500000000000000       0.31250000000000000        0.0000000000000000     
  0.40625000000000000       0.31250000000000000        0.0000000000000000     
  0.43750000000000000       0.31250000000000000        0.0000000000000000     
  0.46875000000000000       0.31250000000000000        0.0000000000000000     
  0.50000000000000000       0.31250000000000000        0.0000000000000000     
  0.37500000000000000       0.34375000000000000        0.0000000000000000     
  0.40625000000000000       0.34375000000000000        0.0000000000000000     
  0.43750000000000000       0.34375000000000000        0.0000000000000000     
  0.46875000000000000       0.34375000000000000        0.0000000000000000     
  0.50000000000000000       0.34375000000000000        0.0000000000000000     
  0.37500000000000000       0.37500000000000000        0.0000000000000000     
  0.40625000000000000       0.37500000000000000        0.0000000000000000     
  0.43750000000000000       0.37500000000000000        0.0000000000000000     
  0.46875000000000000       0.37500000000000000        0.0000000000000000     
  0.50000000000000000       0.37500000000000000        0.0000000000000000     
  0.50000000000000000       0.25000000000000000        0.0000000000000000     
  0.53125000000000000       0.25000000000000000        0.0000000000000000     
  0.56250000000000000       0.25000000000000000        0.0000000000000000     
  0.59375000000000000       0.25000000000000000        0.0000000000000000     
  0.62500000000000000       0.25000000000000000        0.0000000000000000     
  0.50000000000000000       0.28125000000000000        0.0000000000000000     
  0.53125000000000000       0.28125000000000000        0.0000000000000000     
  0.56250000000000000       0.28125000000000000        0.0000000000000000     
  0.59375000000000000       0.28125000000000000        0.0000000000000000     
  0.62500000000000000       0.28125000000000000        0.0000000000000000     
  0.50000000000000000       0.31250000000000000        0.0000000000000000     
  0.53125000000000000       0.31250000000000000        0.0000000000000000     
  0.56250000000000000       0.31250000000000000        0.0000000000000000     
  0.59375000000000000       0.31250000000000000        0.0000000000000000     
  0.62500000000000000       0.31250000000000000        0.0000000000000000     
  0.50000000000000000       0.34375000000000000        0.0000000000000000     
  0.53125000000000000       0.34375000000000000        0.0000000000000000     
  0.56250000000000000       0.34375000000000000        0.0000000000000000     
  0.59375000000000000       0.34375000000000000        0.0000000000000000     
  0.62500000000000000       0.34375000000000000        0.0000000000000000     
  0.50000000000000000       0.37500000000000000        0.0000000000000000     
  0.53125000000000000       0.37500000000000000        0.0000000000000000     
  0.56250000000000000       0.37500000000000000        0.0000000000000000     
  0.59375000000000000       0.37500000000000000        0.0000000000000000     
  0.62500000000000000       0.37500000000000000        0.0000000000000000     
  0.62500000000000000       0.25000000000000000        0.0000000000000000     
  0.65625000000000000       0.25000000000000000        0.0000000000000000     
  0.68750000000000000       0.25000000000000000        0.0000000000000000     
  0.71875000000000000       0.25000000000000000        0.0000000000000000     
  0.75000000000000000       0.25000000000000000        0.0000000000000000     
  0.62500000000000000       0.28125000000000000        0.0000000000000000     
  0.65625000000000000       0.28125000000000000        0.0000000000000000     
  0.68750000000000000       0.28125000000000000        0.0000000000000000     
  0.71875000000000000       0.28125000000000000        0.0000000000000000     
  0.75000000000000000       0.28125000000000000        0.0000000000000000     
  0.62500000000000000       0.31250000000000000        0.0000000000000000     
  0.65625000000000000       0.31250000000000000        0.0000000000000000     
  0.68750000000000000       0.31250000000000000        0.0000000000000000     
  0.71875000000000000       0.31250000000000000        0.0000000000000000     
  0.75000000000000000       0.31250000000000000        0.0000000000000000     
  0.62500000000000000       0.34375000000000000        0.0000000000000000     
  0.65625000000000000       0.34375000000000000        0.0000000000000000     
  0.68750000000000000       0.34375000000000000        0.0000000000000000     
  0.71875000000000000       0.34375000000000000        0.0000000000000000     
  0.75000000000000000       0.34375000000000000        0.0000000000000000     
  0.62500000000000000       0.37500000000000000        0.0000000000000000     
  0.65625000000000000       0.37500000000000000        0.0000000000000000     
  0.68750000000000000       0.37500000000000000        0.0000000000000000     
  0.71875000000000000       0.37500000000000000        0.0000000000000000     
  0.75000000000000000       0.37500000000000000        0.0000000000000000     
  0.75000000000000000       0.25000000000000000        0.0000000000000000     
  0.78125000000000000       0.25000000000000000        0.0000000000000000     
  0.81250000000000000       0.25000000000000000        0.0000000000000000     
  0.84375000000000000       0.25000000000000000        0.0000000000000000     
  0.87500000000000000       0.25000000000000000        0.0000000000000000     
  0.75000000000000000       0.28125000000000000        0.0000000000000000     
  0.78125000000000000       0.28125000000000000        0.0000000000000000     
  0.81250000000000000       0.28125000000000000        0.0000000000000000     
  0.84375000000000000       0.28125000000000000        0.0000000000000000     
  0.87500000000000000       0.28125000000000000        0.0000000000000000     
  0.75000000000000000       0.31250000000000000        0.0000000000000000     
  0.78125000000000000       0.31250000000000000        0.0000000000000000     
  0.81250000000000000       0.31250000000000000        0.0000000000000000     
  0.84375000000000000       0.31250000000000000        0.0000000000000000     
  0.87500000000000000       0.31250000000000000        0.0000000000000000     
  0.75000000000000000       0.34375000000000000        0.0000000000000000     
  0.78125000000000000       0.34375000000000000        0.0000000000000000     
  0.81250000000000000       0.34375000000000000        0.0000000000000000     
  0.84375000000000000       0.34375000000000000        0.0000000000000000     
  0.87500000000000000       0.34375000000000000        0.0000000000000000     
  0.75000000000000000       0.37500000000000000        0.0000000000000000     
  0.78125000000000000       0.37500000000000000        0.0000000000000000     
  0.81250000000000000       0.37500000000000000        0.0000000000000000     
  0.84375000000000000       0.37500000000000000        0.0000000000000000     
  0.87500000000000000       0.37500000000000000        0.0000000000000000     
  0.87500000000000000       0.25000000000000000        0.0000000000000000     
  0.90625000000000000       0.25000000000000000        0.0000000000000000     
  0.93750000000000000       0.25000000000000000        0.0000000000000000     
  0.96875000000000000       0.25000000000000000        0.0000000000000000     
   1.0000000000000000       0.25000000000000000        0.0000000000000000     
  0.87500000000000000       0.28125000000000000        0.0000000000000000     
  0.90625000000000000       0.28125000000000000        0.0000000000000000     
  0.93750000000000000       0.28125000000000000        0.0000000000000000     
  0.96875000000000000       0.28125000000000000        0.0000000000000000     
   1.0000000000000000       0.28125000000000000        0.0000000000000000     
  0.87500000000000000       0.31250000000000000        0.0000000000000000     
  0.90625000000000000       0.31250000000000000        0.0000000000000000     
  0.93750000000000000       0.31250000000000000        0.0000000000000000     
  0.96875000000000000       0.31250000000000000        0.0000000000000000     
   1.0000000000000000       0.31250000000000000        0.0000000000000000     
  0.87500000000000000       0.34375000000000000        0.0000000000000000     
  0.90625000000000000       0.34375000000000000        0.0000000000000000     
  0.93750000000000000       0.34375000000000000        0.0000000000000000     
  0.96875000000000000       0.34375000000000000        0.0000000000000000     
   1.0000000000000000       0.34375000000000000        0.0000000000000000     
  0.87500000000000000       0.37500000000000000        0.0000000000000000     
  0.90625000000000000       0.37500000000000000        0.0000000000000000     
  0.93750000000000000       0.37500000000000000        0.0000000000000000     
  0.96875000000000000       0.37500000000000000        0.0000000000000000     
   1.0000000000000000       0.37500000000000000        0.0000000000000000     
   0.0000000000000000       0.37500000000000000        0.0000000000000000     
   3.1250000000000000E-002  0.37500000000000000        0.0000000000000000     
   6.2500000000000000E-002  0.37500000000000000        0.0000000000000000     
   9.3750000000000000E-002  0.37500000000000000        0.0000000000000000     
  0.12500000000000000       0.37500000000000000        0.0000000000000000     
   0.0000000000000000       0.40625000000000000        0.0000000000000000     
   3.1250000000000000E-002  0.40625000000000000        0.0000000000000000     
   6.2500000000000000E-002  0.40625000000000000        0.0000000000000000     
   9.3750000000000000E-002  0.40625000000000000        0.0000000000000000     
  0.12500000000000000       0.40625000000000000        0.0000000000000000     
   0.0000000000000000       0.43750000000000000        0.0000000000000000     
   3.1250000000000000E-002  0.43750000000000000        0.0000000000000000     
   6.2500000000000000E-002  0.43750000000000000        0.0000000000000000     
   9.3750000000000000E-002  0.43750000000000000        0.0000000000000000     
  0.12500000000000000       0.43750000000000000        0.0000000000000000     
   0.0000000000000000       0.46875000000000000        0.0000000000000000     
   3.1250000000000000E-002  0.46875000000000000        0.0000000000000000     
   6.2500000000000000E-002  0.46875000000000000        0.0000000000000000     
   9.3750000000000000E-002  0.46875000000000000        0.0000000000000000     
  0.12500000000000000       0.46875000000000000        0.0000000000000000     
   0.0000000000000000       0.50000000000000000        0.0000000000000000     
   3.1250000000000000E-002  0.50000000000000000        0.0000000000000000     
   6.2500000000000000E-002  0.50000000000000000        0.0000000000000000     
   9.3750000000000000E-002  0.50000000000000000        0.0000000000000000     
  0.12500000000000000       0.50000000000000000        0.0000000000000000     
  0.12500000000000000       0.37500000000000000        0.0000000000000000     
  0.15625000000000000       0.37500000000000000        0.0000000000000000     
  0.18750000000000000       0.37500000000000000        0.0000000000000000     
  0.21875000000000000       0.37500000000000000        0.0000000000000000     
  0.25000000000000000       0.37500000000000000        0.0000000000000000     
  0.12500000000000000       0.40625000000000000        0.0000000000000000     
  0.15625000000000000       0.40625000000000000        0.0000000000000000     
  0.18750000000000000       0.40625000000000000        0.0000000000000000     
  0.21875000000000000       0.40625000000000000        0.0000000000000000     
  0.25000000000000000       0.40625000000000000        0.0000000000000000     
  0.12500000000000000       0.43750000000000000        0.0000000000000000     
  0.15625000000000000       0.43750000000000000        0.0000000000000000     
  0.18750000000000000       0.43750000000000000        0.0000000000000000     
  0.21875000000000000       0.43750000000000000        0.0000000000000000     
  0.25000000000000000       0.43750000000000000        0.0000000000000000     
  0.12500000000000000       0.46875000000000000        0.0000000000000000     
  0.15625000000000000       0.46875000000000000        0.0000000000000000     
  0.18750000000000000       0.46875000000000000        0.0000000000000000     
  0.21875000000000000       0.46875000000000000        0.0000000000000000     
  0.25000000000000000       0.46875000000000000        0.0000000000000000     
  0.12500000000000000       0.50000000000000000        0.0000000000000000     
  0.15625000000000000       0.50000000000000000        0.0000000000000000     
  0.18750000000000000       0.50000000000000000        0.0000000000000000     
  0.21875000000000000       0.50000000000000000        0.0000000000000000     
  0.25000000000000000       0.50000000000000000        0.0000000000000000     
  0.25000000000000000       0.37500000000000000        0.0000000000000000     
  0.28125000000000000       0.37500000000000000        0.0000000000000000     
  0.31250000000000000       0.37500000000000000        0.0000000000000000     
  0.34375000000000000       0.37500000000000000        0.0000000000000000     
  0.37500000000000000       0.37500000000000000        0.0000000000000000     
  0.25000000000000000       0.40625000000000000        0.0000000000000000     
  0.28125000000000000       0.40625000000000000        0.0000000000000000     
  0.31250000000000000       0.40625000000000000        0.0000000000000000     
  0.34375000000000000       0.40625000000000000        0.0000000000000000     
  0.37500000000000000       0.40625000000000000        0.0000000000000000     
  0.25000000000000000       0.43750000000000000        0.0000000000000000     
  0.28125000000000000       0.43750000000000000        0.0000000000000000     
  0.31250000000000000       0.43750000000000000        0.0000000000000000     
  0.34375000000000000       0.43750000000000000        0.0000000000000000     
  0.37500000000000000       0.43750000000000000        0.0000000000000000     
  0.25000000000000000       0.46875000000000000        0.0000000000000000     
  0.28125000000000000       0.46875000000000000        0.0000000000000000     
  0.31250000000000000       0.46875000000000000        0.0000000000000000     
  0.34375000000000000       0.46875000000000000        0.0000000000000000     
  0.37500000000000000       0.46875000000000000        0.0000000000000000     
  0.25000000000000000       0.50000000000000000        0.0000000000000000     
  0.28125000000000000       0.50000000000000000        0.0000000000000000     
  0.31250000000000000       0.50000000000000000        0.0000000000000000     
  0.34375000000000000       0.50000000000000000        0.0000000000000000     
  0.37500000000000000       0.50000000000000000        0.0000000000000000     
  0.37500000000000000       0.37500000000000000        0.0000000000000000     
  0.40625000000000000       0.37500000000000000        0.0000000000000000     
  0.43750000000000000       0.37500000000000000        0.0000000000000000     
  0.46875000000000000       0.37500000000000000        0.0000000000000000     
  0.50000000000000000       0.37500000000000000        0.0000000000000000     
  0.37500000000000000       0.40625000000000000        0.0000000000000000     
  0.40625000000000000       0.40625000000000000        0.0000000000000000     
  0.43750000000000000       0.40625000000000000        0.0000000000000000     
  0.46875000000000000       0.40625000000000000        0.0000000000000000     
  0.50000000000000000       0.40625000000000000        0.0000000000000000     
  0.37500000000000000       0.43750000000000000        0.0000000000000000     
  0.40625000000000000       0.43750000000000000        0.0000000000000000     
  0.43750000000000000       0.43750000000000000        0.0000000000000000     
  0.46875000000000000       0.43750000000000000        0.0000000000000000     
  0.50000000000000000       0.43750000000000000        0.0000000000000000     
  0.37500000000000000       0.46875000000000000        0.0000000000000000     
  0.40625000000000000       0.46875000000000000        0.0000000000000000     
  0.43750000000000000       0.46875000000000000        0.0000000000000000     
  0.46875000000000000       0.46875000000000000        0.0000000000000000     
  0.50000000000000000       0.46875000000000000        0.0000000000000000     
  0.37500000000000000       0.50000000000000000        0.0000000000000000     
  0.40625000000000000       0.50000000000000000        0.0000000000000000     
  0.43750000000000000       0.50000000000000000        0.0000000000000000     
  0.46875000000000000       0.50000000000000000        0.0000000000000000     
  0.50000000000000000       0.50000000000000000        0.0000000000000000     
  0.50000000000000000       0.37500000000000000        0.0000000000000000     
  0.53125000000000000       0.37500000000000000        0.0000000000000000     
  0.56250000000000000       0.37500000000000000        0.0000000000000000     
  0.59375000000000000       0.37500000000000000        0.0000000000000000     
  0.62500000000000000       0.37500000000000000        0.0000000000000000     
  0.50000000000000000       0.40625000000000000        0.0000000000000000     
  0.53125000000000000       0.40625000000000000        0.0000000000000000     
  0.56250000000000000       0.40625000000000000        0.0000000000000000     
  0.59375000000000000       0.40625000000000000        0.0000000000000000     
  0.62500000000000000       0.40625000000000000        0.0000000000000000     
  0.50000000000000000       0.43750000000000000        0.0000000000000000     
  0.53125000000000000       0.43750000000000000        0.0000000000000000     
  0.56250000000000000       0.43750000000000000        0.0000000000000000     
  0.59375000000000000       0.43750000000000000        0.0000000000000000     
  0.62500000000000000       0.43750000000000000        0.0000000000000000     
  0.50000000000000000       0.46875000000000000        0.0000000000000000     
  0.53125000000000000       0.46875000000000000        0.0000000000000000     
  0.56250000000000000       0.46875000000000000        0.0000000000000000     
  0.59375000000000000       0.46875000000000000        0.0000000000000000     
  0.62500000000000000       0.46875000000000000        0.0000000000000000     
  0.50000000000000000       0.50000000000000000        0.0000000000000000     
  0.53125000000000000       0.50000000000000000        0.0000000000000000     
  0.56250000000000000       0.50000000000000000        0.0000000000000000     
  0.59375000000000000       0.50000000000000000        0.0000000000000000     
  0.62500000000000000       0.50000000000000000        0.0000000000000000     
  0.62500000000000000       0.37500000000000000        0.0000000000000000     
  0.65625000000000000       0.37500000000000000        0.0000000000000000     
  0.68750000000000000       0.37500000000000000        0.0000000000000000     
  0.71875000000000000       0.37500000000000000        0.0000000000000000     
  0.75000000000000000       0.37500000000000000        0.0000000000000000     
  0.62500000000000000       0.40625000000000000        0.0000000000000000     
  0.65625000000000000       0.40625000000000000        0.0000000000000000     
  0.68750000000000000       0.40625000000000000        0.0000000000000000     
  0.71875000000000000       0.40625000000000000        0.0000000000000000     
  0.75000000000000000       0.40625000000000000        0.0000000000000000     
  0.62500000000000000       0.43750000000000000        0.0000000000000000     
  0.65625000000000000       0.43750000000000000        0.0000000000000000     
  0.68750000000000000       0.43750000000000000        0.0000000000000000     
  0.71875000000000000       0.43750000000000000        0.0000000000000000     
  0.75000000000000000       0.43750000000000000        0.0000000000000000     
  0.62500000000000000       0.46875000000000000        0.0000000000000000     
  0.65625000000000000       0.46875000000000000        0.0000000000000000     
  0.68750000000000000       0.46875000000000000        0.0000000000000000     
  0.71875000000000000       0.46875000000000000        0.0000000000000000     
  0.75000000000000000       0.46875000000000000        0.0000000000000000     
  0.62500000000000000       0.50000000000000000        0.0000000000000000     
  0.65625000000000000       0.50000000000000000        0.0000000000000000     
  0.68750000000000000       0.50000000000000000        0.0000000000000000     
  0.71875000000000000       0.50000000000000000        0.0000000000000000     
  0.75000000000000000       0.50000000000000000        0.0000000000000000     
  0.75000000000000000       0.37500000000000000        0.0000000000000000     
  0.78125000000000000       0.37500000000000000        0.0000000000000000     
  0.81250000000000000       0.37500000000000000        0.0000000000000000     
  0.84375000000000000       0.37500000000000000        0.0000000000000000     
  0.87500000000000000       0.37500000000000000        0.0000000000000000     
  0.75000000000000000       0.40625000000000000        0.0000000000000000     
  0.78125000000000000       0.40625000000000000        0.0000000000000000     
  0.81250000000000000       0.40625000000000000        0.0000000000000000     
  0.84375000000000000       0.40625000000000000        0.0000000000000000     
  0.87500000000000000       0.40625000000000000        0.0000000000000000     
  0.75000000000000000       0.43750000000000000        0.0000000000000000     
  0.78125000000000000       0.43750000000000000        0.0000000000000000     
  0.81250000000000000       0.43750000000000000        0.0000000000000000     
  0.84375000000000000       0.43750000000000000        0.0000000000000000     
  0.87500000000000000       0.43750000000000000        0.0000000000000000     
  0.75000000000000000       0.46875000000000000        0.0000000000000000     
  0.78125000000000000       0.46875000000000000        0.0000000000000000     
  0.81250000000000000       0.46875000000000000        0.0000000000000000     
  0.84375000000000000       0.46875000000000000        0.0000000000000000     
  0.87500000000000000       0.46875000000000000        0.0000000000000000     
  0.75000000000000000       0.50000000000000000        0.0000000000000000     
  0.78125000000000000       0.50000000000000000        0.0000000000000000     
  0.81250000000000000       0.50000000000000000        0.0000000000000000     
  0.84375000000000000       0.50000000000000000        0.0000000000000000     
  0.87500000000000000       0.50000000000000000        0.0000000000000000     
  0.87500000000000000       0.37500000000000000        0.0000000000000000     
  0.90625000000000000       0.37500000000000000        0.0000000000000000     
  0.93750000000000000       0.37500000000000000        0.0000000000000000     
  0.96875000000000000       0.37500000000000000        0.0000000000000000     
   1.0000000000000000       0.37500000000000000        0.0000000000000000     
  0.87500000000000000       0.40625000000000000        0.0000000000000000     
  0.90625000000000000       0.40625000000000000        0.0000000000000000     
  0.93750000000000000       0.40625000000000000        0.0000000000000000     
  0.96875000000000000       0.40625000000000000        0.0000000000000000     
   1.0000000000000000       0.40625000000000000        0.0000000000000000     
  0.87500000000000000       0.43750000000000000        0.0000000000000000     
  0.90625000000000000       0.43750000000000000        0.0000000000000000     
  0.93750000000000000       0.43750000000000000        0.0000000000000000     
  0.96875000000000000       0.43750000000000000        0.0000000000000000     
   1.0000000000000000       0.43750000000000000        0.0000000000000000     
  0.87500000000000000       0.46875000000000000        0.0000000000000000     
  0.90625000000000000       0.46875000000000000        0.0000000000000000     
  0.93750000000000000       0.46875000000000000        0.0000000000000000     
  0.96875000000000000       0.46875000000000000        0.0000000000000000     
   1.0000000000000000       0.46875000000000000        0.0000000000000000     
  0.87500000000000000       0.50000000000000000        0.0000000000000000     
  0.90625000000000000       0.50000000000000000        0.0000000000000000     
  0.93750000000000000       0.50000000000000000        0.0000000000000000     
  0.96875000000000000       0.50000000000000000        0.0000000000000000     
   1.0000000000000000       0.50000000000000000        0.0000000000000000     
   0.0000000000000000       0.50000000000000000        0.0000000000000000     
   3.1250000000000000E-002  0.50000000000000000        0.0000000000000000     
   6.2500000000000000E-002  0.50000000000000000        0.0000000000000000     
   9.3750000000000000E-002  0.50000000000000000        0.0000000000000000     
  0.12500000000000000       0.50000000000000000        0.0000000000000000     
   0.0000000000000000       0.53125000000000000        0.0000000000000000     
   3.1250000000000000E-002  0.53125000000000000        0.0000000000000000     
   6.2500000000000000E-002  0.53125000000000000        0.0000000000000000     
   9.3750000000000000E-002  0.53125000000000000        0.0000000000000000     
  0.12500000000000000       0.53125000000000000        0.0000000000000000     
   0.0000000000000000       0.56250000000000000        0.0000000000000000     
   3.1250000000000000E-002  0.56250000000000000        0.0000000000000000     
   6.2500000000000000E-002  0.56250000000000000        0.0000000000000000     
   9.3750000000000000E-002  0.56250000000000000        0.0000000000000000     
  0.12500000000000000       0.56250000000000000        0.0000000000000000     
   0.0000000000000000       0.59375000000000000        0.0000000000000000     
   3.1250000000000000E-002  0.59375000000000000        0.0000000000000000     
   6.2500000000000000E-002  0.59375000000000000        0.0000000000000000     
   9.3750000000000000E-002  0.59375000000000000        0.0000000000000000     
  0.12500000000000000       0.59375000000000000        0.0000000000000000     
   0.0000000000000000       0.62500000000000000        0.0000000000000000     
   3.1250000000000000E-002  0.62500000000000000        0.0000000000000000     
   6.2500000000000000E-002  0.62500000000000000        0.0000000000000000     
   9.3750000000000000E-002  0.62500000000000000        0.0000000000000000     
  0.12500000000000000       0.62500000000000000        0.0000000000000000     
  0.12500000000000000       0.50000000000000000        0.0000000000000000     
  0.15625000000000000       0.50000000000000000        0.0000000000000000     
  0.18750000000000000       0.50000000000000000        0.0000000000000000     
  0.21875000000000000       0.50000000000000000        0.0000000000000000     
  0.25000000000000000       0.50000000000000000        0.0000000000000000     
  0.12500000000000000       0.53125000000000000        0.0000000000000000     
  0.15625000000000000       0.53125000000000000        0.0000000000000000     
  0.18750000000000000       0.53125000000000000        0.0000000000000000     
  0.21875000000000000       0.53125000000000000        0.0000000000000000     
  0.25000000000000000       0.53125000000000000        0.0000000000000000     
  0.12500000000000000       0.56250000000000000        0.0000000000000000     
  0.15625000000000000       0.56250000000000000        0.0000000000000000     
  0.18750000000000000       0.56250000000000000        0.0000000000000000     
  0.21875000000000000       0.56250000000000000        0.0000000000000000     
  0.25000000000000000       0.56250000000000000        0.0000000000000000     
  0.12500000000000000       0.59375000000000000        0.0000000000000000     
  0.15625000000000000       0.59375000000000000        0.0000000000000000     
  0.18750000000000000       0.59375000000000000        0.0000000000000000     
  0.21875000000000000       0.59375000000000000        0.0000000000000000     
  0.25000000000000000       0.59375000000000000        0.0000000000000000     
  0.12500000000000000       0.62500000000000000        0.0000000000000000     
  0.15625000000000000       0.62500000000000000        0.0000000000000000     
  0.18750000000000000       0.62500000000000000        0.0000000000000000     
  0.21875000000000000       0.62500000000000000        0.0000000000000000     
  0.25000000000000000       0.62500000000000000        0.0000000000000000     
  0.25000000000000000       0.50000000000000000        0.0000000000000000     
  0.28125000000000000       0.50000000000000000        0.0000000000000000     
  0.31250000000000000       0.50000000000000000        0.0000000000000000     
  0.34375000000000000       0.50000000000000000        0.0000000000000000     
  0.37500000000000000       0.50000000000000000        0.0000000000000000     
  0.25000000000000000       0.53125000000000000        0.0000000000000000     
  0.28125000000000000       0.53125000000000000        0.0000000000000000     
  0.31250000000000000       0.53125000000000000        0.0000000000000000     
  0.34375000000000000       0.53125000000000000        0.0000000000000000     
  0.37500000000000000       0.53125000000000000        0.0000000000000000     
  0.25000000000000000       0.56250000000000000        0.0000000000000000     
  0.28125000000000000       0.56250000000000000        0.0000000000000000     
  0.31250000000000000       0.56250000000000000        0.0000000000000000     
  0.34375000000000000       0.56250000000000000        0.0000000000000000     
  0.37500000000000000       0.56250000000000000        0.0000000000000000     
  0.25000000000000000       0.59375000000000000        0.0000000000000000     
  0.28125000000000000       0.59375000000000000        0.0000000000000000     
  0.31250000000000000       0.59375000000000000        0.0000000000000000     
  0.34375000000000000       0.59375000000000000        0.0000000000000000     
  0.37500000000000000       0.59375000000000000        0.0000000000000000     
  0.25000000000000000       0.62500000000000000        0.0000000000000000     
  0.28125000000000000       0.62500000000000000        0.0000000000000000     
  0.31250000000000000       0.62500000000000000        0.0000000000000000     
  0.34375000000000000       0.62500000000000000        0.0000000000000000     
  0.37500000000000000       0.62500000000000000        0.0000000000000000     
  0.37500000000000000       0.50000000000000000        0.0000000000000000     
  0.40625000000000000       0.50000000000000000        0.0000000000000000     
  0.43750000000000000       0.50000000000000000        0.0000000000000000     
  0.46875000000000000       0.50000000000000000        0.0000000000000000     
  0.50000000000000000       0.50000000000000000        0.0000000000000000     
  0.37500000000000000       0.53125000000000000        0.0000000000000000     
  0.40625000000000000       0.53125000000000000        0.0000000000000000     
  0.43750000000000000       0.53125000000000000        0.0000000000000000     
  0.46875000000000000       0.53125000000000000        0.0000000000000000     
  0.50000000000000000       0.53125000000000000        0.0000000000000000     
  0.37500000000000000       0.56250000000000000        0.0000000000000000     
  0.40625000000000000       0.56250000000000000        0.0000000000000000     
  0.43750000000000000       0.56250000000000000        0.0000000000000000     
  0.46875000000000000       0.56250000000000000        0.0000000000000000     
  0.50000000000000000       0.56250000000000000        0.0000000000000000     
  0.37500000000000000       0.59375000000000000        0.0000000000000000     
  0.40625000000000000       0.59375000000000000        0.0000000000000000     
  0.43750000000000000       0.59375000000000000        0.0000000000000000     
  0.46875000000000000       0.59375000000000000        0.0000000000000000     
  0.50000000000000000       0.59375000000000000        0.0000000000000000     
  0.37500000000000000       0.62500000000000000        0.0000000000000000     
  0.40625000000000000       0.62500000000000000        0.0000000000000000     
  0.43750000000000000       0.62500000000000000        0.0000000000000000     
  0.46875000000000000       0.62500000000000000        0.0000000000000000     
  0.50000000000000000       0.62500000000000000        0.0000000000000000     
  0.50000000000000000       0.50000000000000000        0.0000000000000000     
  0.53125000000000000       0.50000000000000000        0.0000000000000000     
  0.56250000000000000       0.50000000000000000        0.0000000000000000     
  0.59375000000000000       0.50000000000000000        0.0000000000000000     
  0.62500000000000000       0.50000000000000000        0.0000000000000000     
  0.50000000000000000       0.53125000000000000        0.0000000000000000     
  0.53125000000000000       0.53125000000000000        0.0000000000000000     
  0.56250000000000000       0.53125000000000000        0.0000000000000000     
  0.59375000000000000       0.53125000000000000        0.0000000000000000     
  0.62500000000000000       0.53125000000000000        0.0000000000000000     
  0.50000000000000000       0.56250000000000000        0.0000000000000000     
  0.53125000000000000       0.56250000000000000        0.0000000000000000     
  0.56250000000000000       0.56250000000000000        0.0000000000000000     
  0.59375000000000000       0.56250000000000000        0.0000000000000000     
  0.62500000000000000       0.56250000000000000        0.0000000000000000     
  0.50000000000000000       0.59375000000000000        0.0000000000000000     
  0.53125000000000000       0.59375000000000000        0.0000000000000000     
  0.56250000000000000       0.59375000000000000        0.0000000000000000     
  0.59375000000000000       0.59375000000000000        0.0000000000000000     
  0.62500000000000000       0.59375000000000000        0.0000000000000000     
  0.50000000000000000       0.62500000000000000        0.0000000000000000     
  0.53125000000000000       0.62500000000000000        0.0000000000000000     
  0.56250000000000000       0.62500000000000000        0.0000000000000000     
  0.59375000000000000       0.62500000000000000        0.0000000000000000     
  0.62500000000000000       0.62500000000000000        0.0000000000000000     
  0.62500000000000000       0.50000000000000000        0.0000000000000000     
  0.65625000000000000       0.50000000000000000        0.0000000000000000     
  0.68750000000000000       0.50000000000000000        0.0000000000000000     
  0.71875000000000000       0.50000000000000000        0.0000000000000000     
  0.75000000000000000       0.50000000000000000        0.0000000000000000     
  0.62500000000000000       0.53125000000000000        0.0000000000000000     
  0.65625000000000000       0.53125000000000000        0.0000000000000000     
  0.68750000000000000       0.53125000000000000        0.0000000000000000     
  0.71875000000000000       0.53125000000000000        0.0000000000000000     
  0.75000000000000000       0.53125000000000000        0.0000000000000000     
  0.62500000000000000       0.56250000000000000        0.0000000000000000     
  0.65625000000000000       0.56250000000000000        0.0000000000000000     
  0.68750000000000000       0.56250000000000000        0.0000000000000000     
  0.71875000000000000       0.56250000000000000        0.0000000000000000     
  0.75000000000000000       0.56250000000000000        0.0000000000000000     
  0.62500000000000000       0.59375000000000000        0.0000000000000000     
  0.65625000000000000       0.59375000000000000        0.0000000000000000     
  0.68750000000000000       0.59375000000000000        0.0000000000000000     
  0.71875000000000000       0.59375000000000000        0.0000000000000000     
  0.75000000000000000       0.59375000000000000        0.0000000000000000     
  0.62500000000000000       0.62500000000000000        0.0000000000000000     
  0.65625000000000000       0.62500000000000000        0.0000000000000000     
  0.68750000000000000       0.62500000000000000        0.0000000000000000     
  0.71875000000000000       0.62500000000000000        0.0000000000000000     
  0.75000000000000000       0.62500000000000000        0.0000000000000000     
  0.75000000000000000       0.50000000000000000        0.0000000000000000     
  0.78125000000000000       0.50000000000000000        0.0000000000000000     
  0.81250000000000000       0.50000000000000000        0.0000000000000000     
  0.84375000000000000       0.50000000000000000        0.0000000000000000     
  0.87500000000000000       0.50000000000000000        0.0000000000000000     
  0.75000000000000000       0.53125000000000000        0.0000000000000000     
  0.78125000000000000       0.53125000000000000        0.0000000000000000     
  0.81250000000000000       0.53125000000000000        0.0000000000000000     
  0.84375000000000000       0.53125000000000000        0.0000000000000000     
  0.87500000000000000       0.53125000000000000        0.0000000000000000     
  0.75000000000000000       0.56250000000000000        0.0000000000000000     
  0.78125000000000000       0.56250000000000000        0.0000000000000000     
  0.81250000000000000       0.56250000000000000        0.0000000000000000     
  0.84375000000000000       0.56250000000000000        0.0000000000000000     
  0.87500000000000000       0.56250000000000000        0.0000000000000000     
  0.75000000000000000       0.59375000000000000        0.0000000000000000     
  0.78125000000000000       0.59375000000000000        0.0000000000000000     
  0.81250000000000000       0.59375000000000000        0.0000000000000000     
  0.84375000000000000       0.59375000000000000        0.0000000000000000     
  0.87500000000000000       0.59375000000000000        0.0000000000000000     
  0.75000000000000000       0.62500000000000000        0.0000000000000000     
  0.78125000000000000       0.62500000000000000        0.0000000000000000     
  0.81250000000000000       0.62500000000000000        0.0000000000000000     
  0.84375000000000000       0.62500000000000000        0.0000000000000000     
  0.87500000000000000       0.62500000000000000        0.0000000000000000     
  0.87500000000000000       0.50000000000000000        0.0000000000000000     
  0.90625000000000000       0.50000000000000000        0.0000000000000000     
  0.93750000000000000       0.50000000000000000        0.0000000000000000     
  0.96875000000000000       0.50000000000000000        0.0000000000000000     
   1.0000000000000000       0.50000000000000000        0.0000000000000000     
  0.87500000000000000       0.53125000000000000        0.0000000000000000     
  0.90625000000000000       0.53125000000000000        0.0000000000000000     
  0.93750000000000000       0.53125000000000000        0.0000000000000000     
  0.96875000000000000       0.53125000000000000        0.0000000000000000     
   1.0000000000000000       0.53125000000000000        0.0000000000000000     
  0.87500000000000000       0.56250000000000000        0.0000000000000000     
  0.90625000000000000       0.56250000000000000        0.0000000000000000     
  0.93750000000000000       0.56250000000000000        0.0000000000000000     
  0.96875000000000000       0.56250000000000000        0.0000000000000000     
   1.0000000000000000       0.56250000000000000        0.0000000000000000     
  0.87500000000000000       0.59375000000000000        0.0000000000000000     
  0.90625000000000000       0.59375000000000000        0.0000000000000000     
  0.93750000000000000       0.59375000000000000        0.0000000000000000     
  0.96875000000000000       0.59375000000000000        0.0000000000000000     
   1.0000000000000000       0.59375000000000000        0.0000000000000000     
  0.87500000000000000       0.62500000000000000        0.0000000000000000     
  0.90625000000000000       0.62500000000000000        0.0000000000000000     
  0.93750000000000000       0.62500000000000000        0.0000000000000000     
  0.96875000000000000       0.62500000000000000        0.0000000000000000     
   1.0000000000000000       0.62500000000000000        0.0000000000000000     
   0.0000000000000000       0.62500000000000000        0.0000000000000000     
   3.1250000000000000E-002  0.62500000000000000        0.0000000000000000     
   6.2500000000000000E-002  0.62500000000000000        0.0000000000000000     
   9.3750000000000000E-002  0.62500000000000000        0.0000000000000000     
  0.12500000000000000       0.62500000000000000        0.0000000000000000     
   0.0000000000000000       0.65625000000000000        0.0000000000000000     
   3.1250000000000000E-002  0.65625000000000000        0.0000000000000000     
   6.2500000000000000E-002  0.65625000000000000        0.0000000000000000     
   9.3750000000000000E-002  0.65625000000000000        0.0000000000000000     
  0.12500000000000000       0.65625000000000000        0.0000000000000000     
   0.0000000000000000       0.68750000000000000        0.0000000000000000     
   3.1250000000000000E-002  0.68750000000000000        0.0000000000000000     
   6.2500000000000000E-002  0.68750000000000000        0.0000000000000000     
   9.3750000000000000E-002  0.68750000000000000        0.0000000000000000     
  0.12500000000000000       0.68750000000000000        0.0000000000000000     
   0.0000000000000000       0.71875000000000000        0.0000000000000000     
   3.1250000000000000E-002  0.71875000000000000        0.0000000000000000     
   6.2500000000000000E-002  0.71875000000000000        0.0000000000000000     
   9.3750000000000000E-002  0.71875000000000000        0.0000000000000000     
  0.12500000000000000       0.71875000000000000        0.0000000000000000     
   0.0000000000000000       0.75000000000000000        0.0000000000000000     
   3.1250000000000000E-002  0.75000000000000000        0.0000000000000000     
   6.2500000000000000E-002  0.75000000000000000        0.0000000000000000     
   9.3750000000000000E-002  0.75000000000000000        0.0000000000000000     
  0.12500000000000000       0.75000000000000000        0.0000000000000000     
  0.12500000000000000       0.62500000000000000        0.0000000000000000     
  0.15625000000000000       0.62500000000000000        0.0000000000000000     
  0.18750000000000000       0.62500000000000000        0.0000000000000000     
  0.21875000000000000       0.62500000000000000        0.0000000000000000     
  0.25000000000000000       0.62500000000000000        0.0000000000000000     
  0.12500000000000000       0.65625000000000000        0.0000000000000000     
  0.15625000000000000       0.65625000000000000        0.0000000000000000     
  0.18750000000000000       0.65625000000000000        0.0000000000000000     
  0.21875000000000000       0.65625000000000000        0.0000000000000000     
  0.25000000000000000       0.65625000000000000        0.0000000000000000     
  0.12500000000000000       0.68750000000000000        0.0000000000000000     
  0.15625000000000000       0.68750000000000000        0.0000000000000000     
  0.18750000000000000       0.68750000000000000        0.0000000000000000     
  0.21875000000000000       0.68750000000000000        0.0000000000000000     
  0.25000000000000000       0.68750000000000000        0.0000000000000000     
  0.12500000000000000       0.71875000000000000        0.0000000000000000     
  0.15625000000000000       0.71875000000000000        0.0000000000000000     
  0.18750000000000000       0.71875000000000000        0.0000000000000000     
  0.21875000000000000       0.71875000000000000        0.0000000000000000     
  0.25000000000000000       0.71875000000000000        0.0000000000000000     
  0.12500000000000000       0.75000000000000000        0.0000000000000000     
  0.15625000000000000       0.75000000000000000        0.0000000000000000     
  0.18750000000000000       0.75000000000000000        0.0000000000000000     
  0.21875000000000000       0.75000000000000000        0.0000000000000000     
  0.25000000000000000       0.75000000000000000        0.0000000000000000     
  0.25000000000000000       0.62500000000000000        0.0000000000000000     
  0.28125000000000000       0.62500000000000000        0.0000000000000000     
  0.31250000000000000       0.62500000000000000        0.0000000000000000     
  0.34375000000000000       0.62500000000000000        0.0000000000000000     
  0.37500000000000000       0.62500000000000000        0.0000000000000000     
  0.25000000000000000       0.65625000000000000        0.0000000000000000     
  0.28125000000000000       0.65625000000000000        0.0000000000000000     
  0.31250000000000000       0.65625000000000000        0.0000000000000000     
  0.34375000000000000       0.65625000000000000        0.0000000000000000     
  0.37500000000000000       0.65625000000000000        0.0000000000000000     
  0.25000000000000000       0.68750000000000000        0.0000000000000000     
  0.28125000000000000       0.68750000000000000        0.0000000000000000     
  0.31250000000000000       0.68750000000000000        0.0000000000000000     
  0.34375000000000000       0.68750000000000000        0.0000000000000000     
  0.37500000000000000       0.68750000000000000        0.0000000000000000     
  0.25000000000000000       0.71875000000000000        0.0000000000000000     
  0.28125000000000000       0.71875000000000000        0.0000000000000000     
  0.31250000000000000       0.71875000000000000        0.0000000000000000     
  0.34375000000000000       0.71875000000000000        0.0000000000000000     
  0.37500000000000000       0.71875000000000000        0.0000000000000000     
  0.25000000000000000       0.75000000000000000        0.0000000000000000     
  0.28125000000000000       0.75000000000000000        0.0000000000000000     
  0.31250000000000000       0.75000000000000000        0.0000000000000000     
  0.34375000000000000       0.75000000000000000        0.0000000000000000     
  0.37500000000000000       0.75000000000000000        0.0000000000000000     
  0.37500000000000000       0.62500000000000000        0.0000000000000000     
  0.40625000000000000       0.62500000000000000        0.0000000000000000     
  0.43750000000000000       0.62500000000000000        0.0000000000000000     
  0.46875000000000000       0.62500000000000000        0.0000000000000000     
  0.50000000000000000       0.62500000000000000        0.0000000000000000     
  0.37500000000000000       0.65625000000000000        0.0000000000000000     
  0.40625000000000000       0.65625000000000000        0.0000000000000000     
  0.43750000000000000       0.65625000000000000        0.0000000000000000     
  0.46875000000000000       0.65625000000000000        0.0000000000000000     
  0.50000000000000000       0.65625000000000000        0.0000000000000000     
  0.37500000000000000       0.68750000000000000        0.0000000000000000     
  0.40625000000000000       0.68750000000000000        0.0000000000000000     
  0.43750000000000000       0.68750000000000000        0.0000000000000000     
  0.46875000000000000       0.68750000000000000        0.0000000000000000     
  0.50000000000000000       0.68750000000000000        0.0000000000000000     
  0.37500000000000000       0.71875000000000000        0.0000000000000000     
  0.40625000000000000       0.71875000000000000        0.0000000000000000     
  0.43750000000000000       0.71875000000000000        0.0000000000000000     
  0.46875000000000000       0.71875000000000000        0.0000000000000000     
  0.50000000000000000       0.71875000000000000        0.0000000000000000     
  0.37500000000000000       0.75000000000000000        0.0000000000000000     
  0.40625000000000000       0.75000000000000000        0.0000000000000000     
  0.43750000000000000       0.75000000000000000        0.0000000000000000     
  0.46875000000000000       0.75000000000000000        0.0000000000000000     
  0.50000000000000000       0.75000000000000000        0.0000000000000000     
  0.50000000000000000       0.62500000000000000        0.0000000000000000     
  0.53125000000000000       0.62500000000000000        0.0000000000000000     
  0.56250000000000000       0.62500000000000000        0.0000000000000000     
  0.59375000000000000       0.62500000000000000        0.0000000000000000     
  0.62500000000000000       0.62500000000000000        0.0000000000000000     
  0.50000000000000000       0.65625000000000000        0.0000000000000000     
  0.53125000000000000       0.65625000000000000        0.0000000000000000     
  0.56250000000000000       0.65625000000000000        0.0000000000000000     
  0.59375000000000000       0.65625000000000000        0.0000000000000000     
  0.62500000000000000       0.65625000000000000        0.0000000000000000     
  0.50000000000000000       0.68750000000000000        0.0000000000000000     
  0.53125000000000000       0.68750000000000000        0.0000000000000000     
  0.56250000000000000       0.68750000000000000        0.0000000000000000     
  0.59375000000000000       0.68750000000000000        0.0000000000000000     
  0.62500000000000000       0.68750000000000000        0.0000000000000000     
  0.50000000000000000       0.71875000000000000        0.0000000000000000     
  0.53125000000000000       0.71875000000000000        0.0000000000000000     
  0.56250000000000000       0.71875000000000000        0.0000000000000000     
  0.59375000000000000       0.71875000000000000        0.0000000000000000     
  0.62500000000000000       0.71875000000000000        0.0000000000000000     
  0.50000000000000000       0.75000000000000000        0.0000000000000000     
  0.53125000000000000       0.75000000000000000        0.0000000000000000     
  0.56250000000000000       0.75000000000000000        0.0000000000000000     
  0.59375000000000000       0.75000000000000000        0.0000000000000000     
  0.62500000000000000       0.75000000000000000        0.0000000000000000     
  0.62500000000000000       0.62500000000000000        0.0000000000000000     
  0.65625000000000000       0.62500000000000000        0.0000000000000000     
  0.68750000000000000       0.62500000000000000        0.0000000000000000     
  0.71875000000000000       0.62500000000000000        0.0000000000000000     
  0.75000000000000000       0.62500000000000000        0.0000000000000000     
  0.62500000000000000       0.65625000000000000        0.0000000000000000     
  0.65625000000000000       0.65625000000000000        0.0000000000000000     
  0.68750000000000000       0.65625000000000000        0.0000000000000000     
  0.71875000000000000       0.65625000000000000        0.0000000000000000     
  0.75000000000000000       0.65625000000000000        0.0000000000000000     
  0.62500000000000000       0.68750000000000000        0.0000000000000000     
  0.65625000000000000       0.68750000000000000        0.0000000000000000     
  0.68750000000000000       0.68750000000000000        0.0000000000000000     
  0.71875000000000000       0.68750000000000000        0.0000000000000000     
  0.75000000000000000       0.68750000000000000        0.0000000000000000     
  0.62500000000000000       0.71875000000000000        0.0000000000000000     
  0.65625000000000000       0.71875000000000000        0.0000000000000000     
  0.68750000000000000       0.71875000000000000        0.0000000000000000     
  0.71875000000000000       0.71875000000000000        0.0000000000000000     
  0.75000000000000000       0.71875000000000000        0.0000000000000000     
  0.62500000000000000       0.75000000000000000        0.0000000000000000     
  0.65625000000000000       0.75000000000000000        0.0000000000000000     
  0.68750000000000000       0.75000000000000000        0.0000000000000000     
  0.71875000000000000       0.75000000000000000        0.0000000000000000     
  0.75000000000000000       0.75000000000000000        0.0000000000000000     
  0.75000000000000000       0.62500000000000000        0.0000000000000000     
  0.78125000000000000       0.62500000000000000        0.0000000000000000     
  0.81250000000000000       0.62500000000000000        0.0000000000000000     
  0.84375000000000000       0.62500000000000000        0.0000000000000000     
  0.87500000000000000       0.62500000000000000        0.0000000000000000     
  0.75000000000000000       0.65625000000000000        0.0000000000000000     
  0.78125000000000000       0.65625000000000000        0.0000000000000000     
  0.81250000000000000       0.65625000000000000        0.0000000000000000     
  0.84375000000000000       0.65625000000000000        0.0000000000000000     
  0.87500000000000000       0.65625000000000000        0.0000000000000000     
  0.75000000000000000       0.68750000000000000        0.0000000000000000     
  0.78125000000000000       0.68750000000000000        0.0000000000000000     
  0.81250000000000000       0.68750000000000000        0.0000000000000000     
  0.84375000000000000       0.68750000000000000        0.0000000000000000     
  0.87500000000000000       0.68750000000000000        0.0000000000000000     
  0.75000000000000000       0.71875000000000000        0.0000000000000000     
  0.78125000000000000       0.71875000000000000        0.0000000000000000     
  0.81250000000000000       0.71875000000000000        0.0000000000000000     
  0.84375000000000000       0.71875000000000000        0.0000000000000000     
  0.87500000000000000       0.71875000000000000        0.0000000000000000     
  0.75000000000000000       0.75000000000000000        0.0000000000000000     
  0.78125000000000000       0.75000000000000000        0.0000000000000000     
  0.81250000000000000       0.75000000000000000        0.0000000000000000     
  0.84375000000000000       0.75000000000000000        0.0000000000000000     
  0.87500000000000000       0.75000000000000000        0.0000000000000000     
  0.87500000000000000       0.62500000000000000        0.0000000000000000     
  0.90625000000000000       0.62500000000000000        0.0000000000000000     
  0.93750000000000000       0.62500000000000000        0.0000000000000000     
  0.96875000000000000       0.62500000000000000        0.0000000000000000     
   1.0000000000000000       0.62500000000000000        0.0000000000000000     
  0.87500000000000000       0.65625000000000000        0.0000000000000000     
  0.90625000000000000       0.65625000000000000        0.0000000000000000     
  0.93750000000000000       0.65625000000000000        0.0000000000000000     
  0.96875000000000000       0.65625000000000000        0.0000000000000000     
   1.0000000000000000       0.65625000000000000        0.0000000000000000     
  0.87500000000000000       0.68750000000000000        0.0000000000000000     
  0.90625000000000000       0.68750000000000000        0.0000000000000000     
  0.93750000000000000       0.68750000000000000        0.0000000000000000     
  0.96875000000000000       0.68750000000000000        0.0000000000000000     
   1.0000000000000000       0.68750000000000000        0.0000000000000000     
  0.87500000000000000       0.71875000000000000        0.0000000000000000     
  0.90625000000000000       0.71875000000000000        0.0000000000000000     
  0.93750000000000000       0.71875000000000000        0.0000000000000000     
  0.96875000000000000       0.71875000000000000        0.0000000000000000     
   1.0000000000000000       0.71875000000000000        0.0000000000000000     
  0.87500000000000000       0.75000000000000000        0.0000000000000000     
  0.90625000000000000       0.75000000000000000        0.0000000000000000     
  0.93750000000000000       0.75000000000000000        0.0000000000000000     
  0.96875000000000000       0.75000000000000000        0.0000000000000000     
   1.0000000000000000       0.75000000000000000        0.0000000000000000     
   0.0000000000000000       0.75000000000000000        0.0000000000000000     
   3.1250000000000000E-002  0.75000000000000000        0.0000000000000000     
   6.2500000000000000E-002  0.75000000000000000        0.0000000000000000     
   9.3750000000000000E-002  0.75000000000000000        0.0000000000000000     
  0.12500000000000000       0.75000000000000000        0.0000000000000000     
   0.0000000000000000       0.78125000000000000        0.0000000000000000     
   3.1250000000000000E-002  0.78125000000000000        0.0000000000000000     
   6.2500000000000000E-002  0.78125000000000000        0.0000000000000000     
   9.3750000000000000E-002  0.78125000000000000        0.0000000000000000     
  0.12500000000000000       0.78125000000000000        0.0000000000000000     
   0.0000000000000000       0.81250000000000000        0.0000000000000000     
   3.1250000000000000E-002  0.81250000000000000        0.0000000000000000     
   6.2500000000000000E-002  0.81250000000000000        0.0000000000000000     
   9.3750000000000000E-002  0.81250000000000000        0.0000000000000000     
  0.12500000000000000       0.81250000000000000        0.0000000000000000     
   0.0000000000000000       0.84375000000000000        0.0000000000000000     
   3.1250000000000000E-002  0.84375000000000000        0.0000000000000000     
   6.2500000000000000E-002  0.84375000000000000        0.0000000000000000     
   9.3750000000000000E-002  0.84375000000000000        0.0000000000000000     
  0.12500000000000000       0.84375000000000000        0.0000000000000000     
   0.0000000000000000       0.87500000000000000        0.0000000000000000     
   3.1250000000000000E-002  0.87500000000000000        0.0000000000000000     
   6.2500000000000000E-002  0.87500000000000000        0.0000000000000000     
   9.3750000000000000E-002  0.87500000000000000        0.0000000000000000     
  0.12500000000000000       0.87500000000000000        0.0000000000000000     
  0.12500000000000000       0.75000000000000000        0.0000000000000000     
  0.15625000000000000       0.75000000000000000        0.0000000000000000     
  0.18750000000000000       0.75000000000000000        0.0000000000000000     
  0.21875000000000000       0.75000000000000000        0.0000000000000000     
  0.25000000000000000       0.75000000000000000        0.0000000000000000     
  0.12500000000000000       0.78125000000000000        0.0000000000000000     
  0.15625000000000000       0.78125000000000000        0.0000000000000000     
  0.18750000000000000       0.78125000000000000        0.0000000000000000     
  0.21875000000000000       0.78125000000000000        0.0000000000000000     
  0.25000000000000000       0.78125000000000000        0.0000000000000000     
  0.12500000000000000       0.81250000000000000        0.0000000000000000     
  0.15625000000000000       0.81250000000000000        0.0000000000000000     
  0.18750000000000000       0.81250000000000000        0.0000000000000000     
  0.21875000000000000       0.81250000000000000        0.0000000000000000     
  0.25000000000000000       0.81250000000000000        0.0000000000000000     
  0.12500000000000000       0.84375000000000000        0.0000000000000000     
  0.15625000000000000       0.84375000000000000        0.0000000000000000     
  0.18750000000000000       0.84375000000000000        0.0000000000000000     
  0.21875000000000000       0.84375000000000000        0.0000000000000000     
  0.25000000000000000       0.84375000000000000        0.0000000000000000     
  0.12500000000000000       0.87500000000000000        0.0000000000000000     
  0.15625000000000000       0.87500000000000000        0.0000000000000000     
  0.18750000000000000       0.87500000000000000        0.0000000000000000     
  0.21875000000000000       0.87500000000000000        0.0000000000000000     
  0.25000000000000000       0.87500000000000000        0.0000000000000000     
  0.25000000000000000       0.75000000000000000        0.0000000000000000     
  0.28125000000000000       0.75000000000000000        0.0000000000000000     
  0.31250000000000000       0.75000000000000000        0.0000000000000000     
  0.34375000000000000       0.75000000000000000        0.0000000000000000     
  0.37500000000000000       0.75000000000000000        0.0000000000000000     
  0.25000000000000000       0.78125000000000000        0.0000000000000000     
  0.28125000000000000       0.78125000000000000        0.0000000000000000     
  0.31250000000000000       0.78125000000000000        0.0000000000000000     
  0.34375000000000000       0.78125000000000000        0.0000000000000000     
  0.37500000000000000       0.78125000000000000        0.0000000000000000     
  0.25000000000000000       0.81250000000000000        0.0000000000000000     
  0.28125000000000000       0.81250000000000000        0.0000000000000000     
  0.31250000000000000       0.81250000000000000        0.0000000000000000     
  0.34375000000000000       0.81250000000000000        0.0000000000000000     
  0.37500000000000000       0.81250000000000000        0.0000000000000000     
  0.25000000000000000       0.84375000000000000        0.0000000000000000     
  0.28125000000000000       0.84375000000000000        0.0000000000000000     
  0.31250000000000000       0.84375000000000000        0.0000000000000000     
  0.34375000000000000       0.84375000000000000        0.0000000000000000     
  0.37500000000000000       0.84375000000000000        0.0000000000000000     
  0.25000000000000000       0.87500000000000000        0.0000000000000000     
  0.28125000000000000       0.87500000000000000        0.0000000000000000     
  0.31250000000000000       0.87500000000000000        0.0000000000000000     
  0.34375000000000000       0.87500000000000000        0.0000000000000000     
  0.37500000000000000       0.87500000000000000        0.0000000000000000     
  0.37500000000000000       0.75000000000000000        0.0000000000000000     
  0.40625000000000000       0.75000000000000000        0.0000000000000000     
  0.43750000000000000       0.75000000000000000        0.0000000000000000     
  0.46875000000000000       0.75000000000000000        0.0000000000000000     
  0.50000000000000000       0.75000000000000000        0.0000000000000000     
  0.37500000000000000       0.78125000000000000        0.0000000000000000     
  0.40625000000000000       0.78125000000000000        0.0000000000000000     
  0.43750000000000000       0.78125000000000000        0.0000000000000000     
  0.46875000000000000       0.78125000000000000        0.0000000000000000     
  0.50000000000000000       0.78125000000000000        0.0000000000000000     
  0.37500000000000000       0.81250000000000000        0.0000000000000000     
  0.40625000000000000       0.81250000000000000        0.0000000000000000     
  0.43750000000000000       0.81250000000000000        0.0000000000000000     
  0.46875000000000000       0.81250000000000000        0.0000000000000000     
  0.50000000000000000       0.81250000000000000        0.0000000000000000     
  0.37500000000000000       0.84375000000000000        0.0000000000000000     
  0.40625000000000000       0.84375000000000000        0.0000000000000000     
  0.43750000000000000       0.84375000000000000        0.0000000000000000     
  0.46875000000000000       0.84375000000000000        0.0000000000000000     
  0.50000000000000000       0.84375000000000000        0.0000000000000000     
  0.37500000000000000       0.87500000000000000        0.0000000000000000     
  0.40625000000000000       0.87500000000000000        0.0000000000000000     
  0.43750000000000000       0.87500000000000000        0.0000000000000000     
  0.46875000000000000       0.87500000000000000        0.0000000000000000     
  0.50000000000000000       0.87500000000000000        0.0000000000000000     
  0.50000000000000000       0.75000000000000000        0.0000000000000000     
  0.53125000000000000       0.75000000000000000        0.0000000000000000     
  0.56250000000000000       0.75000000000000000        0.0000000000000000     
  0.59375000000000000       0.75000000000000000        0.0000000000000000     
  0.62500000000000000       0.75000000000000000        0.0000000000000000     
  0.50000000000000000       0.78125000000000000        0.0000000000000000     
  0.53125000000000000       0.78125000000000000        0.0000000000000000     
  0.56250000000000000       0.78125000000000000        0.0000000000000000     
  0.59375000000000000       0.78125000000000000        0.0000000000000000     
  0.62500000000000000       0.78125000000000000        0.0000000000000000     
  0.50000000000000000       0.81250000000000000        0.0000000000000000     
  0.53125000000000000       0.81250000000000000        0.0000000000000000     
  0.56250000000000000       0.81250000000000000        0.0000000000000000     
  0.59375000000000000       0.81250000000000000        0.0000000000000000     
  0.62500000000000000       0.81250000000000000        0.0000000000000000     
  0.50000000000000000       0.84375000000000000        0.0000000000000000     
  0.53125000000000000       0.84375000000000000        0.0000000000000000     
  0.56250000000000000       0.84375000000000000        0.0000000000000000     
  0.59375000000000000       0.84375000000000000        0.0000000000000000     
  0.62500000000000000       0.84375000000000000        0.0000000000000000     
  0.50000000000000000       0.87500000000000000        0.0000000000000000     
  0.53125000000000000       0.87500000000000000        0.0000000000000000     
  0.56250000000000000       0.87500000000000000        0.0000000000000000     
  0.59375000000000000       0.87500000000000000        0.0000000000000000     
  0.62500000000000000       0.87500000000000000        0.0000000000000000     
  0.62500000000000000       0.75000000000000000        0.0000000000000000     
  0.65625000000000000       0.75000000000000000        0.0000000000000000     
  0.68750000000000000       0.75000000000000000        0.0000000000000000     
  0.71875000000000000       0.75000000000000000        0.0000000000000000     
  0.75000000000000000       0.75000000000000000        0.0000000000000000     
  0.62500000000000000       0.78125000000000000        0.0000000000000000     
  0.65625000000000000       0.78125000000000000        0.0000000000000000     
  0.68750000000000000       0.78125000000000000        0.0000000000000000     
  0.71875000000000000       0.78125000000000000        0.0000000000000000     
  0.75000000000000000       0.78125000000000000        0.0000000000000000     
  0.62500000000000000       0.81250000000000000        0.0000000000000000     
  0.65625000000000000       0.81250000000000000        0.0000000000000000     
  0.68750000000000000       0.81250000000000000        0.0000000000000000     
  0.71875000000000000       0.81250000000000000        0.0000000000000000     
  0.75000000000000000       0.81250000000000000        0.0000000000000000     
  0.62500000000000000       0.84375000000000000        0.0000000000000000     
  0.65625000000000000       0.84375000000000000        0.0000000000000000     
  0.68750000000000000       0.84375000000000000        0.0000000000000000     
  0.71875000000000000       0.84375000000000000        0.0000000000000000     
  0.75000000000000000       0.84375000000000000        0.0000000000000000     
  0.62500000000000000       0.87500000000000000        0.0000000000000000     
  0.65625000000000000       0.87500000000000000        0.0000000000000000     
  0.68750000000000000       0.87500000000000000        0.0000000000000000     
  0.71875000000000000       0.87500000000000000        0.0000000000000000     
  0.75000000000000000       0.87500000000000000        0.0000000000000000     
  0.75000000000000000       0.75000000000000000        0.0000000000000000     
  0.78125000000000000       0.75000000000000000        0.0000000000000000     
  0.81250000000000000       0.75000000000000000        0.0000000000000000     
  0.84375000000000000       0.75000000000000000        0.0000000000000000     
  0.87500000000000000       0.75000000000000000        0.0000000000000000     
  0.75000000000000000       0.78125000000000000        0.0000000000000000     
  0.78125000000000000       0.78125000000000000        0.0000000000000000     
  0.81250000000000000       0.78125000000000000        0.0000000000000000     
  0.84375000000000000       0.78125000000000000        0.0000000000000000     
  0.87500000000000000       0.78125000000000000        0.0000000000000000     
  0.75000000000000000       0.81250000000000000        0.0000000000000000     
  0.78125000000000000       0.81250000000000000        0.0000000000000000     
  0.81250000000000000       0.81250000000000000        0.0000000000000000     
  0.84375000000000000       0.81250000000000000        0.0000000000000000     
  0.87500000000000000       0.81250000000000000        0.0000000000000000     
  0.75000000000000000       0.84375000000000000        0.0000000000000000     
  0.78125000000000000       0.84375000000000000        0.0000000000000000     
  0.81250000000000000       0.84375000000000000        0.0000000000000000     
  0.84375000000000000       0.84375000000000000        0.0000000000000000     
  0.87500000000000000       0.84375000000000000        0.0000000000000000     
  0.75000000000000000       0.87500000000000000        0.0000000000000000     
  0.78125000000000000       0.87500000000000000        0.0000000000000000     
  0.81250000000000000       0.87500000000000000        0.0000000000000000     
  0.84375000000000000       0.87500000000000000        0.0000000000000000     
  0.87500000000000000       0.87500000000000000        0.0000000000000000     
  0.87500000000000000       0.75000000000000000        0.0000000000000000     
  0.90625000000000000       0.75000000000000000        0.0000000000000000     
  0.93750000000000000       0.75000000000000000        0.0000000000000000     
  0.96875000000000000       0.75000000000000000        0.0000000000000000     
   1.0000000000000000       0.75000000000000000        0.0000000000000000     
  0.87500000000000000       0.78125000000000000        0.0000000000000000     
  0.90625000000000000       0.78125000000000000        0.0000000000000000     
  0.93750000000000000       0.78125000000000000        0.0000000000000000     
  0.96875000000000000       0.78125000000000000        0.0000000000000000     
   1.0000000000000000       0.78125000000000000        0.0000000000000000     
  0.87500000000000000       0.81250000000000000        0.0000000000000000     
  0.90625000000000000       0.81250000000000000        0.0000000000000000     
  0.93750000000000000       0.81250000000000000        0.0000000000000000     
  0.96875000000000000       0.81250000000000000        0.0000000000000000     
   1.0000000000000000       0.81250000000000000        0.0000000000000000     
  0.87500000000000000       0.84375000000000000        0.0000000000000000     
  0.90625000000000000       0.84375000000000000        0.0000000000000000     
  0.93750000000000000       0.84375000000000000        0.0000000000000000     
  0.96875000000000000       0.84375000000000000        0.0000000000000000     
   1.0000000000000000       0.84375000000000000        0.0000000000000000     
  0.87500000000000000       0.87500000000000000        0.0000000000000000     
  0.90625000000000000       0.87500000000000000        0.0000000000000000     
  0.93750000000000000       0.87500000000000000        0.0000000000000000     
  0.96875000000000000       0.87500000000000000        0.0000000000000000     
   1.0000000000000000       0.87500000000000000        0.0000000000000000     
   0.0000000000000000       0.87500000000000000        0.0000000000000000     
   3.1250000000000000E-002  0.87500000000000000        0.0000000000000000     
   6.2500000000000000E-002  0.87500000000000000        0.0000000000000000     
   9.3750000000000000E-002  0.87500000000000000        0.0000000000000000     
  0.12500000000000000       0.87500000000000000        0.0000000000000000     
   0.0000000000000000       0.90625000000000000        0.0000000000000000     
   3.1250000000000000E-002  0.90625000000000000        0.0000000000000000     
   6.2500000000000000E-002  0.90625000000000000        0.0000000000000000     
   9.3750000000000000E-002  0.90625000000000000        0.0000000000000000     
  0.12500000000000000       0.90625000000000000        0.0000000000000000     
   0.0000000000000000       0.93750000000000000        0.0000000000000000     
   3.1250000000000000E-002  0.93750000000000000        0.0000000000000000     
   6.2500000000000000E-002  0.93750000000000000        0.0000000000000000     
   9.3750000000000000E-002  0.93750000000000000        0.0000000000000000     
  0.12500000000000000       0.93750000000000000        0.0000000000000000     
   0.0000000000000000       0.96875000000000000        0.0000000000000000     
   3.1250000000000000E-002  0.96875000000000000        0.0000000000000000     
   6.2500000000000000E-002  0.96875000000000000        0.0000000000000000     
   9.3750000000000000E-002  0.96875000000000000        0.0000000000000000     
  0.12500000000000000       0.96875000000000000        0.0000000000000000     
   0.0000000000000000        1.0000000000000000        0.0000000000000000     
   3.1250000000000000E-002   1.0000000000000000        0.0000000000000000     
   6.2500000000000000E-002   1.0000000000000000        0.0000000000000000     
   9.3750000000000000E-002   1.0000000000000000        0.0000000000000000     
  0.12500000000000000        1.0000000000000000        0.0000000000000000     
  0.12500000000000000       0.87500000000000000        0.0000000000000000     
  0.15625000000000000       0.87500000000000000        0.0000000000000000     
  0.18750000000000000       0.87500000000000000        0.0000000000000000     
  0.21875000000000000       0.87500000000000000        0.0000000000000000     
  0.25000000000000000       0.87500000000000000        0.0000000000000000     
  0.12500000000000000       0.90625000000000000        0.0000000000000000     
  0.15625000000000000       0.90625000000000000        0.0000000000000000     
  0.18750000000000000       0.90625000000000000        0.0000000000000000     
  0.21875000000000000       0.90625000000000000        0.0000000000000000     
  0.25000000000000000       0.90625000000000000        0.0000000000000000     
  0.12500000000000000       0.93750000000000000        0.0000000000000000     
  0.15625000000000000       0.93750000000000000        0.0000000000000000     
  0.18750000000000000       0.93750000000000000        0.0000000000000000     
  0.21875000000000000       0.93750000000000000        0.0000000000000000     
  0.25000000000000000       0.93750000000000000        0.0000000000000000     
  0.12500000000000000       0.96875000000000000        0.0000000000000000     
  0.15625000000000000       0.96875000000000000        0.0000000000000000     
  0.18750000000000000       0.96875000000000000        0.0000000000000000     
  0.21875000000000000       0.96875000000000000        0.0000000000000000     
  0.25000000000000000       0.96875000000000000        0.0000000000000000     
  0.12500000000000000        1.0000000000000000        0.0000000000000000     
  0.15625000000000000        1.0000000000000000        0.0000000000000000     
  0.18750000000000000        1.0000000000000000        0.0000000000000000     
  0.21875000000000000        1.0000000000000000        0.0000000000000000     
  0.25000000000000000        1.0000000000000000        0.0000000000000000     
  0.25000000000000000       0.87500000000000000        0.0000000000000000     
  0.28125000000000000       0.87500000000000000        0.0000000000000000     
  0.31250000000000000       0.87500000000000000        0.0000000000000000     
  0.34375000000000000       0.87500000000000000        0.0000000000000000     
  0.37500000000000000       0.87500000000000000        0.0000000000000000     
  0.25000000000000000       0.90625000000000000        0.0000000000000000     
  0.28125000000000000       0.90625000000000000        0.0000000000000000     
  0.31250000000000000       0.90625000000000000        0.0000000000000000     
  0.34375000000000000       0.90625000000000000        0.0000000000000000     
  0.37500000000000000       0.90625000000000000        0.0000000000000000     
  0.25000000000000000       0.93750000000000000        0.0000000000000000     
  0.28125000000000000       0.93750000000000000        0.0000000000000000     
  0.31250000000000000       0.93750000000000000        0.0000000000000000     
  0.34375000000000000       0.93750000000000000        0.0000000000000000     
  0.37500000000000000       0.93750000000000000        0.0000000000000000     
  0.25000000000000000       0.96875000000000000        0.0000000000000000     
  0.28125000000000000       0.96875000000000000        0.0000000000000000     
  0.31250000000000000       0.96875000000000000        0.0000000000000000     
  0.34375000000000000       0.96875000000000000        0.0000000000000000     
  0.37500000000000000       0.96875000000000000        0.0000000000000000     
  0.25000000000000000        1.0000000000000000        0.0000000000000000     
  0.28125000000000000        1.0000000000000000        0.0000000000000000     
  0.31250000000000000        1.0000000000000000        0.0000000000000000     
  0.34375000000000000        1.0000000000000000        0.0000000000000000     
  0.37500000000000000        1.0000000000000000        0.0000000000000000     
  0.37500000000000000       0.87500000000000000        0.0000000000000000     
  0.40625000000000000       0.87500000000000000        0.0000000000000000     
  0.43750000000000000       0.87500000000000000        0.0000000000000000     
  0.46875000000000000       0.87500000000000000        0.0000000000000000     
  0.50000000000000000       0.87500000000000000        0.0000000000000000     
  0.37500000000000000       0.90625000000000000        0.0000000000000000     
  0.40625000000000000       0.90625000000000000        0.0000000000000000     
  0.43750000000000000       0.90625000000000000        0.0000000000000000     
  0.46875000000000000       0.90625000000000000        0.0000000000000000     
  0.50000000000000000       0.90625000000000000        0.0000000000000000     
  0.37500000000000000       0.93750000000000000        0.0000000000000000     
  0.40625000000000000       0.93750000000000000        0.0000000000000000     
  0.43750000000000000       0.93750000000000000        0.0000000000000000     
  0.46875000000000000       0.93750000000000000        0.0000000000000000     
  0.50000000000000000       0.93750000000000000        0.0000000000000000     
  0.37500000000000000       0.96875000000000000        0.0000000000000000     
  0.40625000000000000       0.96875000000000000        0.0000000000000000     
  0.43750000000000000       0.96875000000000000        0.0000000000000000     
  0.46875000000000000       0.96875000000000000        0.0000000000000000     
  0.50000000000000000       0.96875000000000000        0.0000000000000000     
  0.37500000000000000        1.0000000000000000        0.0000000000000000     
  0.40625000000000000        1.0000000000000000        0.0000000000000000     
  0.43750000000000000        1.0000000000000000        0.0000000000000000     
  0.46875000000000000        1.0000000000000000        0.0000000000000000     
  0.50000000000000000        1.0000000000000000        0.0000000000000000     
  0.50000000000000000       0.87500000000000000        0.0000000000000000     
  0.53125000000000000       0.87500000000000000        0.0000000000000000     
  0.56250000000000000       0.87500000000000000        0.0000000000000000     
  0.59375000000000000       0.87500000000000000        0.0000000000000000     
  0.62500000000000000       0.87500000000000000        0.0000000000000000     
  0.50000000000000000       0.90625000000000000        0.0000000000000000     
  0.53125000000000000       0.90625000000000000        0.0000000000000000     
  0.56250000000000000       0.90625000000000000        0.0000000000000000     
  0.59375000000000000       0.90625000000000000        0.0000000000000000     
  0.62500000000000000       0.90625000000000000        0.0000000000000000     
  0.50000000000000000       0.93750000000000000        0.0000000000000000     
  0.53125000000000000       0.93750000000000000        0.0000000000000000     
  0.56250000000000000       0.93750000000000000        0.0000000000000000     
  0.59375000000000000       0.93750000000000000        0.0000000000000000     
  0.62500000000000000       0.93750000000000000        0.0000000000000000     
  0.50000000000000000       0.96875000000000000        0.0000000000000000     
  0.53125000000000000       0.96875000000000000        0.0000000000000000     
  0.56250000000000000       0.96875000000000000        0.0000000000000000     
  0.59375000000000000       0.96875000000000000        0.0000000000000000     
  0.62500000000000000       0.96875000000000000        0.0000000000000000     
  0.50000000000000000        1.0000000000000000        0.0000000000000000     
  0.53125000000000000        1.0000000000000000        0.0000000000000000     
  0.56250000000000000        1.0000000000000000        0.0000000000000000     
  0.59375000000000000        1.0000000000000000        0.0000000000000000     
  0.62500000000000000        1.0000000000000000        0.0000000000000000     
  0.62500000000000000       0.87500000000000000        0.0000000000000000     
  0.65625000000000000       0.87500000000000000        0.0000000000000000     
  0.68750000000000000       0.87500000000000000        0.0000000000000000     
  0.71875000000000000       0.87500000000000000        0.0000000000000000     
  0.75000000000000000       0.87500000000000000        0.0000000000000000     
  0.62500000000000000       0.90625000000000000        0.0000000000000000     
  0.65625000000000000       0.90625000000000000        0.0000000000000000     
  0.68750000000000000       0.90625000000000000        0.0000000000000000     
  0.71875000000000000       0.90625000000000000        0.0000000000000000     
  0.75000000000000000       0.90625000000000000        0.0000000000000000     
  0.62500000000000000       0.93750000000000000        0.0000000000000000     
  0.65625000000000000       0.93750000000000000        0.0000000000000000     
  0.68750000000000000       0.93750000000000000        0.0000000000000000     
  0.71875000000000000       0.93750000000000000        0.0000000000000000     
  0.75000000000000000       0.93750000000000000        0.0000000000000000     
  0.62500000000000000       0.96875000000000000        0.0000000000000000     
  0.65625000000000000       0.96875000000000000        0.0000000000000000     
  0.68750000000000000       0.96875000000000000        0.0000000000000000     
  0.71875000000000000       0.96875000000000000        0.0000000000000000     
  0.75000000000000000       0.96875000000000000        0.0000000000000000     
  0.62500000000000000        1.0000000000000000        0.0000000000000000     
  0.65625000000000000        1.0000000000000000        0.0000000000000000     
  0.68750000000000000        1.0000000000000000        0.0000000000000000     
  0.71875000000000000        1.0000000000000000        0.0000000000000000     
  0.75000000000000000        1.0000000000000000        0.0000000000000000     
  0.75000000000000000       0.87500000000000000        0.0000000000000000     
  0.78125000000000000       0.87500000000000000        0.0000000000000000     
  0.81250000000000000       0.87500000000000000        0.0000000000000000     
  0.84375000000000000       0.87500000000000000        0.0000000000000000     
  0.87500000000000000       0.87500000000000000        0.0000000000000000     
  0.75000000000000000       0.90625000000000000        0.0000000000000000     
  0.78125000000000000       0.90625000000000000        0.0000000000000000     
  0.81250000000000000       0.90625000000000000        0.0000000000000000     
  0.84375000000000000       0.90625000000000000        0.0000000000000000     
  0.87500000000000000       0.90625000000000000        0.0000000000000000     
  0.75000000000000000       0.93750000000000000        0.0000000000000000     
  0.78125000000000000       0.93750000000000000        0.0000000000000000     
  0.81250000000000000       0.93750000000000000        0.0000000000000000     
  0.84375000000000000       0.93750000000000000        0.0000000000000000     
  0.87500000000000000       0.93750000000000000        0.0000000000000000     
  0.75000000000000000       0.96875000000000000        0.0000000000000000     
  0.78125000000000000       0.96875000000000000        0.0000000000000000     
  0.81250000000000000       0.96875000000000000        0.0000000000000000     
  0.84375000000000000       0.96875000000000000        0.0000000000000000     
  0.87500000000000000       0.96875000000000000        0.0000000000000000     
  0.75000000000000000        1.0000000000000000        0.0000000000000000     
  0.78125000000000000        1.0000000000000000        0.0000000000000000     
  0.81250000000000000        1.0000000000000000        0.0000000000000000     
  0.84375000000000000        1.0000000000000000        0.0000000000000000     
  0.87500000000000000        1.0000000000000000        0.0000000000000000     
  0.87500000000000000       0.87500000000000000        0.0000000000000000     
  0.90625000000000000       0.87500000000000000        0.0000000000000000     
  0.93750000000000000       0.87500000000000000        0.0000000000000000     
  0.96875000000000000       0.87500000000000000        0.0000000000000000     
   1.0000000000000000       0.87500000000000000        0.0000000000000000     
  0.87500000000000000       0.90625000000000000        0.0000000000000000     
  0.90625000000000000       0.90625000000000000        0.0000000000000000     
  0.93750000000000000       0.90625000000000000        0.0000000000000000     
  0.96875000000000000       0.90625000000000000        0.0000000000000000     
   1.0000000000000000       0.90625000000000000        0.0000000000000000     
  0.87500000000000000       0.93750000000000000        0.0000000000000000     
  0.90625000000000000       0.93750000000000000        0.0000000000000000     
  0.93750000000000000       0.93750000000000000        0.0000000000000000     
  0.96875000000000000       0.93750000000000000        0.0000000000000000     
   1.0000000000000000       0.93750000000000000        0.0000000000000000     
  0.87500000000000000       0.96875000000000000        0.0000000000000000     
  0.90625000000000000       0.96875000000000000        0.0000000000000000     
  0.93750000000000000       0.96875000000000000        0.0000000000000000     
  0.96875000000000000       0.96875000000000000        0.0000000000000000     
   1.0000000000000000       0.96875000000000000        0.0000000000000000     
  0.87500000000000000        1.0000000000000000        0.0000000000000000     
  0.90625000000000000        1.0000000000000000        0.0000000000000000     
  0.93750000000000000        1.0000000000000000        0.0000000000000000     
  0.96875000000000000        1.0000000000000000        0.0000000000000000     
   1.0000000000000000        1.0000000000000000        0.0000000000000000     
 </DataArray>
 </Points>
 <Cells>
 <DataArray  type="Int32"  Name="connectivity"  format="ascii">
           0           1           6           5
           1           2           7           6
           2           3           8           7
           3           4           9           8
           5           6          11          10
           6           7          12          11
           7           8          13          12
           8           9          14          13
          10          11          16          15
          11          12          17          16
          12          13          18          17
          13          14          19          18
          15          16          21          20
          16          17          22          21
          17          18          23          22
          18          19          24          23
          25          26          31          30
          26          27          32          31
          27          28          33          32
          28          29          34          33
          30          31          36          35
          31          32          37          36
          32          33          38          37
          33          34          39          38
          35          36          41          40
          36          37          42          41
          37          38          43          42
          38          39          44          43
          40          41          46          45
          41          42          47          46
          42          43          48          47
          43          44          49          48
          50          51          56          55
          51          52          57          56
          52          53          58          57
          53          54          59          58
          55          56          61          60
          56          57          62          61
          57          58          63          62
          58          59          64          63
          60          61          66          65
          61          62          67          66
          62          63          68          67
          63          64          69          68
          65          66          71          70
          66          67          72          71
          67          68          73          72
          68          69          74          73
          75          76          81          80
          76          77          82          81
          77          78          83          82
          78          79          84          83
          80          81          86          85
          81          82          87          86
          82          83          88          87
          83          84          89          88
          85          86          91          90
          86          87          92          91
          87          88          93          92
          88          89          94          93
          90          91          96          95
          91          92          97          96
          92          93          98          97
          93          94          99          98
         100         101         106         105
         101         102         107         106
         102         103         108         107
         103         104         109         108
         105         106         111         110
         106         107         112         111
         107         108         113         112
         108         109         114         113
         110         111         116         115
         111         112         117         116
         112         113         118         117
         113         114         119         118
         115         116         121         120
         116         117         122         121
         117         118         123         122
         118         119         124         123
         125         126         131         130
         126         127         132         131
         127         128         133         132
         128         129         134         133
         130         131         136         135
         131         132         137         136
         132         133         138         137
         133         134         139         138
         135         136         141         140
         136         137         142         141
         137         138         143         142
         138         139         144         143
         140         141         146         145
         141         142         147         146
         142         143         148         147
         143         144         149         148
         150         151         156         155
         151         152         157         156
         152         153         158         157
         153         154         159         158
         155         156         161         160
         156         157         162         161
         157         158         163         162
         158         159         164         163
         160         161         166         165
         161         162         167         166
         162         163         168         167
         163         164         169         168
         165         166         171         170
         166         167         172         171
         167         168         173         172
         168         169         174         173
         175         176         181         180
         176         177         182         181
         177         178         183         182
         178         179         184         183
         180         181         186         185
         181         182         187         186
         182         183         188         187
         183         184         189         188
         185         186         191         190
         186         187         192         191
         187         188         193         192
         188         189         194         193
         190         191         196         195
         191         192         197         196
         192         193         198         197
         193         194         199         198
         200         201         206         205
         201         202         207         206
         202         203         208         207
         203         204         209         208
         205         206         211         210
         206         207         212         211
         207         208         213         212
         208         209         214         213
         210         211         216         215
         211         212         217         216
         212         213         218         217
         213         214         219         218
         215         216         221         220
         216         217         222         221
         217         218         223         222
         218         219         224         223
         225         226         231         230
         226         227         232         231
         227         228         233         232
         228         229         234         233
         230         231         236         235
         231         232         237         236
         232         233         238         237
         233         234         239         238
         235         236         241         240
         236         237         242         241
         237         238         243         242
         238         239         244         243
         240         241         246         245
         241         242         247         246
         242         243         248         247
         243         244         249         248
         250         251         256         255
         251         252         257         256
         252         253         258         257
         253         254         259         258
         255         256         261         260
         256         257         262         261
         257         258         263         262
         258         259         264         263
         260         261         266         265
         261         262         267         266
         262         263         268         267
         263         264         269         268
         265         266         271         270
         266         267         272         271
         267         268         273         272
         268         269         274         273
         275         276         281         280
         276         277         282         281
         277         278         283         282
         278         279         284         283
         280         281         286         285
         281         282         287         286
         282         283         288         287
         283         284         289         288
         285         286         291         290
         286         287         292         291
         287         288         293         292
         288         289         294         293
         290         291         296         295
         291         292         297         296
         292         293         298         297
         293         294         299         298
         300         301         306         305
         301         302         307         306
         302         303         308         307
         303         304         309         308
         305         306         311         310
         306         307         312         311
         307         308         313         312
         308         309         314         313
         310         311         316         315
         311         312         317         316
         312         313         318         317
         313         314         319         318
         315         316         321         320
         316         317         322         321
         317         318         323         322
         318         319         324         323
         325         326         331         330
         326         327         332         331
         327         328         333         332
         328         329         334         333
         330         331         336         335
         331         332         337         336
         332         333         338         337
         333         334         339         338
         335         336         341         340
         336         337         342         341
         337         338         343         342
         338         339         344         343
         340         341         346         345
         341         342         347         346
         342         343         348         347
         343         344         349         348
         350         351         356         355
         351         352         357         356
         352         353         358         357
         353         354         359         358
         355         356         361         360
         356         357         362         361
         357         358         363         362
         358         359         364         363
         360         361         366         365
         361         362         367         366
         362         363         368         367
         363         364         369         368
         365         366         371         370
         366         367         372         371
         367         368         373         372
         368         369         374         373
         375         376         381         380
         376         377         382         381
         377         378         383         382
         378         379         384         383
         380         381         386         385
         381         382         387         386
         382         383         388         387
         383         384         389         388
         385         386         391         390
         386         387         392         391
         387         388         393         392
         388         389         394         393
         390         391         396         395
         391         392         397         396
         392         393         398         397
         393         394         399         398
         400         401         406         405
         401         402         407         406
         402         403         408         407
         403         404         409         408
         405         406         411         410
         406         407         412         411
         407         408         413         412
         408         409         414         413
         410         411         416         415
         411         412         417         416
         412         413         418         417
         413         414         419         418
         415         416         421         420
         416         417         422         421
         417         418         423         422
         418         419         424         423
         425         426         431         430
         426         427         432         431
         427         428         433         432
         428         429         434         433
         430         431         436         435
         431         432         437         436
         432         433         438         437
         433         434         439         438
         435         436         441         440
         436         437         442         441
         437         438         443         442
         438         439         444         443
         440         441         446         445
         441         442         447         446
         442         443         448         447
         443         444         449         448
         450         451         456         455
         451         452         457         456
         452         453         458         457
         453         454         459         458
         455         456         461         460
         456         457         462         461
         457         458         463         462
         458         459         464         463
         460         461         466         465
         461         462         467         466
         462         463         468         467
         463         464         469         468
         465         466         471         470
         466         467         472         471
         467         468         473         472
         468         469         474         473
         475         476         481         480
         476         477         482         481
         477         478         483         482
         478         479         484         483
         480         481         486         485
         481         482         487         486
         482         483         488         487
         483         484         489         488
         485         486         491         490
         486         487         492         491
         487         488         493         492
         488         489         494         493
         490         491         496         495
         491         492         497         496
         492         493         498         497
         493         494         499         498
         500         501         506         505
         501         502         507         506
         502         503         508         507
         503         504         509         508
         505         506         511         510
         506         507         512         511
         507         508         513         512
         508         509         514         513
         510         511         516         515
         511         512         517         516
         512         513         518         517
         513         514         519         518
         515         516         521         520
         516         517         522         521
         517         518         523         522
         518         519         524         523
         525         526         531         530
         526         527         532         531
         527         528         533         532
         528         529         534         533
         530         531         536         535
         531         532         537         536
         532         533         538         537
         533         534         539         538
         535         536         541         540
         536         537         542         541
         537         538         543         542
         538         539         544         543
         540         541         546         545
         541         542         547         546
         542         543         548         547
         543         544         549         548
         550         551         556         555
         551         552         557         556
         552         553         558         557
         553         554         559         558
         555         556         561         560
         556         557         562         561
         557         558         563         562
         558         559         564         563
         560         561         566         565
         561         562         567         566
         562         563         568         567
         563         564         569         568
         565         566         571         570
         566         567         572         571
         567         568         573         572
         568         569         574         573
         575         576         581         580
         576         577         582         581
         577         578         583         582
         578         579         584         583
         580         581         586         585
         581         582         587         586
         582         583         588         587
         583         584         589         588
         585         586         591         590
         586         587         592         591
         587         588         593         592
         588         589         594         593
         590         591         596         595
         591         592         597         596
         592         593         598         597
         593         594         599         598
         600         601         606         605
         601         602         607         606
         602         603         608         607
         603         604         609         608
         605         606         611         610
         606         607         612         611
         607         608         613         612
         608         609         614         613
         610         611         616         615
         611         612         617         616
         612         613         618         617
         613         614         619         618
         615         616         621         620
         616         617         622         621
         617         618         623         622
         618         619         624         623
         625         626         631         630
         626         627         632         631
         627         628         633         632
         628         629         634         633
         630         631         636         635
         631         632         637         636
         632         633         638         637
         633         634         639         638
         635         636         641         640
         636         637         642         641
         637         638         643         642
         638         639         644         643
         640         641         646         645
         641         642         647         646
         642         643         648         647
         643         644         649         648
         650         651         656         655
         651         652         657         656
         652         653         658         657
         653         654         659         658
         655         656         661         660
         656         657         662         661
         657         658         663         662
         658         659         664         663
         660         661         666         665
         661         662         667         666
         662         663         668         667
         663         664         669         668
         665         666         671         670
         666         667         672         671
         667         668         673         672
         668         669         674         673
         675         676         681         680
         676         677         682         681
         677         678         683         682
         678         679         684         683
         680         681         686         685
         681         682         687         686
         682         683         688         687
         683         684         689         688
         685         686         691         690
         686         687         692         691
         687         688         693         692
         688         689         694         693
         690         691         696         695
         691         692         697         696
         692         693         698         697
         693         694         699         698
         700         701         706         705
         701         702         707         706
         702         703         708         707
         703         704         709         708
         705         706         711         710
         706         707         712         711
         707         708         713         712
         708         709         714         713
         710         711         716         715
         711         712         717         716
         712         713         718         717
         713         714         719         718
         715         716         721         720
         716         717         722         721
         717         718         723         722
         718         719         724         723
         725         726         731         730
         726         727         732         731
         727         728         733         732
         728         729         734         733
         730         731         736         735
         731         732         737         736
         732         733         738         737
         733         734         739         738
         735         736         741         740
         736         737         742         741
         737         738         743         742
         738         739         744         743
         740         741         746         745
         741         742         747         746
         742         743         748         747
         743         744         749         748
         750         751         756         755
         751         752         757         756
         752         753         758         757
         753         754         759         758
         755         756         761         760
         756         757         762         761
         757         758         763         762
         758         759         764         763
         760         761         766         765
         761         762         767         766
         762         763         768         767
         763         764         769         768
         765         766         771         770
         766         767         772         771
         767         768         773         772
         768         769         774         773
         775         776         781         780
         776         777         782         781
         777         778         783         782
         778         779         784         783
         780         781         786         785
         781         782         787         786
         782         783         788         787
         783         784         789         788
         785         786         791         790
         786         787         792         791
         787         788         793         792
         788         789         794         793
         790         791         796         795
         791         792         797         796
         792         793         798         797
         793         794         799         798
         800         801         806         805
         801         802         807         806
         802         803         808         807
         803         804         809         808
         805         806         811         810
         806         807         812         811
         807         808         813         812
         808         809         814         813
         810         811         816         815
         811         812         817         816
         812         813         818         817
         813         814         819         818
         815         816         821         820
         816         817         822         821
         817         818         823         822
         818         819         824         823
         825         826         831         830
         826         827         832         831
         827         828         833         832
         828         829         834         833
         830         831         836         835
         831         832         837         836
         832         833         838         837
         833         834         839         838
         835         836         841         840
         836         837         842         841
         837         838         843         842
         838         839         844         843
         840         841         846         845
         841         842         847         846
         842         843         848         847
         843         844         849         848
         850         851         856         855
         851         852         857         856
         852         853         858         857
         853         854         859         858
         855         856         861         860
         856         857         862         861
         857         858         863         862
         858         859         864         863
         860         861         866         865
         861         862         867         866
         862         863         868         867
         863         864         869         868
         865         866         871         870
         866         867         872         871
         867         868         873         872
         868         869         874         873
         875         876         881         880
         876         877         882         881
         877         878         883         882
         878         879         884         883
         880         881         886         885
         881         882         887         886
         882         883         888         887
         883         884         889         888
         885         886         891         890
         886         887         892         891
         887         888         893         892
         888         889         894         893
         890         891         896         895
         891         892         897         896
         892         893         898         897
         893         894         899         898
         900         901         906         905
         901         902         907         906
         902         903         908         907
         903         904         909         908
         905         906         911         910
         906         907         912         911
         907         908         913         912
         908         909         914         913
         910         911         916         915
         911         912         917         916
         912         913         918         917
         913         914         919         918
         915         916         921         920
         916         917         922         921
         917         918         923         922
         918         919         924         923
         925         926         931         930
         926         927         932         931
         927         928         933         932
         928         929         934         933
         930         931         936         935
         931         932         937         936
         932         933         938         937
         933         934         939         938
         935         936         941         940
         936         937         942         941
         937         938         943         942
         938         939         944         943
         940         941         946         945
         941         942         947         946
         942         943         948         947
         943         944         949         948
         950         951         956         955
         951         952         957         956
         952         953         958         957
         953         954         959         958
         955         956         961         960
         956         957         962         961
         957         958         963         962
         958         959         964         963
         960         961         966         965
         961         962         967         966
         962         963         968         967
         963         964         969         968
         965         966         971         970
         966         967         972         971
         967         968         973         972
         968         969         974         973
         975         976         981         980
         976         977         982         981
         977         978         983         982
         978         979         984         983
         980         981         986         985
         981         982         987         986
         982         983         988         987
         983         984         989         988
         985         986         991         990
         986         987         992         991
         987         988         993         992
         988         989         994         993
         990         991         996         995
         991         992         997         996
         992         993         998         997
         993         994         999         998
        1000        1001        1006        1005
        1001        1002        1007        1006
        1002        1003        1008        1007
        1003        1004        1009        1008
        1005        1006        1011        1010
        1006        1007        1012        1011
        1007        1008        1013        1012
        1008        1009        1014        1013
        1010        1011        1016        1015
        1011        1012        1017        1016
        1012        1013        1018        1017
        1013        1014        1019        1018
        1015        1016        1021        1020
        1016        1017        1022        1021
        1017        1018        1023        1022
        1018        1019        1024        1023
        1025        1026        1031        1030
        1026        1027        1032        1031
        1027        1028        1033        1032
        1028        1029        1034        1033
        1030        1031        1036        1035
        1031        1032        1037        1036
        1032        1033        1038        1037
        1033        1034        1039        1038
        1035        1036        1041        1040
        1036        1037        1042        1041
        1037        1038        1043        1042
        1038        1039        1044        1043
        1040        1041        1046        1045
        1041        1042        1047        1046
        1042        1043        1048        1047
        1043        1044        1049        1048
        1050        1051        1056        1055
        1051        1052        1057        1056
        1052        1053        1058        1057
        1053        1054        1059        1058
        1055        1056        1061        1060
        1056        1057        1062        1061
        1057        1058        1063        1062
        1058        1059        1064        1063
        1060        1061        1066        1065
        1061        1062        1067        1066
        1062        1063        1068        1067
        1063        1064        1069        1068
        1065        1066        1071        1070
        1066        1067        1072        1071
        1067        1068        1073        1072
        1068        1069        1074        1073
        1075        1076        1081        1080
        1076        1077        1082        1081
        1077        1078        1083        1082
        1078        1079        1084        1083
        1080        1081        1086        1085
        1081        1082        1087        1086
        1082        1083        1088        1087
        1083        1084        1089        1088
        1085        1086        1091        1090
        1086        1087        1092        1091
        1087        1088        1093        1092
        1088        1089        1094        1093
        1090        1091        1096        1095
        1091        1092        1097        1096
        1092        1093        1098        1097
        1093        1094        1099        1098
        1100        1101        1106        1105
        1101        1102        1107        1106
        1102        1103        1108        1107
        1103        1104        1109        1108
        1105        1106        1111        1110
        1106        1107        1112        1111
        1107        1108        1113        1112
        1108        1109        1114        1113
        1110        1111        1116        1115
        1111        1112        1117        1116
        1112        1113        1118        1117
        1113        1114        1119        1118
        1115        1116        1121        1120
        1116        1117        1122        1121
        1117        1118        1123        1122
        1118        1119        1124        1123
        1125        1126        1131        1130
        1126        1127        1132        1131
        1127        1128        1133        1132
        1128        1129        1134        1133
        1130        1131        1136        1135
        1131        1132        1137        1136
        1132        1133        1138        1137
        1133        1134        1139        1138
        1135        1136        1141        1140
        1136        1137        1142        1141
        1137        1138        1143        1142
        1138        1139        1144        1143
        1140        1141        1146        1145
        1141        1142        1147        1146
        1142        1143        1148        1147
        1143        1144        1149        1148
        1150        1151        1156        1155
        1151        1152        1157        1156
        1152        1153        1158        1157
        1153        1154        1159        1158
        1155        1156        1161        1160
        1156        1157        1162        1161
        1157        1158        1163        1162
        1158        1159        1164        1163
        1160        1161        1166        1165
        1161        1162        1167        1166
        1162        1163        1168        1167
        1163        1164        1169        1168
        1165        1166        1171        1170
        1166        1167        1172        1171
        1167        1168        1173        1172
        1168        1169        1174        1173
        1175        1176        1181        1180
        1176        1177        1182        1181
        1177        1178        1183        1182
        1178        1179        1184        1183
        1180        1181        1186        1185
        1181        1182        1187        1186
        1182        1183        1188        1187
        1183        1184        1189        1188
        1185        1186        1191        1190
        1186        1187        1192        1191
        1187        1188        1193        1192
        1188        1189        1194        1193
        1190        1191        1196        1195
        1191        1192        1197        1196
        1192        1193        1198        1197
        1193        1194        1199        1198
        1200        1201        1206        1205
        1201        1202        1207        1206
        1202        1203        1208        1207
        1203        1204        1209        1208
        1205        1206        1211        1210
        1206        1207        1212        1211
        1207        1208        1213        1212
        1208        1209        1214        1213
        1210        1211        1216        1215
        1211        1212        1217        1216
        1212        1213        1218        1217
        1213        1214        1219        1218
        1215        1216        1221        1220
        1216        1217        1222        1221
        1217        1218        1223        1222
        1218        1219        1224        1223
        1225        1226        1231        1230
        1226        1227        1232        1231
        1227        1228        1233        1232
        1228        1229        1234        1233
        1230        1231        1236        1235
        1231        1232        1237        1236
        1232        1233        1238        1237
        1233        1234        1239        1238
        1235        1236        1241        1240
        1236        1237        1242        1241
        1237        1238        1243        1242
        1238        1239        1244        1243
        1240        1241        1246        1245
        1241        1242        1247        1246
        1242        1243        1248        1247
        1243        1244        1249        1248
        1250        1251        1256        1255
        1251        1252        1257        1256
        1252        1253        1258        1257
        1253        1254        1259        1258
        1255        1256        1261        1260
        1256        1257        1262        1261
        1257        1258        1263        1262
        1258        1259        1264        1263
        1260        1261        1266        1265
        1261        1262        1267        1266
        1262        1263        1268        1267
        1263        1264        1269        1268
        1265        1266        1271        1270
        1266        1267        1272        1271
        1267        1268        1273        1272
        1268        1269        1274        1273
        1275        1276        1281        1280
        1276        1277        1282        1281
        1277        1278        1283        1282
        1278        1279        1284        1283
        1280        1281        1286        1285
        1281        1282        1287        1286
        1282        1283        1288        1287
        1283        1284        1289        1288
        1285        1286        1291        1290
        1286        1287        1292        1291
        1287        1288        1293        1292
        1288        1289        1294        1293
        1290        1291        1296        1295
        1291        1292        1297        1296
        1292        1293        1298        1297
        1293        1294        1299        1298
        1300        1301        1306        1305
        1301        1302        1307        1306
        1302        1303        1308        1307
        1303        1304        1309        1308
        1305        1306        1311        1310
        1306        1307        1312        1311
        1307        1308        1313        1312
        1308        1309        1314        1313
        1310        1311        1316        1315
        1311        1312        1317        1316
        1312        1313        1318        1317
        1313        1314        1319        1318
        1315        1316        1321        1320
        1316        1317        1322        1321
        1317        1318        1323        1322
        1318        1319        1324        1323
        1325        1326        1331        1330
        1326        1327        1332        1331
        1327        1328        1333        1332
        1328        1329        1334        1333
        1330        1331        1336        1335
        1331        1332        1337        1336
        1332        1333        1338        1337
        1333        1334        1339        1338
        1335        1336        1341        1340
        1336        1337        1342        1341
        1337        1338        1343        1342
        1338        1339        1344        1343
        1340        1341        1346        1345
        1341        1342        1347        1346
        1342        1343        1348        1347
        1343        1344        1349        1348
        1350        1351        1356        1355
        1351        1352        1357        1356
        1352        1353        1358        1357
        1353        1354        1359        1358
        1355        1356        1361        1360
        1356        1357        1362        1361
        1357        1358        1363        1362
        1358        1359        1364        1363
        1360        1361        1366        1365
        1361        1362        1367        1366
        1362        1363        1368        1367
        1363        1364        1369        1368
        1365        1366        1371        1370
        1366        1367        1372        1371
        1367        1368        1373        1372
        1368        1369        1374        1373
        1375        1376        1381        1380
        1376        1377        1382        1381
        1377        1378        1383        1382
        1378        1379        1384        1383
        1380        1381        1386        1385
        1381        1382        1387        1386
        1382        1383        1388        1387
        1383        1384        1389        1388
        1385        1386        1391        1390
        1386        1387        1392        1391
        1387        1388        1393        1392
        1388        1389        1394        1393
        1390        1391        1396        1395
        1391        1392        1397        1396
        1392        1393        1398        1397
        1393        1394        1399        1398
        1400        1401        1406        1405
        1401        1402        1407        1406
        1402        1403        1408        1407
        1403        1404        1409        1408
        1405        1406        1411        1410
        1406        1407        1412        1411
        1407        1408        1413        1412
        1408        1409        1414        1413
        1410        1411        1416        1415
        1411        1412        1417        1416
        1412        1413        1418        1417
        1413        1414        1419        1418
        1415        1416        1421        1420
        1416        1417        1422        1421
        1417        1418        1423        1422
        1418        1419        1424        1423
        1425        1426        1431        1430
        1426        1427        1432        1431
        1427        1428        1433        1432
        1428        1429        1434        1433
        1430        1431        1436        1435
        1431        1432        1437        1436
        1432        1433        1438        1437
        1433        1434        1439        1438
        1435        1436        1441        1440
        1436        1437        1442        1441
        1437        1438        1443        1442
        1438        1439        1444        1443
        1440        1441        1446        1445
        1441        1442        1447        1446
        1442        1443        1448        1447
        1443        1444        1449        1448
        1450        1451        1456        1455
        1451        1452        1457        1456
        1452        1453        1458        1457
        1453        1454        1459        1458
        1455        1456        1461        1460
        1456        1457        1462        1461
        1457        1458        1463        1462
        1458        1459        1464        1463
        1460        1461        1466        1465
        1461        1462        1467        1466
        1462        1463        1468        1467
        1463        1464        1469        1468
        1465        1466        1471        1470
        1466        1467        1472        1471
        1467        1468        1473        1472
        1468        1469        1474        1473
        1475        1476        1481        1480
        1476        1477        1482        1481
        1477        1478        1483        1482
        1478        1479        1484        1483
        1480        1481        1486        1485
        1481        1482        1487        1486
        1482        1483        1488        1487
        1483        1484        1489        1488
        1485        1486        1491        1490
        1486        1487        1492        1491
        1487        1488        1493        1492
        1488        1489        1494        1493
        1490        1491        1496        1495
        1491        1492        1497        1496
        1492        1493        1498        1497
        1493        1494        1499        1498
        1500        1501        1506        1505
        1501        1502        1507        1506
        1502        1503        1508        1507
        1503        1504        1509        1508
        1505        1506        1511        1510
        1506        1507        1512        1511
        1507        1508        1513        1512
        1508        1509        1514        1513
        1510        1511        1516        1515
        1511        1512        1517        1516
        1512        1513        1518        1517
        1513        1514        1519        1518
        1515        1516        1521        1520
        1516        1517        1522        1521
        1517        1518        1523        1522
        1518        1519        1524        1523
        1525        1526        1531        1530
        1526        1527        1532        1531
        1527        1528        1533        1532
        1528        1529        1534        1533
        1530        1531        1536        1535
        1531        1532        1537        1536
        1532        1533        1538        1537
        1533        1534        1539        1538
        1535        1536        1541        1540
        1536        1537        1542        1541
        1537        1538        1543        1542
        1538        1539        1544        1543
        1540        1541        1546        1545
        1541        1542        1547        1546
        1542        1543        1548        1547
        1543        1544        1549        1548
        1550        1551        1556        1555
        1551        1552        1557        1556
        1552        1553        1558        1557
        1553        1554        1559        1558
        1555        1556        1561        1560
        1556        1557        1562        1561
        1557        1558        1563        1562
        1558        1559        1564        1563
        1560        1561        1566        1565
        1561        1562        1567        1566
        1562        1563        1568        1567
        1563        1564        1569        1568
        1565        1566        1571        1570
        1566        1567        1572        1571
        1567        1568        1573        1572
        1568        1569        1574        1573
        1575        1576        1581        1580
        1576        1577        1582        1581
        1577        1578        1583        1582
        1578        1579        1584        1583
        1580        1581        1586        1585
        1581        1582        1587        1586
        1582        1583        1588        1587
        1583        1584        1589        1588
        1585        1586        1591        1590
        1586        1587        1592        1591
        1587        1588        1593        1592
        1588        1589        1594        1593
        1590        1591        1596        1595
        1591        1592        1597        1596
        1592        1593        1598        1597
        1593        1594        1599        1598
 </DataArray>
 <DataArray  type="Int32"  Name="offsets"  format="ascii"> 
           4
           8
          12
          16
          20
          24
          28
          32
          36
          40
          44
          48
          52
          56
          60
          64
          68
          72
          76
          80
          84
          88
          92
          96
         100
         104
         108
         112
         116
         120
         124
         128
         132
         136
         140
         144
         148
         152
         156
         160
         164
         168
         172
         176
         180
         184
         188
         192
         196
         200
         204
         208
         212
         216
         220
         224
         228
         232
         236
         240
         244
         248
         252
         256
         260
         264
         268
         272
         276
         280
         284
         288
         292
         296
         300
         304
         308
         312
         316
         320
         324
         328
         332
         336
         340
         344
         348
         352
         356
         360
         364
         368
         372
         376
         380
         384
         388
         392
         396
         400
         404
         408
         412
         416
         420
         424
         428
         432
         436
         440
         444
         448
         452
         456
         460
         464
         468
         472
         476
         480
         484
         488
         492
         496
         500
         504
         508
         512
         516
         520
         524
         528
         532
         536
         540
         544
         548
         552
         556
         560
         564
         568
         572
         576
         580
         584
         588
         592
         596
         600
         604
         608
         612
         616
         620
         624
         628
         632
         636
         640
         644
         648
         652
         656
         660
         664
         668
         672
         676
         680
         684
         688
         692
         696
         700
         704
         708
         712
         716
         720
         724
         728
         732
         736
         740
         744
         748
         752
         756
         760
         764
         768
         772
         776
         780
         784
         788
         792
         796
         800
         804
         808
         812
         816
         820
         824
         828
         832
         836
         840
         844
         848
         852
         856
         860
         864
         868
         872
         876
         880
         884
         888
         892
         896
         900
         904
         908
         912
         916
         920
         924
         928
         932
         936
         940
         944
         948
         952
         956
         960
         964
         968
         972
         976
         980
         984
         988
         992
         996
        1000
        1004
        1008
        1012
        1016
        1020
        1024
        1028
        1032
        1036
        1040
        1044
        1048
        1052
        1056
        1060
        1064
        1068
        1072
        1076
        1080
        1084
        1088
        1092
        1096
        1100
        1104
        1108
        1112
        1116
        1120
        1124
        1128
        1132
        1136
        1140
        1144
        1148
        1152
        1156
        1160
        1164
        1168
        1172
        1176
        1180
        1184
        1188
        1192
        1196
        1200
        1204
        1208
        1212
        1216
        1220
        1224
        1228
        1232
        1236
        1240
        1244
        1248
        1252
        1256
        1260
        1264
        1268
        1272
        1276
        1280
        1284
        1288
        1292
        1296
        1300
        1304
        1308
        1312
        1316
        1320
        1324
        1328
        1332
        1336
        1340
        1344
        1348
        1352
        1356
        1360
        1364
        1368
        1372
        1376
        1380
        1384
        1388
        1392
        1396
        1400
        1404
        1408
        1412
        1416
        1420
        1424
        1428
        1432
        1436
        1440
        1444
        1448
        1452
        1456
        1460
        1464
        1468
        1472
        1476
        1480
        1484
        1488
        1492
        1496
        1500
        1504
        1508
        1512
        1516
        1520
        1524
        1528
        1532
        1536
        1540
        1544
        1548
        1552
        1556
        1560
        1564
        1568
        1572
        1576
        1580
        1584
        1588
        1592
        1596
        1600
        1604
        1608
        1612
        1616
        1620
        1624
        1628
        1632
        1636
        1640
        1644
        1648
        1652
        1656
        1660
        1664
        1668
        1672
        1676
        1680
        1684
        1688
        1692
        1696
        1700
        1704
        1708
        1712
        1716
        1720
        1724
        1728
        1732
        1736
        1740
        1744
        1748
        1752
        1756
        1760
        1764
        1768
        1772
        1776
        1780
        1784
        1788
        1792
        1796
        1800
        1804
        1808
        1812
        1816
        1820
        1824
        1828
        1832
        1836
        1840
        1844
        1848
        1852
        1856
        1860
        1864
        1868
        1872
        1876
        1880
        1884
        1888
        1892
        1896
        1900
        1904
        1908
        1912
        1916
        1920
        1924
        1928
        1932
        1936
        1940
        1944
        1948
        1952
        1956
        1960
        1964
        1968
        1972
        1976
        1980
        1984
        1988
        1992
        1996
        2000
        2004
        2008
        2012
        2016
        2020
        2024
        2028
        2032
        2036
        2040
        2044
        2048
        2052
        2056
        2060
        2064
        2068
        2072
        2076
        2080
        2084
        2088
        2092
        2096
        2100
        2104
        2108
        2112
        2116
        2120
        2124
        2128
        2132
        2136
        2140
        2144
        2148
        2152
        2156
        2160
        2164
        2168
        2172
        2176
        2180
        2184
        2188
        2192
        2196
        2200
        2204
        2208
        2212
        2216
        2220
        2224
        2228
        2232
        2236
        2240
        2244
        2248
        2252
        2256
        2260
        2264
        2268
        2272
        2276
        2280
        2284
        2288
        2292
        2296
        2300
        2304
        2308
        2312
        2316
        2320
        2324
        2328
        2332
        2336
        2340
        2344
        2348
        2352
        2356
        2360
        2364
        2368
        2372
        2376
        2380
        2384
        2388
        2392
        2396
        2400
        2404
        2408
        2412
        2416
        2420
        2424
        2428
        2432
        2436
        2440
        2444
        2448
        2452
        2456
        2460
        2464
        2468
        2472
        2476
        2480
        2484
        2488
        2492
        2496
        2500
        2504
        2508
        2512
        2516
        2520
        2524
        2528
        2532
        2536
        2540
        2544
        2548
        2552
        2556
        2560
        2564
        2568
        2572
        2576
        2580
        2584
        2588
        2592
        2596
        2600
        2604
        2608
        2612
        2616
        2620
        2624
        2628
        2632
        2636
        2640
        2644
        2648
        2652
        2656
        2660
        2664
        2668
        2672
        2676
        2680
        2684
        2688
        2692
        2696
        2700
        2704
        2708
        2712
        2716
        2720
        2724
        2728
        2732
        2736
        2740
        2744
        2748
        2752
        2756
        2760
        2764
        2768
        2772
        2776
        2780
        2784
        2788
        2792
        2796
        2800
        2804
        2808
        2812
        2816
        2820
        2824
        2828
        2832
        2836
        2840
        2844
        2848
        2852
        2856
        2860
        2864
        2868
        2872
        2876
        2880
        2884
        2888
        2892
        2896
        2900
        2904
        2908
        2912
        2916
        2920
        2924
        2928
        2932
        2936
        2940
        2944
        2948
        2952
        2956
        2960
        2964
        2968
        2972
        2976
        2980
        2984
        2988
        2992
        2996
        3000
        3004
        3008
        3012
        3016
        3020
        3024
        3028
        3032
        3036
        3040
        3044
        3048
        3052
        3056
        3060
        3064
        3068
        3072
        3076
        3080
        3084
        3088
        3092
        3096
        3100
        3104
        3108
        3112
        3116
        3120
        3124
        3128
        3132
        3136
        3140
        3144
        3148
        3152
        3156
        3160
        3164
        3168
        3172
        3176
        3180
        3184
        3188
        3192
        3196
        3200
        3204
        3208
        3212
        3216
        3220
        3224
        3228
        3232
        3236
        3240
        3244
        3248
        3252
        3256
        3260
        3264
        3268
        3272
        3276
        3280
        3284
        3288
        3292
        3296
        3300
        3304
        3308
        3312
        3316
        3320
        3324
        3328
        3332
        3336
        3340
        3344
        3348
        3352
        3356
        3360
        3364
        3368
        3372
        3376
        3380
        3384
        3388
        3392
        3396
        3400
        3404
        3408
        3412
        3416
        3420
        3424
        3428
        3432
        3436
        3440
        3444
        3448
        3452
        3456
        3460
        3464
        3468
        3472
        3476
        3480
        3484
        3488
        3492
        3496
        3500
        3504
        3508
        3512
        3516
        3520
        3524
        3528
        3532
        3536
        3540
        3544
        3548
        3552
        3556
        3560
        3564
        3568
        3572
        3576
        3580
        3584
        3588
        3592
        3596
        3600
        3604
        3608
        3612
        3616
        3620
        3624
        3628
        3632
        3636
        3640
        3644
        3648
        3652
        3656
        3660
        3664
        3668
        3672
        3676
        3680
        3684
        3688
        3692
        3696
        3700
        3704
        3708
        3712
        3716
        3720
        3724
        3728
        3732
        3736
        3740
        3744
        3748
        3752
        3756
        3760
        3764
        3768
        3772
        3776
        3780
        3784
        3788
        3792
        3796
        3800
        3804
        3808
        3812
        3816
        3820
        3824
        3828
        3832
        3836
        3840
        3844
        3848
        3852
        3856
        3860
        3864
        3868
        3872
        3876
        3880
        3884
        3888
        3892
        3896
        3900
        3904
        3908
        3912
        3916
        3920
        3924
        3928
        3932
        3936
        3940
        3944
        3948
        3952
        3956
        3960
        3964
        3968
        3972
        3976
        3980
        3984
        3988
        3992
        3996
        4000
        4004
        4008
        4012
        4016
        4020
        4024
        4028
        4032
        4036
        4040
        4044
        4048
        4052
        4056
        4060
        4064
        4068
        4072
        4076
        4080
        4084
        4088
        4092
        4096
 </DataArray>
 <DataArray  type="UInt8"  Name="types"  format="ascii">
 9
 9
 9
 9
 9
 9
 9
 9
 9
 9
 9
 9
 9
 9
 9
 9
 9
 9
 9
 9
 9
 9
 9
 9
 9
 9
 9
 9
 9
 9
 9
 9
 9
 9
 9
 9
 9
 9
 9
 9
 9
 9
 9
 9
 9
 9
 9
 9
 9
 9
 9
 9
 9
 9
 9
 9
 9
 9
 9
 9
 9
 9
 9
 9
 9
 9
 9
 9
 9
 9
 9
 9
 9
 9
 9
 9
 9
 9
 9
 9
 9
 9
 9
 9
 9
 9
 9
 9
 9
 9
 9
 9
 9
 9
 9
 9
 9
 9
 9
 9
 9
 9
 9
 9
 9
 9
 9
 9
 9
 9
 9
 9
 9
 9
 9
 9
 9
 9
 9
 9
 9
 9
 9
 9
 9
 9
 9
 9
 9
 9
 9
 9
 9
 9
 9
 9
 9
 9
 9
 9
 9
 9
 9
 9
 9
 9
 9
 9
 9
 9
 9
 9
 9
 9
 9
 9
 9
 9
 9
 9
 9
 9
 9
 9
 9
 9
 9
 9
 9
 9
 9
 9
 9
 9
 9
 9
 9
 9
 9
 9
 9
 9
 9
 9
 9
 9
 9
 9
 9
 9
 9
 9
 9
 9
 9
 9
 9
 9
 9
 9
 9
 9
 9
 9
 9
 9
 9
 9
 9
 9
 9
 9
 9
 9
 9
 9
 9
 9
 9
 9
 9
 9
 9
 9
 9
 9
 9
 9
 9
 9
 9
 9
 9
 9
 9
 9
 9
 9
 9
 9
 9
 9
 9
 9
 9
 9
 9
 9
 9
 9
 9
 9
 9
 9
 9
 9
 9
 9
 9
 9
 9
 9
 9
 9
 9
 9
 9
 9
 9
 9
 9
 9
 9
 9
 9
 9
 9
 9
 9
 9
 9
 9
 9
 9
 9
 9
 9
 9
 9
 9
 9
 9
 9
 9
 9
 9
 9
 9
 9
 9
 9
 9
 9
 9
 9
 9
 9
 9
 9
 9
 9
 9
 9
 9
 9
 9
 9
 9
 9
 9
 9
 9
 9
 9
 9
 9
 9
 9
 9
 9
 9
 9
 9
 9
 9
 9
 9
 9
 9
 9
 9
 9
 9
 9
 9
 9
 9
 9
 9
 9
 9
 9
 9
 9
 9
 9
 9
 9
 9
 9
 9
 9
 9
 9
 9
 9
 9
 9
 9
 9
 9
 9
 9
 9
 9
 9
 9
 9
 9
 9
 9
 9
 9
 9
 9
 9
 9
 9
 9
 9
 9
 9
 9
 9
 9
 9
 9
 9
 9
 9
 9
 9
 9
 9
 9
 9
 9
 9
 9
 9
 9
 9
 9
 9
 9
 9
 9
 9
 9
 9
 9
 9
 9
 9
 9
 9
 9
 9
 9
 9
 9
 9
 9
 9
 9
 9
 9
 9
 9
 9
 9
 9
 9
 9
 9
 9
 9
 9
 9
 9
 9
 9
 9
 9
 9
 9
 9
 9
 9
 9
 9
 9
 9
 9
 9
 9
 9
 9
 9
 9
 9
 9
 9
 9
 9
 9
 9
 9
 9
 9
 9
 9
 9
 9
 9
 9
 9
 9
 9
 9
 9
 9
 9
 9
 9
 9
 9
 9
 9
 9
 9
 9
 9
 9
 9
 9
 9
 9
 9
 9
 9
 9
 9
 9
 9
 9
 9
 9
 9
 9
 9
 9
 9
 9
 9
 9
 9
 9
 9
 9
 9
 9
 9
 9
 9
 9
 9
 9
 9
 9
 9
 9
 9
 9
 9
 9
 9
 9
 9
 9
 9
 9
 9
 9
 9
 9
 9
 9
 9
 9
 9
 9
 9
 9
 9
 9
 9
 9
 9
 9
 9
 9
 9
 9
 9
 9
 9
 9
 9
 9
 9
 9
 9
 9
 9
 9
 9
 9
 9
 9
 9
 9
 9
 9
 9
 9
 9
 9
 9
 9
 9
 9
 9
 9
 9
 9
 9
 9
 9
 9
 9
 9
 9
 9
 9
 9
 9
 9
 9
 9
 9
 9
 9
 9
 9
 9
 9
 9
 9
 9
 9
 9
 9
 9
 9
 9
 9
 9
 9
 9
 9
 9
 9
 9
 9
 9
 9
 9
 9
 9
 9
 9
 9
 9
 9
 9
 9
 9
 9
 9
 9
 9
 9
 9
 9
 9
 9
 9
 9
 9
 9
 9
 9
 9
 9
 9
 9
 9
 9
 9
 9
 9
 9
 9
 9
 9
 9
 9
 9
 9
 9
 9
 9
 9
 9
 9
 9
 9
 9
 9
 9
 9
 9
 9
 9
 9
 9
 9
 9
 9
 9
 9
 9
 9
 9
 9
 9
 9
 9
 9
 9
 9
 9
 9
 9
 9
 9
 9
 9
 9
 9
 9
 9
 9
 9
 9
 9
 9
 9
 9
 9
 9
 9
 9
 9
 9
 9
 9
 9
 9
 9
 9
 9
 9
 9
 9
 9
 9
 9
 9
 9
 9
 9
 9
 9
 9
 9
 9
 9
 9
 9
 9
 9
 9
 9
 9
 9
 9
 9
 9
 9
 9
 9
 9
 9
 9
 9
 9
 9
 9
 9
 9
 9
 9
 9
 9
 9
 9
 9
 9
 9
 9
 9
 9
 9
 9
 9
 9
 9
 9
 9
 9
 9
 9
 9
 9
 9
 9
 9
 9
 9
 9
 9
 9
 9
 9
 9
 9
 9
 9
 9
 9
 9
 9
 9
 9
 9
 9
 9
 9
 9
 9
 9
 9
 9
 9
 9
 9
 9
 9
 9
 9
 9
 9
 9
 9
 9
 9
 9
 9
 9
 9
 9
 9
 9
 9
 9
 9
 9
 9
 9
 9
 9
 9
 9
 9
 9
 9
 9
 9
 9
 9
 9
 9
 9
 9
 9
 9
 9
 9
 9
 9
 9
 9
 9
 9
 9
 9
 9
 9
 9
 9
 9
 9
 9
 9
 9
 9
 9
 9
 9
 9
 9
 9
 9
 9
 9
 9
 9
 9
 9
 9
 9
 9
 9
 9
 9
 9
 9
 9
 9
 9
 9
 9
 9
 9
 9
 9
 9
 9
 9
 9
 9
 9
 9
 9
 9
 9
 9
 9
 9
 9
 9
 9
 9
 9
 9
 9
 9
 9
 9
 9
 9
 9
 9
 9
 9
 9
 9
 9
 9
 9
 9
 9
 9
 9
 9
 9
 9
 9
 9
 9
 9
 9
 9
 9
 9
 9
 9
 9
 9
 9
 9
 9
 9
 9
 9
 9
 9
 9
 9
 9
 9
 9
 9
 9
 9
 9
 9
 9
 9
 9
 9
 9
 9
 9
 9
 9
 9
 9
 9
 9
 9
 9
 </DataArray>
 </Cells> 
 <PointData>
 <DataArray  type="Float64" Name="disp" NumberOfComponents="3" format="ascii">
   0.0000000000000000        0.0000000000000000        0.0000000000000000     
   6.0958401840425051E-003   3.7903500121973886E-003   0.0000000000000000     
   1.1665840496232475E-002   7.3237288920871176E-003   0.0000000000000000     
   1.6710000936569908E-002   1.0600136639669189E-002   0.0000000000000000     
   2.1228321505054812E-002   1.3619573254943604E-002   0.0000000000000000     
   0.0000000000000000        0.0000000000000000        0.0000000000000000     
   4.8910891732139410E-003   3.0221026302364694E-003   0.0000000000000000     
   9.5735442286650346E-003   6.0604645693158668E-003   0.0000000000000000     
   1.4047365166353286E-002   9.1150858172381905E-003   0.0000000000000000     
   1.8312551986278690E-002   1.2185966374003439E-002   0.0000000000000000     
   0.0000000000000000        0.0000000000000000        0.0000000000000000     
   3.9535457853587409E-003   2.4251012746176045E-003   0.0000000000000000     
   7.9105815971844250E-003   5.0628589745385227E-003   0.0000000000000000     
   1.1871107435477054E-002   7.9132730997627555E-003   0.0000000000000000     
   1.5835123300236627E-002   1.0976343650290304E-002   0.0000000000000000     
   0.0000000000000000        0.0000000000000000        0.0000000000000000     
   3.2832100204769048E-003   1.9993459453407927E-003   0.0000000000000000     
   6.6769526017906432E-003   4.3309121077550906E-003   0.0000000000000000     
   1.0181227743941212E-002   6.9946984872428907E-003   0.0000000000000000     
   1.3796035446928617E-002   9.9907050838041953E-003   0.0000000000000000     
   0.0000000000000000        0.0000000000000000        0.0000000000000000     
   2.8800818785684342E-003   1.7448366424060344E-003   0.0000000000000000     
   5.8726572424836884E-003   3.8646239689655651E-003   0.0000000000000000     
   8.9777260917457639E-003   6.3593619796785917E-003   0.0000000000000000     
   1.2195288426354658E-002   9.2290506745451150E-003   0.0000000000000000     
   2.1228321505054812E-002   1.3619573254943604E-002   0.0000000000000000     
   2.5433530326753384E-002   1.6612572498125363E-002   0.0000000000000000     
   2.9538355526731855E-002   1.9809668129429480E-002   0.0000000000000000     
   3.3542797104990210E-002   2.3210860148855952E-002   0.0000000000000000     
   3.7446855061528457E-002   2.6816148556404774E-002   0.0000000000000000     
   1.8312551986278690E-002   1.2185966374003439E-002   0.0000000000000000     
   2.2407257246932669E-002   1.5341428618349952E-002   0.0000000000000000     
   2.6369633506806649E-002   1.8649794929016052E-002   0.0000000000000000     
   3.0199680765900624E-002   2.2111065306001751E-002   0.0000000000000000     
   3.3897399024214597E-002   2.5725239749307037E-002   0.0000000000000000     
   1.5835123300236627E-002   1.0976343650290304E-002   0.0000000000000000     
   1.9730847150260238E-002   1.4210885255800935E-002   0.0000000000000000     
   2.3486496944344980E-002   1.7575712545974412E-002   0.0000000000000000     
   2.7102072682490860E-002   2.1070825520810747E-002   0.0000000000000000     
   3.0577574364697876E-002   2.4696224180309923E-002   0.0000000000000000     
   1.3796035446928617E-002   9.9907050838041953E-003   0.0000000000000000     
   1.7404300036736084E-002   1.3220942410478317E-002   0.0000000000000000     
   2.0888945839346851E-002   1.6587420980304562E-002   0.0000000000000000     
   2.4249972854760927E-002   2.0090140793282935E-002   0.0000000000000000     
   2.7487381082978296E-002   2.3729101849413434E-002   0.0000000000000000     
   1.2195288426354658E-002   9.2290506745451150E-003   0.0000000000000000     
   1.5427615906360211E-002   1.2371600082382094E-002   0.0000000000000000     
   1.8576980191812267E-002   1.5684920232006499E-002   0.0000000000000000     
   2.1643381282710820E-002   1.9169011123418320E-002   0.0000000000000000     
   2.4626819179055872E-002   2.2823872756617566E-002   0.0000000000000000     
   3.7446855061528457E-002   2.6816148556404774E-002   0.0000000000000000     
   4.1255288755559963E-002   3.0620992490119524E-002   0.0000000000000000     
   4.4972857546298081E-002   3.4620851088043782E-002   0.0000000000000000     
   4.8599561433742819E-002   3.8815724350177529E-002   0.0000000000000000     
   5.2135400417894183E-002   4.3205612276520783E-002   0.0000000000000000     
   3.3897399024214597E-002   2.5725239749307037E-002   0.0000000000000000     
   3.7486126718659335E-002   2.9521168635629889E-002   0.0000000000000000     
   4.0989202286145630E-002   3.3527702341668263E-002   0.0000000000000000     
   4.4406625726673463E-002   3.7744840867422157E-002   0.0000000000000000     
   4.7738397040242839E-002   4.2172584212891585E-002   0.0000000000000000     
   3.0577574364697876E-002   2.4696224180309923E-002   0.0000000000000000     
   3.3942437616687748E-002   2.8496444783828092E-002   0.0000000000000000     
   3.7226098064182200E-002   3.2516023590721393E-002   0.0000000000000000     
   4.0428555707181235E-002   3.6754960600989824E-002   0.0000000000000000     
   4.3549810545684860E-002   4.1213255814633393E-002   0.0000000000000000     
   2.7487381082978296E-002   2.3729101849413434E-002   0.0000000000000000     
   3.0624221449645189E-002   2.7546820934714146E-002   0.0000000000000000     
   3.3683544880407812E-002   3.1585814835203188E-002   0.0000000000000000     
   3.6665351375266171E-002   3.5846083550880536E-002   0.0000000000000000     
   3.9569640934220253E-002   4.0327627081746198E-002   0.0000000000000000     
   2.4626819179055872E-002   2.2823872756617566E-002   0.0000000000000000     
   2.7531478217531668E-002   2.6672297088288058E-002   0.0000000000000000     
   3.0361542734822462E-002   3.0737076075113633E-002   0.0000000000000000     
   3.3117012730928243E-002   3.5018209717094274E-002   0.0000000000000000     
   3.5797888205849018E-002   3.9515698014230008E-002   0.0000000000000000     
   5.2135400417894183E-002   4.3205612276520783E-002   0.0000000000000000     
   5.5576585071034530E-002   4.7794943979002386E-002   0.0000000000000000     
   5.8919325965446238E-002   5.2588148569551227E-002   0.0000000000000000     
   6.2163623101129308E-002   5.7585226048167293E-002   0.0000000000000000     
   6.5309476478083731E-002   6.2786176414850597E-002   0.0000000000000000     
   4.7738397040242839E-002   4.2172584212891585E-002   0.0000000000000000     
   5.0980012619205942E-002   4.6804676276137512E-002   0.0000000000000000     
   5.4126968855914948E-002   5.1634860955220921E-002   0.0000000000000000     
   5.7179265750369863E-002   5.6663138250141812E-002   0.0000000000000000     
   6.0136903302570682E-002   6.1889508160900178E-002   0.0000000000000000     
   4.3549810545684860E-002   4.1213255814633393E-002   0.0000000000000000     
   4.6585671663841713E-002   4.5878763533540388E-002   0.0000000000000000     
   4.9531948145800468E-002   5.0739338059599119E-002   0.0000000000000000     
   5.2388639991561112E-002   5.5794979392809585E-002   0.0000000000000000     
   5.5155747201123664E-002   6.1045687533171786E-002   0.0000000000000000     
   3.9569640934220253E-002   4.0327627081746198E-002   0.0000000000000000     
   4.2393562204941865E-002   4.5017205751211015E-002   0.0000000000000000     
   4.5134263835102800E-002   4.9901579882685829E-002   0.0000000000000000     
   4.7791745824703080E-002   5.4980749476170626E-002   0.0000000000000000     
   5.0366008173742663E-002   6.0254714531665421E-002   0.0000000000000000     
   3.5797888205849018E-002   3.9515698014230008E-002   0.0000000000000000     
   3.8403684242506383E-002   4.4220002929149391E-002   0.0000000000000000     
   4.0933915923821951E-002   4.9121586424481042E-002   0.0000000000000000     
   4.3388583249795713E-002   5.4220448500224935E-002   0.0000000000000000     
   4.5767686220427685E-002   5.9516589156381083E-002   0.0000000000000000     
   6.5309476478083731E-002   6.2786176414850597E-002   0.0000000000000000     
   6.8362043940174699E-002   6.8177707185567191E-002   0.0000000000000000     
   7.1326483331267426E-002   7.3746525876283164E-002   0.0000000000000000     
   7.4202794651361897E-002   7.9492632486998546E-002   0.0000000000000000     
   7.6990977900458113E-002   8.5416027017713309E-002   0.0000000000000000     
   6.0136903302570682E-002   6.1889508160900178E-002   0.0000000000000000     
   6.3005472575001109E-002   6.7304739415406933E-002   0.0000000000000000     
   6.5790564630144807E-002   7.2899600741573020E-002   0.0000000000000000     
   6.8492179468001804E-002   7.8674092139398466E-002   0.0000000000000000     
   7.1110317088572100E-002   8.4628213608883202E-002   0.0000000000000000     
   5.5155747201123664E-002   6.1045687533171786E-002   0.0000000000000000     
   5.7838666379733533E-002   6.6484468391172613E-002   0.0000000000000000     
   6.0442794132636216E-002   7.2104327877298993E-002   0.0000000000000000     
   6.2968130459831684E-002   7.7905265991550898E-002   0.0000000000000000     
   6.5414675361319952E-002   8.3887282733928356E-002   0.0000000000000000     
   5.0366008173742663E-002   6.0254714531665421E-002   0.0000000000000000     
   5.2861625354372034E-002   6.5716894112864216E-002   0.0000000000000000     
   5.5283171838741672E-002   7.1360707283461028E-002   0.0000000000000000     
   5.7630647626851557E-002   7.7186154043455898E-002   0.0000000000000000     
   5.9904052718701695E-002   8.3193234392848758E-002   0.0000000000000000     
   4.5767686220427685E-002   5.9516589156381083E-002   0.0000000000000000     
   4.8074349498916577E-002   6.5002016580481756E-002   0.0000000000000000     
   5.0311697748461164E-002   7.0668738960059180E-002   0.0000000000000000     
   5.2479730969061410E-002   7.6516756295113411E-002   0.0000000000000000     
   5.4578449160717316E-002   8.2546068585644394E-002   0.0000000000000000     
   7.6990977900458113E-002   8.5416027017713309E-002   0.0000000000000000     
   7.9680826863855414E-002   9.1507701589277152E-002   0.0000000000000000     
   8.2262135326853128E-002   9.7758648322539790E-002   0.0000000000000000     
   8.4734903289451269E-002  0.10416886721750120        0.0000000000000000     
   8.7099130751649795E-002  0.11073835827416140        0.0000000000000000     
   7.1110317088572100E-002   8.4628213608883202E-002   0.0000000000000000     
   7.3635477952804534E-002   9.0751115626993478E-002   0.0000000000000000     
   7.6058162521648001E-002   9.7031948670695464E-002   0.0000000000000000     
   7.8378370795102528E-002  0.10347071273998916        0.0000000000000000     
   8.0596102773168060E-002  0.11006740783487456        0.0000000000000000     
   6.5414675361319952E-002   8.3887282733928356E-002   0.0000000000000000     
   6.7773761514694927E-002   9.0038378621764226E-002   0.0000000000000000     
   7.0036721597550533E-002   9.6346554172391380E-002   0.0000000000000000     
   7.2203555609886755E-002  0.10281180938580980        0.0000000000000000     
   7.4274263551703620E-002  0.10943414426201950        0.0000000000000000     
   5.9904052718701695E-002   8.3193234392848758E-002   0.0000000000000000     
   6.2095677549526572E-002   8.9369490573589394E-002   0.0000000000000000     
   6.4197812554560654E-002   9.5702464827627523E-002   0.0000000000000000     
   6.6210457733803948E-002  0.10219215715496313        0.0000000000000000     
   6.8133613087256462E-002  0.10883856755559626        0.0000000000000000     
   5.4578449160717316E-002   8.2546068585644394E-002   0.0000000000000000     
   5.6601226057299461E-002   8.8744451482468956E-002   0.0000000000000000     
   5.8541435392678393E-002   9.5099680636403866E-002   0.0000000000000000     
   6.0399077166854102E-002  0.10161175604744915        0.0000000000000000     
   6.2174151379826584E-002  0.10828067771560480        0.0000000000000000     
   8.7099130751649795E-002  0.11073835827416140        0.0000000000000000     
   8.9371285091327801E-002  0.11745436950239488        0.0000000000000000     
   9.1567833686364286E-002  0.12430414891207611        0.0000000000000000     
   9.3688776536759277E-002  0.13128769650320513        0.0000000000000000     
   9.5734113642512775E-002  0.13840501227578189        0.0000000000000000     
   8.0596102773168060E-002  0.11006740783487456        0.0000000000000000     
   8.2728001887537830E-002  0.11681063176718122        0.0000000000000000     
   8.4790711569905017E-002  0.12368898234873871        0.0000000000000000     
   8.6784231820269619E-002  0.13070245957954701        0.0000000000000000     
   8.8708562638631638E-002  0.13785106345960613        0.0000000000000000     
   7.4274263551703620E-002  0.10943414426201950        0.0000000000000000     
   7.6264893258058408E-002  0.11620280481075684        0.0000000000000000     
   7.8191492564008383E-002  0.12310703704175806        0.0000000000000000     
   8.0054061469553545E-002  0.13014684095502316        0.0000000000000000     
   8.1852599974693907E-002  0.13732221655055221        0.0000000000000000     
   6.8133613087256462E-002  0.10883856755559626        0.0000000000000000     
   6.9981959202889493E-002  0.11563088863312165        0.0000000000000000     
   7.1770176668674343E-002  0.12255831299113409        0.0000000000000000     
   7.3498265484611053E-002  0.12962084062963358        0.0000000000000000     
   7.5166225650699567E-002  0.13681847154862012        0.0000000000000000     
   6.2174151379826584E-002  0.10828067771560480        0.0000000000000000     
   6.3879199722031127E-002  0.11509488323427572        0.0000000000000000     
   6.5526763883902980E-002  0.12204281019686687        0.0000000000000000     
   6.7116843865442144E-002  0.12912445860337829        0.0000000000000000     
   6.8649439666648632E-002  0.13633982845380987        0.0000000000000000     
   9.5734113642512775E-002  0.13840501227578189        0.0000000000000000     
   9.7676474531126975E-002  0.14563489645657690        0.0000000000000000     
   9.9488488730104102E-002  0.15295614927236073        0.0000000000000000     
  0.10117015623944416       0.16036877072313335        0.0000000000000000     
  0.10272147705914716       0.16787276080889474        0.0000000000000000     
   8.8708562638631638E-002  0.13785106345960613        0.0000000000000000     
   9.0536545586867856E-002  0.14511938846380640        0.0000000000000000     
   9.2241022226855054E-002  0.15249202906703807        0.0000000000000000     
   9.3821992558593234E-002  0.15996898526930128        0.0000000000000000     
   9.5279456582082409E-002  0.16755025707059595        0.0000000000000000     
   8.1852599974693907E-002  0.13732221655055221        0.0000000000000000     
   8.3561052295629476E-002  0.14462125308684909        0.0000000000000000     
   8.5153362648560230E-002  0.15203203982241786        0.0000000000000000     
   8.6629531033486196E-002  0.15955457675725843        0.0000000000000000     
   8.7989557450407374E-002  0.16718886389137089        0.0000000000000000     
   7.5166225650699567E-002  0.13681847154862012        0.0000000000000000     
   7.6749994657411794E-002  0.14414049032570514        0.0000000000000000     
   7.8225509995219628E-002  0.15157618153850000        0.0000000000000000     
   7.9592771664123041E-002  0.15912554518700481        0.0000000000000000     
   8.0851779664122048E-002  0.16678858127121951        0.0000000000000000     
   6.8649439666648632E-002  0.13633982845380987        0.0000000000000000     
   7.0103372672214850E-002  0.14367710018037441        0.0000000000000000     
   7.1457464266833221E-002  0.15112445421528461        0.0000000000000000     
   7.2711714450503770E-002  0.15868189055854046        0.0000000000000000     
   7.3866123223226457E-002  0.16634940921014191        0.0000000000000000     
   0.0000000000000000        0.0000000000000000        0.0000000000000000     
   2.8800818785684342E-003   1.7448366424060344E-003   0.0000000000000000     
   5.8726572424836884E-003   3.8646239689655651E-003   0.0000000000000000     
   8.9777260917457639E-003   6.3593619796785917E-003   0.0000000000000000     
   1.2195288426354658E-002   9.2290506745451150E-003   0.0000000000000000     
   0.0000000000000000        0.0000000000000000        0.0000000000000000     
   2.6103287747800737E-003   1.5889203873820602E-003   0.0000000000000000     
   5.2897294479801295E-003   3.5566868817024522E-003   0.0000000000000000     
   8.0382020196001682E-003   5.9032994829611744E-003   0.0000000000000000     
   1.0855746489640189E-002   8.6287581911582301E-003   0.0000000000000000     
   0.0000000000000000        0.0000000000000000        0.0000000000000000     
   2.3401181242585704E-003   1.4589442018376002E-003   0.0000000000000000     
   4.7202031469965331E-003   3.2997931694982523E-003   0.0000000000000000     
   7.1402550682138884E-003   5.5225469029819571E-003   0.0000000000000000     
   9.6002738879106351E-003   8.1272054022887147E-003   0.0000000000000000     
   0.0000000000000000        0.0000000000000000        0.0000000000000000     
   2.0694499270039234E-003   1.3549080857726537E-003   0.0000000000000000     
   4.1640783395328991E-003   3.0939428323529658E-003   0.0000000000000000     
   6.2838852375869244E-003   5.2171042397409374E-003   0.0000000000000000     
   8.4288706211660003E-003   7.7243923079365661E-003   0.0000000000000000     
   0.0000000000000000        0.0000000000000000        0.0000000000000000     
   1.7983241830161339E-003   1.2768120391872220E-003   0.0000000000000000     
   3.6213550255892253E-003   2.9391358702665934E-003   0.0000000000000000     
   5.4690925277192746E-003   4.9869714932381142E-003   0.0000000000000000     
   7.3415366894062821E-003   7.4203189081017860E-003   0.0000000000000000     
   1.2195288426354658E-002   9.2290506745451150E-003   0.0000000000000000     
   1.5427615906360211E-002   1.2371600082382094E-002   0.0000000000000000     
   1.8576980191812267E-002   1.5684920232006499E-002   0.0000000000000000     
   2.1643381282710820E-002   1.9169011123418320E-002   0.0000000000000000     
   2.4626819179055872E-002   2.2823872756617566E-002   0.0000000000000000     
   1.0855746489640189E-002   8.6287581911582301E-003   0.0000000000000000     
   1.3689011387006358E-002   1.1650763076130357E-002   0.0000000000000000     
   1.6484645240604844E-002   1.4887014207714296E-002   0.0000000000000000     
   1.9242648050435646E-002   1.8337511585910054E-002   0.0000000000000000     
   2.1963019816498761E-002   2.2002255210717615E-002   0.0000000000000000     
   9.6002738879106351E-003   8.1272054022887147E-003   0.0000000000000000     
   1.2076703106548251E-002   1.1046336196341187E-002   0.0000000000000000     
   1.4545986224588208E-002   1.4212506814062038E-002   0.0000000000000000     
   1.7008123242030507E-002   1.7625717255451270E-002   0.0000000000000000     
   1.9463114158875153E-002   2.1285967520508882E-002   0.0000000000000000     
   8.4288706211660003E-003   7.7243923079365661E-003   0.0000000000000000     
   1.0590691064985893E-002   1.0558319443014585E-002   0.0000000000000000     
   1.2761003143762361E-002   1.3661398051049722E-002   0.0000000000000000     
   1.4939806857495408E-002   1.7033628132041984E-002   0.0000000000000000     
   1.7127102206185036E-002   2.0675009685991362E-002   0.0000000000000000     
   7.3415366894062821E-003   7.4203189081017860E-003   0.0000000000000000     
   9.2309752623192798E-003   1.0186712816150549E-002   0.0000000000000000     
   1.1129695998127302E-002   1.3233687918677350E-002   0.0000000000000000     
   1.3037698896830346E-002   1.6561244215682183E-002   0.0000000000000000     
   1.4954983958428415E-002   2.0169381707165056E-002   0.0000000000000000     
   2.4626819179055872E-002   2.2823872756617566E-002   0.0000000000000000     
   2.7531478217531668E-002   2.6672297088288058E-002   0.0000000000000000     
   3.0361542734822462E-002   3.0737076075113633E-002   0.0000000000000000     
   3.3117012730928243E-002   3.5018209717094274E-002   0.0000000000000000     
   3.5797888205849018E-002   3.9515698014230008E-002   0.0000000000000000     
   2.1963019816498761E-002   2.2002255210717615E-002   0.0000000000000000     
   2.4629278276230990E-002   2.5879404705088257E-002   0.0000000000000000     
   2.7224941167069115E-002   2.9967119691973233E-002   0.0000000000000000     
   2.9750008489013130E-002   3.4265400171372543E-002   0.0000000000000000     
   3.2204480242063051E-002   3.8774246143286187E-002   0.0000000000000000     
   1.9463114158875153E-002   2.1285967520508882E-002   0.0000000000000000     
   2.1882691981626956E-002   2.5174675245653186E-002   0.0000000000000000     
   2.4238589716790743E-002   2.9273258067302493E-002   0.0000000000000000     
   2.6530807364366513E-002   3.3581715985456811E-002   0.0000000000000000     
   2.8759344924354266E-002   3.8100049000116126E-002   0.0000000000000000     
   1.7127102206185036E-002   2.0675009685991362E-002   0.0000000000000000     
   1.9291719333719572E-002   2.4558108709982845E-002   0.0000000000000000     
   2.1402488383987353E-002   2.8655491201101418E-002   0.0000000000000000     
   2.3459409356988377E-002   3.2967157159347074E-002   0.0000000000000000     
   2.5462482252722650E-002   3.7493106584719819E-002   0.0000000000000000     
   1.4954983958428415E-002   2.0169381707165056E-002   0.0000000000000000     
   1.6856360332508834E-002   2.4029705098077239E-002   0.0000000000000000     
   1.8716637168658946E-002   2.8113819093370001E-002   0.0000000000000000     
   2.0535814466878733E-002   3.2421723693043344E-002   0.0000000000000000     
   2.2313892227168210E-002   3.6953418897097273E-002   0.0000000000000000     
   3.5797888205849018E-002   3.9515698014230008E-002   0.0000000000000000     
   3.8403684242506383E-002   4.4220002929149391E-002   0.0000000000000000     
   4.0933915923821951E-002   4.9121586424481042E-002   0.0000000000000000     
   4.3388583249795713E-002   5.4220448500224935E-002   0.0000000000000000     
   4.5767686220427685E-002   5.9516589156381083E-002   0.0000000000000000     
   3.2204480242063051E-002   3.8774246143286187E-002   0.0000000000000000     
   3.4589854141297151E-002   4.3488716896049377E-002   0.0000000000000000     
   3.6907627901793714E-002   4.8403871717997343E-002   0.0000000000000000     
   3.9157801523552735E-002   5.3519710609130071E-002   0.0000000000000000     
   4.1340375006574226E-002   5.8836233569447553E-002   0.0000000000000000     
   2.8759344924354266E-002   3.8100049000116126E-002   0.0000000000000000     
   3.0925888266076035E-002   4.2824909480604835E-002   0.0000000000000000     
   3.3032123258853872E-002   4.7752949796247307E-002   0.0000000000000000     
   3.5078049902687772E-002   5.2884169947043577E-002   0.0000000000000000     
   3.7063668197577740E-002   5.8218569932993618E-002   0.0000000000000000     
   2.5462482252722650E-002   3.7493106584719819E-002   0.0000000000000000     
   2.7411786616843042E-002   4.2228580682815757E-002   0.0000000000000000     
   2.9307401995002442E-002   4.7168820659230976E-002   0.0000000000000000     
   3.1149328387200838E-002   5.2313826513965475E-002   0.0000000000000000     
   3.2937565793438241E-002   5.7663598247019263E-002   0.0000000000000000     
   2.2313892227168210E-002   3.6953418897097273E-002   0.0000000000000000     
   2.4047549193598167E-002   4.1699730502682143E-002   0.0000000000000000     
   2.5733464110239402E-002   4.6651484306948307E-002   0.0000000000000000     
   2.7371636977091919E-002   5.1808680309895751E-002   0.0000000000000000     
   2.8962067794155721E-002   5.7171318511524502E-002   0.0000000000000000     
   4.5767686220427685E-002   5.9516589156381083E-002   0.0000000000000000     
   4.8074349498916577E-002   6.5002016580481756E-002   0.0000000000000000     
   5.0311697748461164E-002   7.0668738960059180E-002   0.0000000000000000     
   5.2479730969061410E-002   7.6516756295113411E-002   0.0000000000000000     
   5.4578449160717316E-002   8.2546068585644394E-002   0.0000000000000000     
   4.1340375006574226E-002   5.8836233569447553E-002   0.0000000000000000     
   4.3456984369846366E-002   6.4343479680982918E-002   0.0000000000000000     
   4.5509265632357382E-002   7.0031488025769237E-002   0.0000000000000000     
   4.7497218794107260E-002   7.5900258603806531E-002   0.0000000000000000     
   4.9420843855096007E-002   8.1949791415094786E-002   0.0000000000000000     
   3.7063668197577740E-002   5.8218569932993618E-002   0.0000000000000000     
   3.8989675523640563E-002   6.3744927301325430E-002   0.0000000000000000     
   4.0856769260993027E-002   6.9452019599267001E-002   0.0000000000000000     
   4.2664949409635139E-002   7.5339846826818338E-002   0.0000000000000000     
   4.4414215969566906E-002   8.1408408983979427E-002   0.0000000000000000     
   3.2937565793438241E-002   5.7663598247019263E-002   0.0000000000000000     
   3.4672422960299147E-002   6.3206359441509277E-002   0.0000000000000000     
   3.6354208634368092E-002   6.8930333680552458E-002   0.0000000000000000     
   3.7982922815645047E-002   7.4835520964148791E-002   0.0000000000000000     
   3.9558565504130033E-002   8.0921921292298318E-002   0.0000000000000000     
   2.8962067794155721E-002   5.7171318511524502E-002   0.0000000000000000     
   3.0505226679822150E-002   6.2727776101534474E-002   0.0000000000000000     
   3.2001583752482569E-002   6.8466430269625622E-002   0.0000000000000000     
   3.3451139012136970E-002   7.4387281015797960E-002   0.0000000000000000     
   3.4853892458785368E-002   8.0490328340051459E-002   0.0000000000000000     
   5.4578449160717316E-002   8.2546068585644394E-002   0.0000000000000000     
   5.6601226057299461E-002   8.8744451482468956E-002   0.0000000000000000     
   5.8541435392678393E-002   9.5099680636403866E-002   0.0000000000000000     
   6.0399077166854102E-002  0.10161175604744915        0.0000000000000000     
   6.2174151379826584E-002  0.10828067771560480        0.0000000000000000     
   4.9420843855096007E-002   8.1949791415094786E-002   0.0000000000000000     
   5.1274499578232623E-002   8.8168299382697018E-002   0.0000000000000000     
   5.3052544726426135E-002   9.4543995429676217E-002   0.0000000000000000     
   5.4754979299676536E-002  0.10107687955603238        0.0000000000000000     
   5.6381803297983826E-002  0.10776695176176551        0.0000000000000000     
   4.4414215969566906E-002   8.1408408983979427E-002   0.0000000000000000     
   4.6099590652545042E-002   8.7646072308567621E-002   0.0000000000000000     
   4.7716095170326281E-002   9.4041203038400259E-002   0.0000000000000000     
   4.9263729522910610E-002  0.10059380117347731        0.0000000000000000     
   5.0742493710298028E-002  0.10730386671379880        0.0000000000000000     
   3.9558565504130033E-002   8.0921921292298318E-002   0.0000000000000000     
   4.1076499280236725E-002   8.7177770260080792E-002   0.0000000000000000     
   4.2532086724378818E-002   9.3591303462576006E-002   0.0000000000000000     
   4.3925327836556297E-002  0.10016252089978397        0.0000000000000000     
   4.5256222616769197E-002  0.10689142257170467        0.0000000000000000     
   3.4853892458785368E-002   8.0490328340051459E-002   0.0000000000000000     
   3.6205225461307659E-002   8.6763393237236502E-002   0.0000000000000000     
   3.7500519388583738E-002   9.3194296702203458E-002   0.0000000000000000     
   3.8739774240613631E-002   9.9783038734952340E-002   0.0000000000000000     
   3.9922990017397311E-002  0.10652961933548315        0.0000000000000000     
   6.2174151379826584E-002  0.10828067771560480        0.0000000000000000     
   6.3879199722031127E-002  0.11509488323427572        0.0000000000000000     
   6.5526763883902980E-002  0.12204281019686687        0.0000000000000000     
   6.7116843865442144E-002  0.12912445860337829        0.0000000000000000     
   6.8649439666648632E-002  0.13633982845380987        0.0000000000000000     
   5.6381803297983826E-002  0.10776695176176551        0.0000000000000000     
   5.7943343062931293E-002  0.11460176022572645        0.0000000000000000     
   5.9449924936102218E-002  0.12156885312676607        0.0000000000000000     
   6.0901548917496613E-002  0.12866823046488435        0.0000000000000000     
   6.2298215007114452E-002  0.13589989224008131        0.0000000000000000     
   5.0742493710298028E-002  0.10730386671379880        0.0000000000000000     
   5.2161117473038025E-002  0.11415849121898129        0.0000000000000000     
   5.3528330551680096E-002  0.12114476624864137        0.0000000000000000     
   5.4844132946224207E-002  0.12826269180277902        0.0000000000000000     
   5.6108524656670371E-002  0.13551226788139425        0.0000000000000000     
   4.5256222616769197E-002  0.10689142257170467        0.0000000000000000     
   4.6532522952351330E-002  0.11376507621404025        0.0000000000000000     
   4.7761980730636582E-002  0.12077054956249279        0.0000000000000000     
   4.8944595951624939E-002  0.12790784261706231        0.0000000000000000     
   5.0080368615316409E-002  0.13517695537774874        0.0000000000000000     
   3.9922990017397311E-002  0.10652961933548315        0.0000000000000000     
   4.1057559500871192E-002  0.11342151521090332        0.0000000000000000     
   4.2150875472971694E-002  0.12044620306832032        0.0000000000000000     
   4.3202937933698816E-002  0.12760368290773411        0.0000000000000000     
   4.4213746883052546E-002  0.13489395472914478        0.0000000000000000     
   6.8649439666648632E-002  0.13633982845380987        0.0000000000000000     
   7.0103372672214850E-002  0.14367710018037441        0.0000000000000000     
   7.1457464266833221E-002  0.15112445421528461        0.0000000000000000     
   7.2711714450503770E-002  0.15868189055854046        0.0000000000000000     
   7.3866123223226457E-002  0.16634940921014191        0.0000000000000000     
   6.2298215007114452E-002  0.13589989224008131        0.0000000000000000     
   6.3621689868521181E-002  0.14325055012073906        0.0000000000000000     
   6.4853740165282212E-002  0.15070691577523976        0.0000000000000000     
   6.5994365897397531E-002  0.15826898920358337        0.0000000000000000     
   6.7043567064867166E-002  0.16593677040576996        0.0000000000000000     
   5.6108524656670371E-002  0.13551226788139425        0.0000000000000000     
   5.7305449774813305E-002  0.14288030761668113        0.0000000000000000     
   5.8418852392447679E-002  0.15035362414083361        0.0000000000000000     
   5.9448732509573499E-002  0.15793221745385172        0.0000000000000000     
   6.0395090126190765E-002  0.16561608755573545        0.0000000000000000     
   5.0080368615316409E-002  0.13517695537774874        0.0000000000000000     
   5.1154652391091231E-002  0.14256637266820057        0.0000000000000000     
   5.2152800948329650E-002  0.15006457931206618        0.0000000000000000     
   5.3074814287031653E-002  0.15767157530934545        0.0000000000000000     
   5.3920692407197261E-002  0.16538736066003853        0.0000000000000000     
   4.4213746883052546E-002  0.13489395472914478        0.0000000000000000     
   4.5169297717354964E-002  0.14230874527529747        0.0000000000000000     
   4.6055585832928111E-002  0.14983978128893741        0.0000000000000000     
   4.6872611229772002E-002  0.15748706277006461        0.0000000000000000     
   4.7620373907886641E-002  0.16525058971867906        0.0000000000000000     
   0.0000000000000000        0.0000000000000000        0.0000000000000000     
   1.7983241830161339E-003   1.2768120391872220E-003   0.0000000000000000     
   3.6213550255892253E-003   2.9391358702665934E-003   0.0000000000000000     
   5.4690925277192746E-003   4.9869714932381142E-003   0.0000000000000000     
   7.3415366894062821E-003   7.4203189081017860E-003   0.0000000000000000     
   0.0000000000000000        0.0000000000000000        0.0000000000000000     
   1.5350179063658045E-003   1.2175407290861923E-003   0.0000000000000000     
   3.0993875114689318E-003   2.8208591276792021E-003   0.0000000000000000     
   4.6931088153093822E-003   4.8099551957790304E-003   0.0000000000000000     
   6.3161818178871553E-003   7.1848289333856750E-003   0.0000000000000000     
   0.0000000000000000        0.0000000000000000        0.0000000000000000     
   1.2878081111235391E-003   1.1699788224744528E-003   0.0000000000000000     
   2.6055301034754348E-003   2.7245994490308605E-003   0.0000000000000000     
   3.9531659770556870E-003   4.6638618796692229E-003   0.0000000000000000     
   5.3307157318642964E-003   6.9877661143895407E-003   0.0000000000000000     
   0.0000000000000000        0.0000000000000000        0.0000000000000000     
   1.0566947972893371E-003   1.1341263193520039E-003   0.0000000000000000     
   2.1397828016087340E-003   2.6503568343215684E-003   0.0000000000000000     
   3.2492640129581892E-003   4.5486915449086942E-003   0.0000000000000000     
   4.3851384313377054E-003   6.8291304511133803E-003   0.0000000000000000     
   0.0000000000000000        0.0000000000000000        0.0000000000000000     
   8.4167796486319996E-004   1.1099832197188453E-003   0.0000000000000000     
   1.7021456058688299E-003   2.5981312835513261E-003   0.0000000000000000     
   2.5814029230168904E-003   4.4644441914974426E-003   0.0000000000000000     
   3.4794499163073801E-003   6.7089219435571938E-003   0.0000000000000000     
   7.3415366894062821E-003   7.4203189081017860E-003   0.0000000000000000     
   9.2309752623192798E-003   1.0186712816150549E-002   0.0000000000000000     
   1.1129695998127302E-002   1.3233687918677350E-002   0.0000000000000000     
   1.3037698896830346E-002   1.6561244215682183E-002   0.0000000000000000     
   1.4954983958428415E-002   2.0169381707165056E-002   0.0000000000000000     
   6.3161818178871553E-003   7.1848289333856750E-003   0.0000000000000000     
   7.9558650950446314E-003   9.8958812020383501E-003   0.0000000000000000     
   9.5994172226241854E-003   1.2893512863276264E-002   0.0000000000000000     
   1.1246838200625820E-002   1.6177723917099412E-002   0.0000000000000000     
   1.2898128029049535E-002   1.9748514363507802E-002   0.0000000000000000     
   5.3307157318642964E-003   6.9877661143895407E-003   0.0000000000000000     
   6.7236699596581575E-003   9.6501894869672564E-003   0.0000000000000000     
   8.1175192521941719E-003   1.2605009331177813E-002   0.0000000000000000     
   9.5122636094723319E-003   1.5852225647021208E-002   0.0000000000000000     
   1.0907903031492644E-002   1.9391838434497436E-002   0.0000000000000000     
   4.3851384313377054E-003   6.8291304511133803E-003   0.0000000000000000     
   5.5343898561598659E-003   9.4496376709372661E-003   0.0000000000000000     
   6.6840020868372575E-003   1.2368177322381992E-002   0.0000000000000000     
   7.8339751233698855E-003   1.5584749405447556E-002   0.0000000000000000     
   8.9843089657577445E-003   1.9099353920133958E-002   0.0000000000000000     
   3.4794499163073801E-003   6.7089219435571938E-003   0.0000000000000000     
   4.3880247845497497E-003   9.2942257539483826E-003   0.0000000000000000     
   5.2988657265534483E-003   1.2183016836888808E-002   0.0000000000000000     
   6.2119727423184746E-003   1.5375295192378468E-002   0.0000000000000000     
   7.1273458318448293E-003   1.8871060820417368E-002   0.0000000000000000     
   1.4954983958428415E-002   2.0169381707165056E-002   0.0000000000000000     
   1.6856360332508834E-002   2.4029705098077239E-002   0.0000000000000000     
   1.8716637168658946E-002   2.8113819093370001E-002   0.0000000000000000     
   2.0535814466878733E-002   3.2421723693043344E-002   0.0000000000000000     
   2.2313892227168210E-002   3.6953418897097273E-002   0.0000000000000000     
   1.2898128029049535E-002   1.9748514363507802E-002   0.0000000000000000     
   1.4537078160941184E-002   2.3579884033978267E-002   0.0000000000000000     
   1.6147480049346616E-002   2.7645832759987644E-002   0.0000000000000000     
   1.7729333694265832E-002   3.1946360541535934E-002   0.0000000000000000     
   1.9282639095698835E-002   3.6481467378623136E-002   0.0000000000000000     
   1.0907903031492644E-002   1.9391838434497436E-002   0.0000000000000000     
   1.2294336001963044E-002   2.3199065141727843E-002   0.0000000000000000     
   1.3661461004591471E-002   2.7249123216833739E-002   0.0000000000000000     
   1.5009278039377925E-002   3.1542012659815134E-002   0.0000000000000000     
   1.6337787106322405E-002   3.6077733470672044E-002   0.0000000000000000     
   8.9843089657577445E-003   1.9099353920133958E-002   0.0000000000000000     
   1.0128133855574423E-002   2.2887248421325949E-002   0.0000000000000000     
   1.1258580034393515E-002   2.6923690463908287E-002   0.0000000000000000     
   1.2375647502215018E-002   3.1208680047880966E-002   0.0000000000000000     
   1.3479336259038931E-002   3.5742217173243988E-002   0.0000000000000000     
   7.1273458318448293E-003   1.8871060820417368E-002   0.0000000000000000     
   8.0384717217753185E-003   2.2644433872772606E-002   0.0000000000000000     
   8.9388371387527435E-003   2.6669534501211293E-002   0.0000000000000000     
   9.8284420827771043E-003   3.0946362705733414E-002   0.0000000000000000     
   1.0707286553848403E-002   3.5474918486338984E-002   0.0000000000000000     
   2.2313892227168210E-002   3.6953418897097273E-002   0.0000000000000000     
   2.4047549193598167E-002   4.1699730502682143E-002   0.0000000000000000     
   2.5733464110239402E-002   4.6651484306948307E-002   0.0000000000000000     
   2.7371636977091919E-002   5.1808680309895751E-002   0.0000000000000000     
   2.8962067794155721E-002   5.7171318511524502E-002   0.0000000000000000     
   1.9282639095698835E-002   3.6481467378623136E-002   0.0000000000000000     
   2.0800700436335313E-002   4.1236855940684783E-002   0.0000000000000000     
   2.2276821898864978E-002   4.6198228897156426E-002   0.0000000000000000     
   2.3711003483287810E-002   5.1365586248038060E-002   0.0000000000000000     
   2.5103245189603825E-002   5.6738927993329677E-002   0.0000000000000000     
   1.6337787106322405E-002   3.6077733470672044E-002   0.0000000000000000     
   1.7638764785048389E-002   4.0838453997304472E-002   0.0000000000000000     
   1.8903987655179345E-002   4.5806342587612459E-002   0.0000000000000000     
   2.0133455716715279E-002   5.0981399241596025E-002   0.0000000000000000     
   2.1327168969656189E-002   5.6363623959255149E-002   0.0000000000000000     
   1.3479336259038931E-002   3.5742217173243988E-002   0.0000000000000000     
   1.4561742239737387E-002   4.0504524672541189E-002   0.0000000000000000     
   1.5614961379182519E-002   4.5475825378316410E-002   0.0000000000000000     
   1.6638993677374328E-002   5.0656119290569651E-002   0.0000000000000000     
   1.7633839134312813E-002   5.6045406409300912E-002   0.0000000000000000     
   1.0707286553848403E-002   3.5474918486338984E-002   0.0000000000000000     
   1.1569632800402310E-002   4.0235067966394956E-002   0.0000000000000000     
   1.2409743070874493E-002   4.5206677269268275E-002   0.0000000000000000     
   1.3227617365264956E-002   5.0389746394958933E-002   0.0000000000000000     
   1.4023255683573696E-002   5.5784275343466957E-002   0.0000000000000000     
   2.8962067794155721E-002   5.7171318511524502E-002   0.0000000000000000     
   3.0505226679822150E-002   6.2727776101534474E-002   0.0000000000000000     
   3.2001583752482569E-002   6.8466430269625622E-002   0.0000000000000000     
   3.3451139012136970E-002   7.4387281015797960E-002   0.0000000000000000     
   3.4853892458785368E-002   8.0490328340051459E-002   0.0000000000000000     
   2.5103245189603825E-002   5.6738927993329677E-002   0.0000000000000000     
   2.6454283620674521E-002   6.2306915235050490E-002   0.0000000000000000     
   2.7764855379361412E-002   6.8058209075219686E-002   0.0000000000000000     
   2.9034960465664488E-002   7.3992809513837285E-002   0.0000000000000000     
   3.0264598879583764E-002   8.0110716550903266E-002   0.0000000000000000     
   2.1327168969656189E-002   5.6363623959255149E-002   0.0000000000000000     
   2.2485790721321227E-002   6.1941514795706767E-002   0.0000000000000000     
   2.3609984279029543E-002   6.7703569806067829E-002   0.0000000000000000     
   2.4699749642781144E-002   7.3649788990338291E-002   0.0000000000000000     
   2.5755086812576024E-002   7.9780172348518211E-002   0.0000000000000000     
   1.7633839134312813E-002   5.6045406409300912E-002   0.0000000000000000     
   1.8599747981762262E-002   6.1631574783503326E-002   0.0000000000000000     
   1.9536970451486970E-002   6.7402512462169994E-002   0.0000000000000000     
   2.0445506543486935E-002   7.3358219445300979E-002   0.0000000000000000     
   2.1325356257762162E-002   7.9498695732896238E-002   0.0000000000000000     
   1.4023255683573696E-002   5.5784275343466957E-002   0.0000000000000000     
   1.4796155401997633E-002   6.1377095198440125E-002   0.0000000000000000     
   1.5545813896733693E-002   6.7155037043526267E-002   0.0000000000000000     
   1.6272231167781870E-002   7.3118100878725334E-002   0.0000000000000000     
   1.6975407215142169E-002   7.9266286704037375E-002   0.0000000000000000     
   3.4853892458785368E-002   8.0490328340051459E-002   0.0000000000000000     
   3.6205225461307659E-002   8.6763393237236502E-002   0.0000000000000000     
   3.7500519388583738E-002   9.3194296702203458E-002   0.0000000000000000     
   3.8739774240613631E-002   9.9783038734952340E-002   0.0000000000000000     
   3.9922990017397311E-002  0.10652961933548315        0.0000000000000000     
   3.0264598879583764E-002   8.0110716550903266E-002   0.0000000000000000     
   3.1449162054944919E-002   8.6399254446922660E-002   0.0000000000000000     
   3.2584041425573654E-002   9.2845747462400485E-002   0.0000000000000000     
   3.3669236991469967E-002   9.9450195597336727E-002   0.0000000000000000     
   3.4704748752633865E-002  0.10621259885173139        0.0000000000000000     
   2.5755086812576024E-002   7.9780172348518211E-002   0.0000000000000000     
   2.6771701920335560E-002   8.6081667096027187E-002   0.0000000000000000     
   2.7745301097981123E-002   9.2541220448284903E-002   0.0000000000000000     
   2.8675884345512714E-002   9.9158832405291386E-002   0.0000000000000000     
   2.9563451662930337E-002  0.10593450296704660        0.0000000000000000     
   2.1325356257762162E-002   7.9498695732896238E-002   0.0000000000000000     
   2.2172845057479580E-002   8.5810631184550068E-002   0.0000000000000000     
   2.2984298405806153E-002   9.2280715659856766E-002   0.0000000000000000     
   2.3759716302741863E-002   9.8908949158816345E-002   0.0000000000000000     
   2.4499098748286725E-002  0.10569533168142879        0.0000000000000000     
   1.6975407215142169E-002   7.9266286704037375E-002   0.0000000000000000     
   1.7652591466376991E-002   8.5586146712491290E-002   0.0000000000000000     
   1.8301033349048743E-002   9.2064233097116033E-002   0.0000000000000000     
   1.8920732863157427E-002   9.8700545857911590E-002   0.0000000000000000     
   1.9511690008703043E-002  0.10549508499487796        0.0000000000000000     
   3.9922990017397311E-002  0.10652961933548315        0.0000000000000000     
   4.1057559500871192E-002  0.11342151521090332        0.0000000000000000     
   4.2150875472971694E-002  0.12044620306832032        0.0000000000000000     
   4.3202937933698816E-002  0.12760368290773411        0.0000000000000000     
   4.4213746883052546E-002  0.13489395472914478        0.0000000000000000     
   3.4704748752633865E-002  0.10621259885173139        0.0000000000000000     
   3.5697734120767155E-002  0.11312105802741380        0.0000000000000000     
   3.6655350507571655E-002  0.12016367392621326        0.0000000000000000     
   3.7577597913047378E-002  0.12734044654812976        0.0000000000000000     
   3.8464476337194312E-002  0.13465137589316331        0.0000000000000000     
   2.9563451662930337E-002  0.10593450296704660        0.0000000000000000     
   3.0414553814208743E-002  0.11285695448141497        0.0000000000000000     
   3.1235741563322688E-002  0.11991490929626086        0.0000000000000000     
   3.2027014910272184E-002  0.12710836741158435        0.0000000000000000     
   3.2788373855057215E-002  0.13443732882738538        0.0000000000000000     
   2.4499098748286725E-002  0.10569533168142879        0.0000000000000000     
   2.5208018581195958E-002  0.11262920457290686        0.0000000000000000     
   2.5892048640224798E-002  0.11969990917846321        0.0000000000000000     
   2.6551188925373226E-002  0.12690744549809793        0.0000000000000000     
   2.7185439436641267E-002  0.13425181353181093        0.0000000000000000     
   1.9511690008703043E-002  0.10549508499487796        0.0000000000000000     
   2.0078128421728812E-002  0.11243780830188942        0.0000000000000000     
   2.0624271738277970E-002  0.11951867357282024        0.0000000000000000     
   2.1150119958350515E-002  0.12673768080767048        0.0000000000000000     
   2.1655673081946457E-002  0.13409483000644001        0.0000000000000000     
   4.4213746883052546E-002  0.13489395472914478        0.0000000000000000     
   4.5169297717354964E-002  0.14230874527529747        0.0000000000000000     
   4.6055585832928111E-002  0.14983978128893741        0.0000000000000000     
   4.6872611229772002E-002  0.15748706277006461        0.0000000000000000     
   4.7620373907886641E-002  0.16525058971867906        0.0000000000000000     
   3.8464476337194312E-002  0.13465137589316331        0.0000000000000000     
   3.9302481172563075E-002  0.14209078327278360        0.0000000000000000     
   4.0078107811704310E-002  0.14965298999846030        0.0000000000000000     
   4.0791356254617973E-002  0.15733799607019339        0.0000000000000000     
   4.1442226501304108E-002  0.16514580148798289        0.0000000000000000     
   3.2788373855057215E-002  0.13443732882738538        0.0000000000000000     
   3.3507298175674174E-002  0.14189584449547088        0.0000000000000000     
   3.4171267650119436E-002  0.14947796536764776        0.0000000000000000     
   3.4780282278392992E-002  0.15718369144391608        0.0000000000000000     
   3.5334342060494857E-002  0.16501302272427584        0.0000000000000000     
   2.7185439436641267E-002  0.13425181353181093        0.0000000000000000     
   2.7783748726688245E-002  0.14172392894335925        0.0000000000000000     
   2.8335065348173507E-002  0.14931470739649985        0.0000000000000000     
   2.8839389301097050E-002  0.15702414889123273        0.0000000000000000     
   2.9296720585458885E-002  0.16485225342755785        0.0000000000000000     
   2.1655673081946457E-002  0.13409483000644001        0.0000000000000000     
   2.2131832825605290E-002  0.14157503661644877        0.0000000000000000     
   2.2569500905866520E-002  0.14916321608501651        0.0000000000000000     
   2.2968677322730151E-002  0.15685936841214324        0.0000000000000000     
   2.3329362076196191E-002  0.16466349359782895        0.0000000000000000     
   0.0000000000000000        0.0000000000000000        0.0000000000000000     
   8.4167796486319996E-004   1.1099832197188453E-003   0.0000000000000000     
   1.7021456058688299E-003   2.5981312835513261E-003   0.0000000000000000     
   2.5814029230168904E-003   4.4644441914974426E-003   0.0000000000000000     
   3.4794499163073801E-003   6.7089219435571938E-003   0.0000000000000000     
   0.0000000000000000        0.0000000000000000        0.0000000000000000     
   6.3384754740727998E-004   1.0939795335921823E-003   0.0000000000000000     
   1.2780759085813430E-003   2.5620656710383140E-003   0.0000000000000000     
   1.9326850835221893E-003   4.4042584123383946E-003   0.0000000000000000     
   2.5976750722298187E-003   6.6205577574924247E-003   0.0000000000000000     
   0.0000000000000000        0.0000000000000000        0.0000000000000000     
   4.2429347848373057E-004   1.0825452709892212E-003   0.0000000000000000     
   8.5303110207189323E-004   2.5363028711007131E-003   0.0000000000000000     
   1.2862128707644880E-003   4.3612728003344769E-003   0.0000000000000000     
   1.7238387845615150E-003   6.5574550586905127E-003   0.0000000000000000     
   0.0000000000000000        0.0000000000000000        0.0000000000000000     
   2.1301575809255186E-004   1.0756804319099612E-003   0.0000000000000000     
   4.2701118634048062E-004   2.5208428837385243E-003   0.0000000000000000     
   6.4198628474378648E-004   4.3354873554856902E-003   0.0000000000000000     
   8.5794105330246897E-004   6.5196138471514580E-003   0.0000000000000000     
   0.0000000000000000        0.0000000000000000        0.0000000000000000     
   1.4386233743830194E-008   1.0733850163544029E-003   0.0000000000000000     
   1.6161387105212248E-008   2.5156857089517473E-003   0.0000000000000000     
   5.3254600842545831E-009   4.3269020777920329E-003   0.0000000000000000     
  -1.8121547319097011E-008   6.5070341228752604E-003   0.0000000000000000     
   3.4794499163073801E-003   6.7089219435571938E-003   0.0000000000000000     
   4.3880247845497497E-003   9.2942257539483826E-003   0.0000000000000000     
   5.2988657265534483E-003   1.2183016836888808E-002   0.0000000000000000     
   6.2119727423184746E-003   1.5375295192378468E-002   0.0000000000000000     
   7.1273458318448293E-003   1.8871060820417368E-002   0.0000000000000000     
   2.5976750722298187E-003   6.6205577574924247E-003   0.0000000000000000     
   3.2700898943629269E-003   9.1779989094008703E-003   0.0000000000000000     
   3.9469735695802114E-003   1.2043617070964198E-002   0.0000000000000000     
   4.6283260978816692E-003   1.5217412242182404E-002   0.0000000000000000     
   5.3141474792673038E-003   1.8699384423055496E-002   0.0000000000000000     
   1.7238387845615150E-003   6.5574550586905127E-003   0.0000000000000000     
   2.1661003351345128E-003   9.0950023106949936E-003   0.0000000000000000     
   2.6131890141550202E-003   1.1944067220874098E-002   0.0000000000000000     
   3.0651048216230378E-003   1.5104649789227823E-002   0.0000000000000000     
   3.5218477575385638E-003   1.8576750015756174E-002   0.0000000000000000     
   8.5794105330246897E-004   6.5196138471514580E-003   0.0000000000000000     
   1.0760561068645061E-003   9.0452359578307561E-003   0.0000000000000000     
   1.2975120602778760E-003   1.1884367286618512E-002   0.0000000000000000     
   1.5223089135425769E-003   1.5037007833514728E-002   0.0000000000000000     
   1.7504466666586110E-003   1.8503157598519400E-002   0.0000000000000000     
  -1.8121547319097011E-008   6.5070341228752604E-003   0.0000000000000000     
  -4.2790447092434596E-008   9.0286998508081525E-003   0.0000000000000000     
  -5.7292051223011421E-008   1.1864517268197438E-002   0.0000000000000000     
  -6.1626359710295549E-008   1.5014486375043112E-002   0.0000000000000000     
  -5.5793372555584635E-008   1.8478607171345172E-002   0.0000000000000000     
   7.1273458318448293E-003   1.8871060820417368E-002   0.0000000000000000     
   8.0384717217753185E-003   2.2644433872772606E-002   0.0000000000000000     
   8.9388371387527435E-003   2.6669534501211293E-002   0.0000000000000000     
   9.8284420827771043E-003   3.0946362705733414E-002   0.0000000000000000     
   1.0707286553848403E-002   3.5474918486338984E-002   0.0000000000000000     
   5.3141474792673038E-003   1.8699384423055496E-002   0.0000000000000000     
   5.9975177495980737E-003   2.2462152905793280E-002   0.0000000000000000     
   6.6715169447349419E-003   2.6478336982605571E-002   0.0000000000000000     
   7.3361450646779076E-003   3.0747936653492364E-002   0.0000000000000000     
   7.9914021094269691E-003   3.5270951918453676E-002   0.0000000000000000     
   3.5218477575385638E-003   1.8576750015756174E-002   0.0000000000000000     
   3.9774400880750382E-003   2.2331936930113448E-002   0.0000000000000000     
   4.4259040794058981E-003   2.6341779561953969E-002   0.0000000000000000     
   4.8672397315311427E-003   3.0606277911277714E-002   0.0000000000000000     
   5.3014470444507720E-003   3.5125431978084702E-002   0.0000000000000000     
   1.7504466666586110E-003   1.8503157598519400E-002   0.0000000000000000     
   1.9782387372062108E-003   2.2253785945733112E-002   0.0000000000000000     
   2.2019985427656113E-003   2.6259862239256457E-002   0.0000000000000000     
   2.4217260833368109E-003   3.0521386479089443E-002   0.0000000000000000     
   2.6374213589198106E-003   3.5038358665232062E-002   0.0000000000000000     
  -5.5793372555584635E-008   1.8478607171345172E-002   0.0000000000000000     
  -8.6303008408510681E-008   2.2227699952652280E-002   0.0000000000000000     
  -1.9966518591949174E-007   2.6232585014513081E-002   0.0000000000000000     
  -3.9587990508837195E-007   3.0493262356927564E-002   0.0000000000000000     
  -6.7494716591578151E-007   3.5009731979895764E-002   0.0000000000000000     
   1.0707286553848403E-002   3.5474918486338984E-002   0.0000000000000000     
   1.1569632800402310E-002   4.0235067966394956E-002   0.0000000000000000     
   1.2409743070874493E-002   4.5206677269268275E-002   0.0000000000000000     
   1.3227617365264956E-002   5.0389746394958933E-002   0.0000000000000000     
   1.4023255683573696E-002   5.5784275343466957E-002   0.0000000000000000     
   7.9914021094269691E-003   3.5270951918453676E-002   0.0000000000000000     
   8.6342242623374948E-003   4.0027612045732276E-002   0.0000000000000000     
   9.2615477067648430E-003   4.4998146303570956E-002   0.0000000000000000     
   9.8733724427090153E-003   5.0182554691969722E-002   0.0000000000000000     
   1.0469698470170014E-002   5.5580837210928581E-002   0.0000000000000000     
   5.3014470444507720E-003   3.5125431978084702E-002   0.0000000000000000     
   5.7273044208372747E-003   3.9879685077419673E-002   0.0000000000000000     
   6.1435902633631377E-003   4.4849480524327384E-002   0.0000000000000000     
   6.5503045720283594E-003   5.0034818318807843E-002   0.0000000000000000     
   6.9474473468329441E-003   5.5435698460861042E-002   0.0000000000000000     
   2.6374213589198106E-003   3.5038358665232062E-002   0.0000000000000000     
   2.8488732759016536E-003   3.9791287061457153E-002   0.0000000000000000     
   3.0558707406693796E-003   4.4760679931537553E-002   0.0000000000000000     
   3.2584137532229909E-003   4.9946537275473296E-002   0.0000000000000000     
   3.4565023135624869E-003   5.5348859093264341E-002   0.0000000000000000     
  -6.7494716591578151E-007   3.5009731979895764E-002   0.0000000000000000     
  -1.0691724693729027E-006   3.9762417997844704E-002   0.0000000000000000     
  -1.6108613164318936E-006   4.4731744525201476E-002   0.0000000000000000     
  -2.3000137070941908E-006   4.9917711561966067E-002   0.0000000000000000     
  -3.1366296413572192E-006   5.5320319108138484E-002   0.0000000000000000     
   1.4023255683573696E-002   5.5784275343466957E-002   0.0000000000000000     
   1.4796155401997633E-002   6.1377095198440125E-002   0.0000000000000000     
   1.5545813896733693E-002   6.7155037043526267E-002   0.0000000000000000     
   1.6272231167781870E-002   7.3118100878725334E-002   0.0000000000000000     
   1.6975407215142169E-002   7.9266286704037375E-002   0.0000000000000000     
   1.0469698470170014E-002   5.5580837210928581E-002   0.0000000000000000     
   1.1049371943793830E-002   6.1178722786805646E-002   0.0000000000000000     
   1.1611239018226461E-002   6.6961940345959092E-002   0.0000000000000000     
   1.2155299693467909E-002   7.2930489888388891E-002   0.0000000000000000     
   1.2681553969518172E-002   7.9084371414095064E-002   0.0000000000000000     
   6.9474473468329441E-003   5.5435698460861042E-002   0.0000000000000000     
   7.3337565689173510E-003   6.1037104294888317E-002   0.0000000000000000     
   7.7079702194220454E-003   6.6824019165291029E-002   0.0000000000000000     
   8.0700882983470272E-003   7.2796443072069186E-002   0.0000000000000000     
   8.4201108056923008E-003   7.8954376015222760E-002   0.0000000000000000     
   3.4565023135624869E-003   5.5348859093264341E-002   0.0000000000000000     
   3.6493092773681951E-003   6.0952239722688123E-002   0.0000000000000000     
   3.8360075003204411E-003   6.6741273501522064E-002   0.0000000000000000     
   4.0165969824192240E-003   7.2715960429766191E-002   0.0000000000000000     
   4.1910777236645463E-003   7.8876300507420463E-002   0.0000000000000000     
  -3.1366296413572192E-006   5.5320319108138484E-002   0.0000000000000000     
  -3.9699308536385704E-006   6.0924129070205085E-002   0.0000000000000000     
  -4.6491390783539384E-006   6.6713703354652223E-002   0.0000000000000000     
  -5.1742543155027947E-006   7.2689041961479919E-002   0.0000000000000000     
  -5.5452765650861827E-006   7.8850144890688159E-002   0.0000000000000000     
   1.6975407215142169E-002   7.9266286704037375E-002   0.0000000000000000     
   1.7652591466376991E-002   8.5586146712491290E-002   0.0000000000000000     
   1.8301033349048743E-002   9.2064233097116033E-002   0.0000000000000000     
   1.8920732863157427E-002   9.8700545857911590E-002   0.0000000000000000     
   1.9511690008703043E-002  0.10549508499487796        0.0000000000000000     
   1.2681553969518172E-002   7.9084371414095064E-002   0.0000000000000000     
   1.3188224577330212E-002   8.5410092718785913E-002   0.0000000000000000     
   1.3673534247856988E-002   9.1894161598169682E-002   0.0000000000000000     
   1.4137482981098501E-002   9.8536578052246429E-002   0.0000000000000000     
   1.4580070777054749E-002  0.10533734208101610        0.0000000000000000     
   8.4201108056923008E-003   7.8954376015222760E-002   0.0000000000000000     
   8.7570278206416750E-003   8.5284348242368899E-002   0.0000000000000000     
   9.0798294223789731E-003   9.1772890001124693E-002   0.0000000000000000     
   9.3885156109041936E-003   9.8420001291490145E-002   0.0000000000000000     
   9.6830863862173364E-003  0.10522568211346525        0.0000000000000000     
   4.1910777236645463E-003   7.8876300507420463E-002   0.0000000000000000     
   4.3590011963113790E-003   8.5208913283240290E-002   0.0000000000000000     
   4.5199188726146988E-003   9.1700418305981066E-002   0.0000000000000000     
   4.6738307525745048E-003   9.8350815575642750E-002   0.0000000000000000     
   4.8207368361907962E-003  0.10516010509222541        0.0000000000000000     
  -5.5452765650861827E-006   7.8850144890688159E-002   0.0000000000000000     
  -5.8552956606718661E-006   8.5183787841400072E-002   0.0000000000000000     
  -6.1974014358308067E-006   9.1676746512738772E-002   0.0000000000000000     
  -6.5715938905628826E-006   9.8329020904704259E-002   0.0000000000000000     
  -6.9778730248663996E-006  0.10514061101729656        0.0000000000000000     
   1.9511690008703043E-002  0.10549508499487796        0.0000000000000000     
   2.0078128421728812E-002  0.11243780830188942        0.0000000000000000     
   2.0624271738277970E-002  0.11951867357282024        0.0000000000000000     
   2.1150119958350515E-002  0.12673768080767048        0.0000000000000000     
   2.1655673081946457E-002  0.13409483000644001        0.0000000000000000     
   1.4580070777054749E-002  0.10533734208101610        0.0000000000000000     
   1.5004099008916822E-002  0.11228677379939254        0.0000000000000000     
   1.5412369049875800E-002  0.11937519332228959        0.0000000000000000     
   1.5804880899931689E-002  0.12660260064970719        0.0000000000000000     
   1.6181634559084480E-002  0.13396899578164534        0.0000000000000000     
   9.6830863862173364E-003  0.10522568211346525        0.0000000000000000     
   9.9651460158695186E-003  0.11218010919644612        0.0000000000000000     
   1.0236298767411861E-002  0.11927345926982880        0.0000000000000000     
   1.0496544640844362E-002  0.12650573233361331        0.0000000000000000     
   1.0745883636167021E-002  0.13387692838779966        0.0000000000000000     
   4.8207368361907962E-003  0.10516010509222541        0.0000000000000000     
   4.9612694425869028E-003  0.11211781449305011        0.0000000000000000     
   5.0960608908861517E-003  0.11921347141543791        0.0000000000000000     
   5.2251111810885471E-003  0.12644707585938889        0.0000000000000000     
   5.3484203131940839E-003  0.13381862782490295        0.0000000000000000     
  -6.9778730248663996E-006  0.10514061101729656        0.0000000000000000     
  -7.5307109310260214E-006  0.11209988968920449        0.0000000000000000     
  -8.3445797013237009E-006  0.11919522975911691        0.0000000000000000     
  -9.4194793357596279E-006  0.12642663122703382        0.0000000000000000     
  -1.0755409834334317E-005  0.13379409409295523        0.0000000000000000     
   2.1655673081946457E-002  0.13409483000644001        0.0000000000000000     
   2.2131832825605290E-002  0.14157503661644877        0.0000000000000000     
   2.2569500905866520E-002  0.14916321608501651        0.0000000000000000     
   2.2968677322730151E-002  0.15685936841214324        0.0000000000000000     
   2.3329362076196191E-002  0.16466349359782895        0.0000000000000000     
   1.6181634559084480E-002  0.13396899578164534        0.0000000000000000     
   1.6535758109042724E-002  0.14145381911547014        0.0000000000000000     
   1.6860379631514964E-002  0.14903651104854757        0.0000000000000000     
   1.7155499126501196E-002  0.15671707158087764        0.0000000000000000     
   1.7421116594001421E-002  0.16449550071246033        0.0000000000000000     
   1.0745883636167021E-002  0.13387692838779966        0.0000000000000000     
   1.0979732213617964E-002  0.14136492804115405        0.0000000000000000     
   1.1193506833435311E-002  0.14894761190244279        0.0000000000000000     
   1.1387207495619070E-002  0.15662497997166580        0.0000000000000000     
   1.1560834200169229E-002  0.16439703224882313        0.0000000000000000     
   5.3484203131940839E-003  0.13381862782490295        0.0000000000000000     
   5.4637551393310118E-003  0.14130836339350059        0.0000000000000000     
   5.5688825116275743E-003  0.14889651864670220        0.0000000000000000     
   5.6638024300837758E-003  0.15658309358450781        0.0000000000000000     
   5.7485148946996092E-003  0.16436808820691737        0.0000000000000000     
  -1.0755409834334317E-005  0.13379409409295523        0.0000000000000000     
  -1.2173113818136211E-005  0.14128412517250968        0.0000000000000000     
  -1.3493333908254400E-005  0.14888323128132580        0.0000000000000000     
  -1.4716070104686988E-005  0.15659141241940358        0.0000000000000000     
  -1.5841322407435764E-005  0.16440866858674302        0.0000000000000000     
   0.0000000000000000        0.0000000000000000        0.0000000000000000     
   1.4386233743830194E-008   1.0733850163544029E-003   0.0000000000000000     
   1.6161387105212248E-008   2.5156857089517473E-003   0.0000000000000000     
   5.3254600842545831E-009   4.3269020777920329E-003   0.0000000000000000     
  -1.8121547319097011E-008   6.5070341228752604E-003   0.0000000000000000     
   0.0000000000000000        0.0000000000000000        0.0000000000000000     
  -2.1298827780508758E-004   1.0756646201875548E-003   0.0000000000000000     
  -4.2697940648665268E-004   2.5208357640324926E-003   0.0000000000000000     
  -6.4197338604469513E-004   4.3355134315348123E-003   0.0000000000000000     
  -8.5797021647921487E-004   6.5196976226945163E-003   0.0000000000000000     
   0.0000000000000000        0.0000000000000000        0.0000000000000000     
  -4.2426987473633644E-004   1.0825248392744259E-003   0.0000000000000000     
  -8.5300095097921250E-004   2.5362974662728713E-003   0.0000000000000000     
  -1.2861932287286282E-003   4.3613178809953339E-003   0.0000000000000000     
  -1.7238467079845835E-003   6.5575860834418175E-003   0.0000000000000000     
   0.0000000000000000        0.0000000000000000        0.0000000000000000     
  -6.3383040456000273E-004   1.0939656736150161E-003   0.0000000000000000     
  -1.2780484720905747E-003   2.5620708156728822E-003   0.0000000000000000     
  -1.9326542025917156E-003   4.4043154261735979E-003   0.0000000000000000     
  -2.5976475960634250E-003   6.6206995051171658E-003   0.0000000000000000     
   0.0000000000000000        0.0000000000000000        0.0000000000000000     
  -8.4166986727608653E-004   1.1099871232093253E-003   0.0000000000000000     
  -1.7021219698207385E-003   2.5981558122325269E-003   0.0000000000000000     
  -2.5813563076339569E-003   4.4645060670696042E-003   0.0000000000000000     
  -3.4793728807157400E-003   6.7090378877205587E-003   0.0000000000000000     
  -1.8121547319097011E-008   6.5070341228752604E-003   0.0000000000000000     
  -4.2790447092434596E-008   9.0286998508081525E-003   0.0000000000000000     
  -5.7292051223011421E-008   1.1864517268197438E-002   0.0000000000000000     
  -6.1626359710295549E-008   1.5014486375043112E-002   0.0000000000000000     
  -5.5793372555584635E-008   1.8478607171345172E-002   0.0000000000000000     
  -8.5797021647921487E-004   6.5196976226945163E-003   0.0000000000000000     
  -1.0761295201251011E-003   9.0453643334977539E-003   0.0000000000000000     
  -1.2976109193172437E-003   1.1884489559930680E-002   0.0000000000000000     
  -1.5224144140556423E-003   1.5037073301993296E-002   0.0000000000000000     
  -1.7505400043402969E-003   1.8503115559685604E-002   0.0000000000000000     
  -1.7238467079845835E-003   6.5575860834418175E-003   0.0000000000000000     
  -2.1661372454943395E-003   9.0951997497701227E-003   0.0000000000000000     
  -2.6132406980051565E-003   1.1944256556138051E-002   0.0000000000000000     
  -3.0651570655170356E-003   1.5104756502545605E-002   0.0000000000000000     
  -3.5218863480299747E-003   1.8576699588992787E-002   0.0000000000000000     
  -2.5976475960634250E-003   6.6206995051171658E-003   0.0000000000000000     
  -3.2700659665548062E-003   9.1782060996252572E-003   0.0000000000000000     
  -3.9469466281149600E-003   1.2043818256819546E-002   0.0000000000000000     
  -4.6282895807438886E-003   1.5217535976700036E-002   0.0000000000000000     
  -5.3140948244415889E-003   1.8699359259266721E-002   0.0000000000000000     
  -3.4793728807157400E-003   6.7090378877205587E-003   0.0000000000000000     
  -4.3879156833065017E-003   9.2943833830631557E-003   0.0000000000000000     
  -5.2987287096466556E-003   1.2183174661975169E-002   0.0000000000000000     
  -6.2118119597362013E-003   1.5375411724456590E-002   0.0000000000000000     
  -7.1271654335751389E-003   1.8871094570507421E-002   0.0000000000000000     
  -5.5793372555584635E-008   1.8478607171345172E-002   0.0000000000000000     
  -8.6303008408510681E-008   2.2227699952652280E-002   0.0000000000000000     
  -1.9966518591949174E-007   2.6232585014513081E-002   0.0000000000000000     
  -3.9587990508837195E-007   3.0493262356927564E-002   0.0000000000000000     
  -6.7494716591578151E-007   3.5009731979895764E-002   0.0000000000000000     
  -1.7505400043402969E-003   1.8503115559685604E-002   0.0000000000000000     
  -1.9783862088558137E-003   2.2253706921650497E-002   0.0000000000000000     
  -2.2023515462867966E-003   2.6259937976530895E-002   0.0000000000000000     
  -2.4224360166332478E-003   3.0521808724326787E-002   0.0000000000000000     
  -2.6386396198951659E-003   3.5039319165038177E-002   0.0000000000000000     
  -3.5218863480299747E-003   1.8576699588992787E-002   0.0000000000000000     
  -3.9775121566229983E-003   2.2331834823507341E-002   0.0000000000000000     
  -4.4261181023751272E-003   2.6341911214117008E-002   0.0000000000000000     
  -4.8677041852863614E-003   3.0606928760821800E-002   0.0000000000000000     
  -5.3022704053567009E-003   3.5126887463621706E-002   0.0000000000000000     
  -5.3140948244415889E-003   1.8699359259266721E-002   0.0000000000000000     
  -5.9974641463099616E-003   2.2462083658222793E-002   0.0000000000000000     
  -6.6714993334509101E-003   2.6478504727271424E-002   0.0000000000000000     
  -7.3362003858644283E-003   3.0748622466412606E-002   0.0000000000000000     
  -7.9915673035505213E-003   3.5272436875646351E-002   0.0000000000000000     
  -7.1271654335751389E-003   1.8871094570507421E-002   0.0000000000000000     
  -8.0382421779167067E-003   2.2644453425796868E-002   0.0000000000000000     
  -8.9384952395141441E-003   2.6669718515994135E-002   0.0000000000000000     
  -9.8279246183674493E-003   3.0946889841099213E-002   0.0000000000000000     
  -1.0706530314476626E-002   3.5475967401112106E-002   0.0000000000000000     
  -6.7494716591578151E-007   3.5009731979895764E-002   0.0000000000000000     
  -1.0691724693729027E-006   3.9762417997844704E-002   0.0000000000000000     
  -1.6108613164318936E-006   4.4731744525201476E-002   0.0000000000000000     
  -2.3000137070941908E-006   4.9917711561966067E-002   0.0000000000000000     
  -3.1366296413572192E-006   5.5320319108138484E-002   0.0000000000000000     
  -2.6386396198951659E-003   3.5039319165038177E-002   0.0000000000000000     
  -2.8508026265079505E-003   3.9792712827793966E-002   0.0000000000000000     
  -3.0587653069069991E-003   4.4762233241723064E-002   0.0000000000000000     
  -3.2625276610923131E-003   4.9947880406825462E-002   0.0000000000000000     
  -3.4620896890638908E-003   5.5349654323101169E-002   0.0000000000000000     
  -5.3022704053567009E-003   3.5126887463621706E-002   0.0000000000000000     
  -5.7286067884462282E-003   3.9881806492516582E-002   0.0000000000000000     
  -6.1455033604150226E-003   4.4851705017506280E-002   0.0000000000000000     
  -6.5529601212630855E-003   5.0036583038590786E-002   0.0000000000000000     
  -6.9509770709904181E-003   5.5436440555770107E-002   0.0000000000000000     
  -7.9915673035505213E-003   3.5272436875646351E-002   0.0000000000000000     
  -8.6344816582842026E-003   4.0029698992012544E-002   0.0000000000000000     
  -9.2618250218405047E-003   4.5000159852551104E-002   0.0000000000000000     
  -9.8735973942194119E-003   5.0183819457262017E-002   0.0000000000000000     
  -1.0469798775420935E-002   5.5580677806145298E-002   0.0000000000000000     
  -1.0706530314476626E-002   3.5475967401112106E-002   0.0000000000000000     
  -1.1568427236021885E-002   4.0236390326281873E-002   0.0000000000000000     
  -1.2407730291183441E-002   4.5207597746857564E-002   0.0000000000000000     
  -1.3224439479961296E-002   5.0389589662839185E-002   0.0000000000000000     
  -1.4018554802355447E-002   5.5782366074226736E-002   0.0000000000000000     
  -3.1366296413572192E-006   5.5320319108138484E-002   0.0000000000000000     
  -3.9699308536385704E-006   6.0924129070205085E-002   0.0000000000000000     
  -4.6491390783539384E-006   6.6713703354652223E-002   0.0000000000000000     
  -5.1742543155027947E-006   7.2689041961479919E-002   0.0000000000000000     
  -5.5452765650861827E-006   7.8850144890688159E-002   0.0000000000000000     
  -3.4620896890638908E-003   5.5349654323101169E-002   0.0000000000000000     
  -3.6563587522640676E-003   6.0952405853615554E-002   0.0000000000000000     
  -3.8442422121351756E-003   6.6740985861434010E-002   0.0000000000000000     
  -4.0257400686772157E-003   7.2715394346556536E-002   0.0000000000000000     
  -4.2008523218901861E-003   7.8875631308983118E-002   0.0000000000000000     
  -6.9509770709904181E-003   5.5436440555770107E-002   0.0000000000000000     
  -7.3381348833790111E-003   6.1036703589095929E-002   0.0000000000000000     
  -7.7130142322108623E-003   6.6822798158619967E-002   0.0000000000000000     
  -8.0756151174859753E-003   7.2794724264342192E-002   0.0000000000000000     
  -8.4259375392043440E-003   7.8952481906262612E-002   0.0000000000000000     
  -1.0469798775420935E-002   5.5580677806145298E-002   0.0000000000000000     
  -1.1049298324198473E-002   6.1177022276646210E-002   0.0000000000000000     
  -1.1610965199305419E-002   6.6959140246210067E-002   0.0000000000000000     
  -1.2154799400741783E-002   7.2927031714836887E-002   0.0000000000000000     
  -1.2680800928507558E-002   7.9080696682526652E-002   0.0000000000000000     
  -1.4018554802355447E-002   5.5782366074226736E-002   0.0000000000000000     
  -1.4789849074722444E-002   6.1373361916266404E-002   0.0000000000000000     
  -1.5538095113418842E-002   6.7150012124204364E-002   0.0000000000000000     
  -1.6263292918444635E-002   7.3112316698040636E-002   0.0000000000000000     
  -1.6965442489799830E-002   7.9260275637775213E-002   0.0000000000000000     
  -5.5452765650861827E-006   7.8850144890688159E-002   0.0000000000000000     
  -5.8552956606718661E-006   8.5183787841400072E-002   0.0000000000000000     
  -6.1974014358308067E-006   9.1676746512738772E-002   0.0000000000000000     
  -6.5715938905628826E-006   9.8329020904704259E-002   0.0000000000000000     
  -6.9778730248663996E-006  0.10514061101729656        0.0000000000000000     
  -4.2008523218901861E-003   7.8875631308983118E-002   0.0000000000000000     
  -4.3693005224288844E-003   8.5208590225384198E-002   0.0000000000000000     
  -4.5308062209480976E-003   9.1701164572430244E-002   0.0000000000000000     
  -4.6853694174478324E-003   9.8353354350121214E-002   0.0000000000000000     
  -4.8329901119280854E-003  0.10516515955845716        0.0000000000000000     
  -8.4259375392043440E-003   7.8952481906262612E-002   0.0000000000000000     
  -8.7630933511476487E-003   8.5282938743728692E-002   0.0000000000000000     
  -9.0861944070975802E-003   9.1772962436087915E-002   0.0000000000000000     
  -9.3952407070541262E-003   9.8422552983340239E-002   0.0000000000000000     
  -9.6902322510172955E-003  0.10523171038548569        0.0000000000000000     
  -1.2680800928507558E-002   7.9080696682526652E-002   0.0000000000000000     
  -1.3187233781816977E-002   8.5406833396433540E-002   0.0000000000000000     
  -1.3672361959884274E-002   9.1892140103711745E-002   0.0000000000000000     
  -1.4136185462709444E-002   9.8536616804361279E-002   0.0000000000000000     
  -1.4578704290292495E-002  0.10534026349838216        0.0000000000000000     
  -1.6965442489799830E-002   7.9260275637775213E-002   0.0000000000000000     
  -1.7641721814436861E-002   8.5580274183498714E-002   0.0000000000000000     
  -1.8289308879308182E-002   9.2058697575301773E-002   0.0000000000000000     
  -1.8908203684413788E-002   9.8695545813184377E-002   0.0000000000000000     
  -1.9498406229753681E-002  0.10549081889714654        0.0000000000000000     
  -6.9778730248663996E-006  0.10514061101729656        0.0000000000000000     
  -7.5307109310260214E-006  0.11209988968920449        0.0000000000000000     
  -8.3445797013237009E-006  0.11919522975911691        0.0000000000000000     
  -9.4194793357596279E-006  0.12642663122703382        0.0000000000000000     
  -1.0755409834334317E-005  0.13379409409295523        0.0000000000000000     
  -4.8329901119280854E-003  0.10516515955845716        0.0000000000000000     
  -4.9744997241769808E-003  0.11212389022644609        0.0000000000000000     
  -5.1107296739826358E-003  0.11921685638309601        0.0000000000000000     
  -5.2416799613450573E-003  0.12644405802840697        0.0000000000000000     
  -5.3673505862642384E-003  0.13380549516237894        0.0000000000000000     
  -9.6902322510172955E-003  0.10523171038548569        0.0000000000000000     
  -9.9728828766436749E-003  0.11218737154631166        0.0000000000000000     
  -1.0244906421589858E-002  0.11927647336960544        0.0000000000000000     
  -1.0506302885855846E-002  0.12649901585536708        0.0000000000000000     
  -1.0757072269441637E-002  0.13385499900359654        0.0000000000000000     
  -1.4578704290292495E-002  0.10534026349838216        0.0000000000000000     
  -1.5002680168331112E-002  0.11229033364880117        0.0000000000000000     
  -1.5410874822522989E-002  0.11937408071864516        0.0000000000000000     
  -1.5803288252868124E-002  0.12659150470791411        0.0000000000000000     
  -1.6179920459366524E-002  0.13394260561660812        0.0000000000000000     
  -1.9498406229753681E-002  0.10549081889714654        0.0000000000000000     
  -2.0063891599239284E-002  0.11243277653391467        0.0000000000000000     
  -2.0608634876782023E-002  0.11950967843021520        0.0000000000000000     
  -2.1132636062381902E-002  0.12672152458604813        0.0000000000000000     
  -2.1635895156038910E-002  0.13406831500141353        0.0000000000000000     
  -1.0755409834334317E-005  0.13379409409295523        0.0000000000000000     
  -1.2173113818136211E-005  0.14128412517250968        0.0000000000000000     
  -1.3493333908254400E-005  0.14888323128132580        0.0000000000000000     
  -1.4716070104686988E-005  0.15659141241940358        0.0000000000000000     
  -1.5841322407435764E-005  0.16440866858674302        0.0000000000000000     
  -5.3673505862642384E-003  0.13380549516237894        0.0000000000000000     
  -5.4852020595889889E-003  0.14129410491034261        0.0000000000000000     
  -5.5926948921681090E-003  0.14890282439762872        0.0000000000000000     
  -5.6898290840016038E-003  0.15663165362423731        0.0000000000000000     
  -5.7766046350894665E-003  0.16448059259016826        0.0000000000000000     
  -1.0757072269441637E-002  0.13385499900359654        0.0000000000000000     
  -1.0992481211741057E-002  0.14134019413916066        0.0000000000000000     
  -1.1207796352147931E-002  0.14895037258692614        0.0000000000000000     
  -1.1403017690662261E-002  0.15668553434689300        0.0000000000000000     
  -1.1578145227284051E-002  0.16454567941906126        0.0000000000000000     
  -1.6179920459366524E-002  0.13394260561660812        0.0000000000000000     
  -1.6534010570274340E-002  0.14142239285896380        0.0000000000000000     
  -1.6858797713847719E-002  0.14902587584921803        0.0000000000000000     
  -1.7154281890086664E-002  0.15675305458737071        0.0000000000000000     
  -1.7420463098991174E-002  0.16460392907342197        0.0000000000000000     
  -2.1635895156038910E-002  0.13406831500141353        0.0000000000000000     
  -2.2109790135188837E-002  0.14154070106975197        0.0000000000000000     
  -2.2545698977267468E-002  0.14912933418450430        0.0000000000000000     
  -2.2943621682274810E-002  0.15683421434567049        0.0000000000000000     
  -2.3303558250210854E-002  0.16465534155325051        0.0000000000000000     
   0.0000000000000000        0.0000000000000000        0.0000000000000000     
  -8.4166986727608653E-004   1.1099871232093253E-003   0.0000000000000000     
  -1.7021219698207385E-003   2.5981558122325269E-003   0.0000000000000000     
  -2.5813563076339569E-003   4.4645060670696042E-003   0.0000000000000000     
  -3.4793728807157400E-003   6.7090378877205587E-003   0.0000000000000000     
   0.0000000000000000        0.0000000000000000        0.0000000000000000     
  -1.0566950658904581E-003   1.1341493686203674E-003   0.0000000000000000     
  -2.1397631261781290E-003   2.6504004286997500E-003   0.0000000000000000     
  -3.2492041808630124E-003   4.5487531802381482E-003   0.0000000000000000     
  -4.3850182299451090E-003   6.8292076232355607E-003   0.0000000000000000     
   0.0000000000000000        0.0000000000000000        0.0000000000000000     
  -1.2878128034089884E-003   1.1700125904111560E-003   0.0000000000000000     
  -2.6055136231711695E-003   2.7246526378224972E-003   0.0000000000000000     
  -3.9531024592865446E-003   4.6639201422340217E-003   0.0000000000000000     
  -5.3305793117551115E-003   6.9878151036457331E-003   0.0000000000000000     
   0.0000000000000000        0.0000000000000000        0.0000000000000000     
  -1.5350230798316766E-003   1.2175767885816910E-003   0.0000000000000000     
  -3.0993734607998600E-003   2.8209124396007669E-003   0.0000000000000000     
  -4.6930511429045512E-003   4.8100069530572290E-003   0.0000000000000000     
  -6.3160561261457505E-003   7.1848603289510751E-003   0.0000000000000000     
   0.0000000000000000        0.0000000000000000        0.0000000000000000     
  -1.7983258951585232E-003   1.2768419631319725E-003   0.0000000000000000     
  -3.6213426390642013E-003   2.9391798340345607E-003   0.0000000000000000     
  -5.4690502317170349E-003   4.9870136127077658E-003   0.0000000000000000     
  -7.3414486731170243E-003   7.4203432991515874E-003   0.0000000000000000     
  -3.4793728807157400E-003   6.7090378877205587E-003   0.0000000000000000     
  -4.3879156833065017E-003   9.2943833830631557E-003   0.0000000000000000     
  -5.2987287096466556E-003   1.2183174661975169E-002   0.0000000000000000     
  -6.2118119597362013E-003   1.5375411724456590E-002   0.0000000000000000     
  -7.1271654335751389E-003   1.8871094570507421E-002   0.0000000000000000     
  -4.3850182299451090E-003   6.8292076232355607E-003   0.0000000000000000     
  -5.5342069677752886E-003   9.4497275701052649E-003   0.0000000000000000     
  -6.6837720887044207E-003   1.2368276833260540E-002   0.0000000000000000     
  -7.8337135927325080E-003   1.5584855412701378E-002   0.0000000000000000     
  -8.9840314798595514E-003   1.9099463308427780E-002   0.0000000000000000     
  -5.3305793117551115E-003   6.9878151036457331E-003   0.0000000000000000     
  -6.7234603919870241E-003   9.6502346307730212E-003   0.0000000000000000     
  -8.1172619113924361E-003   1.2605075832331282E-002   0.0000000000000000     
  -9.5119838699713431E-003   1.5852338708320514E-002   0.0000000000000000     
  -1.0907626267723744E-002   1.9392023258740721E-002   0.0000000000000000     
  -6.3160561261457505E-003   7.1848603289510751E-003   0.0000000000000000     
  -7.9556759559417135E-003   9.8959045650664264E-003   0.0000000000000000     
  -9.5991981777106966E-003   1.2893571659187402E-002   0.0000000000000000     
  -1.1246622791452702E-002   1.6177861611314005E-002   0.0000000000000000     
  -1.2897949797167725E-002   1.9748774421446225E-002   0.0000000000000000     
  -7.3414486731170243E-003   7.4203432991515874E-003   0.0000000000000000     
  -9.2308536596393508E-003   1.0186737372985477E-002   0.0000000000000000     
  -1.1129580887659207E-002   1.3233764313828897E-002   0.0000000000000000     
  -1.3037630357176585E-002   1.6561424121681836E-002   0.0000000000000000     
  -1.4955002068191493E-002   2.0169716796544303E-002   0.0000000000000000     
  -7.1271654335751389E-003   1.8871094570507421E-002   0.0000000000000000     
  -8.0382421779167067E-003   2.2644453425796868E-002   0.0000000000000000     
  -8.9384952395141441E-003   2.6669718515994135E-002   0.0000000000000000     
  -9.8279246183674493E-003   3.0946889841099213E-002   0.0000000000000000     
  -1.0706530314476626E-002   3.5475967401112106E-002   0.0000000000000000     
  -8.9840314798595514E-003   1.9099463308427780E-002   0.0000000000000000     
  -1.0127772140459993E-002   2.2887379538726667E-002   0.0000000000000000     
  -1.1257981964908280E-002   2.6923883121884928E-002   0.0000000000000000     
  -1.2374660953204417E-002   3.1208974057902565E-002   0.0000000000000000     
  -1.3477809105348400E-002   3.5742652346779591E-002   0.0000000000000000     
  -1.0907626267723744E-002   1.9392023258740721E-002   0.0000000000000000     
  -1.2293979922956576E-002   2.3199297409509281E-002   0.0000000000000000     
  -1.3660835653976766E-002   2.7249329086543587E-002   0.0000000000000000     
  -1.5008193460784318E-002   3.1542118289843643E-002   0.0000000000000000     
  -1.6336053343379224E-002   3.6077665019409434E-002   0.0000000000000000     
  -1.2897949797167725E-002   1.9748774421446225E-002   0.0000000000000000     
  -1.4536865525406464E-002   2.3580207038144712E-002   0.0000000000000000     
  -1.6147056306719604E-002   2.7646056409970109E-002   0.0000000000000000     
  -1.7728522141107154E-002   3.1946322536922422E-002   0.0000000000000000     
  -1.9281263028569105E-002   3.6481005419001636E-002   0.0000000000000000     
  -1.4955002068191493E-002   2.0169716796544303E-002   0.0000000000000000     
  -1.6856428947809650E-002   2.4030108424632966E-002   0.0000000000000000     
  -1.8716643923136798E-002   2.8114065092164502E-002   0.0000000000000000     
  -2.0535646994172926E-002   3.2421586799138910E-002   0.0000000000000000     
  -2.2313438160918041E-002   3.6952673545556189E-002   0.0000000000000000     
  -1.0706530314476626E-002   3.5475967401112106E-002   0.0000000000000000     
  -1.1568427236021885E-002   4.0236390326281873E-002   0.0000000000000000     
  -1.2407730291183441E-002   4.5207597746857564E-002   0.0000000000000000     
  -1.3224439479961296E-002   5.0389589662839185E-002   0.0000000000000000     
  -1.4018554802355447E-002   5.5782366074226736E-002   0.0000000000000000     
  -1.3477809105348400E-002   3.5742652346779591E-002   0.0000000000000000     
  -1.4559317232771287E-002   4.0504844188767798E-002   0.0000000000000000     
  -1.5611076146904133E-002   4.5475475784118986E-002   0.0000000000000000     
  -1.6633085847746941E-002   5.0654547132833148E-002   0.0000000000000000     
  -1.7625346335299701E-002   5.6042058234910305E-002   0.0000000000000000     
  -1.6336053343379224E-002   3.6077665019409434E-002   0.0000000000000000     
  -1.7636025359644432E-002   4.0838024272913595E-002   0.0000000000000000     
  -1.8899719567462871E-002   4.5805251048028711E-002   0.0000000000000000     
  -2.0127135966834558E-002   5.0979345344754810E-002   0.0000000000000000     
  -2.1318274557759469E-002   5.6360307163091865E-002   0.0000000000000000     
  -1.9281263028569105E-002   3.6481005419001636E-002   0.0000000000000000     
  -2.0798551616641323E-002   4.1235930578719243E-002   0.0000000000000000     
  -2.2273660552859668E-002   4.6196923538586752E-002   0.0000000000000000     
  -2.3706589837224134E-002   5.1363984298604143E-002   0.0000000000000000     
  -2.5097339469734727E-002   5.6737112858771428E-002   0.0000000000000000     
  -2.2313438160918041E-002   3.6952673545556189E-002   0.0000000000000000     
  -2.4046896003761965E-002   4.1698563106184770E-002   0.0000000000000000     
  -2.5732899103094512E-002   4.6650493255793096E-002   0.0000000000000000     
  -2.7371447458915687E-002   5.1808463994381167E-002   0.0000000000000000     
  -2.8962541071225496E-002   5.7172475321948989E-002   0.0000000000000000     
  -1.4018554802355447E-002   5.5782366074226736E-002   0.0000000000000000     
  -1.4789849074722444E-002   6.1373361916266404E-002   0.0000000000000000     
  -1.5538095113418842E-002   6.7150012124204364E-002   0.0000000000000000     
  -1.6263292918444635E-002   7.3112316698040636E-002   0.0000000000000000     
  -1.6965442489799830E-002   7.9260275637775213E-002   0.0000000000000000     
  -1.7625346335299701E-002   5.6042058234910305E-002   0.0000000000000000     
  -1.8588571215448064E-002   6.1626438933292609E-002   0.0000000000000000     
  -1.9523474094077637E-002   6.7396119070922259E-002   0.0000000000000000     
  -2.0430054971188435E-002   7.3351098647799221E-002   0.0000000000000000     
  -2.1308313846780447E-002   7.9491377663923543E-002   0.0000000000000000     
  -2.1318274557759469E-002   5.6360307163091865E-002   0.0000000000000000     
  -2.2474248826872441E-002   6.1936969753060962E-002   0.0000000000000000     
  -2.3596172260808308E-002   6.7698166364683163E-002   0.0000000000000000     
  -2.4684044859567066E-002   7.3643896997958466E-002   0.0000000000000000     
  -2.5737866623148722E-002   7.9774161652886894E-002   0.0000000000000000     
  -2.5097339469734727E-002   5.6737112858771428E-002   0.0000000000000000     
  -2.6446881908995589E-002   6.2304954375571459E-002   0.0000000000000000     
  -2.7756189613610864E-002   6.8056154005487091E-002   0.0000000000000000     
  -2.9025262583580545E-002   7.3990711748518359E-002   0.0000000000000000     
  -3.0254100818904634E-002   8.0108627604665222E-002   0.0000000000000000     
  -2.8962541071225496E-002   5.7172475321948989E-002   0.0000000000000000     
  -3.0506470461817502E-002   6.2730392800824111E-002   0.0000000000000000     
  -3.2003526152485286E-002   6.8470081993334070E-002   0.0000000000000000     
  -3.3453708143228851E-002   7.4391542899478899E-002   0.0000000000000000     
  -3.4857016434048198E-002   8.0494775519258557E-002   0.0000000000000000     
  -1.6965442489799830E-002   7.9260275637775213E-002   0.0000000000000000     
  -1.7641721814436861E-002   8.5580274183498714E-002   0.0000000000000000     
  -1.8289308879308182E-002   9.2058697575301773E-002   0.0000000000000000     
  -1.8908203684413788E-002   9.8695545813184377E-002   0.0000000000000000     
  -1.9498406229753681E-002  0.10549081889714654        0.0000000000000000     
  -2.1308313846780447E-002   7.9491377663923543E-002   0.0000000000000000     
  -2.2154406847217478E-002   8.5803148817938255E-002   0.0000000000000000     
  -2.2964490098863321E-002   9.2272604808486411E-002   0.0000000000000000     
  -2.3738563601717961E-002   9.8899745635567998E-002   0.0000000000000000     
  -2.4476627355781416E-002  0.10568457129918303        0.0000000000000000     
  -2.5737866623148722E-002   7.9774161652886894E-002   0.0000000000000000     
  -2.6753138278369011E-002   8.6075345012766161E-002   0.0000000000000000     
  -2.7725360552043696E-002   9.2533831760894081E-002   0.0000000000000000     
  -2.8654533444172781E-002   9.9149621897270654E-002   0.0000000000000000     
  -2.9540656954756255E-002  0.10592271542189585        0.0000000000000000     
  -3.0254100818904634E-002   8.0108627604665222E-002   0.0000000000000000     
  -3.1437916107891449E-002   8.6396862767982446E-002   0.0000000000000000     
  -3.2571920238849326E-002   9.2842378432524825E-002   0.0000000000000000     
  -3.3656113211778235E-002   9.9445174598292316E-002   0.0000000000000000     
  -3.4690495026678203E-002  0.10620525126528498        0.0000000000000000     
  -3.4857016434048198E-002   8.0494775519258557E-002   0.0000000000000000     
  -3.6208740335784806E-002   8.6767702083587125E-002   0.0000000000000000     
  -3.7504169159280183E-002   9.3198244823378629E-002   0.0000000000000000     
  -3.8743302904534344E-002   9.9786403738633053E-002   0.0000000000000000     
  -3.9926141571547252E-002  0.10653217882935043        0.0000000000000000     
  -1.9498406229753681E-002  0.10549081889714654        0.0000000000000000     
  -2.0063891599239284E-002  0.11243277653391467        0.0000000000000000     
  -2.0608634876782023E-002  0.11950967843021520        0.0000000000000000     
  -2.1132636062381902E-002  0.12672152458604813        0.0000000000000000     
  -2.1635895156038910E-002  0.13406831500141353        0.0000000000000000     
  -2.4476627355781416E-002  0.10568457129918303        0.0000000000000000     
  -2.5183871223168782E-002  0.11261639931683229        0.0000000000000000     
  -2.5865485065995158E-002  0.11968454720601654        0.0000000000000000     
  -2.6521468884260553E-002  0.12688901496673577        0.0000000000000000     
  -2.7151822677964961E-002  0.13422980259899001        0.0000000000000000     
  -2.9540656954756255E-002  0.10592271542189585        0.0000000000000000     
  -3.0389973093920174E-002  0.11284290111273416        0.0000000000000000     
  -3.1208723871790588E-002  0.11989996774775008        0.0000000000000000     
  -3.1996909288367480E-002  0.12709391532694359        0.0000000000000000     
  -3.2754529343650869E-002  0.13442474385031469        0.0000000000000000     
  -3.4690495026678203E-002  0.10620525126528498        0.0000000000000000     
  -3.5682197211493474E-002  0.11311228192162030        0.0000000000000000     
  -3.6638351294168300E-002  0.12015594005541584        0.0000000000000000     
  -3.7558957274702688E-002  0.12733622566667163        0.0000000000000000     
  -3.8444015153096617E-002  0.13465313875538759        0.0000000000000000     
  -3.9926141571547252E-002  0.10653217882935043        0.0000000000000000     
  -4.1060543575888668E-002  0.11342454174349068        0.0000000000000000     
  -4.2154367333128301E-002  0.12045246412901384        0.0000000000000000     
  -4.3207612843266165E-002  0.12761594598591985        0.0000000000000000     
  -4.4220280106302239E-002  0.13491498731420870        0.0000000000000000     
  -2.1635895156038910E-002  0.13406831500141353        0.0000000000000000     
  -2.2109790135188837E-002  0.14154070106975197        0.0000000000000000     
  -2.2545698977267468E-002  0.14912933418450430        0.0000000000000000     
  -2.2943621682274810E-002  0.15683421434567049        0.0000000000000000     
  -2.3303558250210854E-002  0.16465534155325051        0.0000000000000000     
  -2.7151822677964961E-002  0.13422980259899001        0.0000000000000000     
  -2.7746198777765581E-002  0.14169267078905226        0.0000000000000000     
  -2.8294249514319612E-002  0.14926338022319557        0.0000000000000000     
  -2.8795974887627043E-002  0.15694193090141997        0.0000000000000000     
  -2.9251374897687886E-002  0.16472832282372538        0.0000000000000000     
  -3.2754529343650869E-002  0.13442474385031469        0.0000000000000000     
  -3.3469615369285610E-002  0.14187585403439154        0.0000000000000000     
  -3.4130198696916546E-002  0.14943064659570227        0.0000000000000000     
  -3.4736279326543711E-002  0.15708912153424681        0.0000000000000000     
  -3.5287857258167084E-002  0.16485127885002529        0.0000000000000000     
  -3.8444015153096617E-002  0.13465313875538759        0.0000000000000000     
  -3.9280039909748904E-002  0.14209025080576984        0.0000000000000000     
  -4.0053546525058312E-002  0.14963113330202438        0.0000000000000000     
  -4.0764534999024812E-002  0.15727578624415114        0.0000000000000000     
  -4.1413005331648448E-002  0.16502420963215017        0.0000000000000000     
  -4.4220280106302239E-002  0.13491498731420870        0.0000000000000000     
  -4.5177472399155490E-002  0.14233586110318716        0.0000000000000000     
  -4.6064292998744864E-002  0.14986484034216185        0.0000000000000000     
  -4.6880741905070356E-002  0.15750192503113286        0.0000000000000000     
  -4.7626819118131977E-002  0.16524711517010010        0.0000000000000000     
   0.0000000000000000        0.0000000000000000        0.0000000000000000     
  -1.7983258951585232E-003   1.2768419631319725E-003   0.0000000000000000     
  -3.6213426390642013E-003   2.9391798340345607E-003   0.0000000000000000     
  -5.4690502317170349E-003   4.9870136127077658E-003   0.0000000000000000     
  -7.3414486731170243E-003   7.4203432991515874E-003   0.0000000000000000     
   0.0000000000000000        0.0000000000000000        0.0000000000000000     
  -2.0694472690338779E-003   1.3549290230183051E-003   0.0000000000000000     
  -4.1640685329711507E-003   3.0939756018487554E-003   0.0000000000000000     
  -6.2838637918118181E-003   5.2171397364913505E-003   0.0000000000000000     
  -8.4288330455558821E-003   7.7244214269460891E-003   0.0000000000000000     
   0.0000000000000000        0.0000000000000000        0.0000000000000000     
  -2.3401132211020902E-003   1.4589588771969941E-003   0.0000000000000000     
  -4.7201985175276667E-003   3.2998205237682260E-003   0.0000000000000000     
  -7.1402558892767285E-003   5.5225849397136963E-003   0.0000000000000000     
  -9.6002853363492732E-003   8.1272521250334052E-003   0.0000000000000000     
   0.0000000000000000        0.0000000000000000        0.0000000000000000     
  -2.6103237513631613E-003   1.5889315256680386E-003   0.0000000000000000     
  -5.2897325927337494E-003   3.5567145997929734E-003   0.0000000000000000     
  -8.0382265241117634E-003   5.9033492223748039E-003   0.0000000000000000     
  -1.0855805545497203E-002   8.6288353934135323E-003   0.0000000000000000     
   0.0000000000000000        0.0000000000000000        0.0000000000000000     
  -2.8800788598170898E-003   1.7448469684314392E-003   0.0000000000000000     
  -5.8726707585893979E-003   3.8646578299229972E-003   0.0000000000000000     
  -8.9777756963169246E-003   6.3594325844746752E-003   0.0000000000000000     
  -1.2195393672999669E-002   9.2291712320864711E-003   0.0000000000000000     
  -7.3414486731170243E-003   7.4203432991515874E-003   0.0000000000000000     
  -9.2308536596393508E-003   1.0186737372985477E-002   0.0000000000000000     
  -1.1129580887659207E-002   1.3233764313828897E-002   0.0000000000000000     
  -1.3037630357176585E-002   1.6561424121681836E-002   0.0000000000000000     
  -1.4955002068191493E-002   2.0169716796544303E-002   0.0000000000000000     
  -8.4288330455558821E-003   7.7244214269460891E-003   0.0000000000000000     
  -1.0590654952399506E-002   1.0558363583082290E-002   0.0000000000000000     
  -1.2761008170538856E-002   1.3661509114769269E-002   0.0000000000000000     
  -1.4939892699973934E-002   1.7033858022007024E-002   0.0000000000000000     
  -1.7127308540704742E-002   2.0675410304795555E-002   0.0000000000000000     
  -9.6002853363492732E-003   8.1272521250334052E-003   0.0000000000000000     
  -1.2076741283541735E-002   1.1046413723908974E-002   0.0000000000000000     
  -1.4546078155650540E-002   1.4212661380522023E-002   0.0000000000000000     
  -1.7008295952675685E-002   1.7625995094872556E-002   0.0000000000000000     
  -1.9463394674617177E-002   2.1286414866960569E-002   0.0000000000000000     
  -1.0855805545497203E-002   8.6288353934135323E-003   0.0000000000000000     
  -1.3689112653066042E-002   1.1650887795465527E-002   0.0000000000000000     
  -1.6484790842994260E-002   1.4887221111087163E-002   0.0000000000000000     
  -1.9242840115281837E-002   1.8337835340278441E-002   0.0000000000000000     
  -2.1963260469928796E-002   2.2002730483039353E-002   0.0000000000000000     
  -1.2195393672999669E-002   9.2291712320864711E-003   0.0000000000000000     
  -1.5427769060972431E-002   1.2371785797751951E-002   0.0000000000000000     
  -1.8577146232570008E-002   1.5685188306464686E-002   0.0000000000000000     
  -2.1643525187792396E-002   1.9169378758224668E-002   0.0000000000000000     
  -2.4626905926639599E-002   2.2824357153031907E-002   0.0000000000000000     
  -1.4955002068191493E-002   2.0169716796544303E-002   0.0000000000000000     
  -1.6856428947809650E-002   2.4030108424632966E-002   0.0000000000000000     
  -1.8716643923136798E-002   2.8114065092164502E-002   0.0000000000000000     
  -2.0535646994172926E-002   3.2421586799138910E-002   0.0000000000000000     
  -2.2313438160918041E-002   3.6952673545556189E-002   0.0000000000000000     
  -1.7127308540704742E-002   2.0675410304795555E-002   0.0000000000000000     
  -1.9292053080242837E-002   2.4558580849666518E-002   0.0000000000000000     
  -2.1402923706099777E-002   2.8655784543151586E-002   0.0000000000000000     
  -2.3459920418275566E-002   3.2967021385250747E-002   0.0000000000000000     
  -2.5463043216770207E-002   3.7492291375964000E-002   0.0000000000000000     
  -1.9463394674617177E-002   2.1286414866960569E-002   0.0000000000000000     
  -2.1883120812782708E-002   2.5175203593937850E-002   0.0000000000000000     
  -2.4239220858479987E-002   2.9273644172956182E-002   0.0000000000000000     
  -2.6531694811709011E-002   3.3581736604015575E-002   0.0000000000000000     
  -2.8760542672469781E-002   3.8099480887116011E-002   0.0000000000000000     
  -2.1963260469928796E-002   2.2002730483039353E-002   0.0000000000000000     
  -2.4629632145429275E-002   2.5879976657446957E-002   0.0000000000000000     
  -2.7225535380277430E-002   2.9967643981578303E-002   0.0000000000000000     
  -2.9750970174473264E-002   3.4265732455433386E-002   0.0000000000000000     
  -3.2205936528016774E-002   3.8774242079012193E-002   0.0000000000000000     
  -2.4626905926639599E-002   2.2824357153031907E-002   0.0000000000000000     
  -2.7531587078182533E-002   2.6672900040193848E-002   0.0000000000000000     
  -3.0361867271492104E-002   3.0737783969017940E-002   0.0000000000000000     
  -3.3117746506568319E-002   3.5019008939504187E-002   0.0000000000000000     
  -3.5799224783411174E-002   3.9516574951652582E-002   0.0000000000000000     
  -2.2313438160918041E-002   3.6952673545556189E-002   0.0000000000000000     
  -2.4046896003761965E-002   4.1698563106184770E-002   0.0000000000000000     
  -2.5732899103094512E-002   4.6650493255793096E-002   0.0000000000000000     
  -2.7371447458915687E-002   5.1808463994381167E-002   0.0000000000000000     
  -2.8962541071225496E-002   5.7172475321948989E-002   0.0000000000000000     
  -2.5463043216770207E-002   3.7492291375964000E-002   0.0000000000000000     
  -2.7412760433349136E-002   4.2227460808919121E-002   0.0000000000000000     
  -2.9309540399777786E-002   4.7168395977743832E-002   0.0000000000000000     
  -3.1153383116056164E-002   5.2315096882438170E-002   0.0000000000000000     
  -3.2944288582184261E-002   5.7667563523002098E-002   0.0000000000000000     
  -2.8760542672469781E-002   3.8099480887116011E-002   0.0000000000000000     
  -3.0927846817745627E-002   4.2824162640531252E-002   0.0000000000000000     
  -3.3035689624519866E-002   4.7753067482535050E-002   0.0000000000000000     
  -3.5084071092792511E-002   5.2886195413127418E-002   0.0000000000000000     
  -3.7072991222563544E-002   5.8223546432308343E-002   0.0000000000000000     
  -3.2205936528016774E-002   3.8774242079012193E-002   0.0000000000000000     
  -3.4592155156951444E-002   4.3488668601021185E-002   0.0000000000000000     
  -3.6911346777320761E-002   4.8404507770166763E-002   0.0000000000000000     
  -3.9163511389124724E-002   5.3521759586448919E-002   0.0000000000000000     
  -4.1348648992363339E-002   5.8840424049867675E-002   0.0000000000000000     
  -3.5799224783411174E-002   3.9516574951652582E-002   0.0000000000000000     
  -3.8405685450966585E-002   4.4220978690388900E-002   0.0000000000000000     
  -4.0936511858180452E-002   4.9122716840638944E-002   0.0000000000000000     
  -4.3391704005052809E-002   5.4221789402402687E-002   0.0000000000000000     
  -4.5771261891583634E-002   5.9518196375680142E-002   0.0000000000000000     
  -2.8962541071225496E-002   5.7172475321948989E-002   0.0000000000000000     
  -3.0506470461817502E-002   6.2730392800824111E-002   0.0000000000000000     
  -3.2003526152485286E-002   6.8470081993334070E-002   0.0000000000000000     
  -3.3453708143228851E-002   7.4391542899478899E-002   0.0000000000000000     
  -3.4857016434048198E-002   8.0494775519258557E-002   0.0000000000000000     
  -3.2944288582184261E-002   5.7667563523002098E-002   0.0000000000000000     
  -3.4682007196929751E-002   6.3213108281369543E-002   0.0000000000000000     
  -3.6366289359060257E-002   6.8939043539474401E-002   0.0000000000000000     
  -3.7997135068575799E-002   7.4845369297316638E-002   0.0000000000000000     
  -3.9574544325476357E-002   8.0932085554896296E-002   0.0000000000000000     
  -3.7072991222563544E-002   5.8223546432308343E-002   0.0000000000000000     
  -3.9002484825923875E-002   6.3752924069758451E-002   0.0000000000000000     
  -4.0872586714964423E-002   6.9462131855158399E-002   0.0000000000000000     
  -4.2683296889685148E-002   7.5351169788508171E-002   0.0000000000000000     
  -4.4434615350086061E-002   8.1420037869807782E-002   0.0000000000000000     
  -4.1348648992363339E-002   5.8840424049867675E-002   0.0000000000000000     
  -4.3467903348799915E-002   6.4349840165990810E-002   0.0000000000000000     
  -4.5522418220197772E-002   7.0039346940386077E-002   0.0000000000000000     
  -4.7512193606556903E-002   7.5908944373053497E-002   0.0000000000000000     
  -4.9437229507877337E-002   8.1958632463993070E-002   0.0000000000000000     
  -4.5771261891583634E-002   5.9518196375680142E-002   0.0000000000000000     
  -4.8078262765557836E-002   6.5003856570066618E-002   0.0000000000000000     
  -5.0315783874760316E-002   7.0670688795157449E-002   0.0000000000000000     
  -5.2483825219191094E-002   7.6518693050952616E-002   0.0000000000000000     
  -5.4582386798850149E-002   8.2547869337452118E-002   0.0000000000000000     
  -3.4857016434048198E-002   8.0494775519258557E-002   0.0000000000000000     
  -3.6208740335784806E-002   8.6767702083587125E-002   0.0000000000000000     
  -3.7504169159280183E-002   9.3198244823378629E-002   0.0000000000000000     
  -3.8743302904534344E-002   9.9786403738633053E-002   0.0000000000000000     
  -3.9926141571547252E-002  0.10653217882935043        0.0000000000000000     
  -3.9574544325476357E-002   8.0932085554896296E-002   0.0000000000000000     
  -4.1093892905283542E-002   8.7187977140348413E-002   0.0000000000000000     
  -4.2550556583518938E-002   9.3601828881808111E-002   0.0000000000000000     
  -4.3944535360182543E-002  0.10017364077927536        0.0000000000000000     
  -4.5275829235274366E-002  0.10690341283275018        0.0000000000000000     
  -4.4434615350086061E-002   8.1420037869807782E-002   0.0000000000000000     
  -4.6121655759622113E-002   8.7657802119034581E-002   0.0000000000000000     
  -4.7739531781748196E-002   9.4053528556165930E-002   0.0000000000000000     
  -4.9288243416464324E-002  0.10060721718120182        0.0000000000000000     
  -5.0767790663770483E-002  0.10731886799414225        0.0000000000000000     
  -4.9437229507877337E-002   8.1958632463993070E-002   0.0000000000000000     
  -5.1292028898800524E-002   8.8177177019645642E-002   0.0000000000000000     
  -5.3071094753967978E-002   9.4553343846452101E-002   0.0000000000000000     
  -5.4774427073379657E-002  0.10108713294441242        0.0000000000000000     
  -5.6402025857035624E-002  0.10777854431352663        0.0000000000000000     
  -5.4582386798850149E-002   8.2547869337452118E-002   0.0000000000000000     
  -5.6605012322818775E-002   8.8746101842181596E-002   0.0000000000000000     
  -5.8545245500178249E-002   9.5101274752666595E-002   0.0000000000000000     
  -6.0403086330928578E-002  0.10161338806890718        0.0000000000000000     
  -6.2178534815069762E-002  0.10828244179090331        0.0000000000000000     
  -3.9926141571547252E-002  0.10653217882935043        0.0000000000000000     
  -4.1060543575888668E-002  0.11342454174349068        0.0000000000000000     
  -4.2154367333128301E-002  0.12045246412901384        0.0000000000000000     
  -4.3207612843266165E-002  0.12761594598591985        0.0000000000000000     
  -4.4220280106302239E-002  0.13491498731420870        0.0000000000000000     
  -4.5275829235274366E-002  0.10690341283275018        0.0000000000000000     
  -4.6553064102444829E-002  0.11377936474647775        0.0000000000000000     
  -4.7784865855344354E-002  0.12078971622470329        0.0000000000000000     
  -4.8971234493972962E-002  0.12793446726742674        0.0000000000000000     
  -5.0112170018330654E-002  0.13521361787464814        0.0000000000000000     
  -5.0767790663770483E-002  0.10731886799414225        0.0000000000000000     
  -5.2187810706501019E-002  0.11417643509871390        0.0000000000000000     
  -5.3557940727490261E-002  0.12116787259864341        0.0000000000000000     
  -5.4878180726738182E-002  0.12829318049393076        0.0000000000000000     
  -5.6148530704244817E-002  0.13555235878457603        0.0000000000000000     
  -5.6402025857035624E-002  0.10777854431352663        0.0000000000000000     
  -5.7964783388057259E-002  0.11461575280019910        0.0000000000000000     
  -5.9473591949565974E-002  0.12158693325083422        0.0000000000000000     
  -6.0928451541561804E-002  0.12869208566543200        0.0000000000000000     
  -6.2329362164044728E-002  0.13593121004399236        0.0000000000000000     
  -6.2178534815069762E-002  0.10828244179090331        0.0000000000000000     
  -6.3883982147113522E-002  0.11509731785093337        0.0000000000000000     
  -6.5531819521571541E-002  0.12204689818127570        0.0000000000000000     
  -6.7122046938443841E-002  0.12913118278193031        0.0000000000000000     
  -6.8654664397730394E-002  0.13635017165289720        0.0000000000000000     
  -4.4220280106302239E-002  0.13491498731420870        0.0000000000000000     
  -4.5177472399155490E-002  0.14233586110318716        0.0000000000000000     
  -4.6064292998744864E-002  0.14986484034216185        0.0000000000000000     
  -4.6880741905070356E-002  0.15750192503113286        0.0000000000000000     
  -4.7626819118131977E-002  0.16524711517010010        0.0000000000000000     
  -5.0112170018330654E-002  0.13521361787464814        0.0000000000000000     
  -5.1191369138411789E-002  0.14261641074610976        0.0000000000000000     
  -5.2192528564210798E-002  0.15013208858155375        0.0000000000000000     
  -5.3115648295727673E-002  0.15776065138098019        0.0000000000000000     
  -5.3960728332962386E-002  0.16550209914438904        0.0000000000000000     
  -5.6148530704244817E-002  0.13555235878457603        0.0000000000000000     
  -5.7351186428424267E-002  0.14293562555400388        0.0000000000000000     
  -5.8468343667690680E-002  0.15043319888563894        0.0000000000000000     
  -5.9500002422044056E-002  0.15804507877948135        0.0000000000000000     
  -6.0446162691484388E-002  0.16577126523553096        0.0000000000000000     
  -6.2329362164044728E-002  0.13593121004399236        0.0000000000000000     
  -6.3656924269192908E-002  0.14329350552686951        0.0000000000000000     
  -6.4891738309184516E-002  0.15076817125441749        0.0000000000000000     
  -6.6033804284019532E-002  0.15835520722663626        0.0000000000000000     
  -6.7083122193697969E-002  0.16605461344352584        0.0000000000000000     
  -6.8654664397730394E-002  0.13635017165289720        0.0000000000000000     
  -7.0108582660717733E-002  0.14369005066470675        0.0000000000000000     
  -7.1462712488692293E-002  0.15113700568788935        0.0000000000000000     
  -7.2717053881654101E-002  0.15869103672244500        0.0000000000000000     
  -7.3871606839603143E-002  0.16635214376837371        0.0000000000000000     
   0.0000000000000000        0.0000000000000000        0.0000000000000000     
  -2.8800788598170898E-003   1.7448469684314392E-003   0.0000000000000000     
  -5.8726707585893979E-003   3.8646578299229972E-003   0.0000000000000000     
  -8.9777756963169246E-003   6.3594325844746752E-003   0.0000000000000000     
  -1.2195393672999669E-002   9.2291712320864711E-003   0.0000000000000000     
   0.0000000000000000        0.0000000000000000        0.0000000000000000     
  -3.2832165513892540E-003   1.9993646231464316E-003   0.0000000000000000     
  -6.6769845098250090E-003   4.3309630041038615E-003   0.0000000000000000     
  -1.0181303875307263E-002   6.9947951428722894E-003   0.0000000000000000     
  -1.3796174647836015E-002   9.9908610394517147E-003   0.0000000000000000     
   0.0000000000000000        0.0000000000000000        0.0000000000000000     
  -3.9535748310050335E-003   2.4251439074722513E-003   0.0000000000000000     
  -7.9106453411709760E-003   5.0629429122811282E-003   0.0000000000000000     
  -1.1871211530497829E-002   7.9133970144266326E-003   0.0000000000000000     
  -1.5835273398985595E-002   1.0976506213908763E-002   0.0000000000000000     
   0.0000000000000000        0.0000000000000000        0.0000000000000000     
  -4.8911536986644254E-003   3.0221848214088982E-003   0.0000000000000000     
  -9.5736532526273024E-003   6.0605975544548007E-003   0.0000000000000000     
  -1.4047498661888626E-002   9.1152381991377058E-003   0.0000000000000000     
  -1.8312689926448401E-002   1.2186106755457610E-002   0.0000000000000000     
   0.0000000000000000        0.0000000000000000        0.0000000000000000     
  -6.0959531543674323E-003   3.7904873649563728E-003   0.0000000000000000     
  -1.1666008244193983E-002   7.3239269306248729E-003   0.0000000000000000     
  -1.6710165269479653E-002   1.0600318697005503E-002   0.0000000000000000     
  -2.1228424230224439E-002   1.3619662664098258E-002   0.0000000000000000     
  -1.2195393672999669E-002   9.2291712320864711E-003   0.0000000000000000     
  -1.5427769060972431E-002   1.2371785797751951E-002   0.0000000000000000     
  -1.8577146232570008E-002   1.5685188306464686E-002   0.0000000000000000     
  -2.1643525187792396E-002   1.9169378758224668E-002   0.0000000000000000     
  -2.4626905926639599E-002   2.2824357153031907E-002   0.0000000000000000     
  -1.3796174647836015E-002   9.9908610394517147E-003   0.0000000000000000     
  -1.7404482677778426E-002   1.3221169629887695E-002   0.0000000000000000     
  -2.0889113815501636E-002   1.6587729850225785E-002   0.0000000000000000     
  -2.4250068061005662E-002   2.0090541700465970E-002   0.0000000000000000     
  -2.7487345414290494E-002   2.3729605180608272E-002   0.0000000000000000     
  -1.5835273398985595E-002   1.0976506213908763E-002   0.0000000000000000     
  -1.9731025674001555E-002   1.4211101190992203E-002   0.0000000000000000     
  -2.3486663082913011E-002   1.7576012625941630E-002   0.0000000000000000     
  -2.7102185625719952E-002   2.1071240518757056E-002   0.0000000000000000     
  -3.0577593302422379E-002   2.4696784869438469E-002   0.0000000000000000     
  -1.8312689926448401E-002   1.2186106755457610E-002   0.0000000000000000     
  -2.2407398049641827E-002   1.5341580481065469E-002   0.0000000000000000     
  -2.6369794034804113E-002   1.8650036633612241E-002   0.0000000000000000     
  -3.0199877881935261E-002   2.2111475213097927E-002   0.0000000000000000     
  -3.3897649591035264E-002   2.5725896219522523E-002   0.0000000000000000     
  -2.1228424230224439E-002   1.3619662664098258E-002   0.0000000000000000     
  -2.5433599804699242E-002   1.6612607500107509E-002   0.0000000000000000     
  -2.9538506671174962E-002   1.9809801873237620E-002   0.0000000000000000     
  -3.3543144829651601E-002   2.3211245783488585E-002   0.0000000000000000     
  -3.7447514280129150E-002   2.6816939230860412E-002   0.0000000000000000     
  -2.4626905926639599E-002   2.2824357153031907E-002   0.0000000000000000     
  -2.7531587078182533E-002   2.6672900040193848E-002   0.0000000000000000     
  -3.0361867271492104E-002   3.0737783969017940E-002   0.0000000000000000     
  -3.3117746506568319E-002   3.5019008939504187E-002   0.0000000000000000     
  -3.5799224783411174E-002   3.9516574951652582E-002   0.0000000000000000     
  -2.7487345414290494E-002   2.3729605180608272E-002   0.0000000000000000     
  -3.0624126491815066E-002   2.7547478308139025E-002   0.0000000000000000     
  -3.3683591910038300E-002   3.1586719100544614E-002   0.0000000000000000     
  -3.6665741668960215E-002   3.5847327557825021E-002   0.0000000000000000     
  -3.9570575768580786E-002   4.0329303679980250E-002   0.0000000000000000     
  -3.0577593302422379E-002   2.4696784869438469E-002   0.0000000000000000     
  -3.3942391267099449E-002   2.8497216027243023E-002   0.0000000000000000     
  -3.7226084673830324E-002   3.2517104341427849E-002   0.0000000000000000     
  -4.0428673522614970E-002   3.6756449811992942E-002   0.0000000000000000     
  -4.3550157813453429E-002   4.1215252438938303E-002   0.0000000000000000     
  -3.3897649591035264E-002   2.5725896219522523E-002   0.0000000000000000     
  -3.7486381404035707E-002   2.9522113197505816E-002   0.0000000000000000     
  -4.0989345562868158E-002   3.3528939691667627E-002   0.0000000000000000     
  -4.4406542067532605E-002   3.7746375702007944E-002   0.0000000000000000     
  -4.7737970918029074E-002   4.2174421228526764E-002   0.0000000000000000     
  -3.7447514280129150E-002   2.6816939230860412E-002   0.0000000000000000     
  -4.1256096902623822E-002   3.0622169818927431E-002   0.0000000000000000     
  -4.4973374577151816E-002   3.4622225151263966E-002   0.0000000000000000     
  -4.8599347303713125E-002   3.8817105227870026E-002   0.0000000000000000     
  -5.2134015082307757E-002   4.3206810048745610E-002   0.0000000000000000     
  -3.5799224783411174E-002   3.9516574951652582E-002   0.0000000000000000     
  -3.8405685450966585E-002   4.4220978690388900E-002   0.0000000000000000     
  -4.0936511858180452E-002   4.9122716840638944E-002   0.0000000000000000     
  -4.3391704005052809E-002   5.4221789402402687E-002   0.0000000000000000     
  -4.5771261891583634E-002   5.9518196375680142E-002   0.0000000000000000     
  -3.9570575768580786E-002   4.0329303679980250E-002   0.0000000000000000     
  -4.2394824848543206E-002   4.5019070913371304E-002   0.0000000000000000     
  -4.5135219548490653E-002   4.9903052704359185E-002   0.0000000000000000     
  -4.7791759868423114E-002   5.4981249052943902E-002   0.0000000000000000     
  -5.0364445808340604E-002   6.0253659959125447E-002   0.0000000000000000     
  -4.3550157813453429E-002   4.1215252438938303E-002   0.0000000000000000     
  -4.6585960498433499E-002   4.5880923274705242E-002   0.0000000000000000     
  -4.9531504529643014E-002   5.0740873371735072E-002   0.0000000000000000     
  -5.2386789907081996E-002   5.5795102730027767E-002   0.0000000000000000     
  -5.5151816630750430E-002   6.1043611349583339E-002   0.0000000000000000     
  -4.7737970918029074E-002   4.2174421228526764E-002   0.0000000000000000     
  -5.0979092400637430E-002   4.6806535774390749E-002   0.0000000000000000     
  -5.4125366801637549E-002   5.1636178842766597E-002   0.0000000000000000     
  -5.7176794121029446E-002   5.6663350433654280E-002   0.0000000000000000     
  -6.0133374358813101E-002   6.1888050547053812E-002   0.0000000000000000     
  -5.2134015082307757E-002   4.3206810048745610E-002   0.0000000000000000     
  -5.5574220555155027E-002   4.7795908412427812E-002   0.0000000000000000     
  -5.8916806364474265E-002   5.2588969117453768E-002   0.0000000000000000     
  -6.2161772510265459E-002   5.7585992163823443E-002   0.0000000000000000     
  -6.5309118992528614E-002   6.2786977551536866E-002   0.0000000000000000     
  -4.5771261891583634E-002   5.9518196375680142E-002   0.0000000000000000     
  -4.8078262765557836E-002   6.5003856570066618E-002   0.0000000000000000     
  -5.0315783874760316E-002   7.0670688795157449E-002   0.0000000000000000     
  -5.2483825219191094E-002   7.6518693050952616E-002   0.0000000000000000     
  -5.4582386798850149E-002   8.2547869337452118E-002   0.0000000000000000     
  -5.0364445808340604E-002   6.0253659959125447E-002   0.0000000000000000     
  -5.2858209540999290E-002   6.5714194444863275E-002   0.0000000000000000     
  -5.5277983239155337E-002   7.1356761532116841E-002   0.0000000000000000     
  -5.7623766902808737E-002   7.7181361220886147E-002   0.0000000000000000     
  -5.9895560531959505E-002   8.3187993511171177E-002   0.0000000000000000     
  -5.5151816630750430E-002   6.1043611349583339E-002   0.0000000000000000     
  -5.7832390139925922E-002   6.6480074953258153E-002   0.0000000000000000     
  -6.0434315873886084E-002   7.2098169263908649E-002   0.0000000000000000     
  -6.2957593832630887E-002   7.7897894281534749E-002   0.0000000000000000     
  -6.5402224016160387E-002   8.3879250006136483E-002   0.0000000000000000     
  -6.0133374358813101E-002   6.1888050547053812E-002   0.0000000000000000     
  -6.3000804562337739E-002   6.7301498095251308E-002   0.0000000000000000     
  -6.5784781778952556E-002   7.2894911990532801E-002   0.0000000000000000     
  -6.8485306008657570E-002   7.8668292232898410E-002   0.0000000000000000     
  -7.1102377251452797E-002   8.4621638822348064E-002   0.0000000000000000     
  -6.5309118992528614E-002   6.2786977551536866E-002   0.0000000000000000     
  -6.8363452808234720E-002   6.8178463870842643E-002   0.0000000000000000     
  -7.1329380954354787E-002   7.3746989711989411E-002   0.0000000000000000     
  -7.4206903430888774E-002   7.9492555074977142E-002   0.0000000000000000     
  -7.6996020237836721E-002   8.5415159959805864E-002   0.0000000000000000     
  -5.4582386798850149E-002   8.2547869337452118E-002   0.0000000000000000     
  -5.6605012322818775E-002   8.8746101842181596E-002   0.0000000000000000     
  -5.8545245500178249E-002   9.5101274752666595E-002   0.0000000000000000     
  -6.0403086330928578E-002  0.10161338806890718        0.0000000000000000     
  -6.2178534815069762E-002  0.10828244179090331        0.0000000000000000     
  -5.9895560531959505E-002   8.3187993511171177E-002   0.0000000000000000     
  -6.2085842741101405E-002   8.9363902783138494E-002   0.0000000000000000     
  -6.4187092144728244E-002   9.5696333416954604E-002   0.0000000000000000     
  -6.6199308742840038E-002  0.10218528541261952        0.0000000000000000     
  -6.8122492535436743E-002  0.10883075877013326        0.0000000000000000     
  -6.5402224016160387E-002   8.3879250006136483E-002   0.0000000000000000     
  -6.7759756863072992E-002   9.0029906039012494E-002   0.0000000000000000     
  -7.0021742811967200E-002   9.6337531981461319E-002   0.0000000000000000     
  -7.2188181862842996E-002  0.10280212783348296        0.0000000000000000     
  -7.4259074015700394E-002  0.10942369359507745        0.0000000000000000     
  -7.1102377251452797E-002   8.4621638822348064E-002   0.0000000000000000     
  -7.3626754688733517E-002   9.0744111609803543E-002   0.0000000000000000     
  -7.6049197501895066E-002   9.7024870446186656E-002   0.0000000000000000     
  -7.8369705690937499E-002  0.10346391533149746        0.0000000000000000     
  -8.0588279255860720E-002  0.11006124626573585        0.0000000000000000     
  -7.6996020237836721E-002   8.5415159959805864E-002   0.0000000000000000     
  -7.9686836218082965E-002   9.1506519495511696E-002   0.0000000000000000     
  -8.2269456214511871E-002   9.7758348811130727E-002   0.0000000000000000     
  -8.4743880227123439E-002  0.10417064790666299        0.0000000000000000     
  -8.7110108255917668E-002  0.11074341678210846        0.0000000000000000     
  -6.2178534815069762E-002  0.10828244179090331        0.0000000000000000     
  -6.3883982147113522E-002  0.11509731785093337        0.0000000000000000     
  -6.5531819521571541E-002  0.12204689818127570        0.0000000000000000     
  -6.7122046938443841E-002  0.12913118278193031        0.0000000000000000     
  -6.8654664397730394E-002  0.13635017165289720        0.0000000000000000     
  -6.8122492535436743E-002  0.10883075877013326        0.0000000000000000     
  -6.9970476086381544E-002  0.11562207193241449        0.0000000000000000     
  -7.1757091959537597E-002  0.12254854334238180        0.0000000000000000     
  -7.3482340154904888E-002  0.12961017300003527        0.0000000000000000     
  -7.5146220672483457E-002  0.13680696090537486        0.0000000000000000     
  -7.4259074015700394E-002  0.10942369359507745        0.0000000000000000     
  -7.6249334308573100E-002  0.11619095672614016        0.0000000000000000     
  -7.8173877779494874E-002  0.12309264468656642        0.0000000000000000     
  -8.0032704428465676E-002  0.13012875747635630        0.0000000000000000     
  -8.1825814255485504E-002  0.13729929509550975        0.0000000000000000     
  -8.0588279255860720E-002  0.11006124626573585        0.0000000000000000     
  -8.2720556813688173E-002  0.11680397223211036        0.0000000000000000     
  -8.4782176981443344E-002  0.12367920221382958        0.0000000000000000     
  -8.6773139759126122E-002  0.13068693621089342        0.0000000000000000     
  -8.8693445146736563E-002  0.13782717422330190        0.0000000000000000     
  -8.7110108255917668E-002  0.11074341678210846        0.0000000000000000     
  -8.9384143601726765E-002  0.11746111845032520        0.0000000000000000     
  -9.1581989565382979E-002  0.12430821592417125        0.0000000000000000     
  -9.3703646146886241E-002  0.13128470920364663        0.0000000000000000     
  -9.5749113346236620E-002  0.13839059828875133        0.0000000000000000     
  -6.8654664397730394E-002  0.13635017165289720        0.0000000000000000     
  -7.0108582660717733E-002  0.14369005066470675        0.0000000000000000     
  -7.1462712488692293E-002  0.15113700568788935        0.0000000000000000     
  -7.2717053881654101E-002  0.15869103672244500        0.0000000000000000     
  -7.3871606839603143E-002  0.16635214376837371        0.0000000000000000     
  -7.5146220672483457E-002  0.13680696090537486        0.0000000000000000     
  -7.6726044016955305E-002  0.14412274186174409        0.0000000000000000     
  -7.8199120693002513E-002  0.15154135067248645        0.0000000000000000     
  -7.9565450700625096E-002  0.15906278733760193        0.0000000000000000     
  -8.0825034039823010E-002  0.16668705185709054        0.0000000000000000     
  -8.1825814255485504E-002  0.13729929509550975        0.0000000000000000     
  -8.3529190751862228E-002  0.14458906001221014        0.0000000000000000     
  -8.5118817408903660E-002  0.15198285469464068        0.0000000000000000     
  -8.6594694226609814E-002  0.15948067914280137        0.0000000000000000     
  -8.7956821204980690E-002  0.16708253335669232        0.0000000000000000     
  -8.8693445146736563E-002  0.13782717422330190        0.0000000000000000     
  -9.0518022865438516E-002  0.14508900511610484        0.0000000000000000     
  -9.2221802636395733E-002  0.15246151775435199        0.0000000000000000     
  -9.3804784459608284E-002  0.15994471213804343        0.0000000000000000     
  -9.5266968335076141E-002  0.16753858826717902        0.0000000000000000     
  -9.5749113346236620E-002  0.13839059828875133        0.0000000000000000     
  -9.7692540357684127E-002  0.14562257717342830        0.0000000000000000     
  -9.9508076375478746E-002  0.15297733985162049        0.0000000000000000     
 -0.10119572139962051       0.16045488632332794        0.0000000000000000     
 -0.10275547543010941       0.16805521658855063        0.0000000000000000     
 </DataArray>
 <DataArray  type="Float64" Name="stress" NumberOfComponents="3" format="ascii">
   13416285088.285761        4024885526.4857283        2893909350.1670527     
   11766348932.733160        1890473521.1666124        1715822491.3685997     
   10313675119.612991        413602657.28894043        810779245.38464963     
   9058263648.9252567       -405727065.14728785        178779612.21520436     
   8000114520.6699533       -567515646.14207268       -180176408.13973925     
   10539758203.981424        3161927461.1944275        2225703120.6018505     
   9667484420.9840164        1589606538.2186129        1446708986.0795453     
   8943840018.8568974        512716884.81041718        863159737.09058559     
   8368824997.6000614       -68741499.030157566        475055373.63497198     
   7942439357.2135105       -154768613.30311298        282395895.71270478     
   8337865365.3632030        2501359609.6089611        1712324722.6825454     
   8021543305.5462561        1424616574.1640272        1275684857.2805488     
   7805217665.0374479        681194936.41288877        956891150.13074172     
   7688888443.8367758        271094696.35554600        755943601.23312294     
   7672555641.9442425        194315853.99199820        672842210.58769286     
   6810606572.4310970        2043181971.7293293        1353774156.4091375     
   6828525586.4198742        1395503629.0028553        1202750104.9716122     
   6897808058.1546421        919036812.09635282        1091973484.5051184     
   7018453987.6353989        613781521.00982118        1021444295.0096563     
   7190463374.8621483        479737755.74326205        991162536.48522425     
   5957981825.1851053        1787394547.5555315        1150051421.7816269     
   6088431263.6048698        1502267702.7350967        1227904729.1527340     
   6221611198.2084789        1226242511.8608093        1268406740.2137151     
   6357521628.9959326        959318974.93267000        1271557454.9645696     
   6496162555.9672298        701497091.95067787        1237356873.4052985     
   8000114520.6699533       -567515646.14207268       -180176408.13973925     
   7917539381.4265089       -200310931.27818298       -78392960.604495078     
   7793518009.0836744        28739673.254410744       -9135451.0461663548     
   7628050403.6414490        119636167.45570183        27596120.535245810     
   7421136565.0998363        72378551.325695515        31801754.139739651     
   7942439357.2135105       -154768613.30311298        282395895.71270478     
   7739683883.4257164        16285412.396262646        281038293.60718518     
   7513568538.6529369        109473201.47901583        265025761.94397330     
   7264093322.8951731        124794753.94515228        234358300.72306466     
   6991258236.1524220        62250069.794668674        189035909.94446263     
   7672555641.9442425        194315853.99199820        672842210.58769286     
   7400679857.6670227        184537197.74333763        589444314.64154780     
   7123530564.5192184        157180178.59273577        509262497.55692869     
   6841107762.5008326        112244796.54018712        432296759.33383733     
   6553411451.6118622        49731051.585697651        358547099.97227591     
   7190463374.8621483        479737755.74326205        991162536.48522425     
   6900527304.1504221        304444424.76304126        846825102.49858844     
   6623404086.6825142        171860604.59555435        723574755.79270303     
   6359093722.4584284        81986295.240801573        621411496.36756921     
   6107596211.4781618        34821496.698784113        540335324.22318375     
   6496162555.9672298        701497091.95067787        1237356873.4052985     
   6239226222.8759165        376007093.45537233        1053180657.1783108     
   6013189105.1428261        153514479.48747945        907962536.65129554     
   5818051202.7679596        34019250.046998262        801702511.82425237     
   5653812515.7513161        17521405.133928061        734400582.69718063     
   7421136565.0998363        72378551.325695515        31801754.139739651     
   7219598949.9106646       -17878118.227244854        15103577.689375041     
   7030093114.7909832       -68028854.215213776        2536726.7313446449     
   6852619059.7408018       -78073656.638186932       -5898798.7343558604     
   6687176784.7601147       -48012525.496172428       -10202998.707717989     
   6991258236.1524220        62250069.794668674        189035909.94446263     
   6809078452.7932482        3157737.7981967926        180779613.59594131     
   6634602998.3128672       -30253497.935628414        176090861.41897792     
   6467831872.7112799       -37983637.406813860        174969653.41356587     
   6308765075.9884863       -20032680.615341902        177415989.57971454     
   6553411451.6118622        49731051.585697651        358547099.97227591     
   6388978696.3090334        21319816.013605833        353683990.66978127     
   6227922818.6942978        4164839.4018170834        351824644.21806449     
   6070243818.7676506       -1733878.2496676445        352969060.61712146     
   5915941696.5290976        3623663.0591592789        357117239.86695886     
   6107596211.4781618        34821496.698784113        540335324.22318375     
   5959299680.4580250        36608116.418974876        533816708.91089672     
   5810052575.9352722        35226157.797124386        529738075.12860531     
   5659854897.9099131        30675620.833244801        528099422.87631530     
   5508706646.3819427        22956505.527327538        528900752.15402025     
   5653812515.7513161        17521405.133928061        734400582.69718063     
   5520041405.2402124        49022639.014302015        721177768.31928158     
   5380992270.0357981        62930457.250300407        709831154.15060270     
   5236665110.1380701        59244859.841924429        700360740.19113934     
   5087059925.5470324        37965846.789172888        692766526.44089615     
   6687176784.7601147       -48012525.496172428       -10202998.707717989     
   6509494615.6513128       -10246366.662211418       -4740962.6182580544     
   6327281982.4710741        12418245.266969681        3039304.8684949586     
   6140538885.2193947        19981310.291343927        13137803.752529200     
   5949265323.8962803        12442828.410939217        25554534.033853319     
   6308765075.9884863       -20032680.615341902        177415989.57971454     
   6133152719.5078793        412588.20884513855        174041846.81963620     
   5954753383.5727015        11567925.517786264        173938764.68622339     
   5773567068.1829500        13433331.311481714        177106743.17947149     
   5589593773.3386183        6008805.5899331570        183545782.29937327     
   5915941696.5290976        3623663.0591592789        357117239.86695886     
   5745121521.9034681        7564752.6416020393        346940983.64368796     
   5573257852.4401302        8027526.0983500481        340988617.27645040     
   5400350688.1390772        5011983.4293916225        339260140.76524341     
   5226400029.0003185       -1481875.3652679920        341755554.11007214     
   5508706646.3819427        22956505.527327538        528900752.15402025     
   5345401022.8380690        11210126.636062622        513956447.85389340     
   5182795389.0733490        1797047.0086441040        504188862.63917333     
   5020889745.0877829       -5282733.3549296856        499597996.50985539     
   4859684090.8813677       -10029214.454663992        500183849.46594685     
   5087059925.5470324        37965846.789172888        692766526.44089615     
   4933991222.3116913        11348710.192233324        675088239.45025742     
   4783365993.4723644       -7123511.7513227463        663539500.77439487     
   4635184239.0290604       -17450819.041476488        658120310.41330874     
   4489445958.9817715       -19633211.678250551        658830668.36700273     
   5949265323.8962803        12442828.410939217        25554534.033853319     
   5778374154.5245962        6825251.5608072281        21209191.820055377     
   5609248298.0890884        7092051.1646053791        20285426.057380628     
   5441887754.5897551        13243227.222319365        22783236.745828435     
   5276292524.0266047        25278779.733964920        28702623.885405838     
   5589593773.3386183        6008805.5899331570        183545782.29937327     
   5428419891.9621124        3016724.9698476791        179710161.31631631     
   5268445707.2233324        4023633.1421854496        179321917.05611151     
   5109671219.1222763        9029530.1069433689        182381049.51875618     
   4952096427.6589537        18034415.864138365        188887558.70424181     
   5226400029.0003185       -1481875.3652679920        341755554.11007214     
   5075017150.6810532       -1826345.2366919518        337769768.67623991     
   4924268352.7010593       -57213.977200746536        337257160.23698145     
   4774153635.0603542        3825518.4132406712        340217728.79228836     
   4624672997.7589197        9821851.9345970154        346651474.34217316     
   4859684090.8813677       -10029214.454663992        500183849.46594685     
   4718165930.6814089       -7703959.0588116646        495388013.89981753     
   4576716234.5222788       -5150490.1935267448        494091155.59997553     
   4435335002.4039803       -2368807.8588109016        496293274.56643307     
   4294022234.3265119        641087.94535017014        501994370.79918587     
   4489445958.9817715       -19633211.678250551        658830668.36700273     
   4357866231.9631834       -14616116.496504068        652564896.98704886     
   4225789352.6869764       -11256195.506824255        649823903.14511037     
   4093215321.1531596       -9553448.7091836929        650607686.84118927     
   3960144137.3617196       -9507876.1036152840        654916248.07528877     
   5276292524.0266047        25278779.733964920        28702623.885405838     
   5068010016.9584007        25662958.730633259        25215142.073894329     
   4858723609.7693348        22700803.991102934        26100235.091529418     
   4648433302.4593954        16392315.515318155        31357902.938286766     
   4437139095.0285978        6737493.3033494949        40988145.614193276     
   4952096427.6589537        18034415.864138365        188887558.70424181     
   4754688572.6474295        15856522.981802940        183385740.05603144     
   4556586827.8717890        11365664.219072819        182467710.90205821     
   4357791193.3320036        4561839.5758564472        186133471.24231511     
   4158301669.0280881       -4554950.9477810860        194383021.07680407     
   4624672997.7589197        9821851.9345970154        346651474.34217316     
   4438743265.2757893        5262928.3148009777        339496997.60678416     
   4252429653.3852654       -575593.32965707779        337137525.03072101     
   4065732162.0873418       -7693712.9987797737        339573056.61399055     
   3878650791.3820152       -16091430.692560434        346803592.35659134     
   4294022234.3265119        641087.94535017014        501994370.79918587     
   4120174094.8434734       -6117825.2704181671        493548914.72614139     
   3946252086.3097653       -13122968.655070305        490109677.47751808     
   3772256208.7254009       -20374342.208595991        491676659.05332369     
   3598186462.0903559       -27871945.931039095        498249859.45355380     
   3960144137.3617196       -9507876.1036152840        654916248.07528877     
   3798981061.3504705       -18285737.773843050        645541491.41410780     
   3638054126.6452947       -26276461.757171154        641384168.24244475     
   3477363333.2461815       -33480048.053623676        642444278.56030822     
   3316908681.1531391       -39896496.663164854        648721822.36769009     
   4437139095.0285978        6737493.3033494949        40988145.614193276     
   4295406129.1775341        18171039.505409479        36572180.685877897     
   4154822115.7155499        33434427.004409313        37358642.706114128     
   4015387054.6426544        52527655.800357103        43347531.674903236     
   3877100945.9588351        75450725.893247604        54538847.592231147     
   4158301669.0280881       -4554950.9477810860        194383021.07680407     
   4028982212.8304524        7192559.8766155243        190221297.45037568     
   3900233534.9130931        20842664.968597412        190333547.08056590     
   3772055635.2760024        36395364.328141689        194719769.96738625     
   3644448513.9191871        53850657.955270767        203379966.11082906     
   3878650791.3820152       -16091430.692560434        346803592.35659134     
   3759092120.0037370       -4825772.6960723400        342221573.57176405     
   3639526052.7969294        6415232.5386466980        340985074.35163546     
   3519952589.7615962        17631585.011606455        343094094.69621813     
   3400371730.8977122        28823284.722752333        348548634.60550600     
   3598186462.0903559       -27871945.931039095        498249859.45355380     
   3485735850.6973863       -17883958.212648869        492573009.05005211     
   3372699669.3670707       -9847870.2853994370        489313224.51933390     
   3259077918.0994177       -3763682.1492900848        488470505.86140394     
   3144870596.8944178        368606.19567847252        490044853.07625037     
   3316908681.1531391       -39896496.663164854        648721822.36769009     
   3208913404.9114022       -31981996.673116684        641275603.88524199     
   3099754384.6235156       -27946643.503563166        635317997.58365881     
   2989431620.2894835       -27790437.154490948        630849003.46293437     
   2877945111.9093037       -31513377.625924945        627868621.52306747     
   3877100945.9588351        75450725.893247604        54538847.592231147     
   3628861721.8655362        82205459.259495735        39449891.091654256     
   3390562071.4685426        122092104.94677365        29218831.423054419     
   3162201994.7678905        195110662.95515037        23845668.586432274     
   2943781491.7635307        301261133.28456938        23330402.581783332     
   3644448513.9191871        53850657.955270767        203379966.11082906     
   3405749356.2778888        48627171.944676757        194046783.48349631     
   3173500627.7723298        64905116.386528254        189958421.15115872     
   2947702328.4025059        102684491.28082776        191114879.11379579     
   2728354458.1684260        161965296.62763000        197516157.37143824     
   3400371730.8977122        28823284.722752333        348548634.60550600     
   3172318135.3170528        11953228.017920971        340900557.19739330     
   2947225824.3115439        4954119.8969242573        338884223.54728109     
   2725094797.8811893        7825960.3597656488        342499633.65519208     
   2505925056.0259767        20568749.406434059        351746787.52110535     
   3144870596.8944178        368606.19567847252        490044853.07625037     
   2928568058.9830179       -27816372.520784259        480011212.23334128     
   2711737661.0861750       -57760884.522061586        475996238.61147165     
   2494379403.2039070       -89464929.808106422        477999932.21061212     
   2276493285.3361902       -122928508.37892985        486022293.03078794     
   2877945111.9093037       -31513377.625924945        627868621.52306747     
   2674499127.2757778       -70681629.671467781        611378748.59135091     
   2467036138.0962286       -123239896.87041938        601294466.34368062     
   2255556144.3706698       -189188179.22275603        597615774.78004920     
   2040059146.0990844       -268526476.72848940        600342673.90047634     
   5957981825.1851053        1787394547.5555315        1150051421.7816269     
   6088431263.6048698        1502267702.7350967        1227904729.1527340     
   6221611198.2084789        1226242511.8608093        1268406740.2137151     
   6357521628.9959326        959318974.93267000        1271557454.9645696     
   6496162555.9672298        701497091.95067787        1237356873.4052985     
   5434639807.7962179        1630391942.3388655        1033474954.2741373     
   5489893678.2167206        1372511360.5193191        1113867000.8834174     
   5547348400.8579178        1121966952.7687550        1167480000.0339544     
   5607003975.7198086        878758719.08717358        1194313951.7257490     
   5668860402.8023939        642886659.47457385        1194368855.9588006     
   4895229204.4354267        1468568761.3306282        936363189.36079299     
   4905493932.1463327        1246996370.0988698        1018676057.2512378     
   4917429868.1147833        1030994673.0589287        1084782126.5343232     
   4931037012.3407793        820563670.21080494        1134681397.2100492     
   4946315364.8243208        615703361.55449867        1168373869.2784166     
   4339750015.1027298        1301925004.5308189        858716127.04159355     
   4335232025.3937073        1125722731.4737496        942331898.25619555     
   4331855599.9790802        953325672.73133135        1020313119.7148215     
   4329620738.8588467        784733828.30356562        1092659791.4174714     
   4328527442.0330105        619947198.19045138        1159371913.3641462     
   3768202239.7981291        1130460671.9394388        800533767.31653941     
   3779107957.9588432        1008690444.6439571        884834523.89829063     
   3790625596.4508042        888959951.78596282        974072979.57544911     
   3802755155.2740107        771269193.36545503        1068249134.3480155     
   3815496634.4284625        655618169.38243377        1167362988.2159889     
   6496162555.9672298        701497091.95067787        1237356873.4052985     
   6239226222.8759165        376007093.45537233        1053180657.1783108     
   6013189105.1428261        153514479.48747945        907962536.65129554     
   5818051202.7679596        34019250.046998262        801702511.82425237     
   5653812515.7513161        17521405.133928061        734400582.69718063     
   5668860402.8023939        642886659.47457385        1194368855.9588006     
   5518754727.1937208        383373087.55884337        1073480572.3362846     
   5392786958.8177061        204319206.41863203        980586292.63592601     
   5290957097.6743441        105725016.05393529        915686016.85772574     
   5213265143.7636347        87590516.464754820        878779745.00168395     
   4946315364.8243208        615703361.55449867        1168373869.2784166     
   4871714370.1902485        412768423.26593256        1102885325.4472091     
   4814489974.6632643        267755482.00098801        1054426693.7603452     
   4774642178.2433643        180664537.75966358        1022997974.2178240     
   4752170980.9305515        151495590.54196167        1008599166.8196456     
   4328527442.0330105        619947198.19045138        1159371913.3641462     
   4298105151.8654966        464193100.57663679        1141394916.5110838     
   4278298152.6795006        343823306.23454762        1129483740.0245514     
   4269106444.4750233        258837815.16418457        1123638383.9045458     
   4270530027.2520604        209236627.36554575        1123858848.1510682     
   3815496634.4284625        655618169.38243377        1167362988.2159889     
   3797927072.2194653        537647119.49095702        1189009345.5279093     
   3784211492.8664169        432522679.11931038        1205757431.4285429     
   3774349896.3693180        340244848.26749408        1217607245.9178901     
   3768342282.7281666        260813626.93550909        1224558788.9959519     
   5653812515.7513161        17521405.133928061        734400582.69718063     
   5520041405.2402124        49022639.014302015        721177768.31928158     
   5380992270.0357981        62930457.250300407        709831154.15060270     
   5236665110.1380701        59244859.841924429        700360740.19113934     
   5087059925.5470324        37965846.789172888        692766526.44089615     
   5213265143.7636347        87590516.464754820        878779745.00168395     
   5077065281.1743851        85402615.422836065        855167352.12956440     
   4938814745.0782986        76379136.024800539        835584903.97018015     
   4798513535.4753752        60520078.270638943        820032400.52352917     
   4656161652.3656168        37825442.160362244        808509841.78961432     
   4752170980.9305515        151495590.54196167        1008599166.8196456     
   4619695921.9874859        117464621.29505181        978362438.50419545     
   4488397540.7240553        87355910.980275869        954309399.40499616     
   4358275837.1402683        61169459.597633362        936440049.52204669     
   4229330811.2361202        38905267.147126913        924754388.85534990     
   4270530027.2520604        209236627.36554575        1123858848.1510682     
   4147933327.6795092        145208656.63094449        1090763027.4431772     
   4029740656.9730759        95860782.116732597        1066004640.4550503     
   3915952015.1327548        61193003.822905064        1049583687.1866922     
   3806567402.1585546        41205321.749470949        1041500167.6381018     
   3768342282.7281666        260813626.93550909        1224558788.9959519     
   3661777498.2504616        168634721.43051410        1192369118.9465067     
   3562844093.8253512        101893749.43416309        1170670627.1203442     
   3471542069.4528322        60590710.946454287        1159463313.5174658     
   3387871425.1329074        44725605.967391372        1158747178.1378696     
   5087059925.5470324        37965846.789172888        692766526.44089615     
   4933991222.3116913        11348710.192233324        675088239.45025742     
   4783365993.4723644       -7123511.7513227463        663539500.77439487     
   4635184239.0290604       -17450819.041476488        658120310.41330874     
   4489445958.9817715       -19633211.678250551        658830668.36700273     
   4656161652.3656168        37825442.160362244        808509841.78961432     
   4520038285.8907690        16721775.164455414        794521697.82675982     
   4385782569.2681837        1843607.6760818958        786166540.84157634     
   4253394502.4978647       -6809060.3047428131        783444370.83406711     
   4122874085.5798020       -9236228.7780315876        786355187.80422950     
   4229330811.2361202        38905267.147126913        924754388.85534990     
   4108734034.8443303        22889445.749019146        913784592.61923027     
   3989429083.7610455        11179708.712600708        907951222.02368152     
   3871415957.9862700        3776056.0378761292        907254277.06870008     
   3754694657.5200014        678487.72483968735        911693757.75428963     
   3806567402.1585546        41205321.749470949        1041500167.6381018     
   3700078469.1723757        29851721.945929766        1032876923.8276727     
   3594305536.9509501        20884791.358229160        1028893544.3207098     
   3489248605.4942770        14304529.986370802        1029550029.1172091     
   3384907674.8023553        10110937.830357313        1034846378.2171738     
   3387871425.1329074        44725605.967391372        1158747178.1378696     
   3294071588.8749013        37608603.755183458        1151798691.4520838     
   3200411928.8378954        30958855.612970829        1148993507.7326603     
   3106892445.0218873        24776361.540752053        1150331626.9795928     
   3013513137.4268761        19061121.538523316        1155813049.1928885     
   4489445958.9817715       -19633211.678250551        658830668.36700273     
   4357866231.9631834       -14616116.496504068        652564896.98704886     
   4225789352.6869764       -11256195.506824255        649823903.14511037     
   4093215321.1531596       -9553448.7091836929        650607686.84118927     
   3960144137.3617196       -9507876.1036152840        654916248.07528877     
   4122874085.5798020       -9236228.7780315876        786355187.80422950     
   4000102514.6756172       -6774953.5873875618        779291254.53993082     
   3877153704.8157177       -4904474.9157934189        776067853.05432940     
   3754027656.0001040       -3624792.7632412910        776684983.34742868     
   3630724368.2287807       -2935907.1297376156        781142645.41922605     
   3754694657.5200014        678487.72483968735        911693757.75428963     
   3641633397.7035899        854589.41638612747        904204894.79119766     
   3528714812.2333713        1506272.2619028091        900872317.84748721     
   3415938901.1093440        2633536.2613859177        901696026.92315841     
   3303305664.3315063        4236381.4148380756        906676022.01821196     
   3384907674.8023553        10110937.830357313        1034846378.2171738     
   3282458881.0471029        8272512.5148231983        1027305817.7408459     
   3180472674.9399438        7976046.0262792110        1024237297.5245801     
   3078949056.4808779        9221538.3647048473        1025640817.5683805     
   2977888025.6699076        12008989.530116916        1031516377.8722415     
   3013513137.4268761        19061121.538523316        1155813049.1928885     
   2922578964.7061534        15478815.707925677        1148594023.3888764     
   2832427292.9354300        14504846.377322793        1146162792.0856125     
   2743058122.1147017        16139213.546706796        1148519355.2830942     
   2654471452.2439771        20381917.216096520        1155663712.9813218     
   3960144137.3617196       -9507876.1036152840        654916248.07528877     
   3798981061.3504705       -18285737.773843050        645541491.41410780     
   3638054126.6452947       -26276461.757171154        641384168.24244475     
   3477363333.2461815       -33480048.053623676        642444278.56030822     
   3316908681.1531391       -39896496.663164854        648721822.36769009     
   3630724368.2287807       -2935907.1297376156        781142645.41922605     
   3483625971.8608174       -9356215.3870365620        772640717.47458339     
   3336724158.6385875       -15121246.491899014        769196289.59381580     
   3190018928.5620785       -20231000.444352627        770809361.77691114     
   3043510281.6313052       -24685477.244359136        777479934.02388167     
   3303305664.3315063        4236381.4148380756        906676022.01821196     
   3169814994.9621129        36540.777052998543        899000771.60304809     
   3036481350.5781102       -3639883.2427678108        896223087.82610345     
   2903304731.1794968       -6792890.6446218491        898342970.68737531     
   2770285136.7662725       -9422481.4285098314        905360420.18686867     
   2977888025.6699076        12008989.530116916        1031516377.8722415     
   2857548130.6543617        9892530.7184259892        1024621653.7994957     
   2737325702.4638686        8167627.9902358055        1022464562.9393144     
   2617220741.0984292        6834281.3455603123        1025045105.2917050     
   2497233246.5580382        5892490.7843806744        1032363280.8566591     
   2654471452.2439771        20381917.216096520        1155663712.9813218     
   2546825378.9375639        20211754.437091708        1149503364.0639300     
   2439257214.2958636        20301287.207115412        1147920714.9334531     
   2331766958.3188758        20650515.526188374        1150915765.5898929     
   2224354611.0066023        21259439.394307613        1158488516.0332489     
   3316908681.1531391       -39896496.663164854        648721822.36769009     
   3208913404.9114022       -31981996.673116684        641275603.88524199     
   3099754384.6235156       -27946643.503563166        635317997.58365881     
   2989431620.2894835       -27790437.154490948        630849003.46293437     
   2877945111.9093037       -31513377.625924945        627868621.52306747     
   3043510281.6313052       -24685477.244359136        777479934.02388167     
   2940347112.2954559       -16832200.994002819        769410135.14122033     
   2836528531.0920348       -11163630.968873858        763582857.94523621     
   2732054538.0210590       -7679767.1689385176        759998102.43592942     
   2626925133.0825167       -6380609.5942201614        758655868.61328292     
   2770285136.7662725       -9422481.4285098314        905360420.18686867     
   2674108101.4957695       -984220.77002000809        897260095.11234546     
   2577783986.5362868        6963774.2585383654        892156201.23031282     
   2481312791.8878269        14421503.657164931        890048738.54075968     
   2384694517.5503864        21388967.425866723        890937707.04369760     
   2497233246.5580382        5892490.7843806744        1032363280.8566591     
   2410196372.5123501        15561943.998847604        1024825483.7986190     
   2323520750.9562621        26435572.178662419        1021038027.4388889     
   2237206381.8897858        38513375.323838830        1021000911.7774442     
   2151253265.3129072        51795353.434349656        1024714136.8143065     
   2224354611.0066023        21259439.394307613        1158488516.0332489     
   2148611925.3451924        32806293.312595248        1152106301.2000442     
   2073738824.3519669        47251762.791505814        1150228336.5709577     
   1999735308.0269353        64595847.831058383        1152854622.1459706     
   1926601376.3700907        84838548.431241393        1159985157.9251044     
   2877945111.9093037       -31513377.625924945        627868621.52306747     
   2674499127.2757778       -70681629.671467781        611378748.59135091     
   2467036138.0962286       -123239896.87041938        601294466.34368062     
   2255556144.3706698       -189188179.22275603        597615774.78004920     
   2040059146.0990844       -268526476.72848940        600342673.90047634     
   2626925133.0825167       -6380609.5942201614        758655868.61328292     
   2443766915.9311786       -31790786.366219163        741821773.94100308     
   2259087831.0762773       -62270522.150091887        731013123.12323272     
   2072887878.5178142       -97819816.945837617        726229916.15996897     
   1885167058.2557900       -138438670.75345290        727472153.05121267     
   2384694517.5503864        21388967.425866723        890937707.04369760     
   2220737934.0825567        9411025.7878311872        876671550.28038907     
   2057756619.7536128        683981.27941775322        868050690.54204226     
   1895750574.5635664       -4792166.0993336439        865075127.82867086     
   1734719798.5124147       -7017416.3484537601        867744862.14026701     
   2151253265.3129072        51795353.434349656        1024714136.8143065     
   2005412181.7299068        52923806.790668845        1015928077.6094931     
   1863042504.1282446        65623613.418121696        1012407168.6001165     
   1724144232.5079403        89894773.316751957        1014151409.7861660     
   1588717366.8689737        125737286.48653215        1021160801.1676497     
   1926601376.3700907        84838548.431241393        1159985157.9251044     
   1797789658.8732300        98747556.642295241        1159591355.9283268     
   1674945484.2001667        132548374.26600021        1164082557.2974358     
   1558068852.3509166        186241001.30242527        1173458762.0324471     
   1447159763.3254607        259825437.75149652        1187719970.1333454     
   3768202239.7981291        1130460671.9394388        800533767.31653941     
   3779107957.9588432        1008690444.6439571        884834523.89829063     
   3790625596.4508042        888959951.78596282        974072979.57544911     
   3802755155.2740107        771269193.36545503        1068249134.3480155     
   3815496634.4284625        655618169.38243377        1167362988.2159889     
   3207754669.7082572        962326400.91247714        756666014.27651691     
   3235872576.4801064        868201884.89977360        853049743.67505503     
   3263715146.4504876        773159579.54884291        951356139.53687859     
   3291282379.6193995        677199484.85968447        1051585201.8619887     
   3318574275.9868450        580321600.83229923        1153736930.6503839     
   2685576096.0197496        805672828.80592489        721962772.01241267     
   2722291812.4538145        736609710.39132357        829394340.90623748     
   2757844934.9536963        663671278.86278057        935733543.63122702     
   2792235463.5193958        586857534.22029614        1040980380.1873802     
   2825463398.1509137        506168476.46387070        1145134850.5746977     
   2201666518.7326055        660499955.61978161        696424040.52422643     
   2238365665.8799667        613913921.11860657        813868315.59183860     
   2273014961.9604316        560495049.72777605        927205191.85849309     
   2305614406.9739985        500243341.44728971        1036434669.3241904     
   2336164000.9206700        433158796.27714878        1141556747.9889300     
   1756025937.8468254        526807781.35404760        680049819.81195855     
   1784094136.7585635        500114517.08162320        806471667.73185790     
   1809225227.4706912        463630892.14382923        925771084.21867812     
   1831419209.9832079        417356906.54066539        1037948069.2724187     
   1850676084.2961140        361292560.27213222        1143002622.8930805     
   3815496634.4284625        655618169.38243377        1167362988.2159889     
   3797927072.2194653        537647119.49095702        1189009345.5279093     
   3784211492.8664169        432522679.11931038        1205757431.4285429     
   3774349896.3693180        340244848.26749408        1217607245.9178901     
   3768342282.7281666        260813626.93550909        1224558788.9959519     
   3318574275.9868450        580321600.83229923        1153736930.6503839     
   3293832164.5524840        473087253.34978426        1182047493.1308789     
   3272829393.5803027        378317374.07453418        1207261280.9087758     
   3255565963.0703006        296011963.00654829        1229378293.9840717     
   3242041873.0224781        226171020.14582717        1248398532.3567688     
   2825463398.1509137        506168476.46387070        1145134850.5746977     
   2798695870.9445801        411214971.42633462        1179975868.7643709     
   2775553041.8066564        328343793.28349710        1213521608.9601309     
   2756034910.7371426        257554942.03535903        1245772071.1619787     
   2740141477.7360382        198848417.68191993        1276727255.3699126     
   2336164000.9206700        433158796.27714878        1141556747.9889300     
   2312518191.3957548        352030273.72060877        1182794472.4283824     
   2292382437.5454788        282601936.74620128        1224538415.5826089     
   2275756739.3698435        224873785.35392767        1266788577.4516087     
   2262641096.8688478        178845819.54378736        1309544958.0353830     
   1850676084.2961140        361292560.27213222        1143002622.8930805     
   1835299125.9060068        295533160.23260593        1190503304.1229141     
   1823317580.7967691        241091804.46264559        1240311700.7762091     
   1814731448.9684026        197968492.96225435        1292427812.8529642     
   1809540730.4209056        166163225.73142904        1346851640.3531797     
   3768342282.7281666        260813626.93550909        1224558788.9959519     
   3661777498.2504616        168634721.43051410        1192369118.9465067     
   3562844093.8253512        101893749.43416309        1170670627.1203442     
   3471542069.4528322        60590710.946454287        1159463313.5174658     
   3387871425.1329074        44725605.967391372        1158747178.1378696     
   3242041873.0224781        226171020.14582717        1248398532.3567688     
   3165003991.2709546        152086839.28586125        1231493193.5756495     
   3093992197.3068337        98089617.717236519        1222633972.9809937     
   3029006491.1301150        64179355.439953566        1221820870.5728052     
   2970046872.7407990        50356052.454009414        1229053886.3510792     
   2740141477.7360382        198848417.68191993        1276727255.3699126     
   2685644612.8912153        140763195.72113979        1273233406.8810618     
   2635568543.5686049        97413958.834399223        1275340616.5418584     
   2589913269.7682047        68800707.021692514        1283048884.3523006     
   2548678791.4900160        54923440.283024788        1296358210.3123908     
   2262641096.8688478        178845819.54378736        1309544958.0353830     
   2223699363.1112456        134663790.73634887        1317589758.8627450     
   2187573132.6106634        99866772.785647511        1328790557.8029361     
   2154262405.3671017        74454765.691676617        1343147354.8559558     
   2123767181.3805606        58427769.454440236        1360660150.0218034     
   1809540730.4209056        166163225.73142904        1346851640.3531797     
   1779168241.9310431        133788624.33148950        1364562249.5206988     
   1750005964.4330091        105448059.57097983        1382983796.7642279     
   1722053897.9268045        81141531.449899852        1402116282.0837677     
   1695312042.4124284        60869039.968249381        1421959705.4793172     
   3387871425.1329074        44725605.967391372        1158747178.1378696     
   3294071588.8749013        37608603.755183458        1151798691.4520838     
   3200411928.8378954        30958855.612970829        1148993507.7326603     
   3106892445.0218873        24776361.540752053        1150331626.9795928     
   3013513137.4268761        19061121.538523316        1155813049.1928885     
   2970046872.7407990        50356052.454009414        1229053886.3510792     
   2886118524.7150831        39010112.251957536        1221406932.9169886     
   2802736384.5117302        29484864.791113257        1218186037.7698019     
   2719900452.1307392        21780310.071479440        1219391200.9095178     
   2637610727.5721111        15896448.093052983        1225022422.3361351     
   2548678791.4900160        54923440.283024788        1296358210.3123908     
   2475429804.0409970        39590923.794448972        1288486493.6649208     
   2403133056.0157056        27432538.718297601        1285323590.6248980     
   2331788547.4141407        18448285.054571509        1286869501.1923201     
   2261396278.2363043        12638162.803273320        1293124225.3671873     
   2123767181.3805606        58427769.454440236        1360660150.0218034     
   2062005426.8526437        39351038.382661462        1353037373.6958811     
   2001601943.3498211        24801877.394524097        1350406166.2979465     
   1942556730.8720903        14780286.490029216        1352766527.8280017     
   1884869789.4194529        9286265.6691784859        1360118458.2860434     
   1695312042.4124284        60869039.968249381        1421959705.4793172     
   1645845393.1500251        38290456.016594231        1415059573.0098677     
   1598143046.5140784        21592880.819793940        1413433764.7889490     
   1552205002.5045886        10776314.377851427        1417082280.8165624     
   1508031261.1215582        5840756.6907708645        1426005121.0927045     
   3013513137.4268761        19061121.538523316        1155813049.1928885     
   2922578964.7061534        15478815.707925677        1148594023.3888764     
   2832427292.9354300        14504846.377322793        1146162792.0856125     
   2743058122.1147017        16139213.546706796        1148519355.2830942     
   2654471452.2439771        20381917.216096520        1155663712.9813218     
   2637610727.5721111        15896448.093052983        1225022422.3361351     
   2559013764.9328575        12893275.885248780        1218404353.2513561     
   2481039513.9403501        11965809.166604161        1216355005.0463154     
   2403687974.5945854        13114047.937095881        1218874377.7210126     
   2326959146.8955655        16337992.196742892        1225962471.2754519     
   2261396278.2363043        12638162.803273320        1293124225.3671873     
   2194510601.0470719        10026346.828833580        1286920692.1478446     
   2128087846.2013302        8957605.3326984644        1285066806.1872308     
   2062128013.6990798        9431938.3148664236        1287562567.4853511     
   1996631103.5403204        11449345.775339246        1294407976.0422020     
   1884869789.4194529        9286265.6691784859        1360118458.2860434     
   1829069473.0487936        6878028.5386694670        1354143040.0783386     
   1773572289.7183704        5480234.8756133318        1352298195.5083587     
   1718378239.4281871        5092884.6800235510        1354583924.5761046     
   1663487322.1782384        5715977.9518811703        1361000227.2815750     
   1508031261.1215582        5840756.6907708645        1426005121.0927045     
   1462690380.9380233        3448321.0147544742        1420071397.0428419     
   1417492844.4914706        1533697.7953453064        1418049173.0097003     
   1372438651.7819045        96887.032558381557        1419938448.9932761     
   1327527802.8093214       -862111.27362066507        1425739224.9935696     
   2654471452.2439771        20381917.216096520        1155663712.9813218     
   2546825378.9375639        20211754.437091708        1149503364.0639300     
   2439257214.2958636        20301287.207115412        1147920714.9334531     
   2331766958.3188758        20650515.526188374        1150915765.5898929     
   2224354611.0066023        21259439.394307613        1158488516.0332489     
   2326959146.8955655        16337992.196742892        1225962471.2754519     
   2231129357.6725430        14881711.740823269        1219018106.0400403     
   2135369206.5225365        13657558.194959998        1216882286.6996074     
   2039678693.4455459        12665531.559147239        1219555013.2541502     
   1944057818.4415698        11905631.833391190        1227036285.7036743     
   1996631103.5403204        11449345.775339246        1294407976.0422020     
   1913277158.7094338        8904815.7351348400        1286669945.4651272     
   1829984581.3598676        6564843.9659919739        1283971306.8910902     
   1746753371.4916234        4429430.4679285288        1286312060.3200939     
   1663583529.1046982        2498575.2409214973        1293692205.7521386     
   1663487322.1782384        5715977.9518811703        1361000227.2815750     
   1593268782.0482395        2281066.4200209379        1352458882.3391871     
   1523103338.8078620       -976855.47976851463        1349187775.5079036     
   1452990992.4571104       -4057787.7474740744        1351186906.7877185     
   1382931742.9959791       -6961730.3831081390        1358456276.1786389     
   1327527802.8093214       -862111.27362066507        1425739224.9935696     
   1271104227.6889558       -4989536.2045230865        1416384916.6622226     
   1214725478.8665159       -8967540.1423413157        1412531692.5500453     
   1158391556.3420098       -12796123.087048769        1414179552.6570280     
   1102102460.1154275       -16475285.038674295        1421328496.9831755     
   2224354611.0066023        21259439.394307613        1158488516.0332489     
   2148611925.3451924        32806293.312595248        1152106301.2000442     
   2073738824.3519669        47251762.791505814        1150228336.5709577     
   1999735308.0269353        64595847.831058383        1152854622.1459706     
   1926601376.3700907        84838548.431241393        1159985157.9251044     
   1944057818.4415698        11905631.833391190        1227036285.7036743     
   1879103510.6017988        21752752.871718287        1221441004.7333207     
   1815007290.3691194        34460165.933679104        1220032471.7785697     
   1751769157.7435224        50027871.019255221        1222810686.8394268     
   1689389112.7250233        68455868.128481090        1229775649.9158862     
   1663583529.1046982        2498575.2409214973        1293692205.7521386     
   1608510449.9765501        10373818.666293979        1288870445.4066799     
   1554283961.3943887        21071030.578284025        1287917930.8883152     
   1500904063.3582134        34590210.976899803        1290834662.1970515     
   1448370755.8680224        50931359.862122536        1297620639.3328795     
   1382931742.9959791       -6961730.3831081390        1358456276.1786389     
   1336832743.4694383       -1330509.3036904931        1354394623.2201223     
   1291568837.4277759        7084356.7253292799        1353884713.9001913     
   1247140024.8709960        18282867.703956842        1356926548.2188530     
   1203546305.7990994        32265023.632189631        1363520126.1761038     
   1102102460.1154275       -16475285.038674295        1421328496.9831755     
   1064070391.0804639       -13360231.038237154        1418013538.1736484     
   1026861918.4692801       -7499855.6251968741        1417932820.8141987     
   990477042.28187954        1105841.2004474401        1421086344.9048331     
   954915762.51825583        12456859.438687384        1427474110.4455514     
   1926601376.3700907        84838548.431241393        1159985157.9251044     
   1797789658.8732300        98747556.642295241        1159591355.9283268     
   1674945484.2001667        132548374.26600021        1164082557.2974358     
   1558068852.3509166        186241001.30242527        1173458762.0324471     
   1447159763.3254607        259825437.75149652        1187719970.1333454     
   1689389112.7250233        68455868.128481090        1229775649.9158862     
   1571616253.7797034        75100127.500378430        1233088454.2582905     
   1456172630.1552668        89508504.608543396        1241684165.3911738     
   1343058241.8517053        111680999.45296609        1255562783.3145509     
   1232273088.8690107        141617612.03361097        1274724308.0284076     
   1448370755.8680224        50931359.862122536        1297620639.3328795     
   1342773622.4016631        50651930.473122478        1300395357.9277210     
   1235867416.7532496        46008927.143940985        1308850886.7376351     
   1127652138.9227846        37002349.874583960        1322987225.7626307     
   1018127788.9102613        23632198.665035665        1342804375.0026939     
   1203546305.7990994        32265023.632189631        1363520126.1761038     
   1111261764.7391007        25402965.560502410        1361512066.9366271     
   1014029843.9941205        2049641.8722067475        1365582721.3368115     
   911850543.56414950       -37794947.432707429        1375732089.3766737     
   804723863.44920230       -94130802.354229331        1391960171.0561929     
   954915762.51825583        12456859.438687384        1427474110.4455514     
   877080680.79201949       -646767.23747324944        1416438581.2850080     
   790659911.87787294       -42369351.206666172        1411879669.1887181     
   695653455.77581310       -112710892.46890327        1413797374.1566918     
   592061312.48583651       -211671391.02419296        1422191696.1889176     
   1756025937.8468254        526807781.35404760        680049819.81195855     
   1784094136.7585635        500114517.08162320        806471667.73185790     
   1809225227.4706912        463630892.14382923        925771084.21867812     
   1831419209.9832079        417356906.54066539        1037948069.2724187     
   1850676084.2961140        361292560.27213222        1143002622.8930805     
   1326397483.3031490        397919244.99094468        669730140.30661500     
   1339616201.1032500        375544429.55053580        791882283.56634259     
   1350634562.5104797        345835092.80055583        908737615.36588645     
   1359452567.5248380        308791234.74100459        1020296135.7052464     
   1366070216.1463251        264412855.37188265        1126557844.5844223     
   890524285.04231632        267157285.51269490        662355032.43920147     
   894109578.79619539        250665736.02392632        781097014.81328678     
   896231267.96394277        229295504.58138499        896367805.70008409     
   896889352.54555809        203046591.18507081        1008167405.0995924     
   896083832.54104173        171918995.83498412        1116495813.0118124     
   448406343.06432712        134521902.91929814        657924496.20971823     
   447574269.83739978        125478436.50179446        774115861.47269058     
   446015343.83108008        114012127.48631653        888661655.22127056     
   443729565.04536813        100122975.87286423        1001561877.4554570     
   440716933.48026377        83810981.661437839        1112816528.1752503     
   43657.369181595765        13097.210754478729        656438531.61816514     
   10274.226863118702       -17469.015859616848        770938823.54455447     
  -13209.888108132731       -15038.484649887219        885619163.92944610     
  -26794.975732161394        20388.804384135135        1000479552.7728404     
  -30481.036008947285        88812.851242300094        1115519990.0747364     
   1850676084.2961140        361292560.27213222        1143002622.8930805     
   1835299125.9060068        295533160.23260593        1190503304.1229141     
   1823317580.7967691        241091804.46264559        1240311700.7762091     
   1814731448.9684026        197968492.96225435        1292427812.8529642     
   1809540730.4209056        166163225.73142904        1346851640.3531797     
   1366070216.1463251        264412855.37188265        1126557844.5844223     
   1360384841.5378027        216860946.93808743        1181957488.2670283     
   1357240951.6107213        177780654.10909581        1238302752.1414547     
   1356638546.3650799        147171976.88490391        1295593636.2077022     
   1358577625.8008797        125034915.26551569        1353830140.4657707     
   896083832.54104173        171918995.83498412        1116495813.0118124     
   896198341.05227709        141407068.80837321        1178798169.1145225     
   898000405.64552331        116520328.72179899        1240684050.1774132     
   901490026.32078087        97258775.575262159        1302153456.2004855     
   906667203.07804906        83622409.368761152        1363206387.1837385     
   440716933.48026377        83810981.661437839        1112816528.1752503     
   442739624.44942886        69171525.843461856        1181025346.6653962     
   445595942.90117550        57310828.300757647        1247455594.8840837     
   449285888.83550400        48228889.033326328        1312107272.8313131     
   453809462.25241369        41925708.041165918        1374980380.5070825     
  -30481.036008947285        88812.851242300094        1115519990.0747364     
   8691.7292587267439        154318.04335412459        1188639020.9196506     
   27563.377678179615        152152.84597231227        1258617386.2614667     
   26133.909249721582        82317.259097333459        1325455086.1001844     
   4403.3239726849606       -55188.717273080794        1389152120.4358039     
   1809540730.4209056        166163225.73142904        1346851640.3531797     
   1779168241.9310431        133788624.33148950        1364562249.5206988     
   1750005964.4330091        105448059.57097983        1382983796.7642279     
   1722053897.9268045        81141531.449899852        1402116282.0837677     
   1695312042.4124284        60869039.968249381        1421959705.4793172     
   1358577625.8008797        125034915.26551569        1353830140.4657707     
   1333050074.0253789        99917957.254822016        1372770803.3906934     
   1308449230.7368464        77890027.534021795        1393052561.8531368     
   1284775095.9352801        58951126.103109419        1414675415.8530996     
   1262027669.6206822        43101252.962091506        1437639365.3905816     
   906667203.07804906        83622409.368761152        1363206387.1837385     
   887785037.90693796        66303229.714324862        1383046350.9437270     
   869546078.71793163        51128070.000239134        1404857567.7027445     
   851950325.51103044        38096930.226503283        1428640037.4607906     
   834997778.28623533        27209810.393121630        1454393760.2178659     
   453809462.25241369        41925708.041165918        1374980380.5070825     
   443373133.57571673        32944441.709990248        1395388892.1797984     
   433296508.37626433        25162186.969628632        1418398814.3130517     
   423579586.65405524        18578943.820078954        1444010146.9068425     
   414222368.40908957        13194712.261340469        1472222889.9611721     
   4403.3239726849606       -55188.717273080794        1389152120.4358039     
  -185638.96828127844       -158406.75817404618        1409798427.0989070     
  -299480.28815425962       -7621.5578048973694        1433676301.6840570     
  -337120.63564554090        397166.88383632433        1460785744.1912551     
  -298560.01075423288        1055958.5667531905        1491126754.6204991     
   1695312042.4124284        60869039.968249381        1421959705.4793172     
   1645845393.1500251        38290456.016594231        1415059573.0098677     
   1598143046.5140784        21592880.819793940        1413433764.7889490     
   1552205002.5045886        10776314.377851427        1417082280.8165624     
   1508031261.1215582        5840756.6907708645        1426005121.0927045     
   1262027669.6206822        43101252.962091506        1437639365.3905816     
   1227460990.5708547        27070723.754989564        1434412063.5885241     
   1194186363.3117440        15347033.850278676        1435860863.5296347     
   1162203787.8433502        7930183.2479548454        1441985765.2139144     
   1131513264.1656718        4820171.9480163455        1452786768.6413655     
   834997778.28623533        27209810.393121630        1454393760.2178659     
   813621862.29080677        17214573.783120841        1454288329.7748363     
   793065747.25035501        9952007.0230419040        1458260778.5696151     
   773329433.16487896        5422110.1128826141        1466311106.6022003     
   754412920.03437960        3624883.0526449680        1478439313.8725913     
   414222368.40908957        13194712.261340469        1472222889.9611721     
   404328008.30988282        8722006.1009888649        1474688371.5688069     
   394781198.32991278        5407800.3380934149        1480633509.9088864     
   385581938.46917528        3252094.9726393968        1490058304.9814124     
   376730228.72767562        2254890.0046467483        1502962756.7863810     
  -298560.01075423288        1055958.5667531905        1491126754.6204991     
  -420571.37191770412        1593020.7085939327        1495612188.9704344     
  -667283.44958407874        1714413.7954260381        1502979057.5474529     
  -1038696.2437569478        1420137.8272361476        1513227360.3515534     
  -1534809.7544345963        710192.80402997986        1526357097.3827376     
   1508031261.1215582        5840756.6907708645        1426005121.0927045     
   1462690380.9380233        3448321.0147544742        1420071397.0428419     
   1417492844.4914706        1533697.7953453064        1418049173.0097003     
   1372438651.7819045        96887.032558381557        1419938448.9932761     
   1327527802.8093214       -862111.27362066507        1425739224.9935696     
   1131513264.1656718        4820171.9480163455        1452786768.6413655     
   1096661039.4629350        2607044.4291430116        1446906203.7970102     
   1061931308.5223879        802229.45090258121        1445140956.6541281     
   1027324071.3440331       -594272.98669570684        1447491027.2127264     
   992839327.92786956       -1582462.8836595416        1453956415.4728041     
   754412920.03437960        3624883.0526449680        1478439313.8725913     
   730631687.05460608        1765764.5635594428        1472587583.2631478     
   706952097.86223125        245458.69913488626        1471054988.0399408     
   683374152.45725632       -936034.54062306881        1473841528.2029698     
   659897850.83967972       -1778715.1557198465        1480947203.7522371     
   376730228.72767562        2254890.0046467483        1502962756.7863810     
   364602323.71303540        924481.41800077260        1497115535.4412606     
   352555212.51100153       -136614.45995664597        1495791267.1671364     
   340588895.12157506       -928397.62922087312        1498989951.9640071     
   328703371.54475504       -1450868.0898005813        1506711589.8318725     
  -1534809.7544345963        710192.80402997986        1526357097.3827376     
  -1427050.5617738904        83194.992476359766        1520490060.3313496     
  -1259347.5312996604       -343990.02636586054        1519349794.0357141     
  -1031700.6630086586       -571362.25248602685        1522936298.4958332     
  -744109.95690587093       -598921.68589885370        1531249573.7117078     
   1327527802.8093214       -862111.27362066507        1425739224.9935696     
   1271104227.6889558       -4989536.2045230865        1416384916.6622226     
   1214725478.8665159       -8967540.1423413157        1412531692.5500453     
   1158391556.3420098       -12796123.087048769        1414179552.6570280     
   1102102460.1154275       -16475285.038674295        1421328496.9831755     
   992839327.92786956       -1582462.8836595416        1453956415.4728041     
   950970448.14287114       -4435396.8746359944        1445252875.6945102     
   909210171.39785910       -6926320.7323255539        1441950057.8919680     
   867558497.69283211       -9055234.4567312002        1444047962.0651782     
   826015427.02779031       -10822138.047853172        1451546588.2141390     
   659897850.83967972       -1778715.1557198465        1480947203.7522371     
   632296917.12315333       -3443182.9868438840        1472968838.7260647     
   604868363.18867016       -4533051.5444893539        1470290833.4322314     
   577612189.03623486       -5048320.8286428452        1472913187.8707347     
   550528394.66584265       -4988990.8393186331        1480835902.0415795     
   328703371.54475504       -1450868.0898005813        1506711589.8318725     
   315083634.62980735       -2012894.5411343277        1499532805.7568889     
   301700054.23896128       -1787732.5787958056        1497554019.1708317     
   288552630.37221861       -775382.20278011262        1500775230.0737011     
   275641363.02957970        1024156.5869164020        1509196438.4654961     
  -744109.95690587093       -598921.68589885370        1531249573.7117078     
  -669399.33717140218       -144531.53751962213        1524944776.7869833     
  -294755.45127692795        1309636.1647256007        1523739615.1077724     
   379821.70078472339        3763581.4208622817        1527634088.6740720     
   1354332.1190064945        7217304.2308649877        1536628197.4858842     
   1102102460.1154275       -16475285.038674295        1421328496.9831755     
   1064070391.0804639       -13360231.038237154        1418013538.1736484     
   1026861918.4692801       -7499855.6251968741        1417932820.8141987     
   990477042.28187954        1105841.2004474401        1421086344.9048331     
   954915762.51825583        12456859.438687384        1427474110.4455514     
   826015427.02779031       -10822138.047853172        1451546588.2141390     
   796471428.06652534       -8449712.8056104481        1449182339.2298524     
   767174611.11289322       -5253347.5379225612        1450284509.3348334     
   738124976.16690147       -1233042.2447664440        1454853098.5290849     
   709322523.22853792        3611203.0738117993        1462888106.8126047     
   550528394.66584265       -4988990.8393186331        1480835902.0415795     
   530135830.46166313       -3160184.9502691627        1478749879.3970330     
   509414033.84897715       -2428820.4229069650        1480362453.4809420     
   488363004.82777828       -2794897.2572537959        1485673624.2933087     
   466982743.39807522       -4258415.4532838762        1494683391.8341327     
   275641363.02957970        1024156.5869164020        1509196438.4654961     
   265063598.26588383        2508352.5278077871        1506716158.6751869     
   253580186.67752954        973725.71983918548        1508166653.2525239     
   241191128.26452288       -3579723.8369692117        1513547922.1975040     
   227896423.02686793       -11151996.142607898        1522859965.5101299     
   1354332.1190064945        7217304.2308649877        1536628197.4858842     
   1254731.4791786924        8555899.6285919920        1533081177.0643177     
  -326930.40144102927        4954290.8903459311        1533697108.6495783     
  -3390653.5228673103       -3587521.9839223404        1538475992.2416728     
  -7936437.8850809354       -17069538.994147733        1547417827.8405974     
   954915762.51825583        12456859.438687384        1427474110.4455514     
   877080680.79201949       -646767.23747324944        1416438581.2850080     
   790659911.87787294       -42369351.206666172        1411879669.1887181     
   695653455.77581310       -112710892.46890327        1413797374.1566918     
   592061312.48583651       -211671391.02419296        1422191696.1889176     
   709322523.22853792        3611203.0738117993        1462888106.8126047     
   649542856.97624958       -6841375.1900433600        1445691564.8916454     
   585557551.84494507       -31312749.717291325        1435295406.6373954     
   517366607.83461642       -69802920.507955998        1431699632.0498548     
   444970024.94526607       -122311887.56202057        1434904241.1290298     
   466982743.39807522       -4258415.4532838762        1494683391.8341327     
   426183540.05530959       -11782431.074167818        1476435893.5131350     
   385558746.14241534       -18725081.928813681        1465312545.4613013     
   345108361.65939420       -25086368.017219722        1461313347.6786199     
   304832386.60624385       -30866289.339383692        1464438300.1651042     
   227896423.02686793       -11151996.142607898        1522859965.5101299     
   207002730.02919805       -15469934.889845386        1508671567.1494703     
   190663494.77029002       -4606347.8412097022        1501931085.6604226     
   178878717.25014508        21438765.003303498        1502638521.0429804     
   171648397.46877000        62665403.643717661        1510793873.2971501     
  -7936437.8850809354       -17069538.994147733        1547417827.8405974     
  -7999573.1020847466       -17903886.637074333        1542398585.8006494     
   871797.72856723750        11043452.545518385        1545151027.2347596     
   18677674.606874928        69772478.553632900        1555675152.1429360     
   45418057.532844730        158283191.38728359        1573970960.5251720     
   43657.369181595765        13097.210754478729        656438531.61816514     
   10274.226863118702       -17469.015859616848        770938823.54455447     
  -13209.888108132731       -15038.484649887219        885619163.92944610     
  -26794.975732161394        20388.804384135135        1000479552.7728404     
  -30481.036008947285        88812.851242300094        1115519990.0747364     
  -448323908.29049432       -134497172.48714831        657903772.32654524     
  -447547210.13870329       -125489933.03838894        774111324.20765996     
  -446032437.14454901       -114022444.11508627        888676319.62373161     
  -443779589.30803180       -100094705.71724033        1001598758.5747613     
  -440788666.62915194       -83706717.844851866        1112878641.0607474     
  -890456490.16207469       -267136947.04862243        662326851.99686122     
  -894077153.35487378       -250654134.71609935        781091202.28355289     
  -896231565.89029431       -229283820.19231400        896390391.18165648     
  -896919727.76833630       -203026003.47726667        1008224418.6911726     
  -896141638.98899913       -171880684.57095668        1116593284.8121014     
  -1326354088.2455592       -397906226.47366780        669707770.62911332     
  -1339579555.4216490       -375510074.04899114        791878457.77223349     
  -1350610596.1253440       -345799166.71633309        908761378.60322070     
  -1359447210.3566446       -308773504.47569376        1020356533.1220756     
  -1366089398.1155510       -264433087.32707298        1126663921.3287976     
  -1756016702.5409482       -526805010.76228446        680046528.22330129     
  -1784054416.3390281       -500057751.03706431        806473090.67370164     
  -1809169527.8496983       -463568483.68714356        925789281.88842416     
  -1831362037.0729580       -417337208.71252275        1037995101.8674693     
  -1850631944.0088077       -361363926.11320126        1143090550.6108363     
  -30481.036008947285        88812.851242300094        1115519990.0747364     
   8691.7292587267439        154318.04335412459        1188639020.9196506     
   27563.377678179615        152152.84597231227        1258617386.2614667     
   26133.909249721582        82317.259097333459        1325455086.1001844     
   4403.3239726849606       -55188.717273080794        1389152120.4358039     
  -440788666.62915194       -83706717.844851866        1112878641.0607474     
  -442750663.54226512       -68985296.059190676        1181057531.8851392     
  -445569871.69936526       -57121245.086819202        1247455592.3230557     
  -449246291.10045314       -48114564.927739769        1312072822.3744969     
  -453779921.74552804       -41965255.581951380        1374909222.0394623     
  -896141638.98899913       -171880684.57095668        1116593284.8121014     
  -896219562.39014256       -141337773.23464155        1178855640.4676416     
  -897991607.16241169       -116441933.13541284        1240697000.8533297     
  -901457773.30580699       -97193164.273271799        1302117365.9691653     
  -906618060.82032943       -83591466.648218751        1363116735.8151476     
  -1366089398.1155510       -264433087.32707298        1126663921.3287976     
  -1360398004.8143728       -216903113.48299769        1182033346.6671576     
  -1357237643.0114613       -177809911.29980806        1238341611.8522882     
  -1356608312.7068131       -147153480.77749962        1295588716.8841898     
  -1358510013.9004309       -124933821.91607678        1353774661.7628608     
  -1850631944.0088077       -361363926.11320126        1143090550.6108363     
  -1835285990.8149576       -295681316.80426157        1190590650.4836874     
  -1823307979.2465117       -241225179.58000135        1240389425.3199322     
  -1814697909.3034701       -197995514.44042248        1292486875.1195698     
  -1809455780.9858336       -165992321.38552588        1346882999.8826008     
   4403.3239726849606       -55188.717273080794        1389152120.4358039     
  -185638.96828127844       -158406.75817404618        1409798427.0989070     
  -299480.28815425962       -7621.5578048973694        1433676301.6840570     
  -337120.63564554090        397166.88383632433        1460785744.1912551     
  -298560.01075423288        1055958.5667531905        1491126754.6204991     
  -453779921.74552804       -41965255.581951380        1374909222.0394623     
  -443679381.82679480       -33134338.527182892        1395469500.2697978     
  -433848208.76967597       -25201311.011129007        1418652319.5644605     
  -424286402.57417148       -18166173.033791095        1444457679.9234490     
  -414993963.24028325       -12028924.595171526        1472885581.3467667     
  -906618060.82032943       -83591466.648218751        1363116735.8151476     
  -887967015.42695045       -66348437.518681049        1383187823.1397188     
  -869930904.72918272       -51155190.707846940        1405272424.6708982     
  -852509728.72702718       -38011726.215719968        1429370540.4086833     
  -835703487.42048240       -26918044.042296410        1455482170.3530760     
  -1358510013.9004309       -124933821.91607678        1353774661.7628608     
  -1333048539.7687488       -99800703.732671142        1372953395.7086723     
  -1308547568.1666763       -77869260.647962511        1393536617.0033705     
  -1285007099.0942106       -59139492.661944211        1415524325.6469562     
  -1262427132.5513544       -43611399.774624407        1438916521.6394305     
  -1809455780.9858336       -165992321.38552588        1346882999.8826008     
  -1778923954.8521924       -133491137.16915929        1364766217.9766557     
  -1749698199.0821550       -105343520.83147144        1383444896.5618784     
  -1721778513.6757231       -81549472.372469485        1402919035.6382682     
  -1695164898.6328967       -62108991.792150140        1423188635.2058251     
  -298560.01075423288        1055958.5667531905        1491126754.6204991     
  -420571.37191770412        1593020.7085939327        1495612188.9704344     
  -667283.44958407874        1714413.7954260381        1502979057.5474529     
  -1038696.2437569478        1420137.8272361476        1513227360.3515534     
  -1534809.7544345963        710192.80402997986        1526357097.3827376     
  -414993963.24028325       -12028924.595171526        1472885581.3467667     
  -405425025.34709644       -7014552.7191220075        1475215923.9537354     
  -396381770.78813714       -3752458.6238309592        1481086183.3598418     
  -387864199.56340230       -2242642.3092879355        1490496359.5650859     
  -379872311.67289674       -2485103.7755092680        1503446452.5694714     
  -835703487.42048240       -26918044.042296410        1455482170.3530760     
  -814562221.49564445       -16861948.798852861        1455189608.1630692     
  -794347621.52275431       -9894740.0619021356        1459095445.3442566     
  -775059687.50181246       -6016417.8314456046        1467199681.8966379     
  -756698419.43281901       -5226982.1074840128        1479502317.8202155     
  -1262427132.5513544       -43611399.774624407        1438916521.6394305     
  -1227832159.8175607       -27949167.530592084        1435533241.5984378     
  -1194564835.6534381       -16712430.518795788        1437006843.5006969     
  -1162625160.0589845       -9901188.7392314076        1443337327.3462074     
  -1132013133.0341995       -7515442.1918950081        1454524693.1349666     
  -1695164898.6328967       -62108991.792150140        1423188635.2058251     
  -1645234840.3128462       -40276208.914343774        1416246824.2598410     
  -1597033413.1801858       -24205529.994505346        1414820377.8291628     
  -1550560617.2349179       -13896955.032640696        1418909295.9137924     
  -1505816452.4770408       -9350484.0287474990        1428513578.5137274     
  -1534809.7544345963        710192.80402997986        1526357097.3827376     
  -1427050.5617738904        83194.992476359766        1520490060.3313496     
  -1259347.5312996604       -343990.02636586054        1519349794.0357141     
  -1031700.6630086586       -571362.25248602685        1522936298.4958332     
  -744109.95690587093       -598921.68589885370        1531249573.7117078     
  -379872311.67289674       -2485103.7755092680        1503446452.5694714     
  -367521934.84380960       -2185042.3179216534        1498030739.3750665     
  -355150285.94935417       -1814073.9757752866        1497091716.8523560     
  -342757364.98953384       -1372198.7490781844        1500629385.0013425     
  -330343171.96434557       -859416.63782270253        1508643743.8220234     
  -756698419.43281901       -5226982.1074840128        1479502317.8202155     
  -732819939.49318576       -4214215.7385221720        1474492811.4149370     
  -708958859.26063299       -3259448.3931605220        1473709915.5972950     
  -685115178.73516059       -2362680.0714025795        1477153630.3672936     
  -661288897.91676819       -1523910.7732430696        1484823955.7249262     
  -1132013133.0341995       -7515442.1918950081        1454524693.1349666     
  -1097321064.5099025       -6004325.2693263888        1449876276.4509616     
  -1062685067.4651321       -4680113.2785143256        1449204390.2705350     
  -1028105141.8998877       -3542806.2194529176        1452509034.5936863     
  -993581287.81417274       -2592404.0921572447        1459790209.4204187     
  -1505816452.4770408       -9350484.0287474990        1428513578.5137274     
  -1461025309.8939593       -7555370.9103300571        1424181134.4831393     
  -1416328910.5628505       -6076068.6318233609        1423575140.8720708     
  -1371727254.4837193       -4912577.1932427287        1426695597.6805241     
  -1327220341.6565595       -4064896.5945660472        1433542504.9085004     
  -744109.95690587093       -598921.68589885370        1531249573.7117078     
  -669399.33717140218       -144531.53751962213        1524944776.7869833     
  -294755.45127692795        1309636.1647256007        1523739615.1077724     
   379821.70078472339        3763581.4208622817        1527634088.6740720     
   1354332.1190064945        7217304.2308649877        1536628197.4858842     
  -330343171.96434557       -859416.63782270253        1508643743.8220234     
  -316703607.93950307        173783.85364000499        1502139769.0929799     
  -302984564.05894154        1471917.1975006312        1500837090.1201022     
  -289186040.32266557        3034983.3937423974        1504735706.9033928     
  -275308036.73067319        4862982.4423721135        1513835619.4428494     
  -661288897.91676819       -1523910.7732430696        1484823955.7249262     
  -633794021.88494563        175237.64186888933        1477863607.5460441     
  -606440119.40785003        1404474.2078892291        1476206215.6339827     
  -579227190.48548484        2163798.9248084724        1479851779.9887428     
  -552155235.11784756        2453211.7926357687        1488800300.6103265     
  -993581287.81417274       -2592404.0921572447        1459790209.4204187     
  -951940641.17349815       -140170.17283648252        1452116292.1461763     
  -910661421.49799705        1107307.1959061623        1449846991.6494098     
  -869743628.78767359        1150028.0140586495        1452982307.9301205     
  -829187263.04252052       -12007.718359291553        1461522240.9883096     
  -1327220341.6565595       -4064896.5945660472        1433542504.9085004     
  -1271143465.8051615       -772439.59047347307        1424897822.8933768     
  -1215648470.3293831        580416.16155642271        1421759418.1663871     
  -1160735355.2292264       -6329.3384890556335        1424127290.7275288     
  -1106404120.5046878       -2532676.0905925632        1432001440.5768018     
   1354332.1190064945        7217304.2308649877        1536628197.4858842     
   1254731.4791786924        8555899.6285919920        1533081177.0643177     
  -326930.40144102927        4954290.8903459311        1533697108.6495783     
  -3390653.5228673103       -3587521.9839223404        1538475992.2416728     
  -7936437.8850809354       -17069538.994147733        1547417827.8405974     
  -275308036.73067319        4862982.4423721135        1513835619.4428494     
  -265313411.78627241        4388559.2869901359        1508804181.7573664     
  -256148206.44028646        1149404.1368906945        1507792969.8728662     
  -247812420.69270882       -4854483.0079022199        1510801983.7893519     
  -240306054.54353455       -13623102.147373371        1517831223.5068240     
  -552155235.11784756        2453211.7926357687        1488800300.6103265     
  -532474173.74878597        43433.336250364780        1483045860.9103758     
  -512969890.33574581       -2955604.9735391438        1481168920.8055656     
  -493642384.87872803       -6543903.1367388368        1483169480.2958946     
  -474491657.37772930       -10721461.153334647        1489047539.3813601     
  -829187263.04252052       -12007.718359291553        1461522240.9883096     
  -800227554.40835345       -4479478.2235959470        1455806214.5233469     
  -770791982.08782375       -7360736.4409593344        1453824961.4476786     
  -740880546.08092296       -8655782.3704197705        1455578481.7613015     
  -710493246.38766384       -8364616.0120179057        1461066775.4642181     
  -1106404120.5046878       -2532676.0905925632        1432001440.5768018     
  -1068573553.7649778       -9180175.3925627470        1427085242.5962799     
  -1029614481.6965177       -12065990.265362740        1425761091.7992032     
  -989526904.29930127       -11190120.708975375        1428028988.1855729     
  -948310821.57333112       -6552566.7234109640        1433888931.7553914     
  -7936437.8850809354       -17069538.994147733        1547417827.8405974     
  -7999573.1020847466       -17903886.637074333        1542398585.8006494     
   871797.72856723750        11043452.545518385        1545151027.2347596     
   18677674.606874928        69772478.553632900        1555675152.1429360     
   45418057.532844730        158283191.38728359        1573970960.5251720     
  -240306054.54353455       -13623102.147373371        1517831223.5068240     
  -219980957.44202015       -12168079.247679390        1520130881.4745426     
  -194621151.01452202        6069308.0719572157        1529813795.3187606     
  -164226635.26104692        41089059.811522968        1546879965.0394876     
  -128797410.18158829        92891175.971029192        1571329390.6367102     
  -474491657.37772930       -10721461.153334647        1489047539.3813601     
  -434888121.09357268       -7310005.6517629325        1494116334.5147901     
  -394149672.20511270       -115508.13584771752        1506179957.9271653     
  -352276310.71234936        10862031.394405499        1525238409.6184828     
  -309268036.61528504        25622612.939008936        1551291689.5887480     
  -710493246.38766384       -8364616.0120179057        1461066775.4642181     
  -652721064.05674362       -3329665.8493286669        1464354944.9214027     
  -597713765.84320474       -7510996.0779097378        1474249515.0599699     
  -545471351.74703789       -20908606.697724491        1490750485.8799160     
  -495993821.76824224       -43522497.708792716        1513857857.3812606     
  -948310821.57333112       -6552566.7234109640        1433888931.7553914     
  -873479786.33153486       -227059.84038048983        1430846712.6943696     
  -805313431.92879736       -16117155.754214466        1434022466.7171764     
  -743811758.36510956       -54222854.464882463        1443416193.8238106     
  -688974765.64047325       -114544155.97238323        1459027894.0142643     
  -1756016702.5409482       -526805010.76228446        680046528.22330129     
  -1784054416.3390281       -500057751.03706431        806473090.67370164     
  -1809169527.8496983       -463568483.68714356        925789281.88842416     
  -1831362037.0729580       -417337208.71252275        1037995101.8674693     
  -1850631944.0088077       -361363926.11320126        1143090550.6108363     
  -2201688408.6685224       -660506522.60055673        696441986.13478875     
  -2238335457.7767873       -613876188.81927884        813879689.56314397     
  -2272942488.5755396       -560445794.00629067        927216796.89871383     
  -2305509501.0647779       -500215338.16159248        1036453308.1414979     
  -2336036495.2445049       -433184821.28518414        1141589223.2914963     
  -2685613282.2485623       -805683984.67456877        721993005.71893919     
  -2722270309.1158919       -736590769.57189691        829412168.81770289     
  -2757769901.6516051       -663639440.03050506        935740510.96657300     
  -2792112059.8557029       -586829996.05039334        1040978032.1655495     
  -2825296783.7281847       -506162437.63156158        1145124732.4146335     
  -3207791323.2810674       -962337396.98432016        756699586.97575259     
  -3235858970.3563409       -868201493.29491842        853070528.43737781     
  -3263651767.0778966       -773149421.75978732        951360424.09200227     
  -3291169713.4457321       -677181182.37892568        1051569273.9396250     
  -3318412809.4598494       -580296775.15233469        1153697077.9802468     
  -3768222531.7660394       -1130466759.5298119        800561729.90522909     
  -3779101441.4981360       -1008708359.9883440        884854768.42216969     
  -3790588084.8544126       -888975739.19413686        974076536.27500105     
  -3802682461.8348660       -771268897.14718962        1068227033.4637234     
  -3815384572.4394975       -655587833.84750307        1167306259.9883366     
  -1850631944.0088077       -361363926.11320126        1143090550.6108363     
  -1835285990.8149576       -295681316.80426157        1190590650.4836874     
  -1823307979.2465117       -241225179.58000135        1240389425.3199322     
  -1814697909.3034701       -197995514.44042248        1292486875.1195698     
  -1809455780.9858336       -165992321.38552588        1346882999.8826008     
  -2336036495.2445049       -433184821.28518414        1141589223.2914963     
  -2312437961.6137357       -352114190.68265069        1182839815.8810291     
  -2292328376.8091979       -282673389.50088805        1224588790.4678152     
  -2275707740.8308926       -224862417.73989946        1266836147.0518551     
  -2262576053.6788187       -178681275.39968204        1309581885.6331477     
  -2825296783.7281847       -506162437.63156158        1145124732.4146335     
  -2798589363.8494673       -411246893.99212593        1179984642.6532152     
  -2775491899.9978099       -328364537.10955346        1213542641.9229112     
  -2756004392.1732111       -257515366.98384511        1245798730.2237210     
  -2740126840.3756704       -198699383.61499870        1276752907.5556445     
  -3318412809.4598494       -580296775.15233469        1153697077.9802468     
  -3293740197.5221548       -473079426.73268771        1182025130.8002462     
  -3272798548.8123469       -378298622.40599692        1207250979.6852198     
  -3255587863.3304257       -295954362.17225945        1229374624.6351678     
  -3242108141.0763893       -226046646.03147411        1248396065.6500893     
  -3815384572.4394975       -655587833.84750307        1167306259.9883366     
  -3797890462.6317968       -537611788.90433681        1188961280.3221216     
  -3784248323.2528090       -432475645.39021552        1205713803.7547414     
  -3774458154.3025355       -340179403.30514228        1217563830.2861950     
  -3768519955.7809749       -260723062.64911151        1224511359.9164836     
  -1809455780.9858336       -165992321.38552588        1346882999.8826008     
  -1778923954.8521924       -133491137.16915929        1364766217.9766557     
  -1749698199.0821550       -105343520.83147144        1383444896.5618784     
  -1721778513.6757231       -81549472.372469485        1402919035.6382682     
  -1695164898.6328967       -62108991.792150140        1423188635.2058251     
  -2262576053.6788187       -178681275.39968204        1309581885.6331477     
  -2223293844.3270407       -134337928.93419993        1317667225.2617626     
  -2186907050.4575882       -99645967.409800649        1328955361.7402885     
  -2153415672.0704608       -74605390.826488614        1343446295.0687268     
  -2122819709.1656587       -59216199.184259176        1361140025.2470751     
  -2740126840.3756704       -198699383.61499870        1276752907.5556445     
  -2685216143.9236298       -140450443.73576367        1273186132.7469773     
  -2634790208.0726352       -97150705.860013843        1275229491.1469660     
  -2588849032.8226862       -68800169.987752318        1282882982.7556105     
  -2547392618.1737833       -55398836.118977666        1296146607.5729101     
  -3242108141.0763893       -226046646.03147411        1248396065.6500893     
  -3164690853.6419597       -151828681.57384825        1231322940.4322999     
  -3093347671.9272962       -97857736.182111144        1222267284.7819111     
  -3028078595.9324002       -64133809.856263638        1221229098.6989214     
  -2968883625.6572695       -50656902.596304417        1228208382.1833327     
  -3768519955.7809749       -260723062.64911151        1224511359.9164836     
  -3661717973.4820313       -168472642.44845748        1192077648.3177311     
  -3562579442.0215716       -101767058.37609255        1170068742.6451237     
  -3471104361.3996000       -60606310.432020187        1158484642.8986590     
  -3387292731.6161184       -44990398.616238832        1157325349.0783396     
  -1695164898.6328967       -62108991.792150140        1423188635.2058251     
  -1645234840.3128462       -40276208.914343774        1416246824.2598410     
  -1597033413.1801858       -24205529.994505346        1414820377.8291628     
  -1550560617.2349179       -13896955.032640696        1418909295.9137924     
  -1505816452.4770408       -9350484.0287474990        1428513578.5137274     
  -2122819709.1656587       -59216199.184259176        1361140025.2470751     
  -2060072289.3006248       -40453098.023737192        1353313961.9877577     
  -1998564527.0761933       -25822188.998555183        1350540431.1824932     
  -1938296422.4923644       -15323472.108716369        1352819432.8312826     
  -1879267975.5491371       -8956947.3542172909        1360150966.9341254     
  -2547392618.1737833       -55398836.118977666        1296146607.5729101     
  -2473150214.0816326       -40102129.871101737        1288006761.1381805     
  -2399658494.0832958       -27307703.935934901        1284456615.0962510     
  -2326917458.1787720       -17015558.313479424        1285496169.4471216     
  -2254927106.3680611       -9225693.0037361383        1291125424.1907930     
  -2968883625.6572695       -50656902.596304417        1228208382.1833327     
  -2884468614.6558671       -39223304.456431508        1220325221.7111094     
  -2800315314.2014914       -28662074.806641817        1216568929.5704343     
  -2716423724.2941375       -18973213.646930456        1216939505.7613056     
  -2632793844.9338093       -10156720.977302551        1221436950.2837267     
  -3387292731.6161184       -44990398.616238832        1157325349.0783396     
  -3294027491.0233321       -37816621.779731989        1150269343.7065446     
  -3200534987.4307814       -29885301.610674858        1146877374.6050451     
  -3106815220.8384647       -21196438.109072566        1147149441.7738395     
  -3012868191.2463841       -11750031.274917126        1151085545.2129283     
  -1505816452.4770408       -9350484.0287474990        1428513578.5137274     
  -1461025309.8939593       -7555370.9103300571        1424181134.4831393     
  -1416328910.5628505       -6076068.6318233609        1423575140.8720708     
  -1371727254.4837193       -4912577.1932427287        1426695597.6805241     
  -1327220341.6565595       -4064896.5945660472        1433542504.9085004     
  -1879267975.5491371       -8956947.3542172909        1360150966.9341254     
  -1824047902.6703093       -6150847.4783171415        1354951784.8105681     
  -1769182400.2778740       -4526649.2237200737        1353815101.7047963     
  -1714671468.3718286       -4084352.5904250145        1356740917.6168115     
  -1660515106.9521799       -4823957.5784519911        1363729232.5466132     
  -2254927106.3680611       -9225693.0037361383        1291125424.1907930     
  -2188317964.3412986       -5120564.7146923542        1284756372.2007766     
  -2122323220.0353451       -3063428.8283462524        1282785867.8268125     
  -2056942873.4502020       -3054285.3446984291        1285213911.0689018     
  -1992176924.5858698       -5093134.2637554407        1292040501.9270446     
  -2632793844.9338093       -10156720.977302551        1221436950.2837267     
  -2553835494.9069228       -4464522.6194564104        1213594896.6537642     
  -2475751369.8352652       -1686407.4457027912        1210487439.2381232     
  -2398541469.7188368       -1822375.4560459852        1212114578.0367985     
  -2322205794.5576358       -4872426.6504818201        1218476313.0497959     
  -3012868191.2463841       -11750031.274917126        1151085545.2129283     
  -2920600494.3671875       -4182721.1926184893        1141467358.1695354     
  -2829466849.6776376       -395585.07580637932        1136919815.9387264     
  -2739467257.1777296       -388622.92447102070        1137442918.5205021     
  -2650601716.8674712       -4161834.7386323214        1143036665.9148636     
  -1327220341.6565595       -4064896.5945660472        1433542504.9085004     
  -1271143465.8051615       -772439.59047347307        1424897822.8933768     
  -1215648470.3293831        580416.16155642271        1421759418.1663871     
  -1160735355.2292264       -6329.3384890556335        1424127290.7275288     
  -1106404120.5046878       -2532676.0905925632        1432001440.5768018     
  -1660515106.9521799       -4823957.5784519911        1363729232.5466132     
  -1590493190.2972817       -1879960.9924266338        1355007020.5405684     
  -1520826196.5603034       -119040.79946541786        1351585899.6532512     
  -1451514125.7412400        458803.00045263767        1353465869.8846669     
  -1382556977.8400898       -146429.59268838167        1360646931.2348080     
  -1992176924.5858698       -5093134.2637554407        1292040501.9270446     
  -1908796213.3257678       -2673471.9552919865        1283505543.6307311     
  -1825543467.5258794       -680361.18087077141        1280066490.2837460     
  -1742418687.1862032        886198.05950605869        1281723341.8860872     
  -1659421872.3067410        2026205.7658429146        1288476098.4377532     
  -2322205794.5576358       -4872426.6504818201        1218476313.0497959     
  -2226052534.8906226       -3152972.4790683985        1210393392.1638687     
  -2129800283.2261176       -1103544.9826797247        1207201190.0578656     
  -2033449039.5641265        1275855.8386700153        1208899706.7317882     
  -1936998803.9046357        3985229.9850051403        1215488942.1856313     
  -2650601716.8674712       -4161834.7386323214        1143036665.9148636     
  -2542262154.9918408       -3318462.5637538433        1135670566.1399786     
  -2433596643.6610155       -1388592.2048872709        1132989998.9756145     
  -2324605182.8749962        1627776.3379552364        1134994964.4217701     
  -2215287772.6337814        5730643.0647853613        1141685462.4784501     
  -1106404120.5046878       -2532676.0905925632        1432001440.5768018     
  -1068573553.7649778       -9180175.3925627470        1427085242.5962799     
  -1029614481.6965177       -12065990.265362740        1425761091.7992032     
  -989526904.29930127       -11190120.708975375        1428028988.1855729     
  -948310821.57333112       -6552566.7234109640        1433888931.7553914     
  -1382556977.8400898       -146429.59268838167        1360646931.2348080     
  -1335370904.5111897       -6891675.6866564155        1356514859.8717327     
  -1287571902.4154515       -11593825.891166747        1356009841.8073578     
  -1239159971.5528889       -14252880.206261516        1359131877.0416825     
  -1190135111.9234912       -14868838.631907105        1365880965.5747087     
  -1659421872.3067410        2026205.7658429146        1288476098.4377532     
  -1602780274.9164913       -4786781.8784584999        1284526647.7032158     
  -1546041325.3213322       -11275262.173062384        1284239256.3826301     
  -1489205023.5212669       -17439235.117974937        1287613924.4759998     
  -1432271369.5162938       -23278700.713200867        1294650651.9833221     
  -1936998803.9046357        3985229.9850051403        1215488942.1856313     
  -1870801664.9808884       -2865493.9679936171        1211120606.0907230     
  -1805022750.4141533       -11110299.111036301        1210449335.5250187     
  -1739662060.2044377       -20749185.444141269        1213475130.4885237     
  -1674719594.3517332       -31782152.967283189        1220197990.9812305     
  -2215287772.6337814        5730643.0647853613        1141685462.4784501     
  -2139435074.7043850       -1127811.9552668333        1136296735.0342591     
  -2064516177.6939204       -11098936.705096483        1134640079.2345276     
  -1990531081.6023965       -24182731.184724569        1136715495.0792544     
  -1917479786.4298124       -40379195.394157648        1142522982.5684416     
  -948310821.57333112       -6552566.7234109640        1433888931.7553914     
  -873479786.33153486       -227059.84038048983        1430846712.6943696     
  -805313431.92879736       -16117155.754214466        1434022466.7171764     
  -743811758.36510956       -54222854.464882463        1443416193.8238106     
  -688974765.64047325       -114544155.97238323        1459027894.0142643     
  -1190135111.9234912       -14868838.631907105        1365880965.5747087     
  -1099127152.8398564       -7991299.7979867458        1356462420.9632492     
  -1012095704.4417551       -14368796.582504928        1353142298.8499506     
  -929040766.72917807       -34001328.985448658        1355920599.2347925     
  -849962339.70214391       -66888897.006855786        1364797322.1177928     
  -1432271369.5162938       -23278700.713200867        1294650651.9833221     
  -1325428059.6927414       -15951601.858945429        1281991980.3338680     
  -1219873090.4012058       -12918971.444743752        1275312180.5968952     
  -1115606461.6416793       -14180809.470566392        1274611252.7723994     
  -1012628173.4141617       -19737115.936432481        1279889196.8603761     
  -1674719594.3517332       -31782152.967283189        1220197990.9812305     
  -1552382506.8901970       -24107966.023286879        1207435390.8062272     
  -1428645589.8071549       -11767680.340931833        1200532111.9580245     
  -1303508843.1026020        5238704.0797902942        1199488154.4366231     
  -1176972266.7765374        26911187.238883555        1204303518.2420244     
  -1917479786.4298124       -40379195.394157648        1142522982.5684416     
  -1779990494.4322190       -32460392.290991545        1132792652.3803248     
  -1638413202.6595974       -10914923.271068037        1128802092.9333367     
  -1492747911.1119468        24257211.665628672        1130551304.2274740     
  -1342994619.7892601        73056012.519095302        1138040286.2627356     
  -3768222531.7660394       -1130466759.5298119        800561729.90522909     
  -3779101441.4981360       -1008708359.9883440        884854768.42216969     
  -3790588084.8544126       -888975739.19413686        974076536.27500105     
  -3802682461.8348660       -771268897.14718962        1068227033.4637234     
  -3815384572.4394975       -655587833.84750307        1167306259.9883366     
  -4339749144.4371281       -1301924743.3311384        858734950.23672569     
  -4335226505.9358006       -1125735714.2783196        942346440.33422303     
  -4331841036.5093708       -953337248.80849338        1020315631.3881525     
  -4329592736.1578398       -784729346.92165887        1092642523.3985138     
  -4328481604.8812056       -619912008.61781669        1159327116.3653069     
  -4895213398.0279865       -1468564019.4083960        936374763.69959974     
  -4905492149.5202599       -1247005242.3123341        1018687030.6851482     
  -4917437505.5381498       -1031001813.6349955        1084785970.2476692     
  -4931049466.0816584       -820553733.37638140        1134671582.3871634     
  -4946328031.1507826       -615661001.53649080        1168343867.1036308     
  -5434615292.5386162       -1630384587.7615848        1033481170.2938515     
  -5489898372.2515154       -1372516944.0903871        1113876539.4749441     
  -5547377491.9407501       -1121969433.6736445        1167487552.8535514     
  -5607052651.6063242       -878742056.51135814        1194314210.4296722     
  -5668923851.2482338       -642834812.60352707        1194356512.2033076     
  -5957954827.9690142       -1787386448.3907042        1150054170.0194805     
  -6088445174.1295652       -1502270819.6124785        1227914966.7036121     
  -6221660995.7171726       -1226240108.9244401        1268420379.2057984     
  -6357602292.7318363       -959294316.32658923        1271570407.5260403     
  -6496269065.1735563       -701433441.81892467        1237365051.6643374     
  -3815384572.4394975       -655587833.84750307        1167306259.9883366     
  -3797890462.6317968       -537611788.90433681        1188961280.3221216     
  -3784248323.2528090       -432475645.39021552        1205713803.7547414     
  -3774458154.3025355       -340179403.30514228        1217563830.2861950     
  -3768519955.7809749       -260723062.64911151        1224511359.9164836     
  -4328481604.8812056       -619912008.61781669        1159327116.3653069     
  -4298133330.6787796       -464150702.31707871        1141366177.4476774     
  -4278402068.6415734       -343779436.56706917        1129475878.4984853     
  -4269287818.7695856       -258798211.36778641        1123656219.5177295     
  -4270790581.0628128       -209207026.71922874        1123907200.5054100     
  -4946328031.1507826       -615661001.53649080        1168343867.1036308     
  -4871773772.9261999       -412708887.98995280        1102874420.2419987     
  -4814601568.6033392       -267696954.11582232        1054448750.2184058     
  -4774811418.1821995       -180625199.91409993        1023066857.0328521     
  -4752403321.6627836       -151493625.38478470        1008728740.6853372     
  -5668923851.2482338       -642834812.60352707        1194356512.2033076     
  -5518811789.3740568       -383286345.92295766        1073486008.7050850     
  -5392846823.1381073       -204228198.03647685        980632418.91450298     
  -5291028952.5403833       -105660368.94408417        915795742.83156240     
  -5213358177.5808840       -87582858.645778179        878975980.45626390     
  -6496269065.1735563       -701433441.81892467        1237365051.6643374     
  -6239247380.0223513       -375883076.11609316        1053200942.8369348     
  -6013137832.2458763       -153373168.32903123        908026884.58677733     
  -5817940421.8441315       -33903718.457738638        801842876.91386151     
  -5653655148.8171196       -17474726.502215862        734648919.81819057     
  -3768519955.7809749       -260723062.64911151        1224511359.9164836     
  -3661717973.4820313       -168472642.44845748        1192077648.3177311     
  -3562579442.0215716       -101767058.37609255        1170068742.6451237     
  -3471104361.3996000       -60606310.432020187        1158484642.8986590     
  -3387292731.6161184       -44990398.616238832        1157325349.0783396     
  -4270790581.0628128       -209207026.71922874        1123907200.5054100     
  -4148135329.6916800       -145149236.37481785        1090590414.7875590     
  -4029883372.7949672       -95769094.278477192        1065549637.0120735     
  -3916034710.3726745       -61066600.430203438        1048784867.1789539     
  -3806589342.4248047       -41041754.830007553        1040296105.2881984     
  -4752403321.6627836       -151493625.38478470        1008728740.6853372     
  -4620034224.0302563       -117470291.73985291        978332396.60646462     
  -4488808264.5080853       -87257418.462775707        954063262.48617876     
  -4358725443.0962667       -60855005.553546906        935921338.32447827     
  -4229785759.7948070       -38263053.012171507        923906624.12136638     
  -5213358177.5808840       -87582858.645778179        878975980.45626390     
  -5077414656.4977636       -85435808.543572187        855303593.77444565     
  -4939354117.1609268       -76232030.928992748        835609619.06743574     
  -4799176559.5703821       -59971525.802045822        819894056.33523524     
  -4656881983.7261248       -36654293.162729740        808156905.57784235     
  -5653655148.8171196       -17474726.502215862        734648919.81819057     
  -5520276627.0941935       -49045786.785962343        721504006.29150546     
  -5381520930.7534924       -62692931.677126646        710188706.75584924     
  -5237388059.7950115       -58416161.175697327        700703021.21122241     
  -5087878014.2187586       -36215475.281682014        693046949.65762544     
  -3387292731.6161184       -44990398.616238832        1157325349.0783396     
  -3294027491.0233321       -37816621.779731989        1150269343.7065446     
  -3200534987.4307814       -29885301.610674858        1146877374.6050451     
  -3106815220.8384647       -21196438.109072566        1147149441.7738395     
  -3012868191.2463841       -11750031.274917126        1151085545.2129283     
  -3806589342.4248047       -41041754.830007553        1040296105.2881984     
  -3701609483.2917447       -29907292.014896393        1032056783.1862781     
  -3597204833.0736957       -20690192.249826670        1028250665.3884418     
  -3493375391.7706609       -13390455.534799099        1028877751.8946900     
  -3390121159.3826404       -8008081.8698186874        1033938042.7050231     
  -4229785759.7948070       -38263053.012171507        923906624.12136638     
  -4110893659.1677861       -22508617.332349300        913547768.05541086     
  -3993379239.3705549       -11346451.085159779        908391284.32733262     
  -3877242500.4031143       -4776554.2706074715        908437172.93712687     
  -3762483442.2654634       -2798926.8886861801        913685433.88479865     
  -4656881983.7261248       -36654293.162729740        808156905.57784235     
  -4521880018.6514549       -15620597.732090950        794742298.31394696     
  -4389058206.3213539       -1854078.1166803837        787299231.42171526     
  -4258416546.7358217        4645265.6835100651        785827704.90115321     
  -4129955039.8948536        3877433.6684725285        790327718.75225556     
  -5087878014.2187586       -36215475.281682014        693046949.65762544     
  -4934568561.7427540       -9243233.2141203880        675640373.96188259     
  -4784241733.9260960        7786926.6556236744        664974506.67159522     
  -4636897530.7687788        14875004.327552557        661049347.78676403     
  -4492535952.2708101        12020999.801666021        663864897.30739129     
  -3012868191.2463841       -11750031.274917126        1151085545.2129283     
  -2920600494.3671875       -4182721.1926184893        1141467358.1695354     
  -2829466849.6776376       -395585.07580637932        1136919815.9387264     
  -2739467257.1777296       -388622.92447102070        1137442918.5205021     
  -2650601716.8674712       -4161834.7386323214        1143036665.9148636     
  -3390121159.3826404       -8008081.8698186874        1033938042.7050231     
  -3286408505.8767643       -4292533.5860569477        1024787317.7966443     
  -3183310325.9063702       -2625230.4205626249        1020258628.9727892     
  -3080826619.4714522       -3006172.3733198643        1020351976.2334532     
  -2978957386.5720119       -5435359.4443411827        1025067359.5786430     
  -3762483442.2654634       -2798926.8886861801        913685433.88479865     
  -3648607571.3559465       -3319662.1703770161        905608346.20796180     
  -3534826595.3277416       -4156713.7231059074        901704685.88758612     
  -3421140514.1808453       -5310081.5468680859        901974452.92366946     
  -3307549327.9152627       -6779765.6416699886        906417647.31621373     
  -4129955039.8948536        3877433.6684725285        790327718.75225556     
  -4007197690.8047280       -1264106.9455771446        783930443.40348947     
  -3884015657.9417520       -4990034.9834461212        781257986.68312347     
  -3760408941.3059144       -7300350.4451179504        782310348.59115148     
  -3636377540.8972244       -8195053.3306133747        787087529.12758303     
  -4492535952.2708101        12020999.801666021        663864897.30739129     
  -4362178864.2231150        1874132.0883414745        659753609.38322687     
  -4230877513.7483988       -5125194.2015738487        658918531.35939634     
  -4098631900.8466563       -8976979.0680689812        661359663.23590112     
  -3965442025.5178919       -9681222.5111620426        667077005.01274335     
  -2650601716.8674712       -4161834.7386323214        1143036665.9148636     
  -2542262154.9918408       -3318462.5637538433        1135670566.1399786     
  -2433596643.6610155       -1388592.2048872709        1132989998.9756145     
  -2324605182.8749962        1627776.3379552364        1134994964.4217701     
  -2215287772.6337814        5730643.0647853613        1141685462.4784501     
  -2978957386.5720119       -5435359.4443411827        1025067359.5786430     
  -2857827425.8373690       -2852193.7216436863        1017905687.2890540     
  -2736587957.8684621        95996.115277290344        1015495759.9233036     
  -2615238982.6652822        3409210.0664368868        1017837577.4813881     
  -2493780500.2278419        7087448.1318006516        1024931139.9633111     
  -3307549327.9152627       -6779765.6416699886        906417647.31621373     
  -3173439790.2835617       -2400052.9597309828        899207886.58750594     
  -3039437187.6385221        1623209.7666684389        896816083.09595191     
  -2905541519.9801402        5290022.5375369787        899242236.84155059     
  -2771752787.3084273        8600385.3528565168        906486347.82430375     
  -3636377540.8972244       -8195053.3306133747        787087529.12758303     
  -3489099248.3304148       -1962040.2780203819        779577164.03533435     
  -3342144332.9711933        3193048.7492828369        776950968.49355865     
  -3195512794.8195682        7270213.7512695789        779208942.50225246     
  -3049204633.8755264        10269454.727965951        786351086.06141591     
  -3965442025.5178919       -9681222.5111620426        667077005.01274335     
  -3804805799.9779329       -1538155.6765029430        659013519.63254189     
  -3644709393.8664918        4805513.0630881786        655900416.11612928     
  -3485152807.1835642        9349783.7076370716        657737694.46350253     
  -3326136039.9291620        12094656.257097483        664525354.67465889     
  -2215287772.6337814        5730643.0647853613        1141685462.4784501     
  -2139435074.7043850       -1127811.9552668333        1136296735.0342591     
  -2064516177.6939204       -11098936.705096483        1134640079.2345276     
  -1990531081.6023965       -24182731.184724569        1136715495.0792544     
  -1917479786.4298124       -40379195.394157648        1142522982.5684416     
  -2493780500.2278419        7087448.1318006516        1024931139.9633111     
  -2408933921.9372721       -862555.56690979004        1018721081.1104245     
  -2324621908.3667054       -10594441.665630937        1015949215.9705902     
  -2240844459.5161343       -22108210.164337158        1016615544.5438168     
  -2157601575.3855639       -35403861.063042641        1020720066.8300959     
  -2771752787.3084273        8600385.3528565168        906486347.82430375     
  -2678751979.8892679       -693062.39429271221        899920733.12814534     
  -2585886500.9911737       -10437605.211653948        896499434.21363747     
  -2493156350.6141381       -20633243.099216700        896222451.08078325     
  -2400561528.7581644       -31279976.056976080        899089783.72958112     
  -3049204633.8755264        10269454.727965951        786351086.06141591     
  -2948889248.5603671       -619332.43740808964        779895691.08741724     
  -2848309955.5673294       -10628427.343187809        776290733.96366465     
  -2747466754.8964119       -19757829.989367008        775536214.69016147     
  -2646359646.5476160       -28007540.375964642        777632133.26690507     
  -3326136039.9291620        12094656.257097483        664525354.67465889     
  -3219345727.9505734       -641365.69624733925        658645954.98824489     
  -3111892272.0951777       -11166908.060236216        655323115.22067463     
  -3003775672.3629608       -19481970.834821463        654556835.37195122     
  -2894995928.7539282       -25586554.020021319        656347115.44207156     
  -1917479786.4298124       -40379195.394157648        1142522982.5684416     
  -1779990494.4322190       -32460392.290991545        1132792652.3803248     
  -1638413202.6595974       -10914923.271068037        1128802092.9333367     
  -1492747911.1119468        24257211.665628672        1130551304.2274740     
  -1342994619.7892601        73056012.519095302        1138040286.2627356     
  -2157601575.3855639       -35403861.063042641        1020720066.8300959     
  -2004848398.0326736       -25680646.625764251        1013448619.4351332     
  -1850132670.8811359       -9415599.5263382196        1011762448.9567873     
  -1693454393.9309545        13391280.235242248        1015661555.3950564     
  -1534813567.1821346        42739992.658954918        1025145938.7499384     
  -2400561528.7581644       -31279976.056976080        899089783.72958112     
  -2232985876.9771576       -19884773.563739061        891797527.48866189     
  -2065573125.3738866       -9032571.6629688740        889936054.33984423     
  -1898323273.9483554        1276629.6453275681        893505364.28312743     
  -1731236322.7005677        11042830.361160159        902505457.31851172     
  -2646359646.5476160       -28007540.375964642        777632133.26690507     
  -2464402931.2656698       -15072773.104922414        767839376.54090881     
  -2284734566.1378469       -9765839.6809673309        763322909.08250237     
  -2107354551.1641507       -12086740.104103565        764082730.89168084     
  -1932262886.3445752       -22035474.374310136        770118841.96845949     
  -2894995928.7539282       -25586554.020021319        656347115.44207156     
  -2699099560.8982148       -11244645.249318838        641574166.59188032     
  -2507616993.1730137       -11615403.580325365        631923013.18476510     
  -2320548225.5783267       -26698829.013036609        627393655.22073054     
  -2137893258.1141510       -56494921.547457695        627986092.69977009     
  -5957954827.9690142       -1787386448.3907042        1150054170.0194805     
  -6088445174.1295652       -1502270819.6124785        1227914966.7036121     
  -6221660995.7171726       -1226240108.9244401        1268420379.2057984     
  -6357602292.7318363       -959294316.32658923        1271570407.5260403     
  -6496269065.1735563       -701433441.81892467        1237365051.6643374     
  -6810600470.2227783       -2043180141.0668335        1353782949.5933039     
  -6828549023.0640163       -1395479645.4400253        1202757058.3074160     
  -6897865634.3320274       -919006011.23580289        1091983730.6378880     
  -7018550304.0268164       -613759238.45416546        1021462966.5847195     
  -7190603032.1483831       -479739327.09511518        991194766.14791083     
  -8337920685.2035055       -2501376205.5610518        1712356695.7321391     
  -8021590451.0159845       -1424569744.9728277        1275694436.3098917     
  -7805270858.2549620       -681132089.13958883        956892688.30230939     
  -7688961906.9204340       -271063238.06133175        755951451.70939147     
  -7672663597.0123978       -194363191.73806047        672870726.53113937     
  -10539915472.911194       -3161974641.8733582        2225775408.4359856     
  -9667569457.9854755       -1589541118.2108862        1446727100.7110398     
  -8943876667.4859715       -512618342.63579655        863147252.19906318     
  -8368837101.4126806        68793684.851910591        475035862.90005720     
  -7942450759.7656088        154694964.25223255        282392932.81401974     
  -13416584833.345844       -4024975450.0037532        2894039087.7048435     
  -11766486043.972483       -1890393765.1542001        1715855051.5108600     
  -10313683062.025061       -413464771.72442913        810747422.32815039     
  -9058175887.5035686        405811530.28556252        178716200.15671474     
  -7999964520.4080105        567435140.87577105       -180238615.00344560     
  -6496269065.1735563       -701433441.81892467        1237365051.6643374     
  -6239247380.0223513       -375883076.11609316        1053200942.8369348     
  -6013137832.2458763       -153373168.32903123        908026884.58677733     
  -5817940421.8441315       -33903718.457738638        801842876.91386151     
  -5653655148.8171196       -17474726.502215862        734648919.81819057     
  -7190603032.1483831       -479739327.09511518        991194766.14791083     
  -6900548096.3800068       -304421651.40336323        846872196.09043801     
  -6623301718.5591087       -171799168.86986232        723638850.54840815     
  -6358863898.6856861       -81871879.494616270        621494729.52182102     
  -6107234636.7597380       -34639783.277619839        540439833.01067686     
  -7672663597.0123978       -194363191.73806047        672870726.53113937     
  -7400720627.9462862       -184621771.25321817        589510537.90872669     
  -7123482637.4003925       -157230279.16911030        509338747.73995346     
  -6840949625.3747196       -112188715.48573661        432355356.02482694     
  -6553121591.8692684       -49497080.203100443        358560362.76334071     
  -7942450759.7656088        154694964.25223255        282392932.81401974     
  -7739764974.7211838       -16483435.665660381        281115968.29179806     
  -7513680588.7697287       -109666499.22677612        265126576.16141605     
  -7264197601.9112377       -124854226.43110323        234424756.42287782     
  -6991316014.1457090       -62046617.278651237        189010509.07618186     
  -7999964520.4080105        567435140.87577105       -180238615.00344560     
  -7917681136.7047110        199993355.35930920       -78311512.760345459     
  -7793895572.6671162       -29107829.042849541       -8997664.1872059666     
  -7628607828.2952375       -119868412.33071613        27702930.715978079     
  -7421817903.5890636       -72288394.504276752        31790271.949202176     
  -5653655148.8171196       -17474726.502215862        734648919.81819057     
  -5520276627.0941935       -49045786.785962343        721504006.29150546     
  -5381520930.7534924       -62692931.677126646        710188706.75584924     
  -5237388059.7950115       -58416161.175697327        700703021.21122241     
  -5087878014.2187586       -36215475.281682014        693046949.65762544     
  -6107234636.7597380       -34639783.277619839        540439833.01067686     
  -5959333661.1513557       -36456750.778199911        534022054.53024757     
  -5810446486.5992155       -34986388.466257572        530079451.32840848     
  -5660573113.1033211       -30228696.341791630        528612023.40515953     
  -5509713540.6636686       -22183674.404801369        529619770.76050216     
  -6553121591.8692684       -49497080.203100443        358560362.76334071     
  -6388853701.5538273       -21006616.674027681        353746914.37614530     
  -6227990587.9686480       -3865408.9124996662        352054202.55509973     
  -6070532251.1137314        1926543.0814881325        353482227.30020744     
  -5916478690.9890785       -3630760.6920695305        358030988.61146617     
  -6991316014.1457090       -62046617.278651237        189010509.07618186     
  -6808836748.3016090       -2695384.4734549522        180678585.82919922     
  -6634153234.8617821        30670006.984148979        176112960.43592337     
  -6467265473.8262444        38049557.094131470        175313632.89636379     
  -6308173465.1949854        19443265.856517315        178280603.21051610     
  -7421817903.5890636       -72288394.504276752        31790271.949202176     
  -7219282801.3946953        18476945.823536396        14817068.889404953     
  -7028934427.2786274        68619859.223677158        2255724.9708779799     
  -6850772781.2408638        78140345.696144104       -5893759.8063701354     
  -6684797863.2813978        47038405.240946293       -9631385.4423482399     
  -5087878014.2187586       -36215475.281682014        693046949.65762544     
  -4934568561.7427540       -9243233.2141203880        675640373.96188259     
  -4784241733.9260960        7786926.6556236744        664974506.67159522     
  -4636897530.7687788        14875004.327552557        661049347.78676403     
  -4492535952.2708101        12020999.801666021        663864897.30739129     
  -5509713540.6636686       -22183674.404801369        529619770.76050216     
  -5345048338.9344645       -9967700.7366502285        514513468.39828819     
  -5181350041.9000340       -974742.71772813797        504806942.07140088     
  -5018618649.5603685        4795199.6519646645        500500191.77984393     
  -4856854161.9154730        7342126.3724267483        501593217.52361512     
  -5916478690.9890785       -3630760.6920695305        358030988.61146617     
  -5744288975.3498993       -7320426.0262949467        347576632.87478292     
  -5571050444.4409103       -7514040.4611546993        341181120.80330259     
  -5396763098.2621174       -4211603.9966688156        338844452.39702600     
  -5221426936.8135204        2586883.3671720028        340566627.65595007     
  -6308173465.1949854        19443265.856517315        178280603.21051610     
  -6132290470.9890480       -1301409.0830450058        174829867.39137030     
  -5953342941.5487328       -11830966.574674368        174097042.86730236     
  -5771330876.8740311       -12145406.618350506        176082129.63830552     
  -5586254276.9649467       -2244729.2140884399        180785127.70438665     
  -6684797863.2813978        47038405.240946293       -9631385.4423482399     
  -6509052825.8519249        8089350.0930683613       -3726828.0519501348     
  -6328227533.2234936       -13925521.058265924        3554708.2633946785     
  -6142321985.3961067       -19006208.213092089        12213223.503693165     
  -5951336182.3697586       -7152711.3713808060        22248717.668931473     
  -4492535952.2708101        12020999.801666021        663864897.30739129     
  -4362178864.2231150        1874132.0883414745        659753609.38322687     
  -4230877513.7483988       -5125194.2015738487        658918531.35939634     
  -4098631900.8466563       -8976979.0680689812        661359663.23590112     
  -3965442025.5178919       -9681222.5111620426        667077005.01274335     
  -4856854161.9154730        7342126.3724267483        501593217.52361512     
  -4716313229.9153538        2275678.8892753124        498082781.03014326     
  -4575627134.4359617       -2306890.3296470642        497957456.08508408     
  -4434795875.4773054       -6405581.2843430042        501217242.68844301     
  -4293819453.0393782       -10020393.974816561        507862140.84021080     
  -5221426936.8135204        2586883.3671720028        340566627.65595007     
  -5070391013.2950306        2694200.3839826584        336724760.48745388     
  -4920009025.2450266        621732.50583577156        336376906.51545215     
  -4770280972.6635094       -3630520.2672746181        339523065.73994333     
  -4621206855.5504885       -10062557.935349703        346163238.16092938     
  -5586254276.9649467       -2244729.2140884399        180785127.70438665     
  -5424412214.3621473        3129696.5724558830        175679547.75515240     
  -5264023186.1755962        3660674.3048505783        174176882.65049249     
  -5105087192.4052811       -651796.01687788963        176277132.39040580     
  -4947604233.0512142       -9807714.3927721977        181980296.97489342     
  -5951336182.3697586       -7152711.3713808060        22248717.668931473     
  -5778376833.1167097        3582167.4546883106        14947142.833247136     
  -5607669617.2276573        6809935.0674412251        11357384.490211550     
  -5439214534.7026110        2530591.4668376446        11479442.639831603     
  -5273011585.5415564       -9255863.3470726013        15313317.282103287     
  -3965442025.5178919       -9681222.5111620426        667077005.01274335     
  -3804805799.9779329       -1538155.6765029430        659013519.63254189     
  -3644709393.8664918        4805513.0630881786        655900416.11612928     
  -3485152807.1835642        9349783.7076370716        657737694.46350253     
  -3326136039.9291620        12094656.257097483        664525354.67465889     
  -4293819453.0393782       -10020393.974816561        507862140.84021080     
  -4121027186.3414345       -3856126.9447588921        499789058.04155290     
  -3948225582.1716542        2339264.9914186001        496573040.37861758     
  -3775414640.5300322        8565781.8337328434        498214087.85141283     
  -3602594361.4165678        14823423.582190514        504712200.45993185     
  -4621206855.5504885       -10062557.935349703        346163238.16092938     
  -4436525166.9175901       -5957076.4768228531        338721240.99422944     
  -4251284983.9124956        10052.889029264450        336042992.23519933     
  -4065486306.5351973        7838830.1622266769        338128491.88383162     
  -3879129134.7856989        17529255.342754126        344977739.94013035     
  -4947604233.0512142       -9807714.3927721977        181980296.97489342     
  -4751299741.7063980       -7841004.2726912498        175810068.49057758     
  -4553887599.0890160       -2182123.2440559864        174310271.68586379     
  -4355367805.1990747        7168928.6931102276        177480906.56076369     
  -4155740360.0365753        20212151.538803339        185321973.11525851     
  -5273011585.5415564       -9255863.3470726013        15313317.282103287     
  -5065350910.7078381       -9507910.3323130608        11055540.530590359     
  -4856033427.7012081       -4237263.4078359604        11374878.730620746     
  -4645059136.5216589        6556077.4263725281        16271331.882193089     
  -4432428037.1691818        22872112.170333624        25744899.985314671     
  -3326136039.9291620        12094656.257097483        664525354.67465889     
  -3219345727.9505734       -641365.69624733925        658645954.98824489     
  -3111892272.0951777       -11166908.060236216        655323115.22067463     
  -3003775672.3629608       -19481970.834821463        654556835.37195122     
  -2894995928.7539282       -25586554.020021319        656347115.44207156     
  -3602594361.4165678        14823423.582190514        504712200.45993185     
  -3488184012.1728234        3438116.5466511250        499359659.36822206     
  -3373862101.3831778       -8241985.3358614445        497000422.04214281     
  -3259628629.0476193       -20216882.065338254        497634488.48168337     
  -3145483595.1661472       -32486573.641775966        501261858.68684840     
  -3879129134.7856989        17529255.342754126        344977739.94013035     
  -3755850908.7145791        7869015.0937025547        339275211.39040923     
  -3633412703.4284568       -4591294.4386765957        337002730.45308435     
  -3511814518.9273276       -19851673.254360199        338160297.12817180     
  -3391056355.2111888       -37912121.353362083        342747911.41565681     
  -4155740360.0365753        20212151.538803339        185321973.11525851     
  -4022346417.5758419        12651329.944904327        178392611.05479375     
  -3890544078.2310100       -214835.36865091324        175330040.45350879     
  -3760333342.0020857       -18386344.401918411        176134261.31141305     
  -3631714208.8890591       -41863197.154824495        180805273.62849769     
  -4432428037.1691818        22872112.170333624        25744899.985314671     
  -4287670538.7566118        17785061.100247383        16711858.361390535     
  -4145256225.7908516        4887391.8741497993        11982352.043419754     
  -4005185098.2718964       -15820895.507972240        11556381.031421226     
  -3867457156.1997442       -44339801.046104193        15433945.325374130     
  -2894995928.7539282       -25586554.020021319        656347115.44207156     
  -2699099560.8982148       -11244645.249318838        641574166.59188032     
  -2507616993.1730137       -11615403.580325365        631923013.18476510     
  -2320548225.5783267       -26698829.013036609        627393655.22073054     
  -2137893258.1141510       -56494921.547457695        627986092.69977009     
  -3145483595.1661472       -32486573.641775966        501261858.68684840     
  -2936120140.2388248       -17787068.468398213        485088618.81861514     
  -2727720771.8446279       -6301185.0721268654        474070359.00793141     
  -2520285489.9835629        1971076.5470651388        468207079.25479668     
  -2313814294.6556168        7029716.3891710043        467498779.55920386     
  -3391056355.2111888       -37912121.353362083        342747911.41565681     
  -3168131000.0280533       -22826575.822068095        329199046.39299744     
  -2942720017.7806616        544393.25674617290        320838346.04235762     
  -2714823408.4690108        32200785.883103490        317665810.36374241     
  -2484441172.0930905        72142602.056990862        319681439.35713470     
  -3631714208.8890591       -41863197.154824495        180805273.62849769     
  -3395132140.2659006       -26363167.310311079        173905449.31503487     
  -3152614730.9811058        8921331.4063090086        172226974.28805125     
  -2904161981.0346708        63990298.995084763        175769848.54756069     
  -2649773890.4265790        138843735.45601940        184534072.09356773     
  -3867457156.1997442       -44339801.046104193        15433945.325374130     
  -3617123560.9523673       -28396842.933153152        19207827.584711161     
  -3357404911.4459715        18829629.376542330        28236243.745015483     
  -3088301207.6805382        97339615.882999539        42519193.806268200     
  -2809812449.6560888        207133116.58622169        62056677.768485002     
 </DataArray>
 <DataArray  type="Float64" Name="VM" NumberOfComponents="1" format="ascii">
   12935282423.719181     
   11340591991.099178     
   10210254019.826992     
   9272961984.1598625     
   8304305336.8725128     
   10130133291.911884     
   9321936934.1249657     
   8826359911.6151867     
   8443593762.9459085     
   8035843385.6057739     
   7982290834.0876017     
   7734932540.6215267     
   7669126195.8960390     
   7669578420.1546001     
   7666362856.5978498     
   6491668451.8228998     
   6586864449.1435318     
   6757385841.6919718     
   6961154509.9820461     
   7171512017.5946512     
   5657819128.1908522     
   5890891267.5683374     
   6116328917.8978996     
   6331671036.1802778     
   6536692059.3069143     
   8304305336.8725128     
   8020720689.6494932     
   7779204081.0769548     
   7569092395.7376261     
   7385418709.4220200     
   8035843385.6057739     
   7746862297.3162050     
   7473545218.1612511     
   7213936251.0927792     
   6968038763.4076109     
   7666362856.5978498     
   7381107600.5495024     
   7101250620.8479757     
   6826867292.3955183     
   6558157885.9724388     
   7171512017.5946512     
   6910895360.2327309     
   6658182696.0318584     
   6409515811.0170422     
   6161749359.1990061     
   6536692059.3069143     
   6328578068.3373680     
   6142644887.8289948     
   5964992214.6760769     
   5786611518.9169397     
   7385418709.4220200     
   7228601927.2345715     
   7064354578.6016750     
   6891995131.2233086     
   6711335120.7239494     
   6968038763.4076109     
   6814697489.1975737     
   6656772201.4425602     
   6493982353.6778135     
   6326272904.9753141     
   6558157885.9724388     
   6407696041.6278868     
   6255592971.4129496     
   6101815267.8204708     
   5946388826.6165609     
   6161749359.1990061     
   6012596355.5983429     
   5864738124.8610439     
   5718211774.4637403     
   5573071260.9251451     
   5786611518.9169397     
   5635862441.3751545     
   5489261384.8157558     
   5346722494.9373493     
   5208287812.1662302     
   6711335120.7239494     
   6514629017.6817055     
   6321084200.6027126     
   6130614883.2309713     
   5943218499.5275278     
   6326272904.9753141     
   6140350452.3662138     
   5956601515.4645920     
   5775015091.0071001     
   5595629994.6457720     
   5946388826.6165609     
   5772704932.8808374     
   5600477459.0595264     
   5429736507.0541315     
   5260550818.0072155     
   5573071260.9251451     
   5413498760.5413465     
   5254966867.1701174     
   5097517065.7563419     
   4941246858.0346336     
   5208287812.1662302     
   5065139300.3283682     
   4922963471.6354246     
   4781787558.1359062     
   4641748191.4890699     
   5943218499.5275278     
   5775081392.1513338     
   5605815746.7411489     
   5435421491.3103704     
   5263933424.8383846     
   5595629994.6457720     
   5435831380.7995930     
   5275585950.0759039     
   5114926403.3318729     
   4953918815.6561632     
   5260550818.0072155     
   5109533872.9220533     
   4958823219.8836498     
   4808486067.5753555     
   4658623797.3823118     
   4941246858.0346336     
   4799346362.8433208     
   4658573661.6586666     
   4519029729.3058786     
   4380852606.3923817     
   4641748191.4890699     
   4509149547.4654799     
   4378561633.8748322     
   4250115097.6017127     
   4123982350.1292939     
   5263933424.8383846     
   5055416045.9549999     
   4847623869.1894169     
   4640576714.6234903     
   4434342525.3075686     
   4953918815.6561632     
   4757395612.3628521     
   4561875432.2046871     
   4367427430.2022886     
   4174181195.7553134     
   4658623797.3823118     
   4474917129.9572392     
   4292620538.8774877     
   4111866652.2360172     
   3932864367.2309046     
   4380852606.3923817     
   4210920338.6532125     
   4042955202.7341952     
   3877167402.6480150     
   3713861856.2350879     
   4123982350.1292939     
   3968907922.2895288     
   3816522556.5675368     
   3667124610.6021924     
   3521125952.6084647     
   4434342525.3075686     
   4286817535.1871386     
   4138712068.0180788     
   3990089035.2987280     
   3841093325.3630776     
   4174181195.7553134     
   4038851709.8830528     
   3903798837.0443735     
   3769110023.0025907     
   3634933169.3247204     
   3932864367.2309046     
   3807923869.3971863     
   3683972733.4806290     
   3561103120.8155756     
   3439448685.4034815     
   3713861856.2350879     
   3597345899.2466173     
   3482340627.2537394     
   3368928535.9323874     
   3257220266.1739855     
   3521125952.6084647     
   3410935171.8534064     
   3302540365.3509874     
   3196007310.3586106     
   3091425552.8655648     
   3841093325.3630776     
   3589115736.6737614     
   3331578905.3603830     
   3069579148.1319656     
   2805600419.9423137     
   3634933169.3247204     
   3398358983.7789750     
   3158733145.7888236     
   2916570674.3769946     
   2673067519.6981039     
   3439448685.4034815     
   3220941688.2329865     
   3002680676.2630610     
   2785102227.2785020     
   2568991460.2731729     
   3257220266.1739855     
   3057773545.9589028     
   2862377872.6343627     
   2671805356.7945256     
   2487173501.8335118     
   3091425552.8655648     
   2910039751.2972326     
   2736815259.3579564     
   2573224453.9588780     
   2421361530.5080695     
   5657819128.1908522     
   5890891267.5683374     
   6116328917.8978996     
   6331671036.1802778     
   6536692059.3069143     
   5151417884.1671944     
   5311297174.7449722     
   5467812285.8952246     
   5618065884.6572428     
   5760590046.8839979     
   4643415827.6742964     
   4755506310.2982550     
   4868724608.2193890     
   4980434373.0920181     
   5088708658.9363241     
   4134076682.0966706     
   4224356443.8113694     
   4320561330.4431047     
   4421033739.4635201     
   4524318245.3814077     
   3624920406.3892970     
   3719671986.6944995     
   3825680641.3375325     
   3942882660.8877172     
   4071185315.2835188     
   6536692059.3069143     
   6328578068.3373680     
   6142644887.8289948     
   5964992214.6760769     
   5786611518.9169397     
   5760590046.8839979     
   5651987990.2113667     
   5559379102.1490784     
   5473706322.8459854     
   5389428030.1365137     
   5088708658.9363241     
   5053924904.4716320     
   5029646865.1449966     
   5010669980.0651045     
   4993792530.2086296     
   4524318245.3814077     
   4538984406.2718315     
   4558318932.4748888     
   4579841734.9704065     
   4601829148.4614697     
   4071185315.2835188     
   4112493111.4637804     
   4151159855.7248583     
   4186285084.0730243     
   4217134687.5124955     
   5786611518.9169397     
   5635862441.3751545     
   5489261384.8157558     
   5346722494.9373493     
   5208287812.1662302     
   5389428030.1365137     
   5248259180.2222862     
   5110294399.6051397     
   4975575125.4492912     
   4844193969.7514057     
   4993792530.2086296     
   4866653542.2338076     
   4742718078.4996624     
   4621955916.7845211     
   4504411340.5349588     
   4601829148.4614697     
   4493708108.5267344     
   4389852234.5655212     
   4289950308.7019615     
   4193920627.3748426     
   4217134687.5124955     
   4133374122.3193393     
   4056182685.8904829     
   3984720554.6115632     
   3918703055.7519889     
   5208287812.1662302     
   5065139300.3283682     
   4922963471.6354246     
   4781787558.1359062     
   4641748191.4890699     
   4844193969.7514057     
   4716909671.0329494     
   4591424612.3825226     
   4467854968.9334612     
   4346414532.2213383     
   4504411340.5349588     
   4392400197.6313620     
   4283012375.6396337     
   4176432456.5979776     
   4072927870.8447070     
   4193920627.3748426     
   4096525638.7606587     
   4002532688.5465760     
   3912169241.8120704     
   3825728517.0887227     
   3918703055.7519889     
   3835147622.1228075     
   3755671992.6821685     
   3680517028.7104688     
   3609971638.3486919     
   4641748191.4890699     
   4509149547.4654799     
   4378561633.8748322     
   4250115097.6017127     
   4123982350.1292939     
   4346414532.2213383     
   4224908414.9836059     
   4105874358.2047729     
   3989494083.6513186     
   3876000390.1750822     
   4072927870.8447070     
   3963728283.7659688     
   3857619484.7186785     
   3754839102.7538891     
   3655685492.8886471     
   3825728517.0887227     
   3730083415.6286659     
   3638308478.1022315     
   3550695275.9021711     
   3467604071.4867711     
   3609971638.3486919     
   3529061352.4258833     
   3452946318.0680141     
   3381959145.6860008     
   3316505201.0272574     
   4123982350.1292939     
   3968907922.2895288     
   3816522556.5675368     
   3667124610.6021924     
   3521125952.6084647     
   3876000390.1750822     
   3736208243.7156949     
   3599916802.8151407     
   3467507541.2943730     
   3339478979.4834423     
   3655685492.8886471     
   3531602814.3248901     
   3411881027.8497839     
   3296969307.7051430     
   3187429050.7743201     
   3467604071.4867711     
   3359607030.4148393     
   3256833216.6217093     
   3159771620.8290539     
   3069008881.7489643     
   3316505201.0272574     
   3224798624.5109210     
   3139113528.0198493     
   3059939983.1325202     
   2987842665.2968702     
   3521125952.6084647     
   3410935171.8534064     
   3302540365.3509874     
   3196007310.3586106     
   3091425552.8655648     
   3339478979.4834423     
   3235953158.7362194     
   3134782454.1669211     
   3036108342.5017486     
   2940104408.2907944     
   3187429050.7743201     
   3093333809.1375861     
   3002481595.5816331     
   2915115291.0965815     
   2831524195.5707760     
   3069008881.7489643     
   2987069333.6323266     
   2909566957.3854342     
   2836854224.6184821     
   2769343899.4668794     
   2987842665.2968702     
   2920473977.5202951     
   2858970672.1902804     
   2803776144.3233800     
   2755401436.8824310     
   3091425552.8655648     
   2910039751.2972326     
   2736815259.3579564     
   2573224453.9588780     
   2421361530.5080695     
   2940104408.2907944     
   2775174823.0210109     
   2617474084.6482034     
   2468082668.7322302     
   2328443111.8626890     
   2831524195.5707760     
   2686359085.9241133     
   2548232978.1666837     
   2418272707.4946709     
   2297916167.2849860     
   2769343899.4668794     
   2648523074.7985477     
   2535326226.5146008     
   2431310777.2819133     
   2338456728.6618791     
   2755401436.8824310     
   2664249939.3928714     
   2581911064.7465363     
   2510598405.6882629     
   2453122072.3904538     
   3624920406.3892970     
   3719671986.6944995     
   3825680641.3375325     
   3942882660.8877172     
   4071185315.2835188     
   3137911007.0397286     
   3255508680.6083374     
   3382524970.3328371     
   3518490929.7888923     
   3662948916.4814062     
   2694702714.0021510     
   2830527320.5191760     
   2973660634.7700663     
   3123020442.7650213     
   3277695976.6445684     
   2298785406.6505876     
   2449520814.2142310     
   2604969575.1308436     
   2763208897.3883533     
   2922809303.0648303     
   1955369191.9552126     
   2119444430.4915185     
   2284861729.4469657     
   2448660090.2522168     
   2608881708.7375245     
   4071185315.2835188     
   4112493111.4637804     
   4151159855.7248583     
   4186285084.0730243     
   4217134687.5124955     
   3662948916.4814062     
   3702239956.2765002     
   3740161420.8722472     
   3775812405.2813668     
   3808441886.8849139     
   3277695976.6445684     
   3320837219.8535452     
   3364234356.6557884     
   3407062771.0020275     
   3448643308.3119516     
   2922809303.0648303     
   2975667585.4793611     
   3030764321.3748941     
   3087416205.0953655     
   3145089927.2441907     
   2608881708.7375245     
   2676782645.4682512     
   2749208009.2648492     
   2825648785.7313251     
   2905752358.8813801     
   4217134687.5124955     
   4133374122.3193393     
   4056182685.8904829     
   3984720554.6115632     
   3918703055.7519889     
   3808441886.8849139     
   3756161827.6579828     
   3709908661.1273079     
   3669214949.8292894     
   3633988812.4271412     
   3448643308.3119516     
   3423131792.8080525     
   3402712289.6624393     
   3387158062.0095444     
   3376452544.8185339     
   3145089927.2441907     
   3141918160.3476305     
   3142298005.1801181     
   3146129268.0454040     
   3153395312.5601001     
   2905752358.8813801     
   2920855517.8244014     
   2937181979.7160144     
   2954676579.6660571     
   2973298531.3835340     
   3918703055.7519889     
   3835147622.1228075     
   3755671992.6821685     
   3680517028.7104688     
   3609971638.3486919     
   3633988812.4271412     
   3562880689.4524193     
   3496497384.9306741     
   3435089122.3902054     
   3378957562.7586393     
   3376452544.8185339     
   3318419493.7231517     
   3265891484.1651101     
   3219108573.5899677     
   3178364948.0113902     
   3153395312.5601001     
   3108762331.4991055     
   3070532922.5851040     
   3038908587.1337504     
   3014147245.5557084     
   2973298531.3835340     
   2941841911.4628172     
   2917773801.9975815     
   2901223194.0129647     
   2892378981.2934556     
   3609971638.3486919     
   3529061352.4258833     
   3452946318.0680141     
   3381959145.6860008     
   3316505201.0272574     
   3378957562.7586393     
   3311985978.1223454     
   3250318615.1310511     
   3194265177.4913144     
   3144191454.7071204     
   3178364948.0113902     
   3124494996.7903495     
   3076355902.3455458     
   3034215407.2657280     
   2998380022.0415859     
   3014147245.5557084     
   2972216710.0429516     
   2936324289.9652805     
   2906680415.0378513     
   2883518535.1539469     
   2892378981.2934556     
   2860810992.2756867     
   2835437299.9562902     
   2816403821.8217182     
   2803867382.7783356     
   3316505201.0272574     
   3224798624.5109210     
   3139113528.0198493     
   3059939983.1325202     
   2987842665.2968702     
   3144191454.7071204     
   3066426597.9500632     
   2995535302.2297244     
   2931988960.4811001     
   2876319079.6857648     
   2998380022.0415859     
   2934319349.8533306     
   2877954143.6084752     
   2829704222.6428466     
   2790031967.9604306     
   2883518535.1539469     
   2832368505.0591817     
   2789669433.3768201     
   2755760038.5507030     
   2731004692.8330622     
   2803867382.7783356     
   2764147566.6340256     
   2733545107.1186366     
   2712299592.7751360     
   2700663401.6091619     
   2987842665.2968702     
   2920473977.5202951     
   2858970672.1902804     
   2803776144.3233800     
   2755401436.8824310     
   2876319079.6857648     
   2822477970.8013377     
   2774586673.9596825     
   2733012736.1516628     
   2698169310.6873021     
   2790031967.9604306     
   2748506533.2276416     
   2712874867.4073601     
   2683422306.9209781     
   2660462803.4532328     
   2731004692.8330622     
   2700380826.6413884     
   2675455432.4718060     
   2656433733.5207663     
   2643538101.7521758     
   2700663401.6091619     
   2679352104.9956379     
   2663419496.9247098     
   2653000166.3919477     
   2648239234.5481887     
   2755401436.8824310     
   2664249939.3928714     
   2581911064.7465363     
   2510598405.6882629     
   2453122072.3904538     
   2698169310.6873021     
   2630420214.5911784     
   2573606295.9168806     
   2528951899.1876478     
   2497760422.0191879     
   2660462803.4532328     
   2609727342.7841468     
   2571360746.8369732     
   2546002423.3934722     
   2534255876.1439710     
   2643538101.7521758     
   2601627183.3862166     
   2573058653.4231167     
   2558374398.0176735     
   2558290398.0425849     
   2648239234.5481887     
   2605519712.0024762     
   2576945984.3910422     
   2563496487.8424559     
   2566817383.3041153     
   1955369191.9552126     
   2119444430.4915185     
   2284861729.4469657     
   2448660090.2522168     
   2608881708.7375245     
   1653930562.8225653     
   1820371510.3910797     
   1988499676.7255025     
   2155617982.5539823     
   2319968361.5563259     
   1393785863.6713920     
   1571139794.5781972     
   1749494453.4278562     
   1926845259.3066845     
   2101941303.8461981     
   1207243904.2934489     
   1399168591.1285334     
   1590671526.8360138     
   1780974900.3773677     
   1969619418.4190900     
   1136984889.4707227     
   1335305212.1275465     
   1533937388.1483147     
   1732881417.8210866     
   1932137302.6503432     
   2608881708.7375245     
   2676782645.4682512     
   2749208009.2648492     
   2825648785.7313251     
   2905752358.8813801     
   2319968361.5563259     
   2407017190.3557558     
   2496517353.3198066     
   2588079822.9619274     
   2681429731.4565744     
   2101941303.8461981     
   2205704879.5471144     
   2309380252.4012208     
   2412732183.9179707     
   2515594440.8120737     
   1969619418.4190900     
   2086777589.5070765     
   2201076824.2881012     
   2312442812.8318524     
   2420823754.4980569     
   1932137302.6503432     
   2058783181.5678868     
   2179989264.8165312     
   2295755553.4321117     
   2406082052.7243180     
   2905752358.8813801     
   2920855517.8244014     
   2937181979.7160144     
   2954676579.6660571     
   2973298531.3835340     
   2681429731.4565744     
   2703203561.2679687     
   2727265557.1933026     
   2753598180.6296902     
   2782192915.2780786     
   2515594440.8120737     
   2544041470.3917398     
   2575876667.5385628     
   2611101512.9694786     
   2649721713.9882298     
   2420823754.4980569     
   2454463051.8135262     
   2492597420.6439996     
   2535229988.6103969     
   2582365086.3376393     
   2406082052.7243180     
   2441842510.3392143     
   2483200213.7353826     
   2530155208.0025063     
   2582707593.6870518     
   2973298531.3835340     
   2941841911.4628172     
   2917773801.9975815     
   2901223194.0129647     
   2892378981.2934556     
   2782192915.2780786     
   2765280990.1648145     
   2755554144.1740260     
   2753095146.2877898     
   2758017330.9760008     
   2649721713.9882298     
   2644453508.9742036     
   2645889873.1735911     
   2654068484.0772185     
   2669038356.6924605     
   2582365086.3376393     
   2585371934.5695233     
   2594334849.8134975     
   2609262599.8630266     
   2630165852.0708704     
   2582707593.6870518     
   2590476952.9885736     
   2603236960.1633472     
   2620987543.4886661     
   2643728790.2161245     
   2892378981.2934556     
   2860810992.2756867     
   2835437299.9562902     
   2816403821.8217182     
   2803867382.7783356     
   2758017330.9760008     
   2735036722.9457479     
   2718849754.7343907     
   2709556501.2103930     
   2707262702.6091318     
   2669038356.6924605     
   2652937659.9635987     
   2644166434.7939715     
   2642776441.7341852     
   2648821618.8682203     
   2630165852.0708704     
   2618523137.2719092     
   2614673575.3192124     
   2618631414.9937620     
   2630411443.3899794     
   2643728790.2161245     
   2633566447.3898258     
   2631591279.2436924     
   2637803197.5897737     
   2652202148.7285023     
   2803867382.7783356     
   2764147566.6340256     
   2733545107.1186366     
   2712299592.7751360     
   2700663401.6091619     
   2707262702.6091318     
   2678591051.5511336     
   2659072864.6120920     
   2648852438.3259687     
   2648078614.8845925     
   2648821618.8682203     
   2628859060.5953436     
   2617994192.0171156     
   2616294531.4168663     
   2623828860.8075438     
   2630411443.3899794     
   2616431135.2121410     
   2611430565.5589790     
   2615428422.6288347     
   2628444136.6752992     
   2652202148.7285023     
   2641281902.5967727     
   2639194845.4019847     
   2645942290.7457614     
   2661526404.3392601     
   2700663401.6091619     
   2679352104.9956379     
   2663419496.9247098     
   2653000166.3919477     
   2648239234.5481887     
   2648078614.8845925     
   2634683367.1629281     
   2627278095.3870783     
   2625934644.0860128     
   2630725149.8839693     
   2623828860.8075438     
   2615880909.0307302     
   2614414812.7809410     
   2619455957.6599641     
   2631029256.5342240     
   2628444136.6752992     
   2623009889.1254783     
   2624453639.0677838     
   2632780148.5829616     
   2648001146.2115073     
   2661526404.3392601     
   2655386549.7926445     
   2656446260.4822731     
   2664720874.4844632     
   2680247131.6333051     
   2648239234.5481887     
   2605519712.0024762     
   2576945984.3910422     
   2563496487.8424559     
   2566817383.3041153     
   2630725149.8839693     
   2587753619.6953740     
   2557813962.1220913     
   2541248878.8091884     
   2538549622.9596496     
   2631029256.5342240     
   2593526856.7422872     
   2568588788.0680461     
   2556305287.4852448     
   2556760286.2525110     
   2648001146.2115073     
   2621938492.8819985     
   2608571066.1730638     
   2608139155.0516267     
   2621092919.3433537     
   2680247131.6333051     
   2671557880.9593654     
   2676301212.7024226     
   2695234573.0244222     
   2729850033.8411427     
   1136984889.4707227     
   1335305212.1275465     
   1533937388.1483147     
   1732881417.8210866     
   1932137302.6503432     
   1207185834.5146940     
   1399152810.0835528     
   1590699577.9496505     
   1781050113.3150156     
   1969746455.7353506     
   1393711468.6034939     
   1571116709.5451980     
   1749530763.6347220     
   1926949912.0928683     
   2102123940.0993791     
   1653875895.0941756     
   1820348883.7627351     
   1988524014.7133884     
   2155703801.4476480     
   2320129444.4665165     
   1955359205.5507081     
   2119427803.3495686     
   2284857441.5459886     
   2448686021.1992145     
   2608953597.6884661     
   1932137302.6503432     
   2058783181.5678868     
   2179989264.8165312     
   2295755553.4321117     
   2406082052.7243180     
   1969746455.7353506     
   2086847985.9353611     
   2201086142.2979369     
   2312385613.4359026     
   2420694201.3003016     
   2102123940.0993791     
   2205814601.4711385     
   2309409213.5064363     
   2412671962.5891991     
   2515436346.7371440     
   2320129444.4665165     
   2407127671.5664110     
   2496567628.2011456     
   2588061242.6479645     
   2681333916.9286447     
   2608953597.6884661     
   2676856481.3545141     
   2749274733.2815881     
   2825702681.9415140     
   2905788938.4279051     
   2406082052.7243180     
   2441842510.3392143     
   2483200213.7353826     
   2530155208.0025063     
   2582707593.6870518     
   2420694201.3003016     
   2454639206.4746661     
   2493120342.4835677     
   2536141807.6118059     
   2583708296.3599305     
   2515436346.7371440     
   2544326624.8364606     
   2576677495.1139102     
   2612491681.8746338     
   2651775714.7519536     
   2681333916.9286447     
   2703505592.3430824     
   2728057484.1891713     
   2754972487.3221898     
   2784243213.7959609     
   2905788938.4279051     
   2921075183.6215920     
   2937682934.2252078     
   2955555260.6804237     
   2974651954.7301736     
   2582707593.6870518     
   2590476952.9885736     
   2603236960.1633472     
   2620987543.4886661     
   2643728790.2161245     
   2583708296.3599305     
   2586573186.0462823     
   2595475684.8375616     
   2610423724.1707730     
   2631429047.8809643     
   2651775714.7519536     
   2646278749.2345238     
   2647660239.2185926     
   2655958462.2547083     
   2671225541.8667126     
   2784243213.7959609     
   2767002556.0371418     
   2757220770.0692062     
   2754986723.5125809     
   2760421867.1771107     
   2974651954.7301736     
   2942689455.6375475     
   2918491852.8022780     
   2902205032.7290339     
   2894035873.8977799     
   2643728790.2161245     
   2633566447.3898258     
   2631591279.2436924     
   2637803197.5897737     
   2652202148.7285023     
   2631429047.8809643     
   2620412636.2767172     
   2617124676.7372150     
   2621579641.4270964     
   2633792187.0873256     
   2671225541.8667126     
   2656377555.0086150     
   2648732757.2449985     
   2648342543.0885715     
   2655259708.9588261     
   2760421867.1771107     
   2739340166.7169414     
   2724872118.8189235     
   2717115721.4433784     
   2716173245.2875972     
   2894035873.8977799     
   2865046101.3930907     
   2842026976.4671769     
   2825119831.6895089     
   2814474673.0752888     
   2652202148.7285023     
   2641281902.5967727     
   2639194845.4019847     
   2645942290.7457614     
   2661526404.3392601     
   2633792187.0873256     
   2620997501.1678872     
   2617209142.2026567     
   2622442391.1235766     
   2636712314.5912876     
   2655259708.9588261     
   2637052992.4486113     
   2627960748.1297660     
   2628049851.8108516     
   2637387908.6972585     
   2716173245.2875972     
   2689234602.6388927     
   2671419609.5453758     
   2662879699.3843260     
   2663772389.5632453     
   2814474673.0752888     
   2775936930.6313090     
   2746398851.5418715     
   2726117172.6132779     
   2715367140.2772593     
   2661526404.3392601     
   2655386549.7926445     
   2656446260.4822731     
   2664720874.4844632     
   2680247131.6333051     
   2636712314.5912876     
   2626984009.5114956     
   2624162068.6601462     
   2628269290.4904127     
   2639335852.8219528     
   2637387908.6972585     
   2623323645.9529605     
   2615953903.1706285     
   2615314589.2434754     
   2621441924.2835078     
   2663772389.5632453     
   2644790125.0174894     
   2632360522.2396703     
   2626536151.4854240     
   2627370545.5977407     
   2715367140.2772593     
   2691066868.6769910     
   2673240042.2319756     
   2661957204.9386306     
   2657298418.7596831     
   2680247131.6333051     
   2671557880.9593654     
   2676301212.7024226     
   2695234573.0244222     
   2729850033.8411427     
   2639335852.8219528     
   2641639004.1987681     
   2657082270.0263324     
   2685874065.4256196     
   2728444584.0025339     
   2621441924.2835078     
   2623576364.9300518     
   2638378791.4043121     
   2665914409.2952676     
   2706241898.0060954     
   2627370545.5977407     
   2618566162.0912318     
   2621652843.7520585     
   2636964571.7957306     
   2664885368.2912025     
   2657298418.7596831     
   2627686359.1741586     
   2608653183.0601845     
   2601194990.5541234     
   2606755789.2666721     
   1955359205.5507081     
   2119427803.3495686     
   2284857441.5459886     
   2448686021.1992145     
   2608953597.6884661     
   2298818279.1942730     
   2449516116.2709732     
   2604937418.0590768     
   2763158448.0797620     
   2922748348.5589027     
   2694756292.3825269     
   2830529288.5053687     
   2973613655.9994478     
   3122926492.9473705     
   3277556281.8497162     
   3137964894.9636917     
   3255513400.1114593     
   3382477254.6407657     
   3518387137.9072857     
   3662785075.9369078     
   3624955596.8045835     
   3719676454.6071544     
   3825646395.6783271     
   3942801782.2077870     
   4071049846.1921678     
   2608953597.6884661     
   2676856481.3545141     
   2749274733.2815881     
   2825702681.9415140     
   2905788938.4279051     
   2922748348.5589027     
   2975641375.9617147     
   3030766655.0483837     
   3087443789.6662030     
   3145140945.5594478     
   3277556281.8497162     
   3320753908.7561655     
   3364203126.2226496     
   3407081495.9628410     
   3448711207.5443416     
   3662785075.9369078     
   3702145072.5019999     
   3740132322.5585470     
   3775847162.4068723     
   3808539460.6654782     
   4071049846.1921678     
   4112431700.8743067     
   4151170033.8188944     
   4186364592.9071503     
   4217281508.2330718     
   2905788938.4279051     
   2921075183.6215920     
   2937682934.2252078     
   2955555260.6804237     
   2974651954.7301736     
   3145140945.5594478     
   3141838674.4867864     
   3142123861.0180163     
   3145894538.3521695     
   3153136734.4481912     
   3448711207.5443416     
   3422861530.0141435     
   3402090054.2122750     
   3386166825.0306668     
   3375076840.7479272     
   3808539460.6654782     
   3755835174.5891070     
   3709107696.1843719     
   3667883919.4195070     
   3632069540.3623567     
   4217281508.2330718     
   4133135565.7100806     
   4055484949.1010323     
   3983481867.3641133     
   3916833724.6122203     
   2974651954.7301736     
   2942689455.6375475     
   2918491852.8022780     
   2902205032.7290339     
   2894035873.8977799     
   3153136734.4481912     
   3107502859.7190347     
   3068419464.8326325     
   3036097437.9313879     
   3010801854.1685052     
   3375076840.7479272     
   3315989418.1630583     
   3262370889.9219513     
   3214458242.3312411     
   3172537263.1682749     
   3632069540.3623567     
   3560356752.6460543     
   3493199737.7267518     
   3430831360.9262714     
   3373527931.8517346     
   3916833724.6122203     
   3833645380.8292551     
   3754284421.9303508     
   3678960751.9193974     
   3607922574.3881073     
   2894035873.8977799     
   2865046101.3930907     
   2842026976.4671769     
   2825119831.6895089     
   2814474673.0752888     
   3010801854.1685052     
   2970463290.6673360     
   2936062733.7778807     
   2907808342.4012036     
   2885930646.3696136     
   3172537263.1682749     
   3119191099.8238969     
   3071543976.0567684     
   3029862243.4754934     
   2994453938.5628624     
   3373527931.8517346     
   3305923733.2744846     
   3243610963.9300570     
   3186894838.3617167     
   3136144494.7271628     
   3607922574.3881073     
   3525131469.1187177     
   3447103641.9980860     
   3374158497.0295906     
   3306701358.5903010     
   2814474673.0752888     
   2775936930.6313090     
   2746398851.5418715     
   2726117172.6132779     
   2715367140.2772593     
   2885930646.3696136     
   2834574771.3936858     
   2791609683.7439451     
   2757384450.8139620     
   2732277728.4889827     
   2994453938.5628624     
   2929260394.6912684     
   2871772631.0504622     
   2822412438.0162873     
   2781646878.1463928     
   3136144494.7271628     
   3056706992.5543766     
   2984242663.3329091     
   2919216763.9541202     
   2862156484.1613564     
   3306701358.5903010     
   3213084869.6383758     
   3125702207.8620238     
   3045031453.2045803     
   2971626636.2154789     
   2715367140.2772593     
   2691066868.6769910     
   2673240042.2319756     
   2661957204.9386306     
   2657298418.7596831     
   2732277728.4889827     
   2700825373.8018670     
   2675693556.7184863     
   2657024154.6953864     
   2644964872.4366722     
   2781646878.1463928     
   2740671722.2874393     
   2705688506.2341633     
   2676922484.4907031     
   2654611589.1660013     
   2862156484.1613564     
   2809801714.9537988     
   2762922186.2402425     
   2721823601.6789265     
   2686841834.2380652     
   2971626636.2154789     
   2906592788.9074774     
   2846341621.8347774     
   2791241419.7828450     
   2741716472.7444491     
   2657298418.7596831     
   2627686359.1741586     
   2608653183.0601845     
   2601194990.5541234     
   2606755789.2666721     
   2644964872.4366722     
   2592167394.8347349     
   2550094865.4464440     
   2519572628.4738808     
   2501613929.3332992     
   2654611589.1660013     
   2581933695.3614621     
   2520270069.8186092     
   2470396771.1724591     
   2433139552.1831689     
   2686841834.2380652     
   2597450389.4987826     
   2519560856.6736169     
   2454038904.1461535     
   2401812345.2835064     
   2741716472.7444491     
   2638427226.1091056     
   2547394021.1200156     
   2469723343.8102875     
   2406759780.4881563     
   3624955596.8045835     
   3719676454.6071544     
   3825646395.6783271     
   3942801782.2077870     
   4071049846.1921678     
   4134087689.8321853     
   4224358044.6955309     
   4320546866.1381006     
   4420997396.5661802     
   4524255106.0363588     
   4643409665.5307388     
   4755509507.5337563     
   4868731988.6890326     
   4980442251.1536236     
   5088715001.4881544     
   5151401193.5193491     
   5311305978.5511923     
   5467842904.0514727     
   5618116531.4925671     
   5760660991.6478024     
   5657798344.7902975     
   5890909456.8071299     
   6116383806.5018454     
   6331762365.7944450     
   6536821634.7325268     
   4071049846.1921678     
   4112431700.8743067     
   4151170033.8188944     
   4186364592.9071503     
   4217281508.2330718     
   4524255106.0363588     
   4539003706.9527569     
   4558423980.9091539     
   4580035026.2167549     
   4602112835.8790407     
   5088715001.4881544     
   5053996433.0128756     
   5029789483.5624800     
   5010887711.4702005     
   4994089492.4548731     
   5760660991.6478024     
   5652081335.0106754     
   5559501276.9857416     
   5473860150.4543371     
   5389616846.7896042     
   6536821634.7325268     
   6328662191.6604156     
   6142689507.6030264     
   5964996764.2874308     
   5786575233.8079329     
   4217281508.2330718     
   4133135565.7100806     
   4055484949.1010323     
   3983481867.3641133     
   3916833724.6122203     
   4602112835.8790407     
   4493791127.4615164     
   4389690367.6566391     
   4289494975.9235401     
   4193116466.4250259     
   4994089492.4548731     
   4866949924.4656925     
   4742999240.7689505     
   4622205838.5085907     
   4504610690.0061417     
   5389616846.7896042     
   5248645402.1472406     
   5110892654.6993303     
   4976400012.4394665     
   4845260713.5430756     
   5786575233.8079329     
   5636205932.3339119     
   5490029016.8085709     
   5347957760.0737286     
   5210038056.5836134     
   3916833724.6122203     
   3833645380.8292551     
   3754284421.9303508     
   3678960751.9193974     
   3607922574.3881073     
   4193116466.4250259     
   4097258316.0366578     
   4004719981.2472668     
   3915717217.7405758     
   3830524881.1793761     
   4504610690.0061417     
   4394443236.1937504     
   4286889313.4194117     
   4182139004.7081656     
   4080468329.4345593     
   4845260713.5430756     
   4719306559.1860695     
   4595129808.6888666     
   4472861509.7751455     
   4352747523.3293915     
   5210038056.5836134     
   5066942934.8133574     
   4924719020.2001543     
   4783405958.9447203     
   4643186229.9830399     
   3607922574.3881073     
   3525131469.1187177     
   3447103641.9980860     
   3374158497.0295906     
   3306701358.5903010     
   3830524881.1793761     
   3733223729.5138474     
   3639766147.6709638     
   3550435841.7884879     
   3465590025.5222688     
   4080468329.4345593     
   3969964170.5622787     
   3862581662.1454854     
   3758555283.7231059     
   3658180280.7710438     
   4352747523.3293915     
   4230391261.4565859     
   4110634170.3981586     
   3993658077.8053632     
   3879694421.7924471     
   4643186229.9830399     
   4510278010.3351793     
   4379633275.5109615     
   4251383365.9734755     
   4125701037.2855320     
   3306701358.5903010     
   3213084869.6383758     
   3125702207.8620238     
   3045031453.2045803     
   2971626636.2154789     
   3465590025.5222688     
   3356699363.6728864     
   3253132533.0280700     
   3155373584.9548464     
   3064003505.2500486     
   3658180280.7710438     
   3533954429.4106984     
   3414081422.1744566     
   3299011926.3729229     
   3189306839.8994622     
   3879694421.7924471     
   3740346685.1481566     
   3604381915.1254401     
   3472187591.0084763     
   3344265557.8680029     
   4125701037.2855320     
   3971598370.3044281     
   3819955552.7364149     
   3671078800.1573296     
   3525384737.8561897     
   2971626636.2154789     
   2906592788.9074774     
   2846341621.8347774     
   2791241419.7828450     
   2741716472.7444491     
   3064003505.2500486     
   2985676383.7016702     
   2911324374.9440908     
   2841276667.3924270     
   2775917673.4134231     
   3189306839.8994622     
   3098939832.5196562     
   3011820244.2754707     
   2928217284.2406287     
   2848450789.5931296     
   3344265557.8680029     
   3243275151.4498115     
   3144931067.9173341     
   3049434246.0446758     
   2957029080.1091628     
   3525384737.8561897     
   3415196338.6570358     
   3307203222.3758273     
   3201540616.5189090     
   3098379856.8569698     
   2741716472.7444491     
   2638427226.1091056     
   2547394021.1200156     
   2469723343.8102875     
   2406759780.4881563     
   2775917673.4134231     
   2655150674.4744492     
   2544926168.7588706     
   2446497459.3053722     
   2361323760.2623539     
   2848450789.5931296     
   2707051422.2247572     
   2573708419.5338759     
   2449716686.8789878     
   2336657270.4690604     
   2957029080.1091628     
   2793760106.8091044     
   2635484898.1608348     
   2483361734.7805271     
   2338973319.0063577     
   3098379856.8569698     
   2913720422.1316476     
   2730774798.9219751     
   2550405726.5948596     
   2374046913.0220590     
   5657798344.7902975     
   5890909456.8071299     
   6116383806.5018454     
   6331762365.7944450     
   6536821634.7325268     
   6491668895.4518957     
   6586897422.5788326     
   6757457197.7387943     
   6961264860.6128445     
   7171660053.3746204     
   7982357059.7239141     
   7734997488.2696953     
   7669204945.6495495     
   7669667748.0387850     
   7666454550.9147654     
   10130310205.789566     
   9322049073.9227695     
   8826436523.9499340     
   8443628802.6127768     
   8035816638.3469238     
   12935615103.653919     
   11340765680.870916     
   10210318357.275480     
   9272915618.4105740     
   8304115475.8674717     
   6536821634.7325268     
   6328662191.6604156     
   6142689507.6030264     
   5964996764.2874308     
   5786575233.8079329     
   7171660053.3746204     
   6910943341.8847876     
   6658132053.1466398     
   6409368771.1267195     
   6161508514.8114719     
   7666454550.9147654     
   7381123551.5580540     
   7101195460.0718870     
   6826748435.0365143     
   6557986640.3488016     
   8035816638.3469238     
   7746853181.2878637     
   7473573441.7205229     
   7214017916.8417072     
   6968194658.6605825     
   8304115475.8674717     
   8020695332.7629023     
   7779398110.2220964     
   7569537573.8971930     
   7386144269.4841433     
   5786575233.8079329     
   5636205932.3339119     
   5490029016.8085709     
   5347957760.0737286     
   5210038056.5836134     
   6161508514.8114719     
   6012758726.3829498     
   5865337036.9681568     
   5719281599.2027988     
   5574648063.2479477     
   6557986640.3488016     
   6407737146.2474241     
   6255848020.8119307     
   6102287253.1814556     
   5947084204.1712036     
   6968194658.6605825     
   6814678785.6360445     
   6656534131.4758606     
   6493477625.6076593     
   6325459186.6340752     
   7386144269.4841433     
   7228584543.1756411     
   7063495425.3429184     
   6890182840.5668640     
   6708461493.2264929     
   5210038056.5836134     
   5066942934.8133574     
   4924719020.2001543     
   4783405958.9447203     
   4643186229.9830399     
   5574648063.2479477     
   5413920537.4505014     
   5254124938.5497046     
   5095303989.7509098     
   4937563484.3069744     
   5947084204.1712036     
   5772112899.5895090     
   5598572325.9092083     
   5426489411.7743340     
   5255927135.5834045     
   6325459186.6340752     
   6139112634.8460255     
   5955075792.2225132     
   5773328952.1875238     
   5593903113.6356707     
   6708461493.2264929     
   6513104467.3136044     
   6321279275.1516495     
   6132877452.3994665     
   5947887889.2587242     
   4643186229.9830399     
   4510278010.3351793     
   4379633275.5109615     
   4251383365.9734755     
   4125701037.2855320     
   4937563484.3069744     
   4795686379.0408249     
   4655072331.2697659     
   4515828187.1952219     
   4378096847.1831474     
   5255927135.5834045     
   5105162448.8168526     
   4954694379.5046072     
   4804591852.9662256     
   4654958631.1272421     
   5593903113.6356707     
   5434503136.5466270     
   5274489182.7453718     
   5113883951.9109163     
   4952747685.3139696     
   5947887889.2587242     
   5780226727.5681076     
   5611112166.7379065     
   5440516604.2491865     
   5268456516.9181213     
   4125701037.2855320     
   3971598370.3044281     
   3819955552.7364149     
   3671078800.1573296     
   3525384737.8561897     
   4378096847.1831474     
   4209080189.7708087     
   4041964994.7829318     
   3876960186.8848801     
   3714365607.3265800     
   4654958631.1272421     
   4472198403.5868359     
   4290948779.7139063     
   4111338181.6189971     
   3933570551.9807181     
   4952747685.3139696     
   4757140243.4508610     
   4562796521.3521605     
   4369782814.9590960     
   4178231159.9740067     
   5268456516.9181213     
   5060639882.6271133     
   4853956167.5195122     
   4648426077.7178478     
   4444131954.5078096     
   3525384737.8561897     
   3415196338.6570358     
   3307203222.3758273     
   3201540616.5189090     
   3098379856.8569698     
   3714365607.3265800     
   3595485018.0200362     
   3477964109.3659053     
   3361935193.6699090     
   3247572446.2120242     
   3933570551.9807181     
   3805437665.3117142     
   3677735635.8063240     
   3550574188.7167420     
   3424115474.8997927     
   4178231159.9740067     
   4040518600.6072140     
   3902271045.6345291     
   3763558947.4278364     
   3624518877.7686944     
   4444131954.5078096     
   4296688177.9411154     
   4147754004.9926810     
   3997348246.9071565     
   3845571896.6289148     
   3098379856.8569698     
   2913720422.1316476     
   2730774798.9219751     
   2550405726.5948596     
   2374046913.0220590     
   3247572446.2120242     
   3045459865.4516759     
   2845617781.1763854     
   2648483362.0354462     
   2454733548.0662370     
   3424115474.8997927     
   3207861209.5685039     
   2994998352.1228848     
   2785939191.4202819     
   2581370800.8427434     
   3624518877.7686944     
   3395414576.4114127     
   3171146660.9070411     
   2952418480.3182235     
   2740555095.1609688     
   3845571896.6289148     
   3603162661.9092155     
   3367214403.7580953     
   3138967513.2109523     
   2920874600.8201189     
 </DataArray>
 <DataArray  type="Float64" Name="strain" NumberOfComponents="3" format="ascii">
  0.20348032383900072        0.0000000000000000       0.12540273850723896     
  0.18665344793971961       -2.7323852644222262E-002   7.4352307959305988E-002
  0.16982657204043849       -4.4674997976582621E-002   3.5133767300001485E-002
  0.15299969614115738       -5.2053435997081079E-002   7.7471165293255227E-003
  0.13617282024187624       -4.9459166705717636E-002  -7.8076443527220346E-003
  0.15985299942705161        0.0000000000000000        9.6447135226080186E-002
  0.15317670765864055       -2.1843979801276541E-002   6.2690722730113627E-002
  0.14650041589022952       -3.6173918680777524E-002   3.7403588607258710E-002
  0.13982412412181847       -4.2989816638502931E-002   2.0585732857515453E-002
  0.13314783235340741       -4.2291673674452773E-002   1.2237155480883874E-002
  0.12645762470800859        0.0000000000000000        7.4200737982910298E-002
  0.12656930555495080       -1.6364106958330831E-002   5.5279677148823786E-002
  0.12668098640189301       -2.7672839384972423E-002   4.1465283172332140E-002
  0.12679266724883520       -3.3926197279924783E-002   3.2757556053435326E-002
  0.12690434809577739       -3.5124180643187904E-002   2.9156495792133360E-002
  0.10329419968187165        0.0000000000000000        5.8663546777729295E-002
  0.10683124162865029       -1.0884234115385118E-002   5.2119171215436529E-002
  0.11036828357542894       -1.9171760089167329E-002   4.7318850995221796E-002
  0.11390532552220754       -2.4862577921346642E-002   4.4262586117085105E-002
  0.11744236746898618       -2.7956687611923044E-002   4.2950376581026385E-002
   9.0362724348640761E-002   0.0000000000000000        4.9835561610537163E-002
   9.3962515879739014E-002  -5.4043612724394043E-003   5.3209204929951806E-002
   9.7562307410837268E-002  -1.0670680793362235E-002   5.4964292075927651E-002
  0.10116209894193552       -1.5798958562768497E-002   5.5100823048464677E-002
  0.10476189047303378       -2.0789194580658185E-002   5.3618797847562932E-002
  0.13617282024187624       -4.9459166705717636E-002  -7.8076443527220346E-003
  0.13296054434683274       -4.2926212428435598E-002  -3.3970282928614537E-003
  0.12974826845178919       -3.8488595491178196E-002  -3.9586954533387536E-004
  0.12653599255674564       -3.6146315893945548E-002   1.1958318898606518E-003
  0.12332371666170214       -3.5899373636737592E-002   1.3780760127220515E-003
  0.13314783235340741       -4.2291673674452773E-002   1.2237155480883874E-002
  0.12891330432844730       -3.8426995877190881E-002   1.2178326056311358E-002
  0.12467877630348721       -3.5743289335281092E-002   1.1484449684238843E-002
  0.12044424827852712       -3.4240554048723330E-002   1.0155526364666136E-002
  0.11620972025356702       -3.3918790017517630E-002   8.1915560975933804E-003
  0.12690434809577739       -3.5124180643187904E-002   2.9156495792133360E-002
  0.12242197830573369       -3.3927779325946157E-002   2.5542586967800405E-002
  0.11793960851568996       -3.2997983179383836E-002   2.2068041560800243E-002
  0.11345723872564628       -3.2334792203501043E-002   1.8732859571132951E-002
  0.10897486893560254       -3.1938206398297683E-002   1.5537040998798622E-002
  0.11744236746898618       -2.7956687611923044E-002   4.2950376581026385E-002
  0.11348656627869183       -2.9428562774701423E-002   3.6695754441605499E-002
  0.10953076508839747       -3.0252677023486670E-002   3.1354906084350466E-002
  0.10557496389810313       -3.0429030358278781E-002   2.6927831509261334E-002
  0.10161916270780878       -2.9957622779077743E-002   2.3414530716337964E-002
  0.10476189047303378       -2.0789194580658185E-002   5.3618797847562932E-002
  0.10210706824732174       -2.4929346223456706E-002   4.5637828477726801E-002
   9.9452246021609694E-002  -2.7507370867589469E-002   3.9345043254889474E-002
   9.6797423795897661E-002  -2.8523268513056494E-002   3.4740442179050937E-002
   9.4142601570185613E-002  -2.7977039159857775E-002   3.1824025250211163E-002
  0.12332371666170214       -3.5899373636737592E-002   1.3780760127220515E-003
  0.12041603975631396       -3.6395963386674071E-002   6.5448836653958509E-004
  0.11750836285092579       -3.6284279810875140E-002   1.0992482502493461E-004
  0.11460068594553763       -3.5564322909340453E-002  -2.5561461182208728E-004
  0.11169300904014945       -3.4236092682070118E-002  -4.4212994400111283E-004
  0.11620972025356702       -3.3918790017517630E-002   8.1915560975933804E-003
  0.11346885219089649       -3.3992763300662962E-002   7.8337832558241227E-003
  0.11072798412822593       -3.3677239957158142E-002   7.6306039948223769E-003
  0.10798711606555540       -3.2972219987003296E-002   7.5820183145878552E-003
  0.10524624800288482       -3.1877703390198131E-002   7.6880262151209633E-003
  0.10897486893560254       -3.1938206398297683E-002   1.5537040998798622E-002
  0.10637637919174919       -3.1589563214651735E-002   1.5326306262357189E-002
  0.10377788944789587       -3.1070200103441203E-002   1.5245734582782795E-002
  0.10117939970404252       -3.0380117064666052E-002   1.5295325960075263E-002
   9.8580909960189173E-002  -2.9519314098326171E-002   1.5475080394234883E-002
  0.10161916270780878       -2.9957622779077743E-002   2.3414530716337964E-002
   9.9138620758872198E-002  -2.9186363128640539E-002   2.3132057386138858E-002
   9.6658078809935585E-002  -2.8463160249724291E-002   2.2955316588906229E-002
   9.4177536860999000E-002  -2.7788014142328822E-002   2.2884308324640331E-002
   9.1696994912062402E-002  -2.7160924806454254E-002   2.2919032593340879E-002
   9.4142601570185613E-002  -2.7977039159857775E-002   3.1824025250211163E-002
   9.1755576892265364E-002  -2.6783163042629364E-002   3.1251036627168868E-002
   8.9368552214345143E-002  -2.5856120396007320E-002   3.0759350013192785E-002
   8.6981527536424894E-002  -2.5195911219991617E-002   3.0348965408282705E-002
   8.4594502858504672E-002  -2.4802535514582280E-002   3.0019882812438836E-002
  0.11169300904014945       -3.4236092682070118E-002  -4.4212994400111283E-004
  0.10854280876083294       -3.2718245855960087E-002  -2.0544171345784901E-004
  0.10539260848151638       -3.1429439157905872E-002   1.3170321096811488E-004
  0.10224240820219985       -3.0369672587907907E-002   5.6930482927626536E-004
   9.9092207922883313E-002  -2.9538946145965750E-002   1.1073631414669771E-003
  0.10524624800288482       -3.1877703390198131E-002   7.6880262151209633E-003
  0.10221714905075377       -3.0658887127391982E-002   7.5418133621842354E-003
   9.9188050098622763E-002  -2.9580968159233736E-002   7.5373464697363474E-003
   9.6158951146491756E-002  -2.8643946485723385E-002   7.6746255377770980E-003
   9.3129852194360652E-002  -2.7847822106860876E-002   7.9536505663061752E-003
   9.8580909960189173E-002  -2.9519314098326171E-002   1.5475080394234883E-002
   9.5714201601849791E-002  -2.8599528398823973E-002   1.5034109291226477E-002
   9.2847493243510423E-002  -2.7732497160561483E-002   1.4776173415312850E-002
   8.9980784885171000E-002  -2.6918220383538860E-002   1.4701272766493880E-002
   8.7114076526831646E-002  -2.6156698067756057E-002   1.4809407344769793E-002
   9.1696994912062402E-002  -2.7160924806454254E-002   2.2919032593340879E-002
   8.9033966414120841E-002  -2.6540169670255971E-002   2.2271446073668714E-002
   8.6370937916179266E-002  -2.5884026161889343E-002   2.1848184047697512E-002
   8.3707909418237691E-002  -2.5192494281354408E-002   2.1649246515427066E-002
   8.1044880920296117E-002  -2.4465574028651238E-002   2.1674633476857698E-002
   8.4594502858504672E-002  -2.4802535514582280E-002   3.0019882812438836E-002
   8.2176443487567016E-002  -2.4480810941687900E-002   2.9253823709511156E-002
   7.9758384116629361E-002  -2.4035555163217204E-002   2.8753378366890445E-002
   7.7340324745691733E-002  -2.3466768179169914E-002   2.8518546784576715E-002
   7.4922265374754105E-002  -2.2774449989546364E-002   2.8549328962570120E-002
   9.9092207922883313E-002  -2.9538946145965750E-002   1.1073631414669771E-003
   9.6272109650939242E-002  -2.8778116579942864E-002   9.1906497886906635E-004
   9.3452011378995115E-002  -2.7928040637702017E-002   8.7903512915316062E-004
   9.0631913107050988E-002  -2.6988718319243453E-002   9.8727359231923217E-004
   8.7811814835106916E-002  -2.5960149624566942E-002   1.2437803683675863E-003
   9.3129852194360652E-002  -2.7847822106860876E-002   7.9536505663061752E-003
   9.0458581241185970E-002  -2.7091820710313103E-002   7.7874403237070400E-003
   8.7787310288011289E-002  -2.6275167983746905E-002   7.7706164057648325E-003
   8.5116039334836552E-002  -2.5397863927162326E-002   7.9031788124794347E-003
   8.2444768381661870E-002  -2.4459908540559128E-002   8.1851275438504789E-003
   8.7114076526831646E-002  -2.6156698067756057E-002   1.4809407344769793E-002
   8.4592750904201014E-002  -2.5405524840683466E-002   1.4636689975970396E-002
   8.2071425281570326E-002  -2.4622295329791974E-002   1.4614476943602531E-002
   7.9550099658939694E-002  -2.3807009535081091E-002   1.4742768247665829E-002
   7.7028774036309006E-002  -2.2959667456551314E-002   1.5021563888160838E-002
   8.1044880920296117E-002  -2.4465574028651238E-002   2.1674633476857698E-002
   7.8674618639984206E-002  -2.3719228971053906E-002   2.1466813935658760E-002
   7.6304356359672282E-002  -2.2969422675836841E-002   2.1410616742665606E-002
   7.3934094079360385E-002  -2.2216155143000078E-002   2.1506041897878768E-002
   7.1563831799048447E-002  -2.1459426372543389E-002   2.1753089401298054E-002
   7.4922265374754105E-002  -2.2774449989546364E-002   2.8549328962570120E-002
   7.2704184448535575E-002  -2.2032933101424318E-002   2.8277812202772118E-002
   7.0486103522317073E-002  -2.1316550021881958E-002   2.8159035802954785E-002
   6.8268022596098585E-002  -2.0625300750918861E-002   2.8192999763118204E-002
   6.6049941669880069E-002  -1.9959185288535519E-002   2.8379704083262514E-002
   8.7811814835106916E-002  -2.5960149624566942E-002   1.2437803683675863E-003
   8.4338518822320185E-002  -2.4912334105948120E-002   1.0926561565354209E-003
   8.0865222809533399E-002  -2.3915271315661624E-002   1.1310101872996081E-003
   7.7391926796746668E-002  -2.2968961253708342E-002   1.3588424606590932E-003
   7.3918630783959882E-002  -2.2073403920087165E-002   1.7761529766150419E-003
   8.2444768381661870E-002  -2.4459908540559128E-002   8.1851275438504789E-003
   7.9165526929214802E-002  -2.3509167480207094E-002   7.9467154024280284E-003
   7.5886285476767790E-002  -2.2593506402374397E-002   7.9069341390891890E-003
   7.2607044024320777E-002  -2.1712925307062411E-002   8.0657837538336552E-003
   6.9327802571873709E-002  -2.0867424194270123E-002   8.4232642466615104E-003
   7.7028774036309006E-002  -2.2959667456551314E-002   1.5021563888160838E-002
   7.3952739779689150E-002  -2.2106000854465596E-002   1.4711536562960648E-002
   7.0876705523069378E-002  -2.1271741489087281E-002   1.4609292751331243E-002
   6.7800671266449591E-002  -2.0456889360416369E-002   1.4714832453272923E-002
   6.4724637009829722E-002  -1.9661444468452749E-002   1.5028155668785625E-002
   7.1563831799048447E-002  -2.1459426372543389E-002   2.1753089401298054E-002
   6.8700157373743312E-002  -2.0702834228724334E-002   2.1387119638132793E-002
   6.5836482948438108E-002  -1.9949976575799999E-002   2.1238086024025785E-002
   6.2972808523133000E-002  -1.9200853413770272E-002   2.1305988558977359E-002
   6.0109134097827789E-002  -1.8455464742635763E-002   2.1590827242987332E-002
   6.6049941669880069E-002  -1.9959185288535519E-002   2.8379704083262514E-002
   6.3407779711377066E-002  -1.9299667602983073E-002   2.7973464627944672E-002
   6.0765617752874104E-002  -1.8628211662512661E-002   2.7793313957172605E-002
   5.8123455794371136E-002  -1.7944817467124632E-002   2.7839252070946688E-002
   5.5481293835868140E-002  -1.7249485016818444E-002   2.8111278969266573E-002
   7.3918630783959882E-002  -2.2073403920087165E-002   1.7761529766150419E-003
   7.1499246955431861E-002  -2.1174179987464181E-002   1.5847944963880423E-003
   6.9079863126903784E-002  -2.0216870128504261E-002   1.6188745172649455E-003
   6.6660479298375791E-002  -1.9201474343207320E-002   1.8783930392458070E-003
   6.4241095469847687E-002  -1.8127992631573386E-002   2.3633500623300163E-003
   6.9327802571873709E-002  -2.0867424194270123E-002   8.4232642466615104E-003
   6.7113740747791140E-002  -2.0025035066208674E-002   8.2429228895162798E-003
   6.4899678923708570E-002  -1.9153789925088843E-002   8.2477870401578557E-003
   6.2685617099626001E-002  -1.8253688770910985E-002   8.4378566985867376E-003
   6.0471555275543432E-002  -1.7324731603674759E-002   8.8131318648025925E-003
   6.4724637009829722E-002  -1.9661444468452749E-002   1.5028155668785625E-002
   6.2675664196875980E-002  -1.8875890144953222E-002   1.4829601521443109E-002
   6.0626691383922252E-002  -1.8090709721673870E-002   1.4776019888570871E-002
   5.8577718570968572E-002  -1.7305903198614539E-002   1.4867410770169454E-002
   5.6528745758014781E-002  -1.6521470575776021E-002   1.5103774166238593E-002
   6.0109134097827789E-002  -1.8455464742635763E-002   2.1590827242987332E-002
   5.8185017302686347E-002  -1.7726745223697743E-002   2.1344830392168924E-002
   5.6260900507544842E-002  -1.7027629518258675E-002   2.1203573062504470E-002
   5.4336783712403414E-002  -1.6358117626318593E-002   2.1167055253994170E-002
   5.2412666917261909E-002  -1.5718209547877449E-002   2.1235276966637517E-002
   5.5481293835868140E-002  -1.7249485016818444E-002   2.8111278969266573E-002
   5.3641800065222289E-002  -1.6577600302442291E-002   2.7788609501693817E-002
   5.1802306294576411E-002  -1.5964549314843632E-002   2.7530446561958549E-002
   4.9962812523930519E-002  -1.5410332054022268E-002   2.7336790150060492E-002
   4.8123318753284683E-002  -1.4914948519978599E-002   2.7207640265999589E-002
   6.4241095469847687E-002  -1.8127992631573386E-002   2.3633500623300163E-003
   6.0070001401461459E-002  -1.6774217621669418E-002   1.7094952806383512E-003
   5.5898907333075176E-002  -1.4917941941563151E-002   1.2661493616656916E-003
   5.1727813264689088E-002  -1.2559165591253613E-002   1.0333123054120652E-003
   4.7556719196302666E-002  -9.6978885707414975E-003   1.0109841118772778E-003
   6.0471555275543432E-002  -1.7324731603674759E-002   8.8131318648025925E-003
   5.6519353411574769E-002  -1.6218293915644832E-002   8.4086939509515068E-003
   5.2567151547606189E-002  -1.4785751199086178E-002   8.2315315832168778E-003
   4.8614949683637623E-002  -1.3027103453998733E-002   8.2816447615978173E-003
   4.4662747819668946E-002  -1.0942350680381630E-002   8.5590334860956574E-003
   5.6528745758014781E-002  -1.6521470575776021E-002   1.5103774166238593E-002
   5.2812202781861273E-002  -1.5662370209619914E-002   1.4772357478553710E-002
   4.9095659805707778E-002  -1.4653560456608983E-002   1.4684983020382181E-002
   4.5379116829554332E-002  -1.3495041316743187E-002   1.4841650791724989E-002
   4.1662573853400775E-002  -1.2186812790022650E-002   1.5242360792581233E-002
   5.2412666917261909E-002  -1.5718209547877449E-002   2.1235276966637517E-002
   4.8948549512320888E-002  -1.5106446503594828E-002   2.0800485863444788E-002
   4.5484432107379888E-002  -1.4521369714131899E-002   2.0626503673163772E-002
   4.2020314702438978E-002  -1.3962979179487973E-002   2.0713330395793192E-002
   3.8556197297497818E-002  -1.3431274899663115E-002   2.1060966031334144E-002
   4.8123318753284683E-002  -1.4914948519978599E-002   2.7207640265999589E-002
   4.4928393602953642E-002  -1.4550522797570020E-002   2.6493079105625206E-002
   4.1733468452622574E-002  -1.4389178971654801E-002   2.6056093541559494E-002
   3.8538543302291617E-002  -1.4430917042232618E-002   2.5896683573802134E-002
   3.5343618151960521E-002  -1.4675737009303580E-002   2.6014849202353973E-002
   9.0362724348640761E-002   0.0000000000000000        4.9835561610537163E-002
   9.3962515879739014E-002  -5.4043612724394043E-003   5.3209204929951806E-002
   9.7562307410837268E-002  -1.0670680793362235E-002   5.4964292075927651E-002
  0.10116209894193552       -1.5798958562768497E-002   5.5100823048464677E-002
  0.10476189047303378       -2.0789194580658185E-002   5.3618797847562932E-002
   8.2425370418242647E-002   0.0000000000000000        4.4783914685212617E-002
   8.4635671167682072E-002  -4.5742790490949526E-003   4.8267570038281422E-002
   8.6845971917121512E-002  -9.0372927914770043E-003   5.0590800001471356E-002
   8.9056272666560937E-002  -1.3389041227146150E-002   5.1753604574782459E-002
   9.1266573416000363E-002  -1.7629524356102405E-002   5.1755983758214691E-002
   7.4244309600603978E-002   0.0000000000000000        4.0575738205634364E-002
   7.5523250351944529E-002  -3.7441968257505001E-003   4.4142629147553639E-002
   7.6802191103285081E-002  -7.4039047895917715E-003   4.7007225483154010E-002
   7.8081131854625632E-002  -1.0979123891523815E-002   4.9169527212435463E-002
   7.9360072605966198E-002  -1.4469854131546632E-002   5.0629534335398053E-002
   6.5819541895724740E-002   0.0000000000000000        3.7211032171802390E-002
   6.6625253432526385E-002  -2.9141146024060476E-003   4.0834382257768476E-002
   6.7430964969328003E-002  -5.7705167877065396E-003   4.4213568520975598E-002
   6.8236676506129620E-002  -8.5692065559014752E-003   4.7348590961423763E-002
   6.9042388042931252E-002  -1.1310183906990861E-002   5.0239449579113006E-002
   5.7151067303604960E-002   0.0000000000000000        3.4689796583716709E-002
   5.7941680409427605E-002  -2.0840323790615959E-003   3.8342829368925926E-002
   5.8732293515250257E-002  -4.1371287858213094E-003   4.2209829114936127E-002
   5.9522906621072902E-002  -6.1592892202791353E-003   4.6290795821747339E-002
   6.0313519726895540E-002  -8.1505136824350823E-003   5.0585729489359521E-002
  0.10476189047303378       -2.0789194580658185E-002   5.3618797847562932E-002
  0.10210706824732174       -2.4929346223456706E-002   4.5637828477726801E-002
   9.9452246021609694E-002  -2.7507370867589469E-002   3.9345043254889474E-002
   9.6797423795897661E-002  -2.8523268513056494E-002   3.4740442179050937E-002
   9.4142601570185613E-002  -2.7977039159857775E-002   3.1824025250211163E-002
   9.1266573416000363E-002  -1.7629524356102405E-002   5.1755983758214691E-002
   9.0062380015434471E-002  -2.1204222176654550E-002   4.6517491467905667E-002
   8.8858186614868606E-002  -2.3558614687111332E-002   4.2492072680890128E-002
   8.7653993214302728E-002  -2.4692701887472801E-002   3.9679727397168116E-002
   8.6449799813736808E-002  -2.4606483777738927E-002   3.8080455616739638E-002
   7.9360072605966198E-002  -1.4469854131546632E-002   5.0629534335398053E-002
   7.9131397386841149E-002  -1.7479098129852370E-002   4.7791697436045728E-002
   7.8902722167716141E-002  -1.9609858506633191E-002   4.5691823396281625E-002
   7.8674046948591092E-002  -2.0862135261889094E-002   4.4329912216105709E-002
   7.8445371729466057E-002  -2.1235928395620066E-002   4.3705963895517980E-002
   6.9042388042931252E-002  -1.1310183906990861E-002   5.0239449579113006E-002
   6.9314120361541762E-002  -1.3753974083050204E-002   4.9460446382146972E-002
   6.9585852680152271E-002  -1.5661102326155044E-002   4.8944295401063896E-002
   6.9857584998762795E-002  -1.7031568636305370E-002   4.8690996635863647E-002
   7.0129317317373277E-002  -1.7865373013501204E-002   4.8700550086546286E-002
   6.0313519726895540E-002  -8.1505136824350823E-003   5.0585729489359521E-002
   6.0610548939536303E-002  -1.0028850036248042E-002   5.1523738306209398E-002
   6.0907578152177060E-002  -1.1712346145676910E-002   5.2249488695236858E-002
   6.1204607364817837E-002  -1.3201002010721689E-002   5.2762980656441909E-002
   6.1501636577458565E-002  -1.4494817631382349E-002   5.3064214189824578E-002
   9.4142601570185613E-002  -2.7977039159857775E-002   3.1824025250211163E-002
   9.1755576892265364E-002  -2.6783163042629364E-002   3.1251036627168868E-002
   8.9368552214345143E-002  -2.5856120396007320E-002   3.0759350013192785E-002
   8.6981527536424894E-002  -2.5195911219991617E-002   3.0348965408282705E-002
   8.4594502858504672E-002  -2.4802535514582280E-002   3.0019882812438836E-002
   8.6449799813736808E-002  -2.4606483777738927E-002   3.8080455616739638E-002
   8.4190741609125569E-002  -2.3961949482157990E-002   3.7057251925614459E-002
   8.1931683404514316E-002  -2.3421088124978152E-002   3.6208679172041139E-002
   7.9672625199903049E-002  -2.2983899706199559E-002   3.5534737356019599E-002
   7.7413566995291810E-002  -2.2650384225822051E-002   3.5035426477549952E-002
   7.8445371729466057E-002  -2.1235928395620066E-002   4.3705963895517980E-002
   7.6407608926649495E-002  -2.1140735921686565E-002   4.2395705668515138E-002
   7.4369846123832878E-002  -2.0986055853949012E-002   4.1353407307549835E-002
   7.2332083321016302E-002  -2.0771888192407450E-002   4.0579068812622021E-002
   7.0294320518199713E-002  -2.0498232937061822E-002   4.0072690183731829E-002
   7.0129317317373277E-002  -1.7865373013501204E-002   4.8700550086546286E-002
   6.8406178844837101E-002  -1.8319522361215139E-002   4.7266397855871015E-002
   6.6683040372300939E-002  -1.8551023582919837E-002   4.6193534419718851E-002
   6.4959901899764722E-002  -1.8559876678615354E-002   4.5481959778089998E-002
   6.3236763427228559E-002  -1.8346081648301593E-002   4.5131673930984412E-002
   6.1501636577458565E-002  -1.4494817631382349E-002   5.3064214189824578E-002
   6.0186451363688456E-002  -1.5498308800743741E-002   5.1669328487681958E-002
   5.8871266149918368E-002  -1.6115991311890704E-002   5.0729060508548252E-002
   5.7556080936148266E-002  -1.6347865164823255E-002   5.0243410252423515E-002
   5.6240895722378170E-002  -1.6193930359541350E-002   5.0212377719307685E-002
   8.4594502858504672E-002  -2.4802535514582280E-002   3.0019882812438836E-002
   8.2176443487567016E-002  -2.4480810941687900E-002   2.9253823709511156E-002
   7.9758384116629361E-002  -2.4035555163217204E-002   2.8753378366890445E-002
   7.7340324745691733E-002  -2.3466768179169914E-002   2.8518546784576715E-002
   7.4922265374754105E-002  -2.2774449989546364E-002   2.8549328962570120E-002
   7.7413566995291810E-002  -2.2650384225822051E-002   3.5035426477549952E-002
   7.5250362555690536E-002  -2.2321495176712919E-002   3.4429273572492924E-002
   7.3087158116089332E-002  -2.1898186051739557E-002   3.4067216769801643E-002
   7.0923953676488127E-002  -2.1380456850901706E-002   3.3949256069476241E-002
   6.8760749236886853E-002  -2.0768307574199535E-002   3.4075391471516614E-002
   7.0294320518199713E-002  -2.0498232937061822E-002   4.0072690183731829E-002
   6.8364453351993745E-002  -2.0162179411738000E-002   3.9597332346833311E-002
   6.6434586185787764E-002  -1.9760816940261883E-002   3.9344552954359534E-002
   6.4504719019581783E-002  -1.9294145522633414E-002   3.9314352006310338E-002
   6.2574851853375829E-002  -1.8762165158852678E-002   3.9506729502685883E-002
   6.3236763427228559E-002  -1.8346081648301593E-002   4.5131673930984412E-002
   6.1518715876476615E-002  -1.8002863646763050E-002   4.4758000032532483E-002
   5.9800668325724685E-002  -1.7623447828784264E-002   4.4585386920564095E-002
   5.8082620774972768E-002  -1.7207834194365206E-002   4.4613834595079060E-002
   5.6364573224220803E-002  -1.6756022743505822E-002   4.4843343056077532E-002
   5.6240895722378170E-002  -1.6193930359541350E-002   5.0212377719307685E-002
   5.4713150129139104E-002  -1.5843547881788114E-002   4.9911276629590301E-002
   5.3185404535900066E-002  -1.5486078717306628E-002   4.9789718668415285E-002
   5.1657658942661035E-002  -1.5121522866096904E-002   4.9847703835782353E-002
   5.0129913349421990E-002  -1.4749880328158993E-002   5.0085232131691831E-002
   7.4922265374754105E-002  -2.2774449989546364E-002   2.8549328962570120E-002
   7.2704184448535575E-002  -2.2032933101424318E-002   2.8277812202772118E-002
   7.0486103522317073E-002  -2.1316550021881958E-002   2.8159035802954785E-002
   6.8268022596098585E-002  -2.0625300750918861E-002   2.8192999763118204E-002
   6.6049941669880069E-002  -1.9959185288535519E-002   2.8379704083262514E-002
   6.8760749236886853E-002  -2.0768307574199535E-002   3.4075391471516614E-002
   6.6702250012530565E-002  -2.0113428466501215E-002   3.3769287696730335E-002
   6.4643750788174262E-002  -1.9467509772675147E-002   3.3629606965687606E-002
   6.2585251563817945E-002  -1.8830551492721212E-002   3.3656349278388578E-002
   6.0526752339461698E-002  -1.8202553626639528E-002   3.3849514634833128E-002
   6.2574851853375829E-002  -1.8762165158852678E-002   3.9506729502685883E-002
   6.0689617014644572E-002  -1.8193923831578182E-002   3.9182212107618568E-002
   5.8804382175913342E-002  -1.7618469523468475E-002   3.9037800440057779E-002
   5.6919147337182140E-002  -1.7035802234523622E-002   3.9073494500003532E-002
   5.5033912498450917E-002  -1.6445921964743565E-002   3.9289294287455853E-002
   5.6364573224220803E-002  -1.6756022743505822E-002   4.4843343056077532E-002
   5.4666285454877596E-002  -1.6274419196655128E-002   4.4516585435436656E-002
   5.2967997685534340E-002  -1.5769429274261733E-002   4.4383616226065140E-002
   5.1269709916191106E-002  -1.5241052976325975E-002   4.4444435427963155E-002
   4.9571422146847871E-002  -1.4689290302847588E-002   4.4699043041130468E-002
   5.0129913349421990E-002  -1.4749880328158993E-002   5.0085232131691831E-002
   4.8632255333229596E-002  -1.4354914561732005E-002   4.9772407680184649E-002
   4.7134597317037216E-002  -1.3920389025055102E-002   4.9667054323709880E-002
   4.5636939300844830E-002  -1.3446303718128397E-002   4.9769172062267414E-002
   4.4139281284652471E-002  -1.2932658640951611E-002   5.0078760895857277E-002
   6.6049941669880069E-002  -1.9959185288535519E-002   2.8379704083262514E-002
   6.3407779711377066E-002  -1.9299667602983073E-002   2.7973464627944672E-002
   6.0765617752874104E-002  -1.8628211662512661E-002   2.7793313957172605E-002
   5.8123455794371136E-002  -1.7944817467124632E-002   2.7839252070946688E-002
   5.5481293835868140E-002  -1.7249485016818444E-002   2.8111278969266573E-002
   6.0526752339461698E-002  -1.8202553626639528E-002   3.3849514634833128E-002
   5.8107213941282140E-002  -1.7574066782421363E-002   3.3481097757231945E-002
   5.5687675543102624E-002  -1.6935641568057921E-002   3.3331839215732018E-002
   5.3268137144923074E-002  -1.6287277983549602E-002   3.3401739010332818E-002
   5.0848598746743551E-002  -1.5628976028895847E-002   3.3690797141034873E-002
   5.5033912498450917E-002  -1.6445921964743565E-002   3.9289294287455853E-002
   5.2830067212149952E-002  -1.5848465961859681E-002   3.8956700102798753E-002
   5.0626221925849008E-002  -1.5243071473603348E-002   3.8836333805797818E-002
   4.8422376639548056E-002  -1.4629738499974516E-002   3.8928195396452932E-002
   4.6218531353247091E-002  -1.4008467040973194E-002   3.9232284874764309E-002
   4.9571422146847871E-002  -1.4689290302847588E-002   4.4699043041130468E-002
   4.7576339523980563E-002  -1.4122865141298041E-002   4.4400271664644816E-002
   4.5581256901113303E-002  -1.3550501379148747E-002   4.4306797727370291E-002
   4.3586174278246015E-002  -1.2972199016399472E-002   4.4418621229307217E-002
   4.1591091655378734E-002  -1.2387958053050513E-002   4.4735742170455228E-002
   4.4139281284652471E-002  -1.2932658640951611E-002   5.0078760895857277E-002
   4.2346030876773938E-002  -1.2397264320736290E-002   4.9811812442770304E-002
   4.0552780468895488E-002  -1.1857931284694062E-002   4.9743230980449638E-002
   3.8759530061016990E-002  -1.1314659532824574E-002   4.9873016508895363E-002
   3.6966279653138506E-002  -1.0767449065127888E-002   5.0201169028107451E-002
   5.5481293835868140E-002  -1.7249485016818444E-002   2.8111278969266573E-002
   5.3641800065222289E-002  -1.6577600302442291E-002   2.7788609501693817E-002
   5.1802306294576411E-002  -1.5964549314843632E-002   2.7530446561958549E-002
   4.9962812523930519E-002  -1.5410332054022268E-002   2.7336790150060492E-002
   4.8123318753284683E-002  -1.4914948519978599E-002   2.7207640265999589E-002
   5.0848598746743551E-002  -1.5628976028895847E-002   3.3690797141034873E-002
   4.9089946209894278E-002  -1.4982272244710659E-002   3.3341105856119546E-002
   4.7331293673044950E-002  -1.4368703171608072E-002   3.3088590510960234E-002
   4.5572641136195677E-002  -1.3788268809587605E-002   3.2933251105556942E-002
   4.3813988599346376E-002  -1.3240969158649585E-002   3.2875087639908929E-002
   4.6218531353247091E-002  -1.4008467040973194E-002   3.9232284874764309E-002
   4.4573389462112922E-002  -1.3386944186979180E-002   3.8881270788201638E-002
   4.2928247570978760E-002  -1.2772857028372463E-002   3.8660102053313557E-002
   4.1283105679844626E-002  -1.2166205565153054E-002   3.8568778670099585E-002
   3.9637963788710442E-002  -1.1566989797320820E-002   3.8607300638560230E-002
   4.1591091655378734E-002  -1.2387958053050513E-002   4.4735742170455228E-002
   4.0092129821878264E-002  -1.1791616129247624E-002   4.4409104297940157E-002
   3.8593167988377718E-002  -1.1177010885136934E-002   4.4244981189018519E-002
   3.7094206154877234E-002  -1.0544142320718281E-002   4.4243372843689253E-002
   3.5595244321376701E-002  -9.8930104359920418E-003   4.4404279261953283E-002
   3.6966279653138506E-002  -1.0767449065127888E-002   5.0201169028107451E-002
   3.5646167289190234E-002  -1.0196288071516041E-002   4.9924606385335246E-002
   3.4326054925241919E-002  -9.5811647419014045E-003   4.9843227918074828E-002
   3.3005942561293626E-002  -8.9220790762837010E-003   4.9957033626325392E-002
   3.1685830197345305E-002  -8.2190310746630968E-003   5.0266023510087854E-002
   4.8123318753284683E-002  -1.4914948519978599E-002   2.7207640265999589E-002
   4.4928393602953642E-002  -1.4550522797570020E-002   2.6493079105625206E-002
   4.1733468452622574E-002  -1.4389178971654801E-002   2.6056093541559494E-002
   3.8538543302291617E-002  -1.4430917042232618E-002   2.5896683573802134E-002
   3.5343618151960521E-002  -1.4675737009303580E-002   2.6014849202353973E-002
   4.3813988599346376E-002  -1.3240969158649585E-002   3.2875087639908929E-002
   4.0888402530684070E-002  -1.2748681019092878E-002   3.2145610204110137E-002
   3.7962816462021751E-002  -1.2333281191216253E-002   3.1677235335340087E-002
   3.5037230393359424E-002  -1.1994769675019699E-002   3.1469963033598655E-002
   3.2111644324697097E-002  -1.1733146470503164E-002   3.1523793298885883E-002
   3.9637963788710442E-002  -1.1566989797320820E-002   3.8607300638560230E-002
   3.6965243772436790E-002  -1.0946839240615597E-002   3.7989100512150195E-002
   3.4292523756163124E-002  -1.0277383410777767E-002   3.7615529923488496E-002
   3.1619803739889443E-002  -9.5586223078067255E-003   3.7486588872575735E-002
   2.8947083723615846E-002  -8.7905559317029702E-003   3.7602277359411573E-002
   3.5595244321376701E-002  -9.8930104359920418E-003   4.4404279261953283E-002
   3.3158917328211766E-002  -9.1449974621383850E-003   4.4023550029744701E-002
   3.0722590335046804E-002  -8.2214856303391946E-003   4.3870977306005046E-002
   2.8286263341881911E-002  -7.1224749405938348E-003   4.3946561090733860E-002
   2.5849936348716900E-002  -5.8479653929026654E-003   4.4250301383931490E-002
   3.1685830197345305E-002  -8.2190310746630968E-003   5.0266023510087854E-002
   2.9469423198009020E-002  -7.3431556836612288E-003   5.0248958756894169E-002
   2.7253016198672778E-002  -6.1655878499008304E-003   5.0443577482888885E-002
   2.5036609199336486E-002  -4.6863275733808295E-003   5.0849879688072711E-002
   2.2820202200000195E-002  -2.9053748541023605E-003   5.1467865372444965E-002
   5.7151067303604960E-002   0.0000000000000000        3.4689796583716709E-002
   5.7941680409427605E-002  -2.0840323790615959E-003   3.8342829368925926E-002
   5.8732293515250257E-002  -4.1371287858213094E-003   4.2209829114936127E-002
   5.9522906621072902E-002  -6.1592892202791353E-003   4.6290795821747339E-002
   6.0313519726895540E-002  -8.1505136824350823E-003   5.0585729489359521E-002
   4.8650945823908567E-002   0.0000000000000000        3.2788860618649066E-002
   4.9590200183502908E-002  -1.7093314674043059E-003   3.6965488892585718E-002
   5.0529454543097242E-002  -3.4325827397717230E-003   4.1225432713264738E-002
   5.1468708902691569E-002  -5.1697538171022565E-003   4.5568692080686174E-002
   5.2407963262285924E-002  -6.9208446993959056E-003   4.9995266994849977E-002
   4.0731237456299536E-002   0.0000000000000000        3.1285053453871219E-002
   4.1688481655606957E-002  -1.3346305557470142E-003   3.5940421439270294E-002
   4.2645725854914371E-002  -2.7280366937221393E-003   4.0548453557353169E-002
   4.3602970054221785E-002  -4.1802184139253769E-003   4.5109149808119808E-002
   4.4560214253529212E-002  -5.6911757163567254E-003   4.9622510191570234E-002
   3.3391942200777847E-002   0.0000000000000000        3.0178375089383147E-002
   3.4236524825739745E-002  -9.5992964408972339E-004   3.5267627008979674E-002
   3.5081107450701643E-002  -2.0234906476725551E-003   4.0178891647201370E-002
   3.5925690075663527E-002  -3.1906830107484969E-003   4.4912169004048250E-002
   3.6770272700625425E-002  -4.4615067333175383E-003   4.9467459079520298E-002
   2.6633060057343519E-002   0.0000000000000000        2.9468825525184872E-002
   2.7234329693901278E-002  -5.8522873243243255E-004   3.4947105601713845E-002
   2.7835599330459041E-002  -1.3189446016229692E-003   4.0116746982809384E-002
   2.8436868967016804E-002  -2.2011476075716168E-003   4.4977749668471477E-002
   2.9038138603574570E-002  -3.2318377502783659E-003   4.9530113658700151E-002
   6.0313519726895540E-002  -8.1505136824350823E-003   5.0585729489359521E-002
   6.0610548939536303E-002  -1.0028850036248042E-002   5.1523738306209398E-002
   6.0907578152177060E-002  -1.1712346145676910E-002   5.2249488695236858E-002
   6.1204607364817837E-002  -1.3201002010721689E-002   5.2762980656441909E-002
   6.1501636577458565E-002  -1.4494817631382349E-002   5.3064214189824578E-002
   5.2407963262285924E-002  -6.9208446993959056E-003   4.9995266994849977E-002
   5.2531766475792482E-002  -8.5843732669326836E-003   5.1222058035671425E-002
   5.2655569689299041E-002  -1.0058857399992609E-002   5.2314655506046949E-002
   5.2779372902805606E-002  -1.1344297098575699E-002   5.3273059405976438E-002
   5.2903176116312164E-002  -1.2440692362681936E-002   5.4097269735459988E-002
   4.4560214253529212E-002  -5.6911757163567254E-003   4.9622510191570234E-002
   4.4588856325277995E-002  -7.1398964976173238E-003   5.1132287646456075E-002
   4.4617498397026792E-002  -8.4053686543083313E-003   5.2585936388272345E-002
   4.4646140468775582E-002  -9.4875921864297288E-003   5.3983456417019078E-002
   4.4674782540524371E-002  -1.0386567093981527E-002   5.5324847732696220E-002
   3.6770272700625425E-002  -4.4615067333175383E-003   4.9467459079520298E-002
   3.6781818487992869E-002  -5.6954197283019614E-003   5.1254427138563242E-002
   3.6793364275360306E-002  -6.7518799086240385E-003   5.3063331341913052E-002
   3.6804910062727750E-002  -7.6308872742837548E-003   5.4894171689569705E-002
   3.6816455850095194E-002  -8.3324418252811155E-003   5.6746948181533266E-002
   2.9038138603574570E-002  -3.2318377502783659E-003   4.9530113658700151E-002
   2.9110652963937084E-002  -4.2509429589866017E-003   5.1588476511992942E-002
   2.9183167324299594E-002  -5.0983911629397536E-003   5.3746840366969063E-002
   2.9255681684662107E-002  -5.7741823621377739E-003   5.6005205223628444E-002
   2.9328196045024617E-002  -6.2783165565807111E-003   5.8363571081971120E-002
   6.1501636577458565E-002  -1.4494817631382349E-002   5.3064214189824578E-002
   6.0186451363688456E-002  -1.5498308800743741E-002   5.1669328487681958E-002
   5.8871266149918368E-002  -1.6115991311890704E-002   5.0729060508548252E-002
   5.7556080936148266E-002  -1.6347865164823255E-002   5.0243410252423515E-002
   5.6240895722378170E-002  -1.6193930359541350E-002   5.0212377719307685E-002
   5.2903176116312164E-002  -1.2440692362681936E-002   5.4097269735459988E-002
   5.1989632324753267E-002  -1.3290239301590418E-002   5.3364705054944811E-002
   5.1076088533194383E-002  -1.3835134024580227E-002   5.2980805495843067E-002
   5.0162544741635486E-002  -1.4075376531651348E-002   5.2945571058154894E-002
   4.9249000950076602E-002  -1.4010966822803839E-002   5.3259001741880099E-002
   4.4674782540524371E-002  -1.0386567093981527E-002   5.5324847732696220E-002
   4.4056927569581225E-002  -1.1082169802437080E-002   5.5173447631512676E-002
   4.3439072598638093E-002  -1.1554276737269706E-002   5.5264760050147202E-002
   4.2821217627694953E-002  -1.1802887898479483E-002   5.5598784988599693E-002
   4.2203362656751807E-002  -1.1828003286066334E-002   5.6175522446870269E-002
   3.6816455850095194E-002  -8.3324418252811155E-003   5.6746948181533266E-002
   3.6388337098172352E-002  -8.8741003032837482E-003   5.7095556217385622E-002
   3.5960218346249490E-002  -9.2734194499591929E-003   5.7580924171460567E-002
   3.5532099594326648E-002  -9.5303992653075660E-003   5.8203052043758086E-002
   3.5103980842403806E-002  -9.6450397493287980E-003   5.8961939834278151E-002
   2.9328196045024617E-002  -6.2783165565807111E-003   5.8363571081971120E-002
   2.8983860910526606E-002  -6.6660308041303906E-003   5.9131030812563615E-002
   2.8639525776028588E-002  -6.9925621626487165E-003   5.9929297859783209E-002
   2.8295190641530577E-002  -7.2579106321356921E-003   6.0758372223629932E-002
   2.7950855507032558E-002  -7.4620762125913176E-003   6.1618253904103748E-002
   5.6240895722378170E-002  -1.6193930359541350E-002   5.0212377719307685E-002
   5.4713150129139104E-002  -1.5843547881788114E-002   4.9911276629590301E-002
   5.3185404535900066E-002  -1.5486078717306628E-002   4.9789718668415285E-002
   5.1657658942661035E-002  -1.5121522866096904E-002   4.9847703835782353E-002
   5.0129913349421990E-002  -1.4749880328158993E-002   5.0085232131691831E-002
   4.9249000950076602E-002  -1.4010966822803839E-002   5.3259001741880099E-002
   4.7906924850658263E-002  -1.3780424086042790E-002   5.2927633759736172E-002
   4.6564848751239937E-002  -1.3522267509373430E-002   5.2788061636691412E-002
   4.5222772651821591E-002  -1.3236497092795707E-002   5.2840285372745766E-002
   4.3880696552403259E-002  -1.2923112836309675E-002   5.3084304967899190E-002
   4.2203362656751807E-002  -1.1828003286066334E-002   5.6175522446870269E-002
   4.1059208781711036E-002  -1.1717300290297501E-002   5.5834414725479904E-002
   3.9915054906670272E-002  -1.1558456301440234E-002   5.5697355593745577E-002
   3.8770901031629487E-002  -1.1351471319494511E-002   5.5764345051667205E-002
   3.7626747156588709E-002  -1.1096345344460301E-002   5.6035383099244787E-002
   3.5103980842403806E-002  -9.6450397493287980E-003   5.8961939834278151E-002
   3.4170001922297424E-002  -9.6541764945521948E-003   5.8631619526821520E-002
   3.3236023002191063E-002  -9.5946450935070378E-003   5.8517600539577684E-002
   3.2302044082084695E-002  -9.4664455461932993E-003   5.8619882872546741E-002
   3.1368065161978320E-002  -9.2695778526109551E-003   5.8938466525728553E-002
   2.7950855507032558E-002  -7.4620762125913176E-003   6.1618253904103748E-002
   2.7239304272417449E-002  -7.5910526988068883E-003   6.1319248163760928E-002
   2.6527753037802335E-002  -7.6308338855738261E-003   6.1248796474187794E-002
   2.5816201803187222E-002  -7.5814197728920861E-003   6.1406898835384374E-002
   2.5104650568572112E-002  -7.4428103607616092E-003   6.1793555247350529E-002
   5.0129913349421990E-002  -1.4749880328158993E-002   5.0085232131691831E-002
   4.8632255333229596E-002  -1.4354914561732005E-002   4.9772407680184649E-002
   4.7134597317037216E-002  -1.3920389025055102E-002   4.9667054323709880E-002
   4.5636939300844830E-002  -1.3446303718128397E-002   4.9769172062267414E-002
   4.4139281284652471E-002  -1.2932658640951611E-002   5.0078760895857277E-002
   4.3880696552403259E-002  -1.2923112836309675E-002   5.3084304967899190E-002
   4.2585763036121382E-002  -1.2580180893243476E-002   5.2797521974225436E-002
   4.1290829519839485E-002  -1.2205767416925015E-002   5.2708716885340338E-002
   3.9995896003557616E-002  -1.1799872407354663E-002   5.2817889701243875E-002
   3.8700962487275711E-002  -1.1362495864532113E-002   5.3125040421936248E-002
   3.7626747156588709E-002  -1.1096345344460301E-002   5.6035383099244787E-002
   3.6525044949973696E-002  -1.0805447224754801E-002   5.5766563326406601E-002
   3.5423342743358677E-002  -1.0491145808795010E-002   5.5686228268113341E-002
   3.4321640536743664E-002  -1.0153441096580958E-002   5.5794377924365215E-002
   3.3219938330128644E-002  -9.7923330881126147E-003   5.6091012295162085E-002
   3.1368065161978320E-002  -9.2695778526109551E-003   5.8938466525728553E-002
   3.0450101074786545E-002  -9.0307135562661435E-003   5.8679531736728005E-002
   2.9532136987594777E-002  -8.7765242006649646E-003   5.8599588472028875E-002
   2.8614172900403002E-002  -8.5070097858072104E-003   5.8698636731631199E-002
   2.7696208813211234E-002  -8.2221703116931721E-003   5.8976676515534919E-002
   2.5104650568572112E-002  -7.4428103607616092E-003   6.1793555247350529E-002
   2.4360931410559949E-002  -7.2559798877775417E-003   6.1536427205189814E-002
   2.3617212252547787E-002  -7.0619025925349327E-003   6.1448797497087010E-002
   2.2873493094535617E-002  -6.8605784750335498E-003   6.1530666123041963E-002
   2.2129773936523461E-002  -6.6520075352736185E-003   6.1782033083054688E-002
   4.4139281284652471E-002  -1.2932658640951611E-002   5.0078760895857277E-002
   4.2346030876773938E-002  -1.2397264320736290E-002   4.9811812442770304E-002
   4.0552780468895488E-002  -1.1857931284694062E-002   4.9743230980449638E-002
   3.8759530061016990E-002  -1.1314659532824574E-002   4.9873016508895363E-002
   3.6966279653138506E-002  -1.0767449065127888E-002   5.0201169028107451E-002
   3.8700962487275711E-002  -1.1362495864532113E-002   5.3125040421936248E-002
   3.7111080735838270E-002  -1.0907618259348995E-002   5.2824117928401748E-002
   3.5521198984400808E-002  -1.0449220062696683E-002   5.2731565756982984E-002
   3.3931317232963359E-002  -9.9873012745752745E-003   5.2847383907679846E-002
   3.2341435481525876E-002  -9.5218618949846623E-003   5.3171572380492554E-002
   3.3219938330128644E-002  -9.7923330881126147E-003   5.6091012295162085E-002
   3.1843428566481556E-002  -9.4179721979615882E-003   5.5755697636822178E-002
   3.0466918802834499E-002  -9.0405088406994710E-003   5.5638756631947242E-002
   2.9090409039187415E-002  -8.6599430163259751E-003   5.5740189280537401E-002
   2.7713899275540362E-002  -8.2762747248414648E-003   5.6059995582592670E-002
   2.7696208813211234E-002  -8.2221703116931721E-003   5.8976676515534919E-002
   2.6543074368703887E-002  -7.9283261365741819E-003   5.8606551568031441E-002
   2.5389939924196546E-002  -7.6317976187021200E-003   5.8464803605342494E-002
   2.4236805479689212E-002  -7.3325847580767867E-003   5.8551432627467800E-002
   2.3083671035181857E-002  -7.0306875546983644E-003   5.8866438634407686E-002
   2.2129773936523461E-002  -6.6520075352736185E-003   6.1782033083054688E-002
   2.1210018142505213E-002  -6.4386800751868312E-003   6.1376679722029648E-002
   2.0290262348486972E-002  -6.2230863967049355E-003   6.1209706677168629E-002
   1.9370506554468741E-002  -6.0052264998275290E-003   6.1281113948471216E-002
   1.8450750760450496E-002  -5.7851003845550419E-003   6.1590901535937603E-002
   3.6966279653138506E-002  -1.0767449065127888E-002   5.0201169028107451E-002
   3.5646167289190234E-002  -1.0196288071516041E-002   4.9924606385335246E-002
   3.4326054925241919E-002  -9.5811647419014045E-003   4.9843227918074828E-002
   3.3005942561293626E-002  -8.9220790762837010E-003   4.9957033626325392E-002
   3.1685830197345305E-002  -8.2190310746630968E-003   5.0266023510087854E-002
   3.2341435481525876E-002  -9.5218618949846623E-003   5.3171572380492554E-002
   3.1209628079004723E-002  -9.0329716718136888E-003   5.2929110205110569E-002
   3.0077820676483596E-002  -8.5007003529509462E-003   5.2868073777071353E-002
   2.8946013273962429E-002  -7.9250479383966912E-003   5.2988463096375164E-002
   2.7814205871441317E-002  -7.3060144281504313E-003   5.3290278163021731E-002
   2.7713899275540362E-002  -8.2762747248414648E-003   5.6059995582592670E-002
   2.6756638406277698E-002  -7.8696552721111840E-003   5.5851052634289466E-002
   2.5799377537015059E-002  -7.4202359640005433E-003   5.5809777005160321E-002
   2.4842116667752392E-002  -6.9280168005094039E-003   5.5936168695205568E-002
   2.3884855798489764E-002  -6.3929977816380712E-003   5.6230227704424776E-002
   2.3083671035181857E-002  -7.0306875546983644E-003   5.8866438634407686E-002
   2.2287198271009091E-002  -6.7063388724087000E-003   5.8690433672871974E-002
   2.1490725506836283E-002  -6.3397715750500572E-003   5.8668337602341622E-002
   2.0694252742663483E-002  -5.9309856626223664E-003   5.8800150422816964E-002
   1.9897779978490709E-002  -5.4799811351256694E-003   5.9085872134297834E-002
   1.8450750760450496E-002  -5.7851003845550419E-003   6.1590901535937603E-002
   1.7801307673198916E-002  -5.5430224727062716E-003   6.1447253320858097E-002
   1.7151864585947321E-002  -5.2593071860996821E-003   6.1443755568615283E-002
   1.6502421498695755E-002  -4.9339545247352734E-003   6.1580408279209436E-002
   1.5852978411444160E-002  -4.5669644886131566E-003   6.1857211452640559E-002
   3.1685830197345305E-002  -8.2190310746630968E-003   5.0266023510087854E-002
   2.9469423198009020E-002  -7.3431556836612288E-003   5.0248958756894169E-002
   2.7253016198672778E-002  -6.1655878499008304E-003   5.0443577482888885E-002
   2.5036609199336486E-002  -4.6863275733808295E-003   5.0849879688072711E-002
   2.2820202200000195E-002  -2.9053748541023605E-003   5.1467865372444965E-002
   2.7814205871441317E-002  -7.3060144281504313E-003   5.3290278163021731E-002
   2.5818103592159830E-002  -6.6064124772255428E-003   5.3433833017859256E-002
   2.3822001312878399E-002  -5.7890547406339449E-003   5.3806313833617531E-002
   2.1825899033596927E-002  -4.8539412183757590E-003   5.4407720610297208E-002
   1.9829796754315454E-002  -3.8010719104515367E-003   5.5238053347897664E-002
   2.3884855798489764E-002  -6.3929977816380712E-003   5.6230227704424776E-002
   2.2126300720995438E-002  -5.8696692707896070E-003   5.6350465510201245E-002
   2.0367745643501124E-002  -5.4125216313672328E-003   5.6716871758630862E-002
   1.8609190566006822E-002  -5.0215548633708567E-003   5.7329446449713994E-002
   1.6850635488512511E-002  -4.6967689668007129E-003   5.8188189583450067E-002
   1.9897779978490709E-002  -5.4799811351256694E-003   5.9085872134297834E-002
   1.8394014584515832E-002  -5.1329260643537961E-003   5.8998856233920510E-002
   1.6890249190540975E-002  -5.0359885221004895E-003   5.9175251257928496E-002
   1.5386483796566028E-002  -5.1891685083658703E-003   5.9615057206322528E-002
   1.3882718402591185E-002  -5.5924660231498335E-003   6.0318274079101689E-002
   1.5852978411444160E-002  -4.5669644886131566E-003   6.1857211452640559E-002
   1.4621245182721024E-002  -4.3961828579179851E-003   6.1379005189017011E-002
   1.3389511953997880E-002  -4.6594554128338017E-003   6.1181452331511121E-002
   1.2157778725274734E-002  -5.3567821533607868E-003   6.1264552880123307E-002
   1.0926045496551573E-002  -6.4881630794990652E-003   6.1628306834853097E-002
   2.6633060057343519E-002   0.0000000000000000        2.9468825525184872E-002
   2.7234329693901278E-002  -5.8522873243243255E-004   3.4947105601713845E-002
   2.7835599330459041E-002  -1.3189446016229692E-003   4.0116746982809384E-002
   2.8436868967016804E-002  -2.2011476075716168E-003   4.4977749668471477E-002
   2.9038138603574570E-002  -3.2318377502783659E-003   4.9530113658700151E-002
   2.0117028496764427E-002   0.0000000000000000        2.9021639413286650E-002
   2.0449214537301488E-002  -4.3900717967398657E-004   3.4314898954541512E-002
   2.0781400577838550E-002  -9.8925459920980088E-004   3.9378629999188411E-002
   2.1113586618375611E-002  -1.6507422586074473E-003   4.4212832547227347E-002
   2.1445772658912673E-002  -2.4234701578669145E-003   4.8817506598658307E-002
   1.3506284989808465E-002   0.0000000000000000        2.8702051405698731E-002
   1.3648497633150292E-002  -2.9278562691553798E-004   3.3847537308575759E-002
   1.3790710276492120E-002  -6.5956459679663085E-004   3.8842604913670309E-002
   1.3932922919833947E-002  -1.1003369096432769E-003   4.3687254220982338E-002
   1.4075135563175774E-002  -1.6151025654554730E-003   4.8381485230511868E-002
   6.8008295364756282E-003   0.0000000000000000        2.8510061502421122E-002
   6.8321789814476900E-003  -1.4656407415709113E-004   3.3545020663816594E-002
   6.8635284264197518E-003  -3.2987459438345822E-004   3.8508671726255057E-002
   6.8948778713918144E-003  -5.4993156067910344E-004   4.3401014689736471E-002
   6.9262273163638735E-003  -8.0673497304402137E-004   4.8222049554260842E-002
   6.6213676592086906E-007   0.0000000000000000        2.8445669703453823E-002
   2.5858219368339597E-007  -3.4252139864254100E-007   3.3407349020264029E-002
  -1.4497237855277609E-007  -1.8459197029079000E-007   3.8376830436942663E-002
  -5.4852695079003234E-007   4.7378828506305926E-007   4.3354113953489752E-002
  -9.5208152302728860E-007   1.6326193674164047E-006   4.8339199569905247E-002
   2.9038138603574570E-002  -3.2318377502783659E-003   4.9530113658700151E-002
   2.9110652963937084E-002  -4.2509429589866017E-003   5.1588476511992942E-002
   2.9183167324299594E-002  -5.0983911629397536E-003   5.3746840366969063E-002
   2.9255681684662107E-002  -5.7741823621377739E-003   5.6005205223628444E-002
   2.9328196045024617E-002  -6.2783165565807111E-003   5.8363571081971120E-002
   2.1445772658912673E-002  -2.4234701578669145E-003   4.8817506598658307E-002
   2.1588775957606277E-002  -3.1875750920542234E-003   5.1218157824904562E-002
   2.1731779256299877E-002  -3.8231938562353429E-003   5.3659785926129709E-002
   2.1874782554993481E-002  -4.3303264504103347E-003   5.6142390902333757E-002
   2.2017785853687084E-002  -4.7089728745791370E-003   5.8665972753516732E-002
   1.4075135563175774E-002  -1.6151025654554730E-003   4.8381485230511868E-002
   1.4229603673496086E-002  -2.1242072251218317E-003   5.1081253994962640E-002
   1.4384071783816394E-002  -2.5479965495309666E-003   5.3762975507687903E-002
   1.4538539894136704E-002  -2.8864705386828678E-003   5.6426649768687706E-002
   1.4693008004457012E-002  -3.1396291925775595E-003   5.9072276777962000E-002
   6.9262273163638735E-003  -8.0673497304402137E-004   4.8222049554260842E-002
   7.0331361116065050E-003  -1.0608393581894467E-003   5.1177765022167171E-002
   7.1400449068491365E-003  -1.2727992428265835E-003   5.4056409111643625E-002
   7.2469537020917680E-003  -1.4426146269554147E-003   5.6857981822690237E-002
   7.3538624973343986E-003  -1.5702855105759698E-003   5.9582483155306905E-002
  -9.5208152302728860E-007   1.6326193674164047E-006   4.8339199569905247E-002
  -6.2672806245851059E-007   2.5285087429417763E-006   5.1507690906518189E-002
  -3.0137460189190099E-007   2.3980638778143062E-006   5.4540086737996894E-002
   2.3978858675359135E-008   1.2412847720402829E-006   5.7436387064341329E-002
   3.4933231924348662E-007  -9.4182857441477141E-007   6.0196591885551508E-002
   2.9328196045024617E-002  -6.2783165565807111E-003   5.8363571081971120E-002
   2.8983860910526606E-002  -6.6660308041303906E-003   5.9131030812563615E-002
   2.8639525776028588E-002  -6.9925621626487165E-003   5.9929297859783209E-002
   2.8295190641530577E-002  -7.2579106321356921E-003   6.0758372223629932E-002
   2.7950855507032558E-002  -7.4620762125913176E-003   6.1618253904103748E-002
   2.2017785853687084E-002  -4.7089728745791370E-003   5.8665972753516732E-002
   2.1717911447482207E-002  -4.9999510825465276E-003   5.9486734813596717E-002
   2.1418037041277330E-002  -5.2440790281172017E-003   6.0365611013635925E-002
   2.1118162635072452E-002  -5.4413567112912425E-003   6.1302601353634315E-002
   2.0818288228867578E-002  -5.5917841320685530E-003   6.2297705833591871E-002
   1.4693008004457012E-002  -3.1396291925775595E-003   5.9072276777962000E-002
   1.4464901149877342E-002  -3.3338713609626092E-003   5.9932008540894838E-002
   1.4236794295297665E-002  -3.4955958935856722E-003   6.0877161267118930E-002
   1.4008687440717992E-002  -3.6248027904467644E-003   6.1907734956634257E-002
   1.3780580586138314E-002  -3.7214920515458161E-003   6.3023729609440859E-002
   7.3538624973343986E-003  -1.5702855105759698E-003   5.9582483155306905E-002
   7.2248300177119949E-003  -1.6677916393787462E-003   6.0466851994457935E-002
   7.0957975380895964E-003  -1.7471127590541779E-003   6.1463948620232238E-002
   6.9667650584671927E-003  -1.8082488696022935E-003   6.2573773032629842E-002
   6.8377325788447907E-003  -1.8511999710231070E-003   6.3796325231650797E-002
   3.4933231924348662E-007  -9.4182857441477141E-007   6.0196591885551508E-002
  -2.3019490138177431E-006  -1.7119177948277109E-006   6.1091265174285973E-002
  -4.9532303468798403E-006   1.3703754773563420E-006   6.2125973072975807E-002
  -7.6045116799406363E-006   8.3050512421664439E-006   6.3300715581621050E-002
  -1.0255793013003167E-005   1.9092109499657672E-005   6.4615492700221627E-002
   2.7950855507032558E-002  -7.4620762125913176E-003   6.1618253904103748E-002
   2.7239304272417449E-002  -7.5910526988068883E-003   6.1319248163760928E-002
   2.6527753037802335E-002  -7.6308338855738261E-003   6.1248796474187794E-002
   2.5816201803187222E-002  -7.5814197728920861E-003   6.1406898835384374E-002
   2.5104650568572112E-002  -7.4428103607616092E-003   6.1793555247350529E-002
   2.0818288228867578E-002  -5.5917841320685530E-003   6.2297705833591871E-002
   2.0322329557405965E-002  -5.6861262236044471E-003   6.2157856088836040E-002
   1.9826370885944342E-002  -5.7151479190540762E-003   6.2220637419617503E-002
   1.9330412214482728E-002  -5.6788492184175034E-003   6.2486049825936286E-002
   1.8834453543021115E-002  -5.5772301216947540E-003   6.2954093307792502E-002
   1.3780580586138314E-002  -3.7214920515458161E-003   6.3023729609440859E-002
   1.3474291502597843E-002  -3.7811997484020199E-003   6.3019160956909570E-002
   1.3168002419057374E-002  -3.7994619525344095E-003   6.3191300404683320E-002
   1.2861713335516903E-002  -3.7762786639430179E-003   6.3540147952762013E-002
   1.2555424251976435E-002  -3.7116498826278155E-003   6.4065703601145621E-002
   6.8377325788447907E-003  -1.8511999710231070E-003   6.3796325231650797E-002
   6.6951901079931025E-003  -1.8762732731995996E-003   6.3903162767981636E-002
   6.5526476371414125E-003  -1.8837759860146734E-003   6.4160785429385081E-002
   6.4101051662897243E-003  -1.8737081094685531E-003   6.4569193215861201E-002
   6.2675626954380274E-003  -1.8460696435609325E-003   6.5128386127409843E-002
  -1.0255793013003167E-005   1.9092109499657672E-005   6.4615492700221627E-002
  -1.4974626408264732E-005   2.8653202002820732E-005   6.4809861522052162E-002
  -1.9693459803531502E-005   3.1909980505021029E-005   6.5129092493722965E-002
  -2.4412293198796536E-005   2.8862445006053866E-005   6.5573185615233981E-002
  -2.9131126594059836E-005   1.9510595506005979E-005   6.6142140886585293E-002
   2.5104650568572112E-002  -7.4428103607616092E-003   6.1793555247350529E-002
   2.4360931410559949E-002  -7.2559798877775417E-003   6.1536427205189814E-002
   2.3617212252547787E-002  -7.0619025925349327E-003   6.1448797497087010E-002
   2.2873493094535617E-002  -6.8605784750335498E-003   6.1530666123041963E-002
   2.2129773936523461E-002  -6.6520075352736185E-003   6.1782033083054688E-002
   1.8834453543021115E-002  -5.5772301216947540E-003   6.2954093307792502E-002
   1.8264648768903199E-002  -5.4398544568289575E-003   6.2699268831203775E-002
   1.7694843994785284E-002  -5.2962860517635629E-003   6.2622774788345548E-002
   1.7125039220667364E-002  -5.1465249064984279E-003   6.2724611179218140E-002
   1.6555234446549459E-002  -4.9905710210336740E-003   6.3004778003821510E-002
   1.2555424251976435E-002  -3.7116498826278155E-003   6.4065703601145621E-002
   1.2168365961425637E-002  -3.6237290258803734E-003   6.3812128608069743E-002
   1.1781307670874847E-002  -3.5306695109922417E-003   6.3745716148397441E-002
   1.1394249380324052E-002  -3.4324713379633321E-003   6.3866466222128687E-002
   1.1007191089773261E-002  -3.3291345067937295E-003   6.4174378829263606E-002
   6.2675626954380274E-003  -1.8460696435609325E-003   6.5128386127409843E-002
   6.0720829881272531E-003  -1.8076035949318309E-003   6.4875006535787955E-002
   5.8766032808164753E-003  -1.7650529702209518E-003   6.4817621577242579E-002
   5.6811235735056888E-003  -1.7184177694282233E-003   6.4956231251773647E-002
   5.4856438661949206E-003  -1.6676979925537849E-003   6.5290835559381144E-002
  -2.9131126594059836E-005   1.9510595506005979E-005   6.6142140886585293E-002
  -2.4200150991946640E-005   8.5218360168087814E-006   6.5887902614358479E-002
  -1.9269175389831708E-005   5.6357055040062720E-007   6.5838491074880948E-002
  -1.4338199787714175E-005  -4.3642008930571546E-006   6.5993906268152769E-002
  -9.4072241856035799E-006  -6.2614783137848740E-006   6.6354148194174012E-002
   2.2129773936523461E-002  -6.6520075352736185E-003   6.1782033083054688E-002
   2.1210018142505213E-002  -6.4386800751868312E-003   6.1376679722029648E-002
   2.0290262348486972E-002  -6.2230863967049355E-003   6.1209706677168629E-002
   1.9370506554468741E-002  -6.0052264998275290E-003   6.1281113948471216E-002
   1.8450750760450496E-002  -5.7851003845550419E-003   6.1590901535937603E-002
   1.6555234446549459E-002  -4.9905710210336740E-003   6.3004778003821510E-002
   1.5871684453421034E-002  -4.8287755219582895E-003   6.2627624613428773E-002
   1.5188134460292612E-002  -4.6614895358613878E-003   6.2484502508651951E-002
   1.4504584467164192E-002  -4.4887130627430140E-003   6.2575411689491059E-002
   1.3821034474035772E-002  -4.3104461026031715E-003   6.2900352155946027E-002
   1.1007191089773261E-002  -3.3291345067937295E-003   6.4174378829263606E-002
   1.0555497866986775E-002  -3.2188709687298311E-003   6.3828649678129470E-002
   1.0103804644200283E-002  -3.0998926750181732E-003   6.3712602782063366E-002
   9.6521114214137942E-003  -2.9721996256585545E-003   6.3826238141065167E-002
   9.2004181986273040E-003  -2.8357918206511901E-003   6.4169555755135110E-002
   5.4856438661949206E-003  -1.6676979925537849E-003   6.5290835559381144E-002
   5.2614583832024612E-003  -1.6089664155012756E-003   6.4979754916131852E-002
   5.0372729002100009E-003  -1.5382958141747366E-003   6.4894007497402706E-002
   4.8130874172175441E-003  -1.4556861885740950E-003   6.5033593303193721E-002
   4.5889019342250804E-003  -1.3611375386992919E-003   6.5398512333504827E-002
  -9.4072241856035799E-006  -6.2614783137848740E-006   6.6354148194174012E-002
  -1.0433997931925260E-005   9.3813772719664179E-007   6.6080940327435944E-002
  -1.1460771678243470E-005   2.3301046668477987E-005   6.6028716654670139E-002
  -1.2487545424566017E-005   6.0827248510447740E-005   6.6197477175876457E-002
  -1.3514319170883360E-005   1.1351674325271732E-004   6.6587221891054982E-002
   1.8450750760450496E-002  -5.7851003845550419E-003   6.1590901535937603E-002
   1.7801307673198916E-002  -5.5430224727062716E-003   6.1447253320858097E-002
   1.7151864585947321E-002  -5.2593071860996821E-003   6.1443755568615283E-002
   1.6502421498695755E-002  -4.9339545247352734E-003   6.1580408279209436E-002
   1.5852978411444160E-002  -4.5669644886131566E-003   6.1857211452640559E-002
   1.3821034474035772E-002  -4.3104461026031715E-003   6.2900352155946027E-002
   1.3316772365136807E-002  -4.1231856870928008E-003   6.2797901366626940E-002
   1.2812510256237832E-002  -3.9234288478631751E-003   6.2845662071176117E-002
   1.2308248147338855E-002  -3.7111755849139477E-003   6.3043634269593682E-002
   1.1803986038439906E-002  -3.4864258982458263E-003   6.3391817961879537E-002
   9.2004181986273040E-003  -2.8357918206511901E-003   6.4169555755135110E-002
   8.8513980991123987E-003  -2.7033489014794687E-003   6.4079161440538102E-002
   8.5023779995974866E-003  -2.5875505096266682E-003   6.4149039650840817E-002
   8.1533579000825744E-003  -2.4883966450931216E-003   6.4379190386043381E-002
   7.8043378005676727E-003  -2.4058873078784404E-003   6.4769613646145752E-002
   4.5889019342250804E-003  -1.3611375386992919E-003   6.5398512333504827E-002
   4.4051848751256919E-003  -1.2835121158659563E-003   6.5291033542591428E-002
   4.2214678160262965E-003  -1.2516721713903278E-003   6.5353888307609367E-002
   4.0377507569268941E-003  -1.2656177052721013E-003   6.5587076628558505E-002
   3.8540336978275047E-003  -1.3253487175111378E-003   6.5990598505438966E-002
  -1.3514319170883360E-005   1.1351674325271732E-004   6.6587221891054982E-002
  -2.1867306823315086E-005   1.3632466974730639E-004   6.6433517672787101E-002
  -3.0220294475746812E-005   8.4206166846303998E-005   6.6460208041481728E-002
  -3.8573282128176803E-005  -4.2838765451035793E-005   6.6667292997139152E-002
  -4.6926269780610264E-005  -2.4481012714372419E-004   6.7054772539759222E-002
   1.5852978411444160E-002  -4.5669644886131566E-003   6.1857211452640559E-002
   1.4621245182721024E-002  -4.3961828579179851E-003   6.1379005189017011E-002
   1.3389511953997880E-002  -4.6594554128338017E-003   6.1181452331511121E-002
   1.2157778725274734E-002  -5.3567821533607868E-003   6.1264552880123307E-002
   1.0926045496551573E-002  -6.4881630794990652E-003   6.1628306834853097E-002
   1.1803986038439906E-002  -3.4864258982458263E-003   6.3391817961879537E-002
   1.0859921158887710E-002  -3.3617372047153038E-003   6.2646634478637969E-002
   9.9158562793355415E-003  -3.4496669211795811E-003   6.2196134287620469E-002
   8.9717913997833867E-003  -3.7502150476390154E-003   6.2040317388827038E-002
   8.0277265202312043E-003  -4.2633815840933398E-003   6.2179183782257952E-002
   7.8043378005676727E-003  -2.4058873078784404E-003   6.4769613646145752E-002
   7.1619711562926659E-003  -2.3272915515126780E-003   6.3978888718902518E-002
   6.5196045120176575E-003  -2.2398784295256380E-003   6.3496876969989721E-002
   5.8772378677426690E-003  -2.1436479419172996E-003   6.3323578399406860E-002
   5.2348712234676492E-003  -2.0386000886876143E-003   6.3458993007154518E-002
   3.8540336978275047E-003  -1.3253487175111378E-003   6.5990598505438966E-002
   3.5273951749358609E-003  -1.2928458983100799E-003   6.5375767909810381E-002
   3.2007566520442150E-003  -1.0300899378716116E-003   6.5083680378618308E-002
   2.8741181291525673E-003  -5.3708083619566707E-004   6.5114335911862484E-002
   2.5474796062609113E-003   1.8618140671811112E-004   6.5467734509543171E-002
  -4.6926269780610264E-005  -2.4481012714372419E-004   6.7054772539759222E-002
  -4.3806785182707447E-005  -2.5840024510748183E-004   6.6837272051361474E-002
  -4.0687300584804631E-005   1.7969855378247024E-004   6.6956544513506244E-002
  -3.7567815986915692E-005   1.0694862695261736E-003   6.7412589926193894E-002
  -3.4448331389005937E-005   2.4109629021238366E-003   6.8205408289424119E-002
   6.6213676592086906E-007   0.0000000000000000        2.8445669703453823E-002
   2.5858219368339597E-007  -3.4252139864254100E-007   3.3407349020264029E-002
  -1.4497237855277609E-007  -1.8459197029079000E-007   3.8376830436942663E-002
  -5.4852695079003234E-007   4.7378828506305926E-007   4.3354113953489752E-002
  -9.5208152302728860E-007   1.6326193674164047E-006   4.8339199569905247E-002
  -6.7995792757391642E-003   0.0000000000000000        2.8509163467483629E-002
  -6.8316705037864429E-003   1.4623716672036713E-004   3.3544824048998598E-002
  -6.8637617318337190E-003   3.2978811713797393E-004   3.8509307183695038E-002
  -6.8958529598809942E-003   5.5065285125281953E-004   4.3402612871572988E-002
  -6.9279441879282729E-003   8.0883136906489527E-004   4.8224741112632391E-002
  -1.3505256767458134E-002   0.0000000000000000        2.8700830253197321E-002
  -1.3648015215667400E-002   2.9281685483937983E-004   3.3847285432287294E-002
  -1.3790773663876668E-002   6.5976082624623778E-004   3.8843583617871782E-002
  -1.3933532112085940E-002   1.1008319142205708E-003   4.3689724809950814E-002
  -1.4076290560295203E-002   1.6160301187623845E-003   4.8385709008524388E-002
  -2.0116370338390983E-002   0.0000000000000000        2.9020670060594913E-002
  -2.0448775553449195E-002   4.3939654295839276E-004   3.4314733170130118E-002
  -2.0781180768507400E-002   9.8973353535450120E-004   3.9379659739472897E-002
  -2.1113585983565612E-002   1.6510109771883281E-003   4.4215449768623273E-002
  -2.1445991198623820E-002   2.4232288684598721E-003   4.8822103257581226E-002
  -2.6632919988537715E-002   0.0000000000000000        2.9468682889676391E-002
  -2.7233951517131816E-002   5.8597623107740308E-004   3.4947167262527071E-002
  -2.7834983045725920E-002   1.3197062444627646E-003   4.0117535548498381E-002
  -2.8436014574320018E-002   2.2011900401560768E-003   4.4979787747590337E-002
  -2.9037046102914122E-002   3.2304276181573518E-003   4.9533923859802910E-002
  -9.5208152302728860E-007   1.6326193674164047E-006   4.8339199569905247E-002
  -6.2672806245851059E-007   2.5285087429417763E-006   5.1507690906518189E-002
  -3.0137460189190099E-007   2.3980638778143062E-006   5.4540086737996894E-002
   2.3978858675359135E-008   1.2412847720402829E-006   5.7436387064341329E-002
   3.4933231924348662E-007  -9.4182857441477141E-007   6.0196591885551508E-002
  -6.9279441879282729E-003   8.0883136906489527E-004   4.8224741112632391E-002
  -7.0342512454084653E-003   1.0639983833914809E-003   5.1179159715022703E-002
  -7.1405583028886586E-003   1.2758286070498396E-003   5.4056409000665745E-002
  -7.2468653603688527E-003   1.4443220400399360E-003   5.6856488969561539E-002
  -7.3531724178490443E-003   1.5694786823617843E-003   5.9579399621710036E-002
  -1.4076290560295203E-002   1.6160301187623845E-003   4.8385709008524388E-002
  -1.4230303840329169E-002   2.1254682580400201E-003   5.1083744420264469E-002
  -1.4384317120363130E-002   2.5492591502218440E-003   5.3763536703644289E-002
  -1.4538330400397093E-002   2.8874027953078385E-003   5.6425085858663827E-002
  -1.4692343680431062E-002   3.1398991932980007E-003   5.9068391885323063E-002
  -2.1445991198623820E-002   2.4232288684598721E-003   4.8822103257581226E-002
  -2.1588784512824560E-002   3.1869381326885696E-003   5.1221445022243503E-002
  -2.1731577827025311E-002   3.8226896933938378E-003   5.3661469846932493E-002
  -2.1874371141226052E-002   4.3304835505757382E-003   5.6142177731648223E-002
  -2.2017164455426799E-002   4.7103197042342084E-003   5.8663568676390630E-002
  -2.9037046102914122E-002   3.2304276181573518E-003   4.9533923859802910E-002
  -2.9109693262894653E-002   4.2484080073370966E-003   5.1592261520959790E-002
  -2.9182340422875191E-002   5.0961202365658702E-003   5.3750208430530397E-002
  -2.9254987582855722E-002   5.7735643058436431E-003   5.6007764588514690E-002
  -2.9327634742836263E-002   6.2807402151704023E-003   5.8364929994912704E-002
   3.4933231924348662E-007  -9.4182857441477141E-007   6.0196591885551508E-002
  -2.3019490138177431E-006  -1.7119177948277109E-006   6.1091265174285973E-002
  -4.9532303468798403E-006   1.3703754773563420E-006   6.2125973072975807E-002
  -7.6045116799406363E-006   8.3050512421664439E-006   6.3300715581621050E-002
  -1.0255793013003167E-005   1.9092109499657672E-005   6.4615492700221627E-002
  -7.3531724178490443E-003   1.5694786823617843E-003   5.9579399621710036E-002
  -7.2289846711439988E-003   1.6661579336809257E-003   6.0470345011691240E-002
  -7.1047969244389542E-003   1.7492191936628963E-003   6.1474933847793289E-002
  -6.9806091777339018E-003   1.8186624623076721E-003   6.2593166130016129E-002
  -6.8564214310288633E-003   1.8744877396152243E-003   6.3825041858359896E-002
  -1.4692343680431062E-002   3.1398991932980007E-003   5.9068391885323063E-002
  -1.4467708069522436E-002   3.3340277851567346E-003   5.9938139002721151E-002
  -1.4243072458613811E-002   3.4970680118484648E-003   6.0895138402405589E-002
  -1.4018436847705188E-002   3.6290198733731367E-003   6.1939390084376281E-002
  -1.3793801236796558E-002   3.7298833697308048E-003   6.3070894048633294E-002
  -2.2017164455426799E-002   4.7103197042342084E-003   5.8663568676390630E-002
  -2.1718472144149122E-002   5.0018976366325574E-003   5.9494647147375804E-002
  -2.1419779832871459E-002   5.2449168300340056E-003   6.0386586736812728E-002
  -2.1121087521593789E-002   5.4393772844386493E-003   6.1339387444701438E-002
  -2.0822395210316116E-002   5.5852789998463645E-003   6.2353049271041988E-002
  -2.9327634742836263E-002   6.2807402151704023E-003   5.8364929994912704E-002
  -2.8981276895024076E-002   6.6697674881083073E-003   5.9139869445655080E-002
  -2.8634919047211892E-002   6.9927656482195837E-003   5.9949278851014733E-002
  -2.8288561199399702E-002   7.2497346955041229E-003   6.0793158210991627E-002
  -2.7942203351587525E-002   7.4406746299619797E-003   6.1671507525585756E-002
  -1.0255793013003167E-005   1.9092109499657672E-005   6.4615492700221627E-002
  -1.4974626408264732E-005   2.8653202002820732E-005   6.4809861522052162E-002
  -1.9693459803531502E-005   3.1909980505021029E-005   6.5129092493722965E-002
  -2.4412293198796536E-005   2.8862445006053866E-005   6.5573185615233981E-002
  -2.9131126594059836E-005   1.9510595506005979E-005   6.6142140886585293E-002
  -6.8564214310288633E-003   1.8744877396152243E-003   6.3825041858359896E-002
  -6.7220109921893312E-003   1.9102159147501158E-003   6.3926023371328536E-002
  -6.5876005533497982E-003   1.9193678768768367E-003   6.4180401278926477E-002
  -6.4531901145102651E-003   1.9019436259955459E-003   6.4588175581153720E-002
  -6.3187796756707330E-003   1.8579431621059961E-003   6.5149346278010431E-002
  -1.3793801236796558E-002   3.7298833697308048E-003   6.3070894048633294E-002
  -1.3491727280933143E-002   3.7917786274973414E-003   6.3058216353733001E-002
  -1.3189653325069727E-002   3.8068257732487357E-003   6.3227469298251127E-002
  -1.2887579369206313E-002   3.7750248069849685E-003   6.3578652882187642E-002
  -1.2585505413342897E-002   3.6963757287060278E-003   6.4111767105542672E-002
  -2.0822395210316116E-002   5.5852789998463645E-003   6.2353049271041988E-002
  -2.0324123492639717E-002   5.6733413402446017E-003   6.2206440469265635E-002
  -1.9825851774963321E-002   5.6942836696205930E-003   6.2270296551696872E-002
  -1.9327580057286915E-002   5.6481059879743981E-003   6.2544617518335649E-002
  -1.8829308339610516E-002   5.5348082953060804E-003   6.3029403369181891E-002
  -2.7942203351587525E-002   7.4406746299619797E-003   6.1671507525585756E-002
  -2.7219199627309048E-002   7.5549040529918343E-003   6.1370695717926443E-002
  -2.6496195903030567E-002   7.5817415659925058E-003   6.1308883039263726E-002
  -2.5773192178752093E-002   7.5211871689639109E-003   6.1486069489597672E-002
  -2.5050188454473606E-002   7.3732408619060774E-003   6.1902255068928186E-002
  -2.9131126594059836E-005   1.9510595506005979E-005   6.6142140886585293E-002
  -2.4200150991946640E-005   8.5218360168087814E-006   6.5887902614358479E-002
  -1.9269175389831708E-005   5.6357055040062720E-007   6.5838491074880948E-002
  -1.4338199787714175E-005  -4.3642008930571546E-006   6.5993906268152769E-002
  -9.4072241856035799E-006  -6.2614783137848740E-006   6.6354148194174012E-002
  -6.3187796756707330E-003   1.8579431621059961E-003   6.5149346278010431E-002
  -6.1144403691405528E-003   1.8011923022536874E-003   6.4914665372919553E-002
  -5.9101010626103597E-003   1.7455168634838494E-003   6.4873974396935430E-002
  -5.7057617560801726E-003   1.6909168457963659E-003   6.5027273350058173E-002
  -5.5014224495499794E-003   1.6373922491913495E-003   6.5374562232287686E-002
  -1.2585505413342897E-002   3.6963757287060278E-003   6.4111767105542672E-002
  -1.2192594579527151E-002   3.5938627684905591E-003   6.3894688494647273E-002
  -1.1799683745711413E-002   3.4904701564171560E-003   6.3860763009216115E-002
  -1.1406772911895664E-002   3.3861978924857603E-003   6.4009990649249393E-002
  -1.1013862078079920E-002   3.2810459766964561E-003   6.4342371414746802E-002
  -1.8829308339610516E-002   5.5348082953060804E-003   6.3029403369181891E-002
  -1.8258662782151745E-002   5.3865332347274066E-003   6.2827971979541666E-002
  -1.7688017224692966E-002   5.2354234493504227E-003   6.2798856911723183E-002
  -1.7117371667234198E-002   5.0814789391752241E-003   6.2942058165726414E-002
  -1.6546726109775426E-002   4.9246997042015767E-003   6.3257575741551483E-002
  -2.5050188454473606E-002   7.3732408619060774E-003   6.1902255068928186E-002
  -2.4312644977014339E-002   7.1792037009642956E-003   6.1714515827602706E-002
  -2.3575101499555055E-002   6.9803767422838628E-003   6.1688256104456399E-002
  -2.2837558022095777E-002   6.7767599858645517E-003   6.1823475899489382E-002
  -2.2100014544636493E-002   6.5683534317066972E-003   6.2120175212701689E-002
  -9.4072241856035799E-006  -6.2614783137848740E-006   6.6354148194174012E-002
  -1.0433997931925260E-005   9.3813772719664179E-007   6.6080940327435944E-002
  -1.1460771678243470E-005   2.3301046668477987E-005   6.6028716654670139E-002
  -1.2487545424566017E-005   6.0827248510447740E-005   6.6197477175876457E-002
  -1.3514319170883360E-005   1.1351674325271732E-004   6.6587221891054982E-002
  -5.5014224495499794E-003   1.6373922491913495E-003   6.5374562232287686E-002
  -5.2792623849265852E-003   1.5864144372581823E-003   6.5092723327362462E-002
  -5.0571023203031962E-003   1.5394547735863851E-003   6.5036273905204431E-002
  -4.8349422556798046E-003   1.4965132581757010E-003   6.5205213965813691E-002
  -4.6127821910564130E-003   1.4575898910262342E-003   6.5599543509190145E-002
  -1.1013862078079920E-002   3.2810459766964561E-003   6.4342371414746802E-002
  -1.0564109886291771E-002   3.1718907367892096E-003   6.4040756326995241E-002
  -1.0114357694503612E-002   3.0556085005040701E-003   6.3968936010805916E-002
  -9.6646055027154558E-003   2.9321992678408987E-003   6.4126910466178855E-002
  -9.2148533109273050E-003   2.8016630387998342E-003   6.4514679693114155E-002
  -1.6546726109775426E-002   4.9246997042015767E-003   6.3257575741551483E-002
  -1.5864976502027454E-002   4.7573670363202161E-003   6.2925039326334309E-002
  -1.5183226894279481E-002   4.5717622274217551E-003   6.2826702971474427E-002
  -1.4501477286531521E-002   4.3678852775060131E-003   6.2962566676971893E-002
  -1.3819727678783545E-002   4.1457361865732817E-003   6.3332630442826748E-002
  -2.2100014544636493E-002   6.5683534317066972E-003   6.2120175212701689E-002
  -2.1181862232133659E-002   6.3428433358512504E-003   6.1745572325379666E-002
  -2.0263709919630835E-002   6.0879159543395234E-003   6.1609574787210103E-002
  -1.9345557607127997E-002   5.8035712871713149E-003   6.1712182598192916E-002
  -1.8427405294625165E-002   5.4898093343468957E-003   6.2053395758328078E-002
  -1.3514319170883360E-005   1.1351674325271732E-004   6.6587221891054982E-002
  -2.1867306823315086E-005   1.3632466974730639E-004   6.6433517672787101E-002
  -3.0220294475746812E-005   8.4206166846303998E-005   6.6460208041481728E-002
  -3.8573282128176803E-005  -4.2838765451035793E-005   6.6667292997139152E-002
  -4.6926269780610264E-005  -2.4481012714372419E-004   6.7054772539759222E-002
  -4.6127821910564130E-003   1.4575898910262342E-003   6.5599543509190145E-002
  -4.4438329928728239E-003   1.3997097137145309E-003   6.5381514542819208E-002
  -4.2748837946892278E-003   1.2998977678162771E-003   6.5337695361157536E-002
  -4.1059345965056360E-003   1.1581540533318405E-003   6.5468085964205253E-002
  -3.9369853983220425E-003   9.7447857026145002E-004   6.5772686351962373E-002
  -9.2148533109273050E-003   2.8016630387998342E-003   6.4514679693114155E-002
  -8.8747867291610189E-003   2.6630947576814362E-003   6.4265320639449619E-002
  -8.5347201473947344E-003   2.5155893687864098E-003   6.4183986568241175E-002
  -8.1946535656284396E-003   2.3591468721146595E-003   6.4270677479488766E-002
  -7.8545869838621482E-003   2.1937672676664022E-003   6.4525393373192269E-002
  -1.3819727678783545E-002   4.1457361865732817E-003   6.3332630442826748E-002
  -1.3314728515687910E-002   3.9264798016485011E-003   6.3084935962678362E-002
  -1.2809729352592265E-002   3.7312809697564626E-003   6.2999081662732742E-002
  -1.2304730189496616E-002   3.5601396908976181E-003   6.3075067542989735E-002
  -1.1799731026400976E-002   3.4130559650713543E-003   6.3312893603449452E-002
  -1.8427405294625165E-002   5.4898093343468957E-003   6.2053395758328078E-002
  -1.7763658352453485E-002   5.1898648456155105E-003   6.1840360512505466E-002
  -1.7099911410281814E-002   4.9469725707265433E-003   6.1782980644632141E-002
  -1.6436164468110144E-002   4.7611325096802506E-003   6.1881256154708159E-002
  -1.5772417525938463E-002   4.6323446624764730E-003   6.2135187042733631E-002
  -4.6926269780610264E-005  -2.4481012714372419E-004   6.7054772539759222E-002
  -4.3806785182707447E-005  -2.5840024510748183E-004   6.6837272051361474E-002
  -4.0687300584804631E-005   1.7969855378247024E-004   6.6956544513506244E-002
  -3.7567815986915692E-005   1.0694862695261736E-003   6.7412589926193894E-002
  -3.4448331389005937E-005   2.4109629021238366E-003   6.8205408289424119E-002
  -3.9369853983220425E-003   9.7447857026145002E-004   6.5772686351962373E-002
  -3.6055088944619389E-003   8.9710346641544425E-004   6.5872338197230179E-002
  -3.2740323906018196E-003   1.0742608896052303E-003   6.6291931130479625E-002
  -2.9425558867417299E-003   1.5059508398306172E-003   6.7031465151711128E-002
  -2.6110793828816176E-003   2.1921733170917612E-003   6.8090940260924104E-002
  -7.8545869838621482E-003   2.1937672676664022E-003   6.4525393373192269E-002
  -7.2115853233007303E-003   2.0526071779384814E-003   6.4745041162307573E-002
  -6.5685836627393055E-003   1.9688232254281013E-003   6.5267798176843833E-002
  -5.9255820021778495E-003   1.9424154101351718E-003   6.6093664416800924E-002
  -5.2825803416164628E-003   1.9733837320599079E-003   6.7222639882179080E-002
  -1.1799731026400976E-002   3.4130559650713543E-003   6.3312893603449452E-002
  -1.0862036071699084E-002   3.2081108894615740E-003   6.3455380946594114E-002
  -9.9243411169971964E-003   2.8633855612508613E-003   6.3884145652598701E-002
  -8.9866461622953430E-003   2.3788799804397819E-003   6.4599187721463031E-002
  -8.0489512075934064E-003   1.7545941470279991E-003   6.5600507153187965E-002
  -1.5772417525938463E-002   4.6323446624764730E-003   6.2135187042733631E-002
  -1.4556861139657012E-002   4.3636146009846666E-003   6.2003357550089344E-002
  -1.3341304753375551E-002   3.7579478970737462E-003   6.2140973557744311E-002
  -1.2125748367094081E-002   2.8153445507441734E-003   6.2548035065698462E-002
  -1.0910191980812639E-002   1.5358045619959793E-003   6.3224542073951451E-002
  -2.6632919988537715E-002   0.0000000000000000        2.9468682889676391E-002
  -2.7233951517131816E-002   5.8597623107740308E-004   3.4947167262527071E-002
  -2.7834983045725920E-002   1.3197062444627646E-003   4.0117535548498381E-002
  -2.8436014574320018E-002   2.2011900401560768E-003   4.4979787747590337E-002
  -2.9037046102914122E-002   3.2304276181573518E-003   4.9533923859802910E-002
  -3.3392274198139255E-002   0.0000000000000000        3.0179152732507514E-002
  -3.4236210018850063E-002   9.6040747522929074E-004   3.5268119881069572E-002
  -3.5080145839560872E-002   2.0239492094395184E-003   4.0179394532277597E-002
  -3.5924081660271674E-002   3.1906252026306830E-003   4.4912976686131575E-002
  -3.6768017480982490E-002   4.4604354548027870E-003   4.9468866342631507E-002
  -4.0731801447436530E-002   0.0000000000000000        3.1286363581154032E-002
  -4.1688217970738711E-002   1.3348387193811767E-003   3.5941193982100460E-002
  -4.2644634494040892E-002   2.7281921744162730E-003   4.0548755475218162E-002
  -4.3601051017343080E-002   4.1800603651052917E-003   4.5109048060507147E-002
  -4.4557467540645268E-002   5.6904432914482300E-003   4.9622071737967448E-002
  -4.8651501736429521E-002   0.0000000000000000        3.2790315435615947E-002
  -4.9589975372797759E-002   1.7092699635330648E-003   3.6966389565619706E-002
  -5.0528449009166004E-002   3.4324351393930272E-003   4.1225618377320097E-002
  -5.1466922645534242E-002   5.1694955275798996E-003   4.5568001870717086E-002
  -5.2405396281902480E-002   6.9204511280936687E-003   4.9993540045810692E-002
  -5.7151375065118262E-002   0.0000000000000000        3.4691008295893264E-002
  -5.7941482225027222E-002   2.0837012076849494E-003   3.8343706631627353E-002
  -5.8731589384936195E-002   4.1366781043697832E-003   4.2209983238583382E-002
  -5.9521696544845147E-002   6.1589306900545031E-003   4.6289838116761350E-002
  -6.0311803704754113E-002   8.1504589647391056E-003   5.0583271266161252E-002
  -2.9037046102914122E-002   3.2304276181573518E-003   4.9533923859802910E-002
  -2.9109693262894653E-002   4.2484080073370966E-003   5.1592261520959790E-002
  -2.9182340422875191E-002   5.0961202365658702E-003   5.3750208430530397E-002
  -2.9254987582855722E-002   5.7735643058436431E-003   5.6007764588514690E-002
  -2.9327634742836263E-002   6.2807402151704023E-003   5.8364929994912704E-002
  -3.6768017480982490E-002   4.4604354548027870E-003   4.9468866342631507E-002
  -3.6780061740149007E-002   5.6936199633578341E-003   5.1256392021511263E-002
  -3.6792105999315525E-002   6.7504187256978545E-003   5.3065514253605325E-002
  -3.6804150258482049E-002   7.6308317418228066E-003   5.4896233038913722E-002
  -3.6816194517648566E-002   8.3348590117327259E-003   5.6748548377436397E-002
  -4.4557467540645268E-002   5.6904432914482300E-003   4.9622071737967448E-002
  -4.4586921594197158E-002   7.1388319193785707E-003   5.1132667848305988E-002
  -4.4616375647749063E-002   8.4047172148298249E-003   5.2586847816659482E-002
  -4.4645829701300960E-002   9.4880991778019709E-003   5.3984611643027910E-002
  -4.4675283754852850E-002   1.0388977808295043E-002   5.5325959327411259E-002
  -5.2405396281902480E-002   6.9204511280936687E-003   4.9993540045810692E-002
  -5.2530272825039144E-002   8.5840438753993116E-003   5.1221089001344006E-002
  -5.2655149368175801E-002   1.0059015703961787E-002   5.2314209119692853E-002
  -5.2780025911312471E-002   1.1345366613781141E-002   5.3272900400857269E-002
  -5.2904902454449114E-002   1.2443096604857377E-002   5.4097162844837197E-002
  -6.0311803704754113E-002   8.1504589647391056E-003   5.0583271266161252E-002
  -6.0610115432674930E-002   1.0029255831420038E-002   5.1521655480625268E-002
  -6.0908427160595746E-002   1.1713314193093786E-002   5.2247598162705459E-002
  -6.1206738888516549E-002   1.3202634049760307E-002   5.2761099312401791E-002
  -6.1505050616437358E-002   1.4497215401419683E-002   5.3062158929714290E-002
  -2.9327634742836263E-002   6.2807402151704023E-003   5.8364929994912704E-002
  -2.8981276895024076E-002   6.6697674881083073E-003   5.9139869445655080E-002
  -2.8634919047211892E-002   6.9927656482195837E-003   5.9949278851014733E-002
  -2.8288561199399702E-002   7.2497346955041229E-003   6.0793158210991627E-002
  -2.7942203351587525E-002   7.4406746299619797E-003   6.1671507525585756E-002
  -3.6816194517648566E-002   8.3348590117327259E-003   5.6748548377436397E-002
  -3.6383207760779676E-002   8.8775037393985373E-003   5.7098913094676379E-002
  -3.5950221003910800E-002   9.2737691287912635E-003   5.7588065675412504E-002
  -3.5517234247041903E-002   9.5236551799108265E-003   5.8216006119644829E-002
  -3.5084247490173019E-002   9.6271618927573077E-003   5.8982734427373257E-002
  -4.4675283754852850E-002   1.0388977808295043E-002   5.5325959327411259E-002
  -4.4051350180048347E-002   1.1085239990688755E-002   5.5171399085702351E-002
  -4.3427416605243851E-002   1.1554772609362945E-002   5.5259944616368524E-002
  -4.2803483030439342E-002   1.1797575664317559E-002   5.5591595919409785E-002
  -4.2179549455634832E-002   1.1813649155552622E-002   5.6166352994826099E-002
  -5.2904902454449114E-002   1.2443096604857377E-002   5.4097162844837197E-002
  -5.1985704152830089E-002   1.3292976241978994E-002   5.3357327418732996E-002
  -5.1066505851211044E-002   1.3835776089934627E-002   5.2964915673882819E-002
  -5.0147307549592020E-002   1.4071496148724275E-002   5.2919927610286598E-002
  -4.9228109247972975E-002   1.4000136418347943E-002   5.3222363227944422E-002
  -6.1505050616437358E-002   1.4497215401419683E-002   5.3062158929714290E-002
  -6.0186269679124903E-002   1.5500712493269200E-002   5.1656698093768355E-002
  -5.8867488741812399E-002   1.6116779570506317E-002   5.0702978847955361E-002
  -5.7548707804499902E-002   1.6345416633130997E-002   5.0201001192275219E-002
  -5.6229926867187446E-002   1.6186623681143278E-002   5.0150765126728045E-002
  -2.7942203351587525E-002   7.4406746299619797E-003   6.1671507525585756E-002
  -2.7219199627309048E-002   7.5549040529918343E-003   6.1370695717926443E-002
  -2.6496195903030567E-002   7.5817415659925058E-003   6.1308883039263726E-002
  -2.5773192178752093E-002   7.5211871689639109E-003   6.1486069489597672E-002
  -2.5050188454473606E-002   7.3732408619060774E-003   6.1902255068928186E-002
  -3.5084247490173019E-002   9.6271618927573077E-003   5.8982734427373257E-002
  -3.4132272664891730E-002   9.6261431461075048E-003   5.8643605019469497E-002
  -3.3180297839610448E-002   9.5624528187383817E-003   5.8523418684574710E-002
  -3.2228323014329159E-002   9.4360909106498830E-003   5.8622175422688910E-002
  -3.1276348189047863E-002   9.2470574218420643E-003   5.8939875233812097E-002
  -4.2179549455634832E-002   1.1813649155552622E-002   5.6166352994826099E-002
  -4.1018659585338367E-002   1.1697382239223134E-002   5.5813626315987824E-002
  -3.9857769715041923E-002   1.1543164071484230E-002   5.5659786654170873E-002
  -3.8696879844745465E-002   1.1350994652335869E-002   5.5704834009375266E-002
  -3.7535989974449006E-002   1.1120873981778037E-002   5.5948768381601031E-002
  -4.9228109247972975E-002   1.4000136418347943E-002   5.3222363227944422E-002
  -4.7878360388648962E-002   1.3768621332338811E-002   5.2880759607481412E-002
  -4.6528611529324977E-002   1.3523875324230092E-002   5.2717986948052159E-002
  -4.5178862670000978E-002   1.3265898394021848E-002   5.2734045249656580E-002
  -4.3829113810676973E-002   1.2994690541714003E-002   5.2928934512294828E-002
  -5.6229926867187446E-002   1.6186623681143278E-002   5.0150765126728045E-002
  -5.4711375074823543E-002   1.5839860425454461E-002   4.9845004893950273E-002
  -5.3192823282459646E-002   1.5504586576975992E-002   4.9698019566218617E-002
  -5.1674271490095722E-002   1.5180802135707782E-002   4.9709809143533040E-002
  -5.0155719697731818E-002   1.4868507101649969E-002   4.9880373625893565E-002
  -2.5050188454473606E-002   7.3732408619060774E-003   6.1902255068928186E-002
  -2.4312644977014339E-002   7.1792037009642956E-003   6.1714515827602706E-002
  -2.3575101499555055E-002   6.9803767422838628E-003   6.1688256104456399E-002
  -2.2837558022095777E-002   6.7767599858645517E-003   6.1823475899489382E-002
  -2.2100014544636493E-002   6.5683534317066972E-003   6.2120175212701689E-002
  -3.1276348189047863E-002   9.2470574218420643E-003   5.8939875233812097E-002
  -3.0370044140446903E-002   9.0177253887129272E-003   5.8714577341791280E-002
  -2.9463740091845967E-002   8.7704678476607026E-003   5.8665321073874503E-002
  -2.8557436043245017E-002   8.5052847986853922E-003   5.8792106430061830E-002
  -2.7651131994644074E-002   8.2221762417866995E-003   5.9094933410353240E-002
  -3.7535989974449006E-002   1.1120873981778037E-002   5.5948768381601031E-002
  -3.6446363248781519E-002   1.0856247076461621E-002   5.5672776128700315E-002
  -3.5356736523114024E-002   1.0560558953037622E-002   5.5587387605828542E-002
  -3.4267109797446543E-002   1.0233809611506037E-002   5.5692602812985742E-002
  -3.3177483071779049E-002   9.8759990518667573E-003   5.5988421750171935E-002
  -4.3829113810676973E-002   1.2994690541714003E-002   5.2928934512294828E-002
  -4.2541602302018096E-002   1.2694768764210339E-002   5.2589112188329790E-002
  -4.1254090793359240E-002   1.2350650058414613E-002   5.2454455700318668E-002
  -3.9966579284700383E-002   1.1962334424326752E-002   5.2524965048261270E-002
  -3.8679067776041520E-002   1.1529821861946815E-002   5.2800640232157824E-002
  -5.0155719697731818E-002   1.4868507101649969E-002   4.9880373625893565E-002
  -4.8655761300156697E-002   1.4533290451958961E-002   4.9463585520679865E-002
  -4.7155802902581596E-002   1.4140741163791416E-002   4.9266525357344812E-002
  -4.5655844505006468E-002   1.3690859237147463E-002   4.9289193135888427E-002
  -4.4155886107431361E-002   1.3183644672026817E-002   4.9531588856310760E-002
  -2.2100014544636493E-002   6.5683534317066972E-003   6.2120175212701689E-002
  -2.1181862232133659E-002   6.3428433358512504E-003   6.1745572325379666E-002
  -2.0263709919630835E-002   6.0879159543395234E-003   6.1609574787210103E-002
  -1.9345557607127997E-002   5.8035712871713149E-003   6.1712182598192916E-002
  -1.8427405294625165E-002   5.4898093343468957E-003   6.2053395758328078E-002
  -2.7651131994644074E-002   8.2221762417866995E-003   5.9094933410353240E-002
  -2.6498820033325897E-002   7.9211332682792984E-003   5.8716970890091300E-002
  -2.5346508072007730E-002   7.6021469694770930E-003   5.8568722318307551E-002
  -2.4194196110689598E-002   7.2652173453804109E-003   5.8650187695002236E-002
  -2.3041884149371389E-002   6.9103443959889765E-003   5.8961367020175015E-002
  -3.3177483071779049E-002   9.8759990518667573E-003   5.5988421750171935E-002
  -3.1799902862319672E-002   9.4994232007073048E-003   5.5618573557331678E-002
  -3.0422322652860306E-002   9.1163779846148846E-003   5.5469547912295664E-002
  -2.9044742443400919E-002   8.7268634035894514E-003   5.5541344815063780E-002
  -2.7667162233941563E-002   8.3308794576310852E-003   5.5833964265635971E-002
  -3.8679067776041520E-002   1.1529821861946815E-002   5.2800640232157824E-002
  -3.7085110719115029E-002   1.1077713133135304E-002   5.2450380327100976E-002
  -3.5491153662188565E-002   1.0630608999752593E-002   5.2312051569174178E-002
  -3.3897196605262123E-002   1.0188509461798464E-002   5.2385653958377486E-002
  -3.2303239548335617E-002   9.7514145192732632E-003   5.2671187494710690E-002
  -4.4155886107431361E-002   1.3183644672026817E-002   4.9531588856310760E-002
  -4.2354443603711905E-002   1.2656003065563304E-002   4.9212391199399075E-002
  -4.0553001099992485E-002   1.2144840014890287E-002   4.9096233288943303E-002
  -3.8751558596273050E-002   1.1650155520007571E-002   4.9183115124943375E-002
  -3.6950116092553623E-002   1.1171949580915330E-002   4.9473036707399498E-002
  -1.8427405294625165E-002   5.4898093343468957E-003   6.2053395758328078E-002
  -1.7763658352453485E-002   5.1898648456155105E-003   6.1840360512505466E-002
  -1.7099911410281814E-002   4.9469725707265433E-003   6.1782980644632141E-002
  -1.6436164468110144E-002   4.7611325096802506E-003   6.1881256154708159E-002
  -1.5772417525938463E-002   4.6323446624764730E-003   6.2135187042733631E-002
  -2.3041884149371389E-002   6.9103443959889765E-003   5.8961367020175015E-002
  -2.2221723363419883E-002   6.5619932611116760E-003   5.8782310594441750E-002
  -2.1401562577468357E-002   6.2446290805578120E-003   5.8760426478318833E-002
  -2.0581401791516841E-002   5.9582518543267529E-003   5.8895714671806237E-002
  -1.9761241005565321E-002   5.7028615824190054E-003   5.9188175174904045E-002
  -2.7667162233941563E-002   8.3308794576310852E-003   5.5833964265635971E-002
  -2.6689070672549227E-002   7.9341216766081468E-003   5.5662821400472684E-002
  -2.5710979111156895E-002   7.5422855903889557E-003   5.5650367776580639E-002
  -2.4732887549764573E-002   7.1553711989734183E-003   5.5796603393959997E-002
  -2.3754795988372227E-002   6.7733785023614546E-003   5.6101528252610625E-002
  -3.2303239548335617E-002   9.7514145192732632E-003   5.2671187494710690E-002
  -3.1165700279841505E-002   9.3062500921045482E-003   5.2481892930597997E-002
  -3.0028161011347376E-002   8.8399421002201620E-003   5.2452804539417475E-002
  -2.8890621742853260E-002   8.3524905436198355E-003   5.2583922321169367E-002
  -2.7753082474359137E-002   7.8438954223039453E-003   5.2875246275853327E-002
  -3.6950116092553623E-002   1.1171949580915330E-002   4.9473036707399498E-002
  -3.5651612185296749E-002   1.0678378507600811E-002   4.9239525184817889E-002
  -3.4353108278039855E-002   1.0137598610051327E-002   4.9167736766829534E-002
  -3.3054604370782989E-002   9.5496098882665754E-003   4.9257671453434362E-002
  -3.1756100463526088E-002   8.9144123422464361E-003   4.9509329244632472E-002
  -1.5772417525938463E-002   4.6323446624764730E-003   6.2135187042733631E-002
  -1.4556861139657012E-002   4.3636146009846666E-003   6.2003357550089344E-002
  -1.3341304753375551E-002   3.7579478970737462E-003   6.2140973557744311E-002
  -1.2125748367094081E-002   2.8153445507441734E-003   6.2548035065698462E-002
  -1.0910191980812639E-002   1.5358045619959793E-003   6.3224542073951451E-002
  -1.9761241005565321E-002   5.7028615824190054E-003   5.9188175174904045E-002
  -1.8278829381674341E-002   5.3624474342328365E-003   5.8780038241740801E-002
  -1.6796417757783393E-002   4.8209985791670268E-003   5.8636166283497854E-002
  -1.5314006133892392E-002   4.0785150172217462E-003   5.8756559300174344E-002
  -1.3831594510001453E-002   3.1349967483964569E-003   5.9141217291771020E-002
  -2.3754795988372227E-002   6.7733785023614546E-003   5.6101528252610625E-002
  -2.2010709652250965E-002   6.3612802674812841E-003   5.5552985814467618E-002
  -2.0266623316129714E-002   5.8840492612603004E-003   5.5263527825865459E-002
  -1.8522536980008487E-002   5.3416854836989564E-003   5.5233154286803976E-002
  -1.6778450643887201E-002   4.7341889347969346E-003   5.5461865197282967E-002
  -2.7753082474359137E-002   7.8438954223039453E-003   5.2875246275853327E-002
  -2.5752501951386848E-002   7.3601131007295373E-003   5.2322200268269850E-002
  -2.3751921428414591E-002   6.9470999433535775E-003   5.2023058184847731E-002
  -2.1751340905442319E-002   6.6048559501761814E-003   5.1977820025587006E-002
  -1.9750760382470041E-002   6.3333811211974123E-003   5.2186485790487722E-002
  -3.1756100463526088E-002   8.9144123422464361E-003   4.9509329244632472E-002
  -2.9504206279082026E-002   8.3589459339779015E-003   4.9087681603147415E-002
  -2.7252312094637951E-002   8.0101506254468546E-003   4.8914757360444594E-002
  -2.5000417910193924E-002   7.8680264166535452E-003   4.8990556516523870E-002
  -2.2748523725749814E-002   7.9325733075978899E-003   4.9315079071385215E-002
  -5.7151375065118262E-002   0.0000000000000000        3.4691008295893264E-002
  -5.7941482225027222E-002   2.0837012076849494E-003   3.8343706631627353E-002
  -5.8731589384936195E-002   4.1366781043697832E-003   4.2209983238583382E-002
  -5.9521696544845147E-002   6.1589306900545031E-003   4.6289838116761350E-002
  -6.0311803704754113E-002   8.1504589647391056E-003   5.0583271266161252E-002
  -6.5819528690629778E-002   0.0000000000000000        3.7211847843591446E-002
  -6.6625096527538410E-002   2.9138706250403431E-003   4.0835012414483000E-002
  -6.7430664364447057E-002   5.7702510357386348E-003   4.4213677360153275E-002
  -6.8236232201355690E-002   8.5691412320948804E-003   4.7347842680602263E-002
  -6.9041800038264337E-002   1.1310541214109083E-002   5.0237508375829965E-002
  -7.4244069870091134E-002   0.0000000000000000        4.0576239760315991E-002
  -7.5523176280442667E-002   3.7440400423957351E-003   4.4143104663023090E-002
  -7.6802282690794185E-002   7.4038239671074891E-003   4.7007392044065670E-002
  -7.8081389101145732E-002   1.0979351774135268E-002   4.9169101903443750E-002
  -7.9360495511497264E-002   1.4470623463479070E-002   5.0628234241157331E-002
  -8.2424998603502345E-002   0.0000000000000000        4.4784184046066898E-002
  -8.4635721483739990E-002   4.5742094597511253E-003   4.8267983377247581E-002
  -8.6846444363977621E-002   9.0373968984763433E-003   5.0591127290320559E-002
  -8.9057167244215280E-002   1.3389562316175652E-002   5.1753615785285798E-002
  -9.1267890124452924E-002   1.7630705712849051E-002   5.1755448862143331E-002
  -9.0362314890863382E-002   0.0000000000000000        4.9835680700844154E-002
  -9.3962732137430366E-002   5.4043788771065190E-003   5.3209648557156521E-002
  -9.7563149383997350E-002   1.0670969829845195E-002   5.4964883098917935E-002
 -0.10116356663056433        1.5799772858216030E-002   5.5101384326128419E-002
 -0.10476398387713132        2.0790787962219035E-002   5.3619152238787951E-002
  -6.0311803704754113E-002   8.1504589647391056E-003   5.0583271266161252E-002
  -6.0610115432674930E-002   1.0029255831420038E-002   5.1521655480625268E-002
  -6.0908427160595746E-002   1.1713314193093786E-002   5.2247598162705459E-002
  -6.1206738888516549E-002   1.3202634049760307E-002   5.2761099312401791E-002
  -6.1505050616437358E-002   1.4497215401419683E-002   5.3062158929714290E-002
  -6.9041800038264337E-002   1.1310541214109083E-002   5.0237508375829965E-002
  -6.9314801999727602E-002   1.3754821614775920E-002   4.9459201022732685E-002
  -6.9587803961190881E-002   1.5662353067090049E-002   4.8943954734934361E-002
  -6.9860805922654159E-002   1.7033135571051489E-002   4.8691769512434945E-002
  -7.0133807884117411E-002   1.7867169126660254E-002   4.8702645355234428E-002
  -7.9360495511497264E-002   1.4470623463479070E-002   5.0628234241157331E-002
  -7.9132685108820239E-002   1.7480387398131788E-002   4.7791224877153281E-002
  -7.8904874706143199E-002   1.9611391941086322E-002   4.5692779176130918E-002
  -7.8677064303466174E-002   2.0863637092342669E-002   4.4332897138090258E-002
  -7.8449253900789134E-002   2.1237122851900839E-002   4.3711578763031278E-002
  -9.1267890124452924E-002   1.7630705712849051E-002   5.1755448862143331E-002
  -9.0063764759952827E-002   2.1205953181487658E-002   4.6517727043887021E-002
  -8.8859639395452730E-002   2.3560430815082585E-002   4.2494071486295130E-002
  -8.7655514030952633E-002   2.4694138613633846E-002   3.9684482189367702E-002
  -8.6451388666452508E-002   2.4607076577141448E-002   3.8088959153104771E-002
 -0.10476398387713132        2.0790787962219035E-002   5.3619152238787951E-002
 -0.10210804095312540        2.4931518964843538E-002   4.5638707522933843E-002
  -9.9452098029119446E-002   2.7509469689078862E-002   3.9347831665427019E-002
  -9.6796155105113496E-002   2.8524640134925013E-002   3.4746524666267334E-002
  -9.4140212181107588E-002   2.7977030302382001E-002   3.1834786525454926E-002
  -6.1505050616437358E-002   1.4497215401419683E-002   5.3062158929714290E-002
  -6.0186269679124903E-002   1.5500712493269200E-002   5.1656698093768355E-002
  -5.8867488741812399E-002   1.6116779570506317E-002   5.0702978847955361E-002
  -5.7548707804499902E-002   1.6345416633130997E-002   5.0201001192275219E-002
  -5.6229926867187446E-002   1.6186623681143278E-002   5.0150765126728045E-002
  -7.0133807884117411E-002   1.7867169126660254E-002   4.8702645355234428E-002
  -6.8409842646320579E-002   1.8321522708878105E-002   4.7258917974127554E-002
  -6.6685877408523733E-002   1.8553265292666883E-002   4.6173817603856519E-002
  -6.4961912170726888E-002   1.8562396878026646E-002   4.5447344244421338E-002
  -6.3237946932930042E-002   1.8348917464957232E-002   4.5079497895821927E-002
  -7.8449253900789134E-002   2.1237122851900839E-002   4.3711578763031278E-002
  -7.6413218941805014E-002   2.1142332924487070E-002   4.2394403852946801E-002
  -7.4377183982820866E-002   2.0989751014827494E-002   4.1342741374401082E-002
  -7.2341149023836704E-002   2.0779377122922216E-002   4.0556591327394059E-002
  -7.0305114064852597E-002   2.0511211248771179E-002   4.0035953711925878E-002
  -8.6451388666452508E-002   2.4607076577141448E-002   3.8088959153104771E-002
  -8.4196398565578201E-002   2.3963143140095948E-002   3.7063155730225977E-002
  -8.1941408464703824E-002   2.3426236736988088E-002   3.6209750159588883E-002
  -7.9686418363829462E-002   2.2996357367817813E-002   3.5528742441193528E-002
  -7.7431428262955099E-002   2.2673505032585129E-002   3.5020132575039838E-002
  -9.4140212181107588E-002   2.7977030302382001E-002   3.1834786525454926E-002
  -9.1759381517640085E-002   2.6783953355704930E-002   3.1265173605965237E-002
  -8.9378550854172567E-002   2.5862722459148682E-002   3.0774843959420133E-002
  -8.6997720190705036E-002   2.5213337612713434E-002   3.0363797585819641E-002
  -8.4616889527237560E-002   2.4835798816399093E-002   3.0032034485163769E-002
  -5.6229926867187446E-002   1.6186623681143278E-002   5.0150765126728045E-002
  -5.4711375074823543E-002   1.5839860425454461E-002   4.9845004893950273E-002
  -5.3192823282459646E-002   1.5504586576975992E-002   4.9698019566218617E-002
  -5.1674271490095722E-002   1.5180802135707782E-002   4.9709809143533040E-002
  -5.0155719697731818E-002   1.4868507101649969E-002   4.9880373625893565E-002
  -6.3237946932930042E-002   1.8348917464957232E-002   4.5079497895821927E-002
  -6.1543954928121265E-002   1.8009592549543783E-002   4.4722460604738716E-002
  -5.9849962923312468E-002   1.7641187627871369E-002   4.4557528833499144E-002
  -5.8155970918503691E-002   1.7243702699939988E-002   4.4584702582103238E-002
  -5.6461978913694914E-002   1.6817137765749557E-002   4.4803981850550997E-002
  -7.0305114064852597E-002   2.0511211248771179E-002   4.0035953711925878E-002
  -6.8402351232801348E-002   2.0179324673633106E-002   3.9587069949067806E-002
  -6.6499588400750112E-002   1.9777788678766776E-002   3.9363622320851083E-002
  -6.4596825568698862E-002   1.9306603264172110E-002   3.9365610827275500E-002
  -6.2694062736647627E-002   1.8765768429849214E-002   3.9593035468341274E-002
  -7.7431428262955099E-002   2.2673505032585129E-002   3.5020132575039838E-002
  -7.5286563988863797E-002   2.2349056797722429E-002   3.4438832926937703E-002
  -7.3141699714772496E-002   2.1914389729662098E-002   3.4116300028274330E-002
  -7.0996835440681250E-002   2.1369503828404277E-002   3.4052533879049975E-002
  -6.8851971166589920E-002   2.0714399093948808E-002   3.4247534479264409E-002
  -8.4616889527237560E-002   2.4835798816399093E-002   3.0032034485163769E-002
  -8.2196593196308634E-002   2.4518788921811766E-002   2.9277749538348247E-002
  -7.9776296865379709E-002   2.4050990780557540E-002   2.8815561955769127E-002
  -7.7356000534450742E-002   2.3432404392636438E-002   2.8645471737426442E-002
  -7.4935704203521830E-002   2.2663029758048486E-002   2.8767478883320291E-002
  -5.0155719697731818E-002   1.4868507101649969E-002   4.9880373625893565E-002
  -4.8655761300156697E-002   1.4533290451958961E-002   4.9463585520679865E-002
  -4.7155802902581596E-002   1.4140741163791416E-002   4.9266525357344812E-002
  -4.5655844505006468E-002   1.3690859237147463E-002   4.9289193135888427E-002
  -4.4155886107431361E-002   1.3183644672026817E-002   4.9531588856310760E-002
  -5.6461978913694914E-002   1.6817137765749557E-002   4.4803981850550997E-002
  -5.4752012430015790E-002   1.6360500302949540E-002   4.4407450437854587E-002
  -5.3042045946336686E-002   1.5872797789189139E-002   4.4211207255487529E-002
  -5.1332079462657602E-002   1.5354030224468598E-002   4.4215252303449637E-002
  -4.9622112978978491E-002   1.4804197608787706E-002   4.4419585581741194E-002
  -6.2694062736647627E-002   1.8765768429849214E-002   3.9593035468341274E-002
  -6.0793527878413890E-002   1.8187710153940113E-002   3.9243028335678345E-002
  -5.8892993020180161E-002   1.7604854414586941E-002   3.9073869721795398E-002
  -5.6992458161946417E-002   1.7017201211789759E-002   3.9085559626692343E-002
  -5.5091923303712695E-002   1.6424750545548483E-002   3.9278098050369262E-002
  -6.8851971166589920E-002   2.0714399093948808E-002   3.4247534479264409E-002
  -6.6780307645350923E-002   2.0014920004930690E-002   3.3970319214151209E-002
  -6.4708644124111966E-002   1.9336911039984660E-002   3.3854512756268683E-002
  -6.2636980602872983E-002   1.8680372199110937E-002   3.3900115105616566E-002
  -6.0565317081634006E-002   1.8045303482309233E-002   3.4107126262195267E-002
  -7.4935704203521830E-002   2.2663029758048486E-002   2.8767478883320291E-002
  -7.2712351730826963E-002   2.1842129855921266E-002   2.8589323073273165E-002
  -7.0488999258132110E-002   2.1068967665382431E-002   2.8553136358907175E-002
  -6.8265646785437256E-002   2.0343543186432132E-002   2.8658918740222382E-002
  -6.6042294312742389E-002   1.9665856419070094E-002   2.8906670217218877E-002
  -4.4155886107431361E-002   1.3183644672026817E-002   4.9531588856310760E-002
  -4.2354443603711905E-002   1.2656003065563304E-002   4.9212391199399075E-002
  -4.0553001099992485E-002   1.2144840014890287E-002   4.9096233288943303E-002
  -3.8751558596273050E-002   1.1650155520007571E-002   4.9183115124943375E-002
  -3.6950116092553623E-002   1.1171949580915330E-002   4.9473036707399498E-002
  -4.9622112978978491E-002   1.4804197608787706E-002   4.4419585581741194E-002
  -4.7616196128681267E-002   1.4241600567159451E-002   4.4109246449192341E-002
  -4.5610279278384090E-002   1.3684539724596934E-002   4.4004816263343155E-002
  -4.3604362428086893E-002   1.3133015081100360E-002   4.4106295024193484E-002
  -4.1598445577789696E-002   1.2587026636669219E-002   4.4413682731743481E-002
  -5.5091923303712695E-002   1.6424750545548483E-002   3.9278098050369262E-002
  -5.2878662906594043E-002   1.5827198068755627E-002   3.8965675085458590E-002
  -5.0665402509475384E-002   1.5224239434303753E-002   3.8862030267491250E-002
  -4.8452142112356690E-002   1.4615874642192985E-002   3.8967163596467194E-002
  -4.6238881715238073E-002   1.4002103692423079E-002   3.9281075072386498E-002
  -6.0565317081634006E-002   1.8045303482309233E-002   3.4107126262195267E-002
  -5.8141843937450144E-002   1.7412795570351733E-002   3.3781677108197822E-002
  -5.5718370793266303E-002   1.6763939144010680E-002   3.3667875301387540E-002
  -5.3294897649082483E-002   1.6098734203285666E-002   3.3765720841764275E-002
  -5.0871424504898601E-002   1.5417180748177065E-002   3.4075213729328022E-002
  -6.6042294312742389E-002   1.9665856419070094E-002   2.8906670217218877E-002
  -6.3405739221249702E-002   1.8998393071947950E-002   2.8557252517410148E-002
  -6.0769184129756973E-002   1.8303638853717261E-002   2.8422351365032267E-002
  -5.8132629038264251E-002   1.7581593764378439E-002   2.8501966760085110E-002
  -5.5496073946771529E-002   1.6832257803930772E-002   2.8796098702568551E-002
  -3.6950116092553623E-002   1.1171949580915330E-002   4.9473036707399498E-002
  -3.5651612185296749E-002   1.0678378507600811E-002   4.9239525184817889E-002
  -3.4353108278039855E-002   1.0137598610051327E-002   4.9167736766829534E-002
  -3.3054604370782989E-002   9.5496098882665754E-003   4.9257671453434362E-002
  -3.1756100463526088E-002   8.9144123422464361E-003   4.9509329244632472E-002
  -4.1598445577789696E-002   1.2587026636669219E-002   4.4413682731743481E-002
  -4.0144585921119989E-002   1.2030293683571197E-002   4.4144580181451731E-002
  -3.8690726264450276E-002   1.1446535514073014E-002   4.4024466025392242E-002
  -3.7236866607780549E-002   1.0835752128175051E-002   4.4053340263565395E-002
  -3.5783006951110849E-002   1.0197943525877107E-002   4.4231202895970823E-002
  -4.6238881715238073E-002   1.4002103692423079E-002   3.9281075072386498E-002
  -4.4642401019516331E-002   1.3382208859541458E-002   3.8996565102219632E-002
  -4.3045920323794631E-002   1.2755472418094972E-002   3.8848308815924291E-002
  -4.1449439628072890E-002   1.2121894368083747E-002   3.8836306213500607E-002
  -3.9852958932351197E-002   1.1481474709507888E-002   3.8960557294948517E-002
  -5.0871424504898601E-002   1.5417180748177065E-002   3.4075213729328022E-002
  -4.9145057480485740E-002   1.4734124035511699E-002   3.3795479947121412E-002
  -4.7418690456072887E-002   1.4064409322116850E-002   3.3639265138425467E-002
  -4.5692323431660027E-002   1.3408036607992609E-002   3.3606569303240331E-002
  -4.3965956407247112E-002   1.2765005893138670E-002   3.3697392441565888E-002
  -5.5496073946771529E-002   1.6832257803930772E-002   2.8796098702568551E-002
  -5.3652555304028321E-002   1.6086039211482078E-002   2.8541324716157279E-002
  -5.1809036661285113E-002   1.5373346226138618E-002   2.8397334992895901E-002
  -4.9965518018541905E-002   1.4694178847901113E-002   2.8364129532784554E-002
  -4.8121999375798696E-002   1.4048537076769285E-002   2.8441708335823102E-002
  -3.1756100463526088E-002   8.9144123422464361E-003   4.9509329244632472E-002
  -2.9504206279082026E-002   8.3589459339779015E-003   4.9087681603147415E-002
  -2.7252312094637951E-002   8.0101506254468546E-003   4.8914757360444594E-002
  -2.5000417910193924E-002   7.8680264166535452E-003   4.8990556516523870E-002
  -2.2748523725749814E-002   7.9325733075978899E-003   4.9315079071385215E-002
  -3.5783006951110849E-002   1.0197943525877107E-002   4.4231202895970823E-002
  -3.3285736734082402E-002   9.5962312130672967E-003   4.3916106842189107E-002
  -3.0788466517053907E-002   9.0937366956333754E-003   4.3843039454794119E-002
  -2.8291196300025450E-002   8.6904599735754748E-003   4.4012000733785778E-002
  -2.5793926082997021E-002   8.3864010468932548E-003   4.4422990679163998E-002
  -3.9852958932351197E-002   1.1481474709507888E-002   3.8960557294948517E-002
  -3.7117007415133928E-002   1.0833516492156803E-002   3.8644559524508681E-002
  -3.4381055897916596E-002   1.0177322765819952E-002   3.8563895688059915E-002
  -3.1645104380699229E-002   9.5128935304972378E-003   3.8718565785602191E-002
  -2.8909152863481932E-002   8.8402287861888418E-003   3.9108569817135508E-002
  -4.3965956407247112E-002   1.2765005893138670E-002   3.3697392441565888E-002
  -4.0998018322236554E-002   1.2070801771246309E-002   3.3273039650106050E-002
  -3.8030080237225941E-002   1.1260908836006445E-002   3.3077326060241767E-002
  -3.5062142152215328E-002   1.0335327087419029E-002   3.3110251671972839E-002
  -3.2094204067204701E-002   9.2940565254843732E-003   3.3371816485299910E-002
  -4.8121999375798696E-002   1.4048537076769285E-002   2.8441708335823102E-002
  -4.4928769455390316E-002   1.3308087050335760E-002   2.7801547218981482E-002
  -4.1735539534981936E-002   1.2344494906192979E-002   2.7383330571339820E-002
  -3.8542309614573597E-002   1.1157760644341024E-002   2.7187058392898325E-002
  -3.5349079694165231E-002   9.7478842647797936E-003   2.7212730683656705E-002
  -9.0362314890863382E-002   0.0000000000000000        4.9835680700844154E-002
  -9.3962732137430366E-002   5.4043788771065190E-003   5.3209648557156521E-002
  -9.7563149383997350E-002   1.0670969829845195E-002   5.4964883098917935E-002
 -0.10116356663056433        1.5799772858216030E-002   5.5101384326128419E-002
 -0.10476398387713132        2.0790787962219035E-002   5.3619152238787951E-002
 -0.10329410713171214        0.0000000000000000        5.8663927815709838E-002
 -0.10683175215720014        1.0884751024652990E-002   5.2119472526654692E-002
 -0.11036939718268812        1.9172561317730093E-002   4.7319294994308474E-002
 -0.11390704220817612        2.4863430879231325E-002   4.4263395218671182E-002
 -0.11744468723366414        2.7957359709156665E-002   4.2951773199742804E-002
 -0.12645846372558650        0.0000000000000000        7.4202123481726029E-002
 -0.12657032545873562        1.6365123172199465E-002   5.5280092240095308E-002
 -0.12668218719188476        2.7674152805614999E-002   4.1465349826433406E-002
 -0.12679404892503390        3.3927088900246635E-002   3.2757896240740297E-002
 -0.12690591065818299        3.5123931456094319E-002   2.9157731483016040E-002
 -0.15985538467248644        0.0000000000000000        9.6450267698892700E-002
 -0.15317845204203684        2.1845495319745941E-002   6.2691507697478388E-002
 -0.14650151941158721        3.6175744293499915E-002   3.7403047595292740E-002
 -0.13982458678113757        4.2990746921261910E-002   2.0584887392335813E-002
 -0.13314765415068799        4.2290503203031925E-002   1.2237027088607523E-002
 -0.20348486997241197        0.0000000000000000       0.12540836046720988     
 -0.18665613190710373        2.7325867467292417E-002   7.4353718898803933E-002
 -0.16982739384179552        4.4677335781384817E-002   3.5132388300886518E-002
 -0.15299865577648730        5.2054404942277220E-002   7.7443686734576384E-003
 -0.13616991771117903        4.9457074949969572E-002  -7.8103399834826420E-003
 -0.10476398387713132        2.0790787962219035E-002   5.3619152238787951E-002
 -0.10210804095312540        2.4931518964843538E-002   4.5638707522933843E-002
  -9.9452098029119446E-002   2.7509469689078862E-002   3.9347831665427019E-002
  -9.6796155105113496E-002   2.8524640134925013E-002   3.4746524666267334E-002
  -9.4140212181107588E-002   2.7977030302382001E-002   3.1834786525454926E-002
 -0.11744468723366414        2.7957359709156665E-002   4.2951773199742804E-002
 -0.11348702668264997        2.9429046291843987E-002   3.6697795163918981E-002
 -0.10952936613163583        3.0253189111631173E-002   3.1357683523764356E-002
 -0.10557170558062169        3.0429788168518161E-002   2.6931438279278911E-002
 -0.10161404502960754        2.9958843462505026E-002   2.3419059430462665E-002
 -0.12690591065818299        3.5123931456094319E-002   2.9157731483016040E-002
 -0.12242223494283869        3.3926573618844463E-002   2.5545456642711493E-002
 -0.11793855922749433        3.2996908534183460E-002   2.2071345735397985E-002
 -0.11345488351214998        3.2334936202111322E-002   1.8735398761075835E-002
 -0.10897120779680565        3.1940656622628003E-002   1.5537615719744763E-002
 -0.13314765415068799        4.2290503203031925E-002   1.2237027088607523E-002
 -0.12891366573369142        3.8424100945844905E-002   1.2181691959311248E-002
 -0.12467967731669494        3.5740627956735709E-002   1.1488818300328029E-002
 -0.12044568889969844        3.4240084235704467E-002   1.0158406111658039E-002
 -0.11621170048270191        3.3922469782751027E-002   8.1904553933012138E-003
 -0.13616991771117903        4.9457074949969572E-002  -7.8103399834826420E-003
 -0.13296131905520839        4.2921628272845368E-002  -3.3934988862816366E-003
 -0.12975272039923769        3.8484347379288082E-002  -3.8989878144559190E-004
 -0.12654412174326704        3.6145232269297584E-002   1.2004603310257168E-003
 -0.12333552308729634        3.5904282942874038E-002   1.3775784511320943E-003
  -9.4140212181107588E-002   2.7977030302382001E-002   3.1834786525454926E-002
  -9.1759381517640085E-002   2.6783953355704930E-002   3.1265173605965237E-002
  -8.9378550854172567E-002   2.5862722459148682E-002   3.0774843959420133E-002
  -8.6997720190705036E-002   2.5213337612713434E-002   3.0363797585819641E-002
  -8.4616889527237560E-002   2.4835798816399093E-002   3.0032034485163769E-002
 -0.10161404502960754        2.9958843462505026E-002   2.3419059430462665E-002
  -9.9139943931964930E-002   2.9189055792786779E-002   2.3140955696310729E-002
  -9.6665842834322308E-002   2.8469125958558453E-002   2.2970109557564369E-002
  -9.4191741736679727E-002   2.7799053959820078E-002   2.2906521014223580E-002
  -9.1717640639037132E-002   2.7178839796571652E-002   2.2950190066288428E-002
 -0.10897120779680565        3.1940656622628003E-002   1.5537615719744763E-002
 -0.10637586194252699        3.1594158229868677E-002   1.5329032956299631E-002
 -0.10378051608824830        3.1075529457968244E-002   1.5255682110720988E-002
 -0.10118517023396963        3.0384770306926791E-002   1.5317563183008989E-002
  -9.8589824379690952E-002   2.9521880776744232E-002   1.5514676173163534E-002
 -0.11621170048270191        3.3922469782751027E-002   8.1904553933012138E-003
 -0.11346713554932621        3.3999260666950464E-002   7.8294053859319663E-003
 -0.11072257061595044        3.3681932957378057E-002   7.6315616188900124E-003
 -0.10797800568257473        3.2970486654033418E-002   7.5969240921757641E-003
 -0.10523344074919901        3.1864921756916881E-002   7.7254928057890306E-003
 -0.12333552308729634        3.5904282942874038E-002   1.3775784511320943E-003
 -0.12041376475236260        3.6404363104032417E-002   6.4207298520754796E-004
 -0.11749200641742885        3.6288336456787758E-002   9.7748082071379139E-005
 -0.11457024808249512        3.5556203001140055E-002  -2.5539625827603919E-004
 -0.11164848974756136        3.4207962737089426E-002  -4.1736003583509040E-004
  -8.4616889527237560E-002   2.4835798816399093E-002   3.0032034485163769E-002
  -8.2196593196308634E-002   2.4518788921811766E-002   2.9277749538348247E-002
  -7.9776296865379709E-002   2.4050990780557540E-002   2.8815561955769127E-002
  -7.7356000534450742E-002   2.3432404392636438E-002   2.8645471737426442E-002
  -7.4935704203521830E-002   2.2663029758048486E-002   2.8767478883320291E-002
  -9.1717640639037132E-002   2.7178839796571652E-002   2.2950190066288428E-002
  -8.9034300478557815E-002   2.6559113349061483E-002   2.2295583630592489E-002
  -8.6350960318078596E-002   2.5890504497538033E-002   2.1874967489760706E-002
  -8.3667620157599307E-002   2.5173013242001257E-002   2.1688341643793237E-002
  -8.0984279997120032E-002   2.4406639582451151E-002   2.1735706092689988E-002
  -9.8589824379690952E-002   2.9521880776744232E-002   1.5514676173163534E-002
  -9.5701547459033517E-002   2.8599437776311250E-002   1.5061654091240592E-002
  -9.2813270538376069E-002   2.7730018214518641E-002   1.4784515234809779E-002
  -8.9924993617718607E-002   2.6913622091366104E-002   1.4683259603871127E-002
  -8.7036716697061201E-002   2.6150249406853801E-002   1.4757887198424503E-002
 -0.10523344074919901        3.1864921756916881E-002   7.7254928057890306E-003
 -0.10219833413773559        3.0639762203561158E-002   7.5759609202927132E-003
  -9.9163227526272171E-002   2.9569531931499093E-002   7.5442051909164354E-003
  -9.6128120914808768E-002   2.8654230940730982E-002   7.6302256176599059E-003
  -9.3093014303345351E-002   2.7893859231256597E-002   7.8340222005234220E-003
 -0.11164848974756136        3.4207962737089426E-002  -4.1736003583509040E-004
 -0.10852466051466408        3.2680086630810762E-002  -1.6149588225117251E-004
 -0.10540083128176689        3.1409045648479697E-002   1.5403735808043606E-004
 -0.10227700204886965        3.0394839790095666E-002   5.2923968516003714E-004
  -9.9153172815972412E-002   2.9637469055659116E-002   9.6411109898703051E-004
  -7.4935704203521830E-002   2.2663029758048486E-002   2.8767478883320291E-002
  -7.2712351730826963E-002   2.1842129855921266E-002   2.8589323073273165E-002
  -7.0488999258132110E-002   2.1068967665382431E-002   2.8553136358907175E-002
  -6.8265646785437256E-002   2.0343543186432132E-002   2.8658918740222382E-002
  -6.6042294312742389E-002   1.9665856419070094E-002   2.8906670217218877E-002
  -8.0984279997120032E-002   2.4406639582451151E-002   2.1735706092689988E-002
  -7.8616598893035614E-002   2.3619494131064692E-002   2.1583587177972874E-002
  -7.6248917788951126E-002   2.2839687500019024E-002   2.1578156430353643E-002
  -7.3881236684866708E-002   2.2067219689314146E-002   2.1719413849832531E-002
  -7.1513555580782220E-002   2.1302090698949949E-002   2.2007359436409135E-002
  -8.7036716697061201E-002   2.6150249406853801E-002   1.4757887198424503E-002
  -8.4519987890170428E-002   2.5396858406208200E-002   1.4591406287789668E-002
  -8.2003259083279628E-002   2.4610407334655731E-002   1.4576332615669593E-002
  -7.9486530276388787E-002   2.3790896192196303E-002   1.4712666182064212E-002
  -7.6969801469498056E-002   2.2938324978829944E-002   1.5000406986973608E-002
  -9.3093014303345351E-002   2.7893859231256597E-002   7.8340222005234220E-003
  -9.0422518722231407E-002   2.7174222681351667E-002   7.6127804027232709E-003
  -8.7752023141117533E-002   2.6381127169292161E-002   7.5476649148546746E-003
  -8.5081527560003631E-002   2.5514572695078442E-002   7.6386757369175853E-003
  -8.2411031978889715E-002   2.4574559258709869E-002   7.8858128689120489E-003
  -9.9153172815972412E-002   2.9637469055659116E-002   9.6411109898703051E-004
  -9.6324191389218605E-002   2.8951586956495023E-002   6.4770952277404259E-004
  -9.3495209962464826E-002   2.8151847003928976E-002   4.9215332790916722E-004
  -9.0666228535711033E-002   2.7238249197960349E-002   4.9744251439270276E-004
  -8.7837247108957239E-002   2.6210793538589905E-002   6.6357708222447576E-004
  -6.6042294312742389E-002   1.9665856419070094E-002   2.8906670217218877E-002
  -6.3405739221249702E-002   1.8998393071947950E-002   2.8557252517410148E-002
  -6.0769184129756973E-002   1.8303638853717261E-002   2.8422351365032267E-002
  -5.8132629038264251E-002   1.7581593764378439E-002   2.8501966760085110E-002
  -5.5496073946771529E-002   1.6832257803930772E-002   2.8796098702568551E-002
  -7.1513555580782220E-002   2.1302090698949949E-002   2.2007359436409135E-002
  -6.8664505804300113E-002   2.0540867149294526E-002   2.1657525848467293E-002
  -6.5815456027817992E-002   1.9780115660715247E-002   2.1518165083073429E-002
  -6.2966406251335871E-002   1.9019836233212378E-002   2.1589277140227889E-002
  -6.0117356474853750E-002   1.8260028866786016E-002   2.1870862019930382E-002
  -7.6969801469498056E-002   2.2938324978829944E-002   1.5000406986973608E-002
  -7.3912300732909067E-002   2.2083341226640907E-002   1.4677920443083275E-002
  -7.0854799996320064E-002   2.1256592467712963E-002   1.4561862996858639E-002
  -6.7797299259731089E-002   2.0458078702046432E-002   1.4652234648299369E-002
  -6.4739798523142086E-002   1.9687799929641064E-002   1.4949035397405649E-002
  -8.2411031978889715E-002   2.4574559258709869E-002   7.8858128689120489E-003
  -7.9149124007076507E-002   2.3625815303987135E-002   7.6184363012583613E-003
  -7.5887216035263327E-002   2.2733069274710815E-002   7.5534451063874308E-003
  -7.2625308063450120E-002   2.1896321170880539E-002   7.6908392842997596E-003
  -6.9363400091636940E-002   2.1115570992496266E-002   8.0306188349945351E-003
  -8.7837247108957239E-002   2.6210793538589905E-002   6.6357708222447576E-004
  -8.4374975626802406E-002   2.5168289381333975E-002   4.7907342299224887E-004
  -8.0912704144647629E-002   2.4209546081708777E-002   4.9291141166023233E-004
  -7.7450432662492852E-002   2.3334563639714506E-002   7.0509104822836718E-004
  -7.3988161180338019E-002   2.2543342055351467E-002   1.1156123326969691E-003
  -5.5496073946771529E-002   1.6832257803930772E-002   2.8796098702568551E-002
  -5.3652555304028321E-002   1.6086039211482078E-002   2.8541324716157279E-002
  -5.1809036661285113E-002   1.5373346226138618E-002   2.8397334992895901E-002
  -4.9965518018541905E-002   1.4694178847901113E-002   2.8364129532784554E-002
  -4.8121999375798696E-002   1.4048537076769285E-002   2.8441708335823102E-002
  -6.0117356474853750E-002   1.8260028866786016E-002   2.1870862019930382E-002
  -5.8153590785613649E-002   1.7498222003308306E-002   2.1638918572622956E-002
  -5.6189825096373658E-002   1.6731944084651534E-002   2.1536684955159521E-002
  -5.4226059407133632E-002   1.5961195110815792E-002   2.1564161167539612E-002
  -5.2262293717893579E-002   1.5185975081801140E-002   2.1721347209763431E-002
  -6.4739798523142086E-002   1.9687799929641064E-002   1.4949035397405649E-002
  -6.2636860220711493E-002   1.8910404795134603E-002   1.4701925826917733E-002
  -6.0533921918280900E-002   1.8090541943164340E-002   1.4603451652966989E-002
  -5.8430983615850328E-002   1.7228211373730637E-002   1.4653612875554112E-002
  -5.6328045313419672E-002   1.6323413086833244E-002   1.4852409494678462E-002
  -6.9363400091636940E-002   2.1115570992496266E-002   8.0306188349945351E-003
  -6.7102363609321883E-002   2.0322587586960948E-002   7.7303464790410628E-003
  -6.4841327127006909E-002   1.9449139801677534E-002   7.5976350863187145E-003
  -6.2580290644691838E-002   1.8495227636645122E-002   7.6324846568278995E-003
  -6.0319254162376865E-002   1.7460851091864890E-002   7.8348951905682328E-003
  -7.3988161180338019E-002   2.2543342055351467E-002   1.1156123326969691E-003
  -7.1550100951444762E-002   2.1734770378787183E-002   7.2418052899358987E-004
  -6.9112040722551615E-002   2.0807737660190090E-002   5.1923525521485603E-004
  -6.6673980493658414E-002   1.9762243899559946E-002   5.0077651136158641E-004
  -6.4235920264765212E-002   1.8598289096896981E-002   6.6880429743287895E-004
  -4.8121999375798696E-002   1.4048537076769285E-002   2.8441708335823102E-002
  -4.4928769455390316E-002   1.3308087050335760E-002   2.7801547218981482E-002
  -4.1735539534981936E-002   1.2344494906192979E-002   2.7383330571339820E-002
  -3.8542309614573597E-002   1.1157760644341024E-002   2.7187058392898325E-002
  -3.5349079694165231E-002   9.7478842647797936E-003   2.7212730683656705E-002
  -5.2262293717893579E-002   1.5185975081801140E-002   2.1721347209763431E-002
  -4.8846400328305090E-002   1.4384149560054155E-002   2.1020506815473322E-002
  -4.5430506938716496E-002   1.3533584108021024E-002   2.0543048890343696E-002
  -4.2014613549128041E-002   1.2634278725702233E-002   2.0288973434374524E-002
  -3.8598720159539468E-002   1.1686233413097602E-002   2.0258280447565502E-002
  -5.6328045313419672E-002   1.6323413086833244E-002   1.4852409494678462E-002
  -5.2688050454690549E-002   1.5460212069772467E-002   1.4265292010363223E-002
  -4.9048055595961419E-002   1.4722673309849076E-002   1.3902994995168831E-002
  -4.5408060737232359E-002   1.4110796807063444E-002   1.3765518449095505E-002
  -4.1768065878503124E-002   1.3624582561415299E-002   1.3852862372142505E-002
  -6.0319254162376865E-002   1.7460851091864890E-002   7.8348951905682328E-003
  -5.6453719834546792E-002   1.6536274579490987E-002   7.5359028036515105E-003
  -5.2588185506716643E-002   1.5911762511677346E-002   7.4631688858155538E-003
  -4.8722651178886599E-002   1.5587314888424766E-002   7.6166934370609637E-003
  -4.4857116851056415E-002   1.5562931709733219E-002   7.9964764573879354E-003
  -6.4235920264765212E-002   1.8598289096896981E-002   6.6880429743287895E-004
  -6.0143408467873694E-002   1.7612337089209285E-002   8.3233919533748368E-004
  -5.6050896670982231E-002   1.7100851713505560E-002   1.2235705622840043E-003
  -5.1958384874090630E-002   1.7063832969786016E-002   1.8424983982716220E-003
  -4.7865873077199250E-002   1.7501280858050805E-002   2.6891227033010168E-003
 </DataArray>
 </PointData>
 </Piece>
 <Piece  NumberOfPoints="          1600 "  NumberOfCells="         1024 ">
 <Points>
 <DataArray  type="Float64" NumberOfComponents="3"  format="ascii" >
  0.50000000000000000        0.0000000000000000        0.0000000000000000     
  0.53125000000000000        0.0000000000000000        0.0000000000000000     
  0.56250000000000000        0.0000000000000000        0.0000000000000000     
  0.59375000000000000        0.0000000000000000        0.0000000000000000     
  0.62500000000000000        0.0000000000000000        0.0000000000000000     
  0.50000000000000000        3.1250000000000000E-002   0.0000000000000000     
  0.53125000000000000        3.1250000000000000E-002   0.0000000000000000     
  0.56250000000000000        3.1250000000000000E-002   0.0000000000000000     
  0.59375000000000000        3.1250000000000000E-002   0.0000000000000000     
  0.62500000000000000        3.1250000000000000E-002   0.0000000000000000     
  0.50000000000000000        6.2500000000000000E-002   0.0000000000000000     
  0.53125000000000000        6.2500000000000000E-002   0.0000000000000000     
  0.56250000000000000        6.2500000000000000E-002   0.0000000000000000     
  0.59375000000000000        6.2500000000000000E-002   0.0000000000000000     
  0.62500000000000000        6.2500000000000000E-002   0.0000000000000000     
  0.50000000000000000        9.3750000000000000E-002   0.0000000000000000     
  0.53125000000000000        9.3750000000000000E-002   0.0000000000000000     
  0.56250000000000000        9.3750000000000000E-002   0.0000000000000000     
  0.59375000000000000        9.3750000000000000E-002   0.0000000000000000     
  0.62500000000000000        9.3750000000000000E-002   0.0000000000000000     
  0.50000000000000000       0.12500000000000000        0.0000000000000000     
  0.53125000000000000       0.12500000000000000        0.0000000000000000     
  0.56250000000000000       0.12500000000000000        0.0000000000000000     
  0.59375000000000000       0.12500000000000000        0.0000000000000000     
  0.62500000000000000       0.12500000000000000        0.0000000000000000     
  0.62500000000000000        0.0000000000000000        0.0000000000000000     
  0.65625000000000000        0.0000000000000000        0.0000000000000000     
  0.68750000000000000        0.0000000000000000        0.0000000000000000     
  0.71875000000000000        0.0000000000000000        0.0000000000000000     
  0.75000000000000000        0.0000000000000000        0.0000000000000000     
  0.62500000000000000        3.1250000000000000E-002   0.0000000000000000     
  0.65625000000000000        3.1250000000000000E-002   0.0000000000000000     
  0.68750000000000000        3.1250000000000000E-002   0.0000000000000000     
  0.71875000000000000        3.1250000000000000E-002   0.0000000000000000     
  0.75000000000000000        3.1250000000000000E-002   0.0000000000000000     
  0.62500000000000000        6.2500000000000000E-002   0.0000000000000000     
  0.65625000000000000        6.2500000000000000E-002   0.0000000000000000     
  0.68750000000000000        6.2500000000000000E-002   0.0000000000000000     
  0.71875000000000000        6.2500000000000000E-002   0.0000000000000000     
  0.75000000000000000        6.2500000000000000E-002   0.0000000000000000     
  0.62500000000000000        9.3750000000000000E-002   0.0000000000000000     
  0.65625000000000000        9.3750000000000000E-002   0.0000000000000000     
  0.68750000000000000        9.3750000000000000E-002   0.0000000000000000     
  0.71875000000000000        9.3750000000000000E-002   0.0000000000000000     
  0.75000000000000000        9.3750000000000000E-002   0.0000000000000000     
  0.62500000000000000       0.12500000000000000        0.0000000000000000     
  0.65625000000000000       0.12500000000000000        0.0000000000000000     
  0.68750000000000000       0.12500000000000000        0.0000000000000000     
  0.71875000000000000       0.12500000000000000        0.0000000000000000     
  0.75000000000000000       0.12500000000000000        0.0000000000000000     
  0.75000000000000000        0.0000000000000000        0.0000000000000000     
  0.78125000000000000        0.0000000000000000        0.0000000000000000     
  0.81250000000000000        0.0000000000000000        0.0000000000000000     
  0.84375000000000000        0.0000000000000000        0.0000000000000000     
  0.87500000000000000        0.0000000000000000        0.0000000000000000     
  0.75000000000000000        3.1250000000000000E-002   0.0000000000000000     
  0.78125000000000000        3.1250000000000000E-002   0.0000000000000000     
  0.81250000000000000        3.1250000000000000E-002   0.0000000000000000     
  0.84375000000000000        3.1250000000000000E-002   0.0000000000000000     
  0.87500000000000000        3.1250000000000000E-002   0.0000000000000000     
  0.75000000000000000        6.2500000000000000E-002   0.0000000000000000     
  0.78125000000000000        6.2500000000000000E-002   0.0000000000000000     
  0.81250000000000000        6.2500000000000000E-002   0.0000000000000000     
  0.84375000000000000        6.2500000000000000E-002   0.0000000000000000     
  0.87500000000000000        6.2500000000000000E-002   0.0000000000000000     
  0.75000000000000000        9.3750000000000000E-002   0.0000000000000000     
  0.78125000000000000        9.3750000000000000E-002   0.0000000000000000     
  0.81250000000000000        9.3750000000000000E-002   0.0000000000000000     
  0.84375000000000000        9.3750000000000000E-002   0.0000000000000000     
  0.87500000000000000        9.3750000000000000E-002   0.0000000000000000     
  0.75000000000000000       0.12500000000000000        0.0000000000000000     
  0.78125000000000000       0.12500000000000000        0.0000000000000000     
  0.81250000000000000       0.12500000000000000        0.0000000000000000     
  0.84375000000000000       0.12500000000000000        0.0000000000000000     
  0.87500000000000000       0.12500000000000000        0.0000000000000000     
  0.87500000000000000        0.0000000000000000        0.0000000000000000     
  0.90625000000000000        0.0000000000000000        0.0000000000000000     
  0.93750000000000000        0.0000000000000000        0.0000000000000000     
  0.96875000000000000        0.0000000000000000        0.0000000000000000     
   1.0000000000000000        0.0000000000000000        0.0000000000000000     
  0.87500000000000000        3.1250000000000000E-002   0.0000000000000000     
  0.90625000000000000        3.1250000000000000E-002   0.0000000000000000     
  0.93750000000000000        3.1250000000000000E-002   0.0000000000000000     
  0.96875000000000000        3.1250000000000000E-002   0.0000000000000000     
   1.0000000000000000        3.1250000000000000E-002   0.0000000000000000     
  0.87500000000000000        6.2500000000000000E-002   0.0000000000000000     
  0.90625000000000000        6.2500000000000000E-002   0.0000000000000000     
  0.93750000000000000        6.2500000000000000E-002   0.0000000000000000     
  0.96875000000000000        6.2500000000000000E-002   0.0000000000000000     
   1.0000000000000000        6.2500000000000000E-002   0.0000000000000000     
  0.87500000000000000        9.3750000000000000E-002   0.0000000000000000     
  0.90625000000000000        9.3750000000000000E-002   0.0000000000000000     
  0.93750000000000000        9.3750000000000000E-002   0.0000000000000000     
  0.96875000000000000        9.3750000000000000E-002   0.0000000000000000     
   1.0000000000000000        9.3750000000000000E-002   0.0000000000000000     
  0.87500000000000000       0.12500000000000000        0.0000000000000000     
  0.90625000000000000       0.12500000000000000        0.0000000000000000     
  0.93750000000000000       0.12500000000000000        0.0000000000000000     
  0.96875000000000000       0.12500000000000000        0.0000000000000000     
   1.0000000000000000       0.12500000000000000        0.0000000000000000     
   1.0000000000000000        0.0000000000000000        0.0000000000000000     
   1.0312500000000000        0.0000000000000000        0.0000000000000000     
   1.0625000000000000        0.0000000000000000        0.0000000000000000     
   1.0937500000000000        0.0000000000000000        0.0000000000000000     
   1.1250000000000000        0.0000000000000000        0.0000000000000000     
   1.0000000000000000        3.1250000000000000E-002   0.0000000000000000     
   1.0312500000000000        3.1250000000000000E-002   0.0000000000000000     
   1.0625000000000000        3.1250000000000000E-002   0.0000000000000000     
   1.0937500000000000        3.1250000000000000E-002   0.0000000000000000     
   1.1250000000000000        3.1250000000000000E-002   0.0000000000000000     
   1.0000000000000000        6.2500000000000000E-002   0.0000000000000000     
   1.0312500000000000        6.2500000000000000E-002   0.0000000000000000     
   1.0625000000000000        6.2500000000000000E-002   0.0000000000000000     
   1.0937500000000000        6.2500000000000000E-002   0.0000000000000000     
   1.1250000000000000        6.2500000000000000E-002   0.0000000000000000     
   1.0000000000000000        9.3750000000000000E-002   0.0000000000000000     
   1.0312500000000000        9.3750000000000000E-002   0.0000000000000000     
   1.0625000000000000        9.3750000000000000E-002   0.0000000000000000     
   1.0937500000000000        9.3750000000000000E-002   0.0000000000000000     
   1.1250000000000000        9.3750000000000000E-002   0.0000000000000000     
   1.0000000000000000       0.12500000000000000        0.0000000000000000     
   1.0312500000000000       0.12500000000000000        0.0000000000000000     
   1.0625000000000000       0.12500000000000000        0.0000000000000000     
   1.0937500000000000       0.12500000000000000        0.0000000000000000     
   1.1250000000000000       0.12500000000000000        0.0000000000000000     
   1.1250000000000000        0.0000000000000000        0.0000000000000000     
   1.1562500000000000        0.0000000000000000        0.0000000000000000     
   1.1875000000000000        0.0000000000000000        0.0000000000000000     
   1.2187500000000000        0.0000000000000000        0.0000000000000000     
   1.2500000000000000        0.0000000000000000        0.0000000000000000     
   1.1250000000000000        3.1250000000000000E-002   0.0000000000000000     
   1.1562500000000000        3.1250000000000000E-002   0.0000000000000000     
   1.1875000000000000        3.1250000000000000E-002   0.0000000000000000     
   1.2187500000000000        3.1250000000000000E-002   0.0000000000000000     
   1.2500000000000000        3.1250000000000000E-002   0.0000000000000000     
   1.1250000000000000        6.2500000000000000E-002   0.0000000000000000     
   1.1562500000000000        6.2500000000000000E-002   0.0000000000000000     
   1.1875000000000000        6.2500000000000000E-002   0.0000000000000000     
   1.2187500000000000        6.2500000000000000E-002   0.0000000000000000     
   1.2500000000000000        6.2500000000000000E-002   0.0000000000000000     
   1.1250000000000000        9.3750000000000000E-002   0.0000000000000000     
   1.1562500000000000        9.3750000000000000E-002   0.0000000000000000     
   1.1875000000000000        9.3750000000000000E-002   0.0000000000000000     
   1.2187500000000000        9.3750000000000000E-002   0.0000000000000000     
   1.2500000000000000        9.3750000000000000E-002   0.0000000000000000     
   1.1250000000000000       0.12500000000000000        0.0000000000000000     
   1.1562500000000000       0.12500000000000000        0.0000000000000000     
   1.1875000000000000       0.12500000000000000        0.0000000000000000     
   1.2187500000000000       0.12500000000000000        0.0000000000000000     
   1.2500000000000000       0.12500000000000000        0.0000000000000000     
   1.2500000000000000        0.0000000000000000        0.0000000000000000     
   1.2812500000000000        0.0000000000000000        0.0000000000000000     
   1.3125000000000000        0.0000000000000000        0.0000000000000000     
   1.3437500000000000        0.0000000000000000        0.0000000000000000     
   1.3750000000000000        0.0000000000000000        0.0000000000000000     
   1.2500000000000000        3.1250000000000000E-002   0.0000000000000000     
   1.2812500000000000        3.1250000000000000E-002   0.0000000000000000     
   1.3125000000000000        3.1250000000000000E-002   0.0000000000000000     
   1.3437500000000000        3.1250000000000000E-002   0.0000000000000000     
   1.3750000000000000        3.1250000000000000E-002   0.0000000000000000     
   1.2500000000000000        6.2500000000000000E-002   0.0000000000000000     
   1.2812500000000000        6.2500000000000000E-002   0.0000000000000000     
   1.3125000000000000        6.2500000000000000E-002   0.0000000000000000     
   1.3437500000000000        6.2500000000000000E-002   0.0000000000000000     
   1.3750000000000000        6.2500000000000000E-002   0.0000000000000000     
   1.2500000000000000        9.3750000000000000E-002   0.0000000000000000     
   1.2812500000000000        9.3750000000000000E-002   0.0000000000000000     
   1.3125000000000000        9.3750000000000000E-002   0.0000000000000000     
   1.3437500000000000        9.3750000000000000E-002   0.0000000000000000     
   1.3750000000000000        9.3750000000000000E-002   0.0000000000000000     
   1.2500000000000000       0.12500000000000000        0.0000000000000000     
   1.2812500000000000       0.12500000000000000        0.0000000000000000     
   1.3125000000000000       0.12500000000000000        0.0000000000000000     
   1.3437500000000000       0.12500000000000000        0.0000000000000000     
   1.3750000000000000       0.12500000000000000        0.0000000000000000     
   1.3750000000000000        0.0000000000000000        0.0000000000000000     
   1.4062500000000000        0.0000000000000000        0.0000000000000000     
   1.4375000000000000        0.0000000000000000        0.0000000000000000     
   1.4687500000000000        0.0000000000000000        0.0000000000000000     
   1.5000000000000000        0.0000000000000000        0.0000000000000000     
   1.3750000000000000        3.1250000000000000E-002   0.0000000000000000     
   1.4062500000000000        3.1250000000000000E-002   0.0000000000000000     
   1.4375000000000000        3.1250000000000000E-002   0.0000000000000000     
   1.4687500000000000        3.1250000000000000E-002   0.0000000000000000     
   1.5000000000000000        3.1250000000000000E-002   0.0000000000000000     
   1.3750000000000000        6.2500000000000000E-002   0.0000000000000000     
   1.4062500000000000        6.2500000000000000E-002   0.0000000000000000     
   1.4375000000000000        6.2500000000000000E-002   0.0000000000000000     
   1.4687500000000000        6.2500000000000000E-002   0.0000000000000000     
   1.5000000000000000        6.2500000000000000E-002   0.0000000000000000     
   1.3750000000000000        9.3750000000000000E-002   0.0000000000000000     
   1.4062500000000000        9.3750000000000000E-002   0.0000000000000000     
   1.4375000000000000        9.3750000000000000E-002   0.0000000000000000     
   1.4687500000000000        9.3750000000000000E-002   0.0000000000000000     
   1.5000000000000000        9.3750000000000000E-002   0.0000000000000000     
   1.3750000000000000       0.12500000000000000        0.0000000000000000     
   1.4062500000000000       0.12500000000000000        0.0000000000000000     
   1.4375000000000000       0.12500000000000000        0.0000000000000000     
   1.4687500000000000       0.12500000000000000        0.0000000000000000     
   1.5000000000000000       0.12500000000000000        0.0000000000000000     
  0.50000000000000000       0.12500000000000000        0.0000000000000000     
  0.53125000000000000       0.12500000000000000        0.0000000000000000     
  0.56250000000000000       0.12500000000000000        0.0000000000000000     
  0.59375000000000000       0.12500000000000000        0.0000000000000000     
  0.62500000000000000       0.12500000000000000        0.0000000000000000     
  0.50000000000000000       0.15625000000000000        0.0000000000000000     
  0.53125000000000000       0.15625000000000000        0.0000000000000000     
  0.56250000000000000       0.15625000000000000        0.0000000000000000     
  0.59375000000000000       0.15625000000000000        0.0000000000000000     
  0.62500000000000000       0.15625000000000000        0.0000000000000000     
  0.50000000000000000       0.18750000000000000        0.0000000000000000     
  0.53125000000000000       0.18750000000000000        0.0000000000000000     
  0.56250000000000000       0.18750000000000000        0.0000000000000000     
  0.59375000000000000       0.18750000000000000        0.0000000000000000     
  0.62500000000000000       0.18750000000000000        0.0000000000000000     
  0.50000000000000000       0.21875000000000000        0.0000000000000000     
  0.53125000000000000       0.21875000000000000        0.0000000000000000     
  0.56250000000000000       0.21875000000000000        0.0000000000000000     
  0.59375000000000000       0.21875000000000000        0.0000000000000000     
  0.62500000000000000       0.21875000000000000        0.0000000000000000     
  0.50000000000000000       0.25000000000000000        0.0000000000000000     
  0.53125000000000000       0.25000000000000000        0.0000000000000000     
  0.56250000000000000       0.25000000000000000        0.0000000000000000     
  0.59375000000000000       0.25000000000000000        0.0000000000000000     
  0.62500000000000000       0.25000000000000000        0.0000000000000000     
  0.62500000000000000       0.12500000000000000        0.0000000000000000     
  0.65625000000000000       0.12500000000000000        0.0000000000000000     
  0.68750000000000000       0.12500000000000000        0.0000000000000000     
  0.71875000000000000       0.12500000000000000        0.0000000000000000     
  0.75000000000000000       0.12500000000000000        0.0000000000000000     
  0.62500000000000000       0.15625000000000000        0.0000000000000000     
  0.65625000000000000       0.15625000000000000        0.0000000000000000     
  0.68750000000000000       0.15625000000000000        0.0000000000000000     
  0.71875000000000000       0.15625000000000000        0.0000000000000000     
  0.75000000000000000       0.15625000000000000        0.0000000000000000     
  0.62500000000000000       0.18750000000000000        0.0000000000000000     
  0.65625000000000000       0.18750000000000000        0.0000000000000000     
  0.68750000000000000       0.18750000000000000        0.0000000000000000     
  0.71875000000000000       0.18750000000000000        0.0000000000000000     
  0.75000000000000000       0.18750000000000000        0.0000000000000000     
  0.62500000000000000       0.21875000000000000        0.0000000000000000     
  0.65625000000000000       0.21875000000000000        0.0000000000000000     
  0.68750000000000000       0.21875000000000000        0.0000000000000000     
  0.71875000000000000       0.21875000000000000        0.0000000000000000     
  0.75000000000000000       0.21875000000000000        0.0000000000000000     
  0.62500000000000000       0.25000000000000000        0.0000000000000000     
  0.65625000000000000       0.25000000000000000        0.0000000000000000     
  0.68750000000000000       0.25000000000000000        0.0000000000000000     
  0.71875000000000000       0.25000000000000000        0.0000000000000000     
  0.75000000000000000       0.25000000000000000        0.0000000000000000     
  0.75000000000000000       0.12500000000000000        0.0000000000000000     
  0.78125000000000000       0.12500000000000000        0.0000000000000000     
  0.81250000000000000       0.12500000000000000        0.0000000000000000     
  0.84375000000000000       0.12500000000000000        0.0000000000000000     
  0.87500000000000000       0.12500000000000000        0.0000000000000000     
  0.75000000000000000       0.15625000000000000        0.0000000000000000     
  0.78125000000000000       0.15625000000000000        0.0000000000000000     
  0.81250000000000000       0.15625000000000000        0.0000000000000000     
  0.84375000000000000       0.15625000000000000        0.0000000000000000     
  0.87500000000000000       0.15625000000000000        0.0000000000000000     
  0.75000000000000000       0.18750000000000000        0.0000000000000000     
  0.78125000000000000       0.18750000000000000        0.0000000000000000     
  0.81250000000000000       0.18750000000000000        0.0000000000000000     
  0.84375000000000000       0.18750000000000000        0.0000000000000000     
  0.87500000000000000       0.18750000000000000        0.0000000000000000     
  0.75000000000000000       0.21875000000000000        0.0000000000000000     
  0.78125000000000000       0.21875000000000000        0.0000000000000000     
  0.81250000000000000       0.21875000000000000        0.0000000000000000     
  0.84375000000000000       0.21875000000000000        0.0000000000000000     
  0.87500000000000000       0.21875000000000000        0.0000000000000000     
  0.75000000000000000       0.25000000000000000        0.0000000000000000     
  0.78125000000000000       0.25000000000000000        0.0000000000000000     
  0.81250000000000000       0.25000000000000000        0.0000000000000000     
  0.84375000000000000       0.25000000000000000        0.0000000000000000     
  0.87500000000000000       0.25000000000000000        0.0000000000000000     
  0.87500000000000000       0.12500000000000000        0.0000000000000000     
  0.90625000000000000       0.12500000000000000        0.0000000000000000     
  0.93750000000000000       0.12500000000000000        0.0000000000000000     
  0.96875000000000000       0.12500000000000000        0.0000000000000000     
   1.0000000000000000       0.12500000000000000        0.0000000000000000     
  0.87500000000000000       0.15625000000000000        0.0000000000000000     
  0.90625000000000000       0.15625000000000000        0.0000000000000000     
  0.93750000000000000       0.15625000000000000        0.0000000000000000     
  0.96875000000000000       0.15625000000000000        0.0000000000000000     
   1.0000000000000000       0.15625000000000000        0.0000000000000000     
  0.87500000000000000       0.18750000000000000        0.0000000000000000     
  0.90625000000000000       0.18750000000000000        0.0000000000000000     
  0.93750000000000000       0.18750000000000000        0.0000000000000000     
  0.96875000000000000       0.18750000000000000        0.0000000000000000     
   1.0000000000000000       0.18750000000000000        0.0000000000000000     
  0.87500000000000000       0.21875000000000000        0.0000000000000000     
  0.90625000000000000       0.21875000000000000        0.0000000000000000     
  0.93750000000000000       0.21875000000000000        0.0000000000000000     
  0.96875000000000000       0.21875000000000000        0.0000000000000000     
   1.0000000000000000       0.21875000000000000        0.0000000000000000     
  0.87500000000000000       0.25000000000000000        0.0000000000000000     
  0.90625000000000000       0.25000000000000000        0.0000000000000000     
  0.93750000000000000       0.25000000000000000        0.0000000000000000     
  0.96875000000000000       0.25000000000000000        0.0000000000000000     
   1.0000000000000000       0.25000000000000000        0.0000000000000000     
   1.0000000000000000       0.12500000000000000        0.0000000000000000     
   1.0312500000000000       0.12500000000000000        0.0000000000000000     
   1.0625000000000000       0.12500000000000000        0.0000000000000000     
   1.0937500000000000       0.12500000000000000        0.0000000000000000     
   1.1250000000000000       0.12500000000000000        0.0000000000000000     
   1.0000000000000000       0.15625000000000000        0.0000000000000000     
   1.0312500000000000       0.15625000000000000        0.0000000000000000     
   1.0625000000000000       0.15625000000000000        0.0000000000000000     
   1.0937500000000000       0.15625000000000000        0.0000000000000000     
   1.1250000000000000       0.15625000000000000        0.0000000000000000     
   1.0000000000000000       0.18750000000000000        0.0000000000000000     
   1.0312500000000000       0.18750000000000000        0.0000000000000000     
   1.0625000000000000       0.18750000000000000        0.0000000000000000     
   1.0937500000000000       0.18750000000000000        0.0000000000000000     
   1.1250000000000000       0.18750000000000000        0.0000000000000000     
   1.0000000000000000       0.21875000000000000        0.0000000000000000     
   1.0312500000000000       0.21875000000000000        0.0000000000000000     
   1.0625000000000000       0.21875000000000000        0.0000000000000000     
   1.0937500000000000       0.21875000000000000        0.0000000000000000     
   1.1250000000000000       0.21875000000000000        0.0000000000000000     
   1.0000000000000000       0.25000000000000000        0.0000000000000000     
   1.0312500000000000       0.25000000000000000        0.0000000000000000     
   1.0625000000000000       0.25000000000000000        0.0000000000000000     
   1.0937500000000000       0.25000000000000000        0.0000000000000000     
   1.1250000000000000       0.25000000000000000        0.0000000000000000     
   1.1250000000000000       0.12500000000000000        0.0000000000000000     
   1.1562500000000000       0.12500000000000000        0.0000000000000000     
   1.1875000000000000       0.12500000000000000        0.0000000000000000     
   1.2187500000000000       0.12500000000000000        0.0000000000000000     
   1.2500000000000000       0.12500000000000000        0.0000000000000000     
   1.1250000000000000       0.15625000000000000        0.0000000000000000     
   1.1562500000000000       0.15625000000000000        0.0000000000000000     
   1.1875000000000000       0.15625000000000000        0.0000000000000000     
   1.2187500000000000       0.15625000000000000        0.0000000000000000     
   1.2500000000000000       0.15625000000000000        0.0000000000000000     
   1.1250000000000000       0.18750000000000000        0.0000000000000000     
   1.1562500000000000       0.18750000000000000        0.0000000000000000     
   1.1875000000000000       0.18750000000000000        0.0000000000000000     
   1.2187500000000000       0.18750000000000000        0.0000000000000000     
   1.2500000000000000       0.18750000000000000        0.0000000000000000     
   1.1250000000000000       0.21875000000000000        0.0000000000000000     
   1.1562500000000000       0.21875000000000000        0.0000000000000000     
   1.1875000000000000       0.21875000000000000        0.0000000000000000     
   1.2187500000000000       0.21875000000000000        0.0000000000000000     
   1.2500000000000000       0.21875000000000000        0.0000000000000000     
   1.1250000000000000       0.25000000000000000        0.0000000000000000     
   1.1562500000000000       0.25000000000000000        0.0000000000000000     
   1.1875000000000000       0.25000000000000000        0.0000000000000000     
   1.2187500000000000       0.25000000000000000        0.0000000000000000     
   1.2500000000000000       0.25000000000000000        0.0000000000000000     
   1.2500000000000000       0.12500000000000000        0.0000000000000000     
   1.2812500000000000       0.12500000000000000        0.0000000000000000     
   1.3125000000000000       0.12500000000000000        0.0000000000000000     
   1.3437500000000000       0.12500000000000000        0.0000000000000000     
   1.3750000000000000       0.12500000000000000        0.0000000000000000     
   1.2500000000000000       0.15625000000000000        0.0000000000000000     
   1.2812500000000000       0.15625000000000000        0.0000000000000000     
   1.3125000000000000       0.15625000000000000        0.0000000000000000     
   1.3437500000000000       0.15625000000000000        0.0000000000000000     
   1.3750000000000000       0.15625000000000000        0.0000000000000000     
   1.2500000000000000       0.18750000000000000        0.0000000000000000     
   1.2812500000000000       0.18750000000000000        0.0000000000000000     
   1.3125000000000000       0.18750000000000000        0.0000000000000000     
   1.3437500000000000       0.18750000000000000        0.0000000000000000     
   1.3750000000000000       0.18750000000000000        0.0000000000000000     
   1.2500000000000000       0.21875000000000000        0.0000000000000000     
   1.2812500000000000       0.21875000000000000        0.0000000000000000     
   1.3125000000000000       0.21875000000000000        0.0000000000000000     
   1.3437500000000000       0.21875000000000000        0.0000000000000000     
   1.3750000000000000       0.21875000000000000        0.0000000000000000     
   1.2500000000000000       0.25000000000000000        0.0000000000000000     
   1.2812500000000000       0.25000000000000000        0.0000000000000000     
   1.3125000000000000       0.25000000000000000        0.0000000000000000     
   1.3437500000000000       0.25000000000000000        0.0000000000000000     
   1.3750000000000000       0.25000000000000000        0.0000000000000000     
   1.3750000000000000       0.12500000000000000        0.0000000000000000     
   1.4062500000000000       0.12500000000000000        0.0000000000000000     
   1.4375000000000000       0.12500000000000000        0.0000000000000000     
   1.4687500000000000       0.12500000000000000        0.0000000000000000     
   1.5000000000000000       0.12500000000000000        0.0000000000000000     
   1.3750000000000000       0.15625000000000000        0.0000000000000000     
   1.4062500000000000       0.15625000000000000        0.0000000000000000     
   1.4375000000000000       0.15625000000000000        0.0000000000000000     
   1.4687500000000000       0.15625000000000000        0.0000000000000000     
   1.5000000000000000       0.15625000000000000        0.0000000000000000     
   1.3750000000000000       0.18750000000000000        0.0000000000000000     
   1.4062500000000000       0.18750000000000000        0.0000000000000000     
   1.4375000000000000       0.18750000000000000        0.0000000000000000     
   1.4687500000000000       0.18750000000000000        0.0000000000000000     
   1.5000000000000000       0.18750000000000000        0.0000000000000000     
   1.3750000000000000       0.21875000000000000        0.0000000000000000     
   1.4062500000000000       0.21875000000000000        0.0000000000000000     
   1.4375000000000000       0.21875000000000000        0.0000000000000000     
   1.4687500000000000       0.21875000000000000        0.0000000000000000     
   1.5000000000000000       0.21875000000000000        0.0000000000000000     
   1.3750000000000000       0.25000000000000000        0.0000000000000000     
   1.4062500000000000       0.25000000000000000        0.0000000000000000     
   1.4375000000000000       0.25000000000000000        0.0000000000000000     
   1.4687500000000000       0.25000000000000000        0.0000000000000000     
   1.5000000000000000       0.25000000000000000        0.0000000000000000     
  0.50000000000000000       0.25000000000000000        0.0000000000000000     
  0.53125000000000000       0.25000000000000000        0.0000000000000000     
  0.56250000000000000       0.25000000000000000        0.0000000000000000     
  0.59375000000000000       0.25000000000000000        0.0000000000000000     
  0.62500000000000000       0.25000000000000000        0.0000000000000000     
  0.50000000000000000       0.28125000000000000        0.0000000000000000     
  0.53125000000000000       0.28125000000000000        0.0000000000000000     
  0.56250000000000000       0.28125000000000000        0.0000000000000000     
  0.59375000000000000       0.28125000000000000        0.0000000000000000     
  0.62500000000000000       0.28125000000000000        0.0000000000000000     
  0.50000000000000000       0.31250000000000000        0.0000000000000000     
  0.53125000000000000       0.31250000000000000        0.0000000000000000     
  0.56250000000000000       0.31250000000000000        0.0000000000000000     
  0.59375000000000000       0.31250000000000000        0.0000000000000000     
  0.62500000000000000       0.31250000000000000        0.0000000000000000     
  0.50000000000000000       0.34375000000000000        0.0000000000000000     
  0.53125000000000000       0.34375000000000000        0.0000000000000000     
  0.56250000000000000       0.34375000000000000        0.0000000000000000     
  0.59375000000000000       0.34375000000000000        0.0000000000000000     
  0.62500000000000000       0.34375000000000000        0.0000000000000000     
  0.50000000000000000       0.37500000000000000        0.0000000000000000     
  0.53125000000000000       0.37500000000000000        0.0000000000000000     
  0.56250000000000000       0.37500000000000000        0.0000000000000000     
  0.59375000000000000       0.37500000000000000        0.0000000000000000     
  0.62500000000000000       0.37500000000000000        0.0000000000000000     
  0.62500000000000000       0.25000000000000000        0.0000000000000000     
  0.65625000000000000       0.25000000000000000        0.0000000000000000     
  0.68750000000000000       0.25000000000000000        0.0000000000000000     
  0.71875000000000000       0.25000000000000000        0.0000000000000000     
  0.75000000000000000       0.25000000000000000        0.0000000000000000     
  0.62500000000000000       0.28125000000000000        0.0000000000000000     
  0.65625000000000000       0.28125000000000000        0.0000000000000000     
  0.68750000000000000       0.28125000000000000        0.0000000000000000     
  0.71875000000000000       0.28125000000000000        0.0000000000000000     
  0.75000000000000000       0.28125000000000000        0.0000000000000000     
  0.62500000000000000       0.31250000000000000        0.0000000000000000     
  0.65625000000000000       0.31250000000000000        0.0000000000000000     
  0.68750000000000000       0.31250000000000000        0.0000000000000000     
  0.71875000000000000       0.31250000000000000        0.0000000000000000     
  0.75000000000000000       0.31250000000000000        0.0000000000000000     
  0.62500000000000000       0.34375000000000000        0.0000000000000000     
  0.65625000000000000       0.34375000000000000        0.0000000000000000     
  0.68750000000000000       0.34375000000000000        0.0000000000000000     
  0.71875000000000000       0.34375000000000000        0.0000000000000000     
  0.75000000000000000       0.34375000000000000        0.0000000000000000     
  0.62500000000000000       0.37500000000000000        0.0000000000000000     
  0.65625000000000000       0.37500000000000000        0.0000000000000000     
  0.68750000000000000       0.37500000000000000        0.0000000000000000     
  0.71875000000000000       0.37500000000000000        0.0000000000000000     
  0.75000000000000000       0.37500000000000000        0.0000000000000000     
  0.75000000000000000       0.25000000000000000        0.0000000000000000     
  0.78125000000000000       0.25000000000000000        0.0000000000000000     
  0.81250000000000000       0.25000000000000000        0.0000000000000000     
  0.84375000000000000       0.25000000000000000        0.0000000000000000     
  0.87500000000000000       0.25000000000000000        0.0000000000000000     
  0.75000000000000000       0.28125000000000000        0.0000000000000000     
  0.78125000000000000       0.28125000000000000        0.0000000000000000     
  0.81250000000000000       0.28125000000000000        0.0000000000000000     
  0.84375000000000000       0.28125000000000000        0.0000000000000000     
  0.87500000000000000       0.28125000000000000        0.0000000000000000     
  0.75000000000000000       0.31250000000000000        0.0000000000000000     
  0.78125000000000000       0.31250000000000000        0.0000000000000000     
  0.81250000000000000       0.31250000000000000        0.0000000000000000     
  0.84375000000000000       0.31250000000000000        0.0000000000000000     
  0.87500000000000000       0.31250000000000000        0.0000000000000000     
  0.75000000000000000       0.34375000000000000        0.0000000000000000     
  0.78125000000000000       0.34375000000000000        0.0000000000000000     
  0.81250000000000000       0.34375000000000000        0.0000000000000000     
  0.84375000000000000       0.34375000000000000        0.0000000000000000     
  0.87500000000000000       0.34375000000000000        0.0000000000000000     
  0.75000000000000000       0.37500000000000000        0.0000000000000000     
  0.78125000000000000       0.37500000000000000        0.0000000000000000     
  0.81250000000000000       0.37500000000000000        0.0000000000000000     
  0.84375000000000000       0.37500000000000000        0.0000000000000000     
  0.87500000000000000       0.37500000000000000        0.0000000000000000     
  0.87500000000000000       0.25000000000000000        0.0000000000000000     
  0.90625000000000000       0.25000000000000000        0.0000000000000000     
  0.93750000000000000       0.25000000000000000        0.0000000000000000     
  0.96875000000000000       0.25000000000000000        0.0000000000000000     
   1.0000000000000000       0.25000000000000000        0.0000000000000000     
  0.87500000000000000       0.28125000000000000        0.0000000000000000     
  0.90625000000000000       0.28125000000000000        0.0000000000000000     
  0.93750000000000000       0.28125000000000000        0.0000000000000000     
  0.96875000000000000       0.28125000000000000        0.0000000000000000     
   1.0000000000000000       0.28125000000000000        0.0000000000000000     
  0.87500000000000000       0.31250000000000000        0.0000000000000000     
  0.90625000000000000       0.31250000000000000        0.0000000000000000     
  0.93750000000000000       0.31250000000000000        0.0000000000000000     
  0.96875000000000000       0.31250000000000000        0.0000000000000000     
   1.0000000000000000       0.31250000000000000        0.0000000000000000     
  0.87500000000000000       0.34375000000000000        0.0000000000000000     
  0.90625000000000000       0.34375000000000000        0.0000000000000000     
  0.93750000000000000       0.34375000000000000        0.0000000000000000     
  0.96875000000000000       0.34375000000000000        0.0000000000000000     
   1.0000000000000000       0.34375000000000000        0.0000000000000000     
  0.87500000000000000       0.37500000000000000        0.0000000000000000     
  0.90625000000000000       0.37500000000000000        0.0000000000000000     
  0.93750000000000000       0.37500000000000000        0.0000000000000000     
  0.96875000000000000       0.37500000000000000        0.0000000000000000     
   1.0000000000000000       0.37500000000000000        0.0000000000000000     
   1.0000000000000000       0.25000000000000000        0.0000000000000000     
   1.0312500000000000       0.25000000000000000        0.0000000000000000     
   1.0625000000000000       0.25000000000000000        0.0000000000000000     
   1.0937500000000000       0.25000000000000000        0.0000000000000000     
   1.1250000000000000       0.25000000000000000        0.0000000000000000     
   1.0000000000000000       0.28125000000000000        0.0000000000000000     
   1.0312500000000000       0.28125000000000000        0.0000000000000000     
   1.0625000000000000       0.28125000000000000        0.0000000000000000     
   1.0937500000000000       0.28125000000000000        0.0000000000000000     
   1.1250000000000000       0.28125000000000000        0.0000000000000000     
   1.0000000000000000       0.31250000000000000        0.0000000000000000     
   1.0312500000000000       0.31250000000000000        0.0000000000000000     
   1.0625000000000000       0.31250000000000000        0.0000000000000000     
   1.0937500000000000       0.31250000000000000        0.0000000000000000     
   1.1250000000000000       0.31250000000000000        0.0000000000000000     
   1.0000000000000000       0.34375000000000000        0.0000000000000000     
   1.0312500000000000       0.34375000000000000        0.0000000000000000     
   1.0625000000000000       0.34375000000000000        0.0000000000000000     
   1.0937500000000000       0.34375000000000000        0.0000000000000000     
   1.1250000000000000       0.34375000000000000        0.0000000000000000     
   1.0000000000000000       0.37500000000000000        0.0000000000000000     
   1.0312500000000000       0.37500000000000000        0.0000000000000000     
   1.0625000000000000       0.37500000000000000        0.0000000000000000     
   1.0937500000000000       0.37500000000000000        0.0000000000000000     
   1.1250000000000000       0.37500000000000000        0.0000000000000000     
   1.1250000000000000       0.25000000000000000        0.0000000000000000     
   1.1562500000000000       0.25000000000000000        0.0000000000000000     
   1.1875000000000000       0.25000000000000000        0.0000000000000000     
   1.2187500000000000       0.25000000000000000        0.0000000000000000     
   1.2500000000000000       0.25000000000000000        0.0000000000000000     
   1.1250000000000000       0.28125000000000000        0.0000000000000000     
   1.1562500000000000       0.28125000000000000        0.0000000000000000     
   1.1875000000000000       0.28125000000000000        0.0000000000000000     
   1.2187500000000000       0.28125000000000000        0.0000000000000000     
   1.2500000000000000       0.28125000000000000        0.0000000000000000     
   1.1250000000000000       0.31250000000000000        0.0000000000000000     
   1.1562500000000000       0.31250000000000000        0.0000000000000000     
   1.1875000000000000       0.31250000000000000        0.0000000000000000     
   1.2187500000000000       0.31250000000000000        0.0000000000000000     
   1.2500000000000000       0.31250000000000000        0.0000000000000000     
   1.1250000000000000       0.34375000000000000        0.0000000000000000     
   1.1562500000000000       0.34375000000000000        0.0000000000000000     
   1.1875000000000000       0.34375000000000000        0.0000000000000000     
   1.2187500000000000       0.34375000000000000        0.0000000000000000     
   1.2500000000000000       0.34375000000000000        0.0000000000000000     
   1.1250000000000000       0.37500000000000000        0.0000000000000000     
   1.1562500000000000       0.37500000000000000        0.0000000000000000     
   1.1875000000000000       0.37500000000000000        0.0000000000000000     
   1.2187500000000000       0.37500000000000000        0.0000000000000000     
   1.2500000000000000       0.37500000000000000        0.0000000000000000     
   1.2500000000000000       0.25000000000000000        0.0000000000000000     
   1.2812500000000000       0.25000000000000000        0.0000000000000000     
   1.3125000000000000       0.25000000000000000        0.0000000000000000     
   1.3437500000000000       0.25000000000000000        0.0000000000000000     
   1.3750000000000000       0.25000000000000000        0.0000000000000000     
   1.2500000000000000       0.28125000000000000        0.0000000000000000     
   1.2812500000000000       0.28125000000000000        0.0000000000000000     
   1.3125000000000000       0.28125000000000000        0.0000000000000000     
   1.3437500000000000       0.28125000000000000        0.0000000000000000     
   1.3750000000000000       0.28125000000000000        0.0000000000000000     
   1.2500000000000000       0.31250000000000000        0.0000000000000000     
   1.2812500000000000       0.31250000000000000        0.0000000000000000     
   1.3125000000000000       0.31250000000000000        0.0000000000000000     
   1.3437500000000000       0.31250000000000000        0.0000000000000000     
   1.3750000000000000       0.31250000000000000        0.0000000000000000     
   1.2500000000000000       0.34375000000000000        0.0000000000000000     
   1.2812500000000000       0.34375000000000000        0.0000000000000000     
   1.3125000000000000       0.34375000000000000        0.0000000000000000     
   1.3437500000000000       0.34375000000000000        0.0000000000000000     
   1.3750000000000000       0.34375000000000000        0.0000000000000000     
   1.2500000000000000       0.37500000000000000        0.0000000000000000     
   1.2812500000000000       0.37500000000000000        0.0000000000000000     
   1.3125000000000000       0.37500000000000000        0.0000000000000000     
   1.3437500000000000       0.37500000000000000        0.0000000000000000     
   1.3750000000000000       0.37500000000000000        0.0000000000000000     
   1.3750000000000000       0.25000000000000000        0.0000000000000000     
   1.4062500000000000       0.25000000000000000        0.0000000000000000     
   1.4375000000000000       0.25000000000000000        0.0000000000000000     
   1.4687500000000000       0.25000000000000000        0.0000000000000000     
   1.5000000000000000       0.25000000000000000        0.0000000000000000     
   1.3750000000000000       0.28125000000000000        0.0000000000000000     
   1.4062500000000000       0.28125000000000000        0.0000000000000000     
   1.4375000000000000       0.28125000000000000        0.0000000000000000     
   1.4687500000000000       0.28125000000000000        0.0000000000000000     
   1.5000000000000000       0.28125000000000000        0.0000000000000000     
   1.3750000000000000       0.31250000000000000        0.0000000000000000     
   1.4062500000000000       0.31250000000000000        0.0000000000000000     
   1.4375000000000000       0.31250000000000000        0.0000000000000000     
   1.4687500000000000       0.31250000000000000        0.0000000000000000     
   1.5000000000000000       0.31250000000000000        0.0000000000000000     
   1.3750000000000000       0.34375000000000000        0.0000000000000000     
   1.4062500000000000       0.34375000000000000        0.0000000000000000     
   1.4375000000000000       0.34375000000000000        0.0000000000000000     
   1.4687500000000000       0.34375000000000000        0.0000000000000000     
   1.5000000000000000       0.34375000000000000        0.0000000000000000     
   1.3750000000000000       0.37500000000000000        0.0000000000000000     
   1.4062500000000000       0.37500000000000000        0.0000000000000000     
   1.4375000000000000       0.37500000000000000        0.0000000000000000     
   1.4687500000000000       0.37500000000000000        0.0000000000000000     
   1.5000000000000000       0.37500000000000000        0.0000000000000000     
  0.50000000000000000       0.37500000000000000        0.0000000000000000     
  0.53125000000000000       0.37500000000000000        0.0000000000000000     
  0.56250000000000000       0.37500000000000000        0.0000000000000000     
  0.59375000000000000       0.37500000000000000        0.0000000000000000     
  0.62500000000000000       0.37500000000000000        0.0000000000000000     
  0.50000000000000000       0.40625000000000000        0.0000000000000000     
  0.53125000000000000       0.40625000000000000        0.0000000000000000     
  0.56250000000000000       0.40625000000000000        0.0000000000000000     
  0.59375000000000000       0.40625000000000000        0.0000000000000000     
  0.62500000000000000       0.40625000000000000        0.0000000000000000     
  0.50000000000000000       0.43750000000000000        0.0000000000000000     
  0.53125000000000000       0.43750000000000000        0.0000000000000000     
  0.56250000000000000       0.43750000000000000        0.0000000000000000     
  0.59375000000000000       0.43750000000000000        0.0000000000000000     
  0.62500000000000000       0.43750000000000000        0.0000000000000000     
  0.50000000000000000       0.46875000000000000        0.0000000000000000     
  0.53125000000000000       0.46875000000000000        0.0000000000000000     
  0.56250000000000000       0.46875000000000000        0.0000000000000000     
  0.59375000000000000       0.46875000000000000        0.0000000000000000     
  0.62500000000000000       0.46875000000000000        0.0000000000000000     
  0.50000000000000000       0.50000000000000000        0.0000000000000000     
  0.53125000000000000       0.50000000000000000        0.0000000000000000     
  0.56250000000000000       0.50000000000000000        0.0000000000000000     
  0.59375000000000000       0.50000000000000000        0.0000000000000000     
  0.62500000000000000       0.50000000000000000        0.0000000000000000     
  0.62500000000000000       0.37500000000000000        0.0000000000000000     
  0.65625000000000000       0.37500000000000000        0.0000000000000000     
  0.68750000000000000       0.37500000000000000        0.0000000000000000     
  0.71875000000000000       0.37500000000000000        0.0000000000000000     
  0.75000000000000000       0.37500000000000000        0.0000000000000000     
  0.62500000000000000       0.40625000000000000        0.0000000000000000     
  0.65625000000000000       0.40625000000000000        0.0000000000000000     
  0.68750000000000000       0.40625000000000000        0.0000000000000000     
  0.71875000000000000       0.40625000000000000        0.0000000000000000     
  0.75000000000000000       0.40625000000000000        0.0000000000000000     
  0.62500000000000000       0.43750000000000000        0.0000000000000000     
  0.65625000000000000       0.43750000000000000        0.0000000000000000     
  0.68750000000000000       0.43750000000000000        0.0000000000000000     
  0.71875000000000000       0.43750000000000000        0.0000000000000000     
  0.75000000000000000       0.43750000000000000        0.0000000000000000     
  0.62500000000000000       0.46875000000000000        0.0000000000000000     
  0.65625000000000000       0.46875000000000000        0.0000000000000000     
  0.68750000000000000       0.46875000000000000        0.0000000000000000     
  0.71875000000000000       0.46875000000000000        0.0000000000000000     
  0.75000000000000000       0.46875000000000000        0.0000000000000000     
  0.62500000000000000       0.50000000000000000        0.0000000000000000     
  0.65625000000000000       0.50000000000000000        0.0000000000000000     
  0.68750000000000000       0.50000000000000000        0.0000000000000000     
  0.71875000000000000       0.50000000000000000        0.0000000000000000     
  0.75000000000000000       0.50000000000000000        0.0000000000000000     
  0.75000000000000000       0.37500000000000000        0.0000000000000000     
  0.78125000000000000       0.37500000000000000        0.0000000000000000     
  0.81250000000000000       0.37500000000000000        0.0000000000000000     
  0.84375000000000000       0.37500000000000000        0.0000000000000000     
  0.87500000000000000       0.37500000000000000        0.0000000000000000     
  0.75000000000000000       0.40625000000000000        0.0000000000000000     
  0.78125000000000000       0.40625000000000000        0.0000000000000000     
  0.81250000000000000       0.40625000000000000        0.0000000000000000     
  0.84375000000000000       0.40625000000000000        0.0000000000000000     
  0.87500000000000000       0.40625000000000000        0.0000000000000000     
  0.75000000000000000       0.43750000000000000        0.0000000000000000     
  0.78125000000000000       0.43750000000000000        0.0000000000000000     
  0.81250000000000000       0.43750000000000000        0.0000000000000000     
  0.84375000000000000       0.43750000000000000        0.0000000000000000     
  0.87500000000000000       0.43750000000000000        0.0000000000000000     
  0.75000000000000000       0.46875000000000000        0.0000000000000000     
  0.78125000000000000       0.46875000000000000        0.0000000000000000     
  0.81250000000000000       0.46875000000000000        0.0000000000000000     
  0.84375000000000000       0.46875000000000000        0.0000000000000000     
  0.87500000000000000       0.46875000000000000        0.0000000000000000     
  0.75000000000000000       0.50000000000000000        0.0000000000000000     
  0.78125000000000000       0.50000000000000000        0.0000000000000000     
  0.81250000000000000       0.50000000000000000        0.0000000000000000     
  0.84375000000000000       0.50000000000000000        0.0000000000000000     
  0.87500000000000000       0.50000000000000000        0.0000000000000000     
  0.87500000000000000       0.37500000000000000        0.0000000000000000     
  0.90625000000000000       0.37500000000000000        0.0000000000000000     
  0.93750000000000000       0.37500000000000000        0.0000000000000000     
  0.96875000000000000       0.37500000000000000        0.0000000000000000     
   1.0000000000000000       0.37500000000000000        0.0000000000000000     
  0.87500000000000000       0.40625000000000000        0.0000000000000000     
  0.90625000000000000       0.40625000000000000        0.0000000000000000     
  0.93750000000000000       0.40625000000000000        0.0000000000000000     
  0.96875000000000000       0.40625000000000000        0.0000000000000000     
   1.0000000000000000       0.40625000000000000        0.0000000000000000     
  0.87500000000000000       0.43750000000000000        0.0000000000000000     
  0.90625000000000000       0.43750000000000000        0.0000000000000000     
  0.93750000000000000       0.43750000000000000        0.0000000000000000     
  0.96875000000000000       0.43750000000000000        0.0000000000000000     
   1.0000000000000000       0.43750000000000000        0.0000000000000000     
  0.87500000000000000       0.46875000000000000        0.0000000000000000     
  0.90625000000000000       0.46875000000000000        0.0000000000000000     
  0.93750000000000000       0.46875000000000000        0.0000000000000000     
  0.96875000000000000       0.46875000000000000        0.0000000000000000     
   1.0000000000000000       0.46875000000000000        0.0000000000000000     
  0.87500000000000000       0.50000000000000000        0.0000000000000000     
  0.90625000000000000       0.50000000000000000        0.0000000000000000     
  0.93750000000000000       0.50000000000000000        0.0000000000000000     
  0.96875000000000000       0.50000000000000000        0.0000000000000000     
   1.0000000000000000       0.50000000000000000        0.0000000000000000     
   1.0000000000000000       0.37500000000000000        0.0000000000000000     
   1.0312500000000000       0.37500000000000000        0.0000000000000000     
   1.0625000000000000       0.37500000000000000        0.0000000000000000     
   1.0937500000000000       0.37500000000000000        0.0000000000000000     
   1.1250000000000000       0.37500000000000000        0.0000000000000000     
   1.0000000000000000       0.40625000000000000        0.0000000000000000     
   1.0312500000000000       0.40625000000000000        0.0000000000000000     
   1.0625000000000000       0.40625000000000000        0.0000000000000000     
   1.0937500000000000       0.40625000000000000        0.0000000000000000     
   1.1250000000000000       0.40625000000000000        0.0000000000000000     
   1.0000000000000000       0.43750000000000000        0.0000000000000000     
   1.0312500000000000       0.43750000000000000        0.0000000000000000     
   1.0625000000000000       0.43750000000000000        0.0000000000000000     
   1.0937500000000000       0.43750000000000000        0.0000000000000000     
   1.1250000000000000       0.43750000000000000        0.0000000000000000     
   1.0000000000000000       0.46875000000000000        0.0000000000000000     
   1.0312500000000000       0.46875000000000000        0.0000000000000000     
   1.0625000000000000       0.46875000000000000        0.0000000000000000     
   1.0937500000000000       0.46875000000000000        0.0000000000000000     
   1.1250000000000000       0.46875000000000000        0.0000000000000000     
   1.0000000000000000       0.50000000000000000        0.0000000000000000     
   1.0312500000000000       0.50000000000000000        0.0000000000000000     
   1.0625000000000000       0.50000000000000000        0.0000000000000000     
   1.0937500000000000       0.50000000000000000        0.0000000000000000     
   1.1250000000000000       0.50000000000000000        0.0000000000000000     
   1.1250000000000000       0.37500000000000000        0.0000000000000000     
   1.1562500000000000       0.37500000000000000        0.0000000000000000     
   1.1875000000000000       0.37500000000000000        0.0000000000000000     
   1.2187500000000000       0.37500000000000000        0.0000000000000000     
   1.2500000000000000       0.37500000000000000        0.0000000000000000     
   1.1250000000000000       0.40625000000000000        0.0000000000000000     
   1.1562500000000000       0.40625000000000000        0.0000000000000000     
   1.1875000000000000       0.40625000000000000        0.0000000000000000     
   1.2187500000000000       0.40625000000000000        0.0000000000000000     
   1.2500000000000000       0.40625000000000000        0.0000000000000000     
   1.1250000000000000       0.43750000000000000        0.0000000000000000     
   1.1562500000000000       0.43750000000000000        0.0000000000000000     
   1.1875000000000000       0.43750000000000000        0.0000000000000000     
   1.2187500000000000       0.43750000000000000        0.0000000000000000     
   1.2500000000000000       0.43750000000000000        0.0000000000000000     
   1.1250000000000000       0.46875000000000000        0.0000000000000000     
   1.1562500000000000       0.46875000000000000        0.0000000000000000     
   1.1875000000000000       0.46875000000000000        0.0000000000000000     
   1.2187500000000000       0.46875000000000000        0.0000000000000000     
   1.2500000000000000       0.46875000000000000        0.0000000000000000     
   1.1250000000000000       0.50000000000000000        0.0000000000000000     
   1.1562500000000000       0.50000000000000000        0.0000000000000000     
   1.1875000000000000       0.50000000000000000        0.0000000000000000     
   1.2187500000000000       0.50000000000000000        0.0000000000000000     
   1.2500000000000000       0.50000000000000000        0.0000000000000000     
   1.2500000000000000       0.37500000000000000        0.0000000000000000     
   1.2812500000000000       0.37500000000000000        0.0000000000000000     
   1.3125000000000000       0.37500000000000000        0.0000000000000000     
   1.3437500000000000       0.37500000000000000        0.0000000000000000     
   1.3750000000000000       0.37500000000000000        0.0000000000000000     
   1.2500000000000000       0.40625000000000000        0.0000000000000000     
   1.2812500000000000       0.40625000000000000        0.0000000000000000     
   1.3125000000000000       0.40625000000000000        0.0000000000000000     
   1.3437500000000000       0.40625000000000000        0.0000000000000000     
   1.3750000000000000       0.40625000000000000        0.0000000000000000     
   1.2500000000000000       0.43750000000000000        0.0000000000000000     
   1.2812500000000000       0.43750000000000000        0.0000000000000000     
   1.3125000000000000       0.43750000000000000        0.0000000000000000     
   1.3437500000000000       0.43750000000000000        0.0000000000000000     
   1.3750000000000000       0.43750000000000000        0.0000000000000000     
   1.2500000000000000       0.46875000000000000        0.0000000000000000     
   1.2812500000000000       0.46875000000000000        0.0000000000000000     
   1.3125000000000000       0.46875000000000000        0.0000000000000000     
   1.3437500000000000       0.46875000000000000        0.0000000000000000     
   1.3750000000000000       0.46875000000000000        0.0000000000000000     
   1.2500000000000000       0.50000000000000000        0.0000000000000000     
   1.2812500000000000       0.50000000000000000        0.0000000000000000     
   1.3125000000000000       0.50000000000000000        0.0000000000000000     
   1.3437500000000000       0.50000000000000000        0.0000000000000000     
   1.3750000000000000       0.50000000000000000        0.0000000000000000     
   1.3750000000000000       0.37500000000000000        0.0000000000000000     
   1.4062500000000000       0.37500000000000000        0.0000000000000000     
   1.4375000000000000       0.37500000000000000        0.0000000000000000     
   1.4687500000000000       0.37500000000000000        0.0000000000000000     
   1.5000000000000000       0.37500000000000000        0.0000000000000000     
   1.3750000000000000       0.40625000000000000        0.0000000000000000     
   1.4062500000000000       0.40625000000000000        0.0000000000000000     
   1.4375000000000000       0.40625000000000000        0.0000000000000000     
   1.4687500000000000       0.40625000000000000        0.0000000000000000     
   1.5000000000000000       0.40625000000000000        0.0000000000000000     
   1.3750000000000000       0.43750000000000000        0.0000000000000000     
   1.4062500000000000       0.43750000000000000        0.0000000000000000     
   1.4375000000000000       0.43750000000000000        0.0000000000000000     
   1.4687500000000000       0.43750000000000000        0.0000000000000000     
   1.5000000000000000       0.43750000000000000        0.0000000000000000     
   1.3750000000000000       0.46875000000000000        0.0000000000000000     
   1.4062500000000000       0.46875000000000000        0.0000000000000000     
   1.4375000000000000       0.46875000000000000        0.0000000000000000     
   1.4687500000000000       0.46875000000000000        0.0000000000000000     
   1.5000000000000000       0.46875000000000000        0.0000000000000000     
   1.3750000000000000       0.50000000000000000        0.0000000000000000     
   1.4062500000000000       0.50000000000000000        0.0000000000000000     
   1.4375000000000000       0.50000000000000000        0.0000000000000000     
   1.4687500000000000       0.50000000000000000        0.0000000000000000     
   1.5000000000000000       0.50000000000000000        0.0000000000000000     
  0.50000000000000000       0.50000000000000000        0.0000000000000000     
  0.53125000000000000       0.50000000000000000        0.0000000000000000     
  0.56250000000000000       0.50000000000000000        0.0000000000000000     
  0.59375000000000000       0.50000000000000000        0.0000000000000000     
  0.62500000000000000       0.50000000000000000        0.0000000000000000     
  0.50000000000000000       0.53125000000000000        0.0000000000000000     
  0.53125000000000000       0.53125000000000000        0.0000000000000000     
  0.56250000000000000       0.53125000000000000        0.0000000000000000     
  0.59375000000000000       0.53125000000000000        0.0000000000000000     
  0.62500000000000000       0.53125000000000000        0.0000000000000000     
  0.50000000000000000       0.56250000000000000        0.0000000000000000     
  0.53125000000000000       0.56250000000000000        0.0000000000000000     
  0.56250000000000000       0.56250000000000000        0.0000000000000000     
  0.59375000000000000       0.56250000000000000        0.0000000000000000     
  0.62500000000000000       0.56250000000000000        0.0000000000000000     
  0.50000000000000000       0.59375000000000000        0.0000000000000000     
  0.53125000000000000       0.59375000000000000        0.0000000000000000     
  0.56250000000000000       0.59375000000000000        0.0000000000000000     
  0.59375000000000000       0.59375000000000000        0.0000000000000000     
  0.62500000000000000       0.59375000000000000        0.0000000000000000     
  0.50000000000000000       0.62500000000000000        0.0000000000000000     
  0.53125000000000000       0.62500000000000000        0.0000000000000000     
  0.56250000000000000       0.62500000000000000        0.0000000000000000     
  0.59375000000000000       0.62500000000000000        0.0000000000000000     
  0.62500000000000000       0.62500000000000000        0.0000000000000000     
  0.62500000000000000       0.50000000000000000        0.0000000000000000     
  0.65625000000000000       0.50000000000000000        0.0000000000000000     
  0.68750000000000000       0.50000000000000000        0.0000000000000000     
  0.71875000000000000       0.50000000000000000        0.0000000000000000     
  0.75000000000000000       0.50000000000000000        0.0000000000000000     
  0.62500000000000000       0.53125000000000000        0.0000000000000000     
  0.65625000000000000       0.53125000000000000        0.0000000000000000     
  0.68750000000000000       0.53125000000000000        0.0000000000000000     
  0.71875000000000000       0.53125000000000000        0.0000000000000000     
  0.75000000000000000       0.53125000000000000        0.0000000000000000     
  0.62500000000000000       0.56250000000000000        0.0000000000000000     
  0.65625000000000000       0.56250000000000000        0.0000000000000000     
  0.68750000000000000       0.56250000000000000        0.0000000000000000     
  0.71875000000000000       0.56250000000000000        0.0000000000000000     
  0.75000000000000000       0.56250000000000000        0.0000000000000000     
  0.62500000000000000       0.59375000000000000        0.0000000000000000     
  0.65625000000000000       0.59375000000000000        0.0000000000000000     
  0.68750000000000000       0.59375000000000000        0.0000000000000000     
  0.71875000000000000       0.59375000000000000        0.0000000000000000     
  0.75000000000000000       0.59375000000000000        0.0000000000000000     
  0.62500000000000000       0.62500000000000000        0.0000000000000000     
  0.65625000000000000       0.62500000000000000        0.0000000000000000     
  0.68750000000000000       0.62500000000000000        0.0000000000000000     
  0.71875000000000000       0.62500000000000000        0.0000000000000000     
  0.75000000000000000       0.62500000000000000        0.0000000000000000     
  0.75000000000000000       0.50000000000000000        0.0000000000000000     
  0.78125000000000000       0.50000000000000000        0.0000000000000000     
  0.81250000000000000       0.50000000000000000        0.0000000000000000     
  0.84375000000000000       0.50000000000000000        0.0000000000000000     
  0.87500000000000000       0.50000000000000000        0.0000000000000000     
  0.75000000000000000       0.53125000000000000        0.0000000000000000     
  0.78125000000000000       0.53125000000000000        0.0000000000000000     
  0.81250000000000000       0.53125000000000000        0.0000000000000000     
  0.84375000000000000       0.53125000000000000        0.0000000000000000     
  0.87500000000000000       0.53125000000000000        0.0000000000000000     
  0.75000000000000000       0.56250000000000000        0.0000000000000000     
  0.78125000000000000       0.56250000000000000        0.0000000000000000     
  0.81250000000000000       0.56250000000000000        0.0000000000000000     
  0.84375000000000000       0.56250000000000000        0.0000000000000000     
  0.87500000000000000       0.56250000000000000        0.0000000000000000     
  0.75000000000000000       0.59375000000000000        0.0000000000000000     
  0.78125000000000000       0.59375000000000000        0.0000000000000000     
  0.81250000000000000       0.59375000000000000        0.0000000000000000     
  0.84375000000000000       0.59375000000000000        0.0000000000000000     
  0.87500000000000000       0.59375000000000000        0.0000000000000000     
  0.75000000000000000       0.62500000000000000        0.0000000000000000     
  0.78125000000000000       0.62500000000000000        0.0000000000000000     
  0.81250000000000000       0.62500000000000000        0.0000000000000000     
  0.84375000000000000       0.62500000000000000        0.0000000000000000     
  0.87500000000000000       0.62500000000000000        0.0000000000000000     
  0.87500000000000000       0.50000000000000000        0.0000000000000000     
  0.90625000000000000       0.50000000000000000        0.0000000000000000     
  0.93750000000000000       0.50000000000000000        0.0000000000000000     
  0.96875000000000000       0.50000000000000000        0.0000000000000000     
   1.0000000000000000       0.50000000000000000        0.0000000000000000     
  0.87500000000000000       0.53125000000000000        0.0000000000000000     
  0.90625000000000000       0.53125000000000000        0.0000000000000000     
  0.93750000000000000       0.53125000000000000        0.0000000000000000     
  0.96875000000000000       0.53125000000000000        0.0000000000000000     
   1.0000000000000000       0.53125000000000000        0.0000000000000000     
  0.87500000000000000       0.56250000000000000        0.0000000000000000     
  0.90625000000000000       0.56250000000000000        0.0000000000000000     
  0.93750000000000000       0.56250000000000000        0.0000000000000000     
  0.96875000000000000       0.56250000000000000        0.0000000000000000     
   1.0000000000000000       0.56250000000000000        0.0000000000000000     
  0.87500000000000000       0.59375000000000000        0.0000000000000000     
  0.90625000000000000       0.59375000000000000        0.0000000000000000     
  0.93750000000000000       0.59375000000000000        0.0000000000000000     
  0.96875000000000000       0.59375000000000000        0.0000000000000000     
   1.0000000000000000       0.59375000000000000        0.0000000000000000     
  0.87500000000000000       0.62500000000000000        0.0000000000000000     
  0.90625000000000000       0.62500000000000000        0.0000000000000000     
  0.93750000000000000       0.62500000000000000        0.0000000000000000     
  0.96875000000000000       0.62500000000000000        0.0000000000000000     
   1.0000000000000000       0.62500000000000000        0.0000000000000000     
   1.0000000000000000       0.50000000000000000        0.0000000000000000     
   1.0312500000000000       0.50000000000000000        0.0000000000000000     
   1.0625000000000000       0.50000000000000000        0.0000000000000000     
   1.0937500000000000       0.50000000000000000        0.0000000000000000     
   1.1250000000000000       0.50000000000000000        0.0000000000000000     
   1.0000000000000000       0.53125000000000000        0.0000000000000000     
   1.0312500000000000       0.53125000000000000        0.0000000000000000     
   1.0625000000000000       0.53125000000000000        0.0000000000000000     
   1.0937500000000000       0.53125000000000000        0.0000000000000000     
   1.1250000000000000       0.53125000000000000        0.0000000000000000     
   1.0000000000000000       0.56250000000000000        0.0000000000000000     
   1.0312500000000000       0.56250000000000000        0.0000000000000000     
   1.0625000000000000       0.56250000000000000        0.0000000000000000     
   1.0937500000000000       0.56250000000000000        0.0000000000000000     
   1.1250000000000000       0.56250000000000000        0.0000000000000000     
   1.0000000000000000       0.59375000000000000        0.0000000000000000     
   1.0312500000000000       0.59375000000000000        0.0000000000000000     
   1.0625000000000000       0.59375000000000000        0.0000000000000000     
   1.0937500000000000       0.59375000000000000        0.0000000000000000     
   1.1250000000000000       0.59375000000000000        0.0000000000000000     
   1.0000000000000000       0.62500000000000000        0.0000000000000000     
   1.0312500000000000       0.62500000000000000        0.0000000000000000     
   1.0625000000000000       0.62500000000000000        0.0000000000000000     
   1.0937500000000000       0.62500000000000000        0.0000000000000000     
   1.1250000000000000       0.62500000000000000        0.0000000000000000     
   1.1250000000000000       0.50000000000000000        0.0000000000000000     
   1.1562500000000000       0.50000000000000000        0.0000000000000000     
   1.1875000000000000       0.50000000000000000        0.0000000000000000     
   1.2187500000000000       0.50000000000000000        0.0000000000000000     
   1.2500000000000000       0.50000000000000000        0.0000000000000000     
   1.1250000000000000       0.53125000000000000        0.0000000000000000     
   1.1562500000000000       0.53125000000000000        0.0000000000000000     
   1.1875000000000000       0.53125000000000000        0.0000000000000000     
   1.2187500000000000       0.53125000000000000        0.0000000000000000     
   1.2500000000000000       0.53125000000000000        0.0000000000000000     
   1.1250000000000000       0.56250000000000000        0.0000000000000000     
   1.1562500000000000       0.56250000000000000        0.0000000000000000     
   1.1875000000000000       0.56250000000000000        0.0000000000000000     
   1.2187500000000000       0.56250000000000000        0.0000000000000000     
   1.2500000000000000       0.56250000000000000        0.0000000000000000     
   1.1250000000000000       0.59375000000000000        0.0000000000000000     
   1.1562500000000000       0.59375000000000000        0.0000000000000000     
   1.1875000000000000       0.59375000000000000        0.0000000000000000     
   1.2187500000000000       0.59375000000000000        0.0000000000000000     
   1.2500000000000000       0.59375000000000000        0.0000000000000000     
   1.1250000000000000       0.62500000000000000        0.0000000000000000     
   1.1562500000000000       0.62500000000000000        0.0000000000000000     
   1.1875000000000000       0.62500000000000000        0.0000000000000000     
   1.2187500000000000       0.62500000000000000        0.0000000000000000     
   1.2500000000000000       0.62500000000000000        0.0000000000000000     
   1.2500000000000000       0.50000000000000000        0.0000000000000000     
   1.2812500000000000       0.50000000000000000        0.0000000000000000     
   1.3125000000000000       0.50000000000000000        0.0000000000000000     
   1.3437500000000000       0.50000000000000000        0.0000000000000000     
   1.3750000000000000       0.50000000000000000        0.0000000000000000     
   1.2500000000000000       0.53125000000000000        0.0000000000000000     
   1.2812500000000000       0.53125000000000000        0.0000000000000000     
   1.3125000000000000       0.53125000000000000        0.0000000000000000     
   1.3437500000000000       0.53125000000000000        0.0000000000000000     
   1.3750000000000000       0.53125000000000000        0.0000000000000000     
   1.2500000000000000       0.56250000000000000        0.0000000000000000     
   1.2812500000000000       0.56250000000000000        0.0000000000000000     
   1.3125000000000000       0.56250000000000000        0.0000000000000000     
   1.3437500000000000       0.56250000000000000        0.0000000000000000     
   1.3750000000000000       0.56250000000000000        0.0000000000000000     
   1.2500000000000000       0.59375000000000000        0.0000000000000000     
   1.2812500000000000       0.59375000000000000        0.0000000000000000     
   1.3125000000000000       0.59375000000000000        0.0000000000000000     
   1.3437500000000000       0.59375000000000000        0.0000000000000000     
   1.3750000000000000       0.59375000000000000        0.0000000000000000     
   1.2500000000000000       0.62500000000000000        0.0000000000000000     
   1.2812500000000000       0.62500000000000000        0.0000000000000000     
   1.3125000000000000       0.62500000000000000        0.0000000000000000     
   1.3437500000000000       0.62500000000000000        0.0000000000000000     
   1.3750000000000000       0.62500000000000000        0.0000000000000000     
   1.3750000000000000       0.50000000000000000        0.0000000000000000     
   1.4062500000000000       0.50000000000000000        0.0000000000000000     
   1.4375000000000000       0.50000000000000000        0.0000000000000000     
   1.4687500000000000       0.50000000000000000        0.0000000000000000     
   1.5000000000000000       0.50000000000000000        0.0000000000000000     
   1.3750000000000000       0.53125000000000000        0.0000000000000000     
   1.4062500000000000       0.53125000000000000        0.0000000000000000     
   1.4375000000000000       0.53125000000000000        0.0000000000000000     
   1.4687500000000000       0.53125000000000000        0.0000000000000000     
   1.5000000000000000       0.53125000000000000        0.0000000000000000     
   1.3750000000000000       0.56250000000000000        0.0000000000000000     
   1.4062500000000000       0.56250000000000000        0.0000000000000000     
   1.4375000000000000       0.56250000000000000        0.0000000000000000     
   1.4687500000000000       0.56250000000000000        0.0000000000000000     
   1.5000000000000000       0.56250000000000000        0.0000000000000000     
   1.3750000000000000       0.59375000000000000        0.0000000000000000     
   1.4062500000000000       0.59375000000000000        0.0000000000000000     
   1.4375000000000000       0.59375000000000000        0.0000000000000000     
   1.4687500000000000       0.59375000000000000        0.0000000000000000     
   1.5000000000000000       0.59375000000000000        0.0000000000000000     
   1.3750000000000000       0.62500000000000000        0.0000000000000000     
   1.4062500000000000       0.62500000000000000        0.0000000000000000     
   1.4375000000000000       0.62500000000000000        0.0000000000000000     
   1.4687500000000000       0.62500000000000000        0.0000000000000000     
   1.5000000000000000       0.62500000000000000        0.0000000000000000     
  0.50000000000000000       0.62500000000000000        0.0000000000000000     
  0.53125000000000000       0.62500000000000000        0.0000000000000000     
  0.56250000000000000       0.62500000000000000        0.0000000000000000     
  0.59375000000000000       0.62500000000000000        0.0000000000000000     
  0.62500000000000000       0.62500000000000000        0.0000000000000000     
  0.50000000000000000       0.65625000000000000        0.0000000000000000     
  0.53125000000000000       0.65625000000000000        0.0000000000000000     
  0.56250000000000000       0.65625000000000000        0.0000000000000000     
  0.59375000000000000       0.65625000000000000        0.0000000000000000     
  0.62500000000000000       0.65625000000000000        0.0000000000000000     
  0.50000000000000000       0.68750000000000000        0.0000000000000000     
  0.53125000000000000       0.68750000000000000        0.0000000000000000     
  0.56250000000000000       0.68750000000000000        0.0000000000000000     
  0.59375000000000000       0.68750000000000000        0.0000000000000000     
  0.62500000000000000       0.68750000000000000        0.0000000000000000     
  0.50000000000000000       0.71875000000000000        0.0000000000000000     
  0.53125000000000000       0.71875000000000000        0.0000000000000000     
  0.56250000000000000       0.71875000000000000        0.0000000000000000     
  0.59375000000000000       0.71875000000000000        0.0000000000000000     
  0.62500000000000000       0.71875000000000000        0.0000000000000000     
  0.50000000000000000       0.75000000000000000        0.0000000000000000     
  0.53125000000000000       0.75000000000000000        0.0000000000000000     
  0.56250000000000000       0.75000000000000000        0.0000000000000000     
  0.59375000000000000       0.75000000000000000        0.0000000000000000     
  0.62500000000000000       0.75000000000000000        0.0000000000000000     
  0.62500000000000000       0.62500000000000000        0.0000000000000000     
  0.65625000000000000       0.62500000000000000        0.0000000000000000     
  0.68750000000000000       0.62500000000000000        0.0000000000000000     
  0.71875000000000000       0.62500000000000000        0.0000000000000000     
  0.75000000000000000       0.62500000000000000        0.0000000000000000     
  0.62500000000000000       0.65625000000000000        0.0000000000000000     
  0.65625000000000000       0.65625000000000000        0.0000000000000000     
  0.68750000000000000       0.65625000000000000        0.0000000000000000     
  0.71875000000000000       0.65625000000000000        0.0000000000000000     
  0.75000000000000000       0.65625000000000000        0.0000000000000000     
  0.62500000000000000       0.68750000000000000        0.0000000000000000     
  0.65625000000000000       0.68750000000000000        0.0000000000000000     
  0.68750000000000000       0.68750000000000000        0.0000000000000000     
  0.71875000000000000       0.68750000000000000        0.0000000000000000     
  0.75000000000000000       0.68750000000000000        0.0000000000000000     
  0.62500000000000000       0.71875000000000000        0.0000000000000000     
  0.65625000000000000       0.71875000000000000        0.0000000000000000     
  0.68750000000000000       0.71875000000000000        0.0000000000000000     
  0.71875000000000000       0.71875000000000000        0.0000000000000000     
  0.75000000000000000       0.71875000000000000        0.0000000000000000     
  0.62500000000000000       0.75000000000000000        0.0000000000000000     
  0.65625000000000000       0.75000000000000000        0.0000000000000000     
  0.68750000000000000       0.75000000000000000        0.0000000000000000     
  0.71875000000000000       0.75000000000000000        0.0000000000000000     
  0.75000000000000000       0.75000000000000000        0.0000000000000000     
  0.75000000000000000       0.62500000000000000        0.0000000000000000     
  0.78125000000000000       0.62500000000000000        0.0000000000000000     
  0.81250000000000000       0.62500000000000000        0.0000000000000000     
  0.84375000000000000       0.62500000000000000        0.0000000000000000     
  0.87500000000000000       0.62500000000000000        0.0000000000000000     
  0.75000000000000000       0.65625000000000000        0.0000000000000000     
  0.78125000000000000       0.65625000000000000        0.0000000000000000     
  0.81250000000000000       0.65625000000000000        0.0000000000000000     
  0.84375000000000000       0.65625000000000000        0.0000000000000000     
  0.87500000000000000       0.65625000000000000        0.0000000000000000     
  0.75000000000000000       0.68750000000000000        0.0000000000000000     
  0.78125000000000000       0.68750000000000000        0.0000000000000000     
  0.81250000000000000       0.68750000000000000        0.0000000000000000     
  0.84375000000000000       0.68750000000000000        0.0000000000000000     
  0.87500000000000000       0.68750000000000000        0.0000000000000000     
  0.75000000000000000       0.71875000000000000        0.0000000000000000     
  0.78125000000000000       0.71875000000000000        0.0000000000000000     
  0.81250000000000000       0.71875000000000000        0.0000000000000000     
  0.84375000000000000       0.71875000000000000        0.0000000000000000     
  0.87500000000000000       0.71875000000000000        0.0000000000000000     
  0.75000000000000000       0.75000000000000000        0.0000000000000000     
  0.78125000000000000       0.75000000000000000        0.0000000000000000     
  0.81250000000000000       0.75000000000000000        0.0000000000000000     
  0.84375000000000000       0.75000000000000000        0.0000000000000000     
  0.87500000000000000       0.75000000000000000        0.0000000000000000     
  0.87500000000000000       0.62500000000000000        0.0000000000000000     
  0.90625000000000000       0.62500000000000000        0.0000000000000000     
  0.93750000000000000       0.62500000000000000        0.0000000000000000     
  0.96875000000000000       0.62500000000000000        0.0000000000000000     
   1.0000000000000000       0.62500000000000000        0.0000000000000000     
  0.87500000000000000       0.65625000000000000        0.0000000000000000     
  0.90625000000000000       0.65625000000000000        0.0000000000000000     
  0.93750000000000000       0.65625000000000000        0.0000000000000000     
  0.96875000000000000       0.65625000000000000        0.0000000000000000     
   1.0000000000000000       0.65625000000000000        0.0000000000000000     
  0.87500000000000000       0.68750000000000000        0.0000000000000000     
  0.90625000000000000       0.68750000000000000        0.0000000000000000     
  0.93750000000000000       0.68750000000000000        0.0000000000000000     
  0.96875000000000000       0.68750000000000000        0.0000000000000000     
   1.0000000000000000       0.68750000000000000        0.0000000000000000     
  0.87500000000000000       0.71875000000000000        0.0000000000000000     
  0.90625000000000000       0.71875000000000000        0.0000000000000000     
  0.93750000000000000       0.71875000000000000        0.0000000000000000     
  0.96875000000000000       0.71875000000000000        0.0000000000000000     
   1.0000000000000000       0.71875000000000000        0.0000000000000000     
  0.87500000000000000       0.75000000000000000        0.0000000000000000     
  0.90625000000000000       0.75000000000000000        0.0000000000000000     
  0.93750000000000000       0.75000000000000000        0.0000000000000000     
  0.96875000000000000       0.75000000000000000        0.0000000000000000     
   1.0000000000000000       0.75000000000000000        0.0000000000000000     
   1.0000000000000000       0.62500000000000000        0.0000000000000000     
   1.0312500000000000       0.62500000000000000        0.0000000000000000     
   1.0625000000000000       0.62500000000000000        0.0000000000000000     
   1.0937500000000000       0.62500000000000000        0.0000000000000000     
   1.1250000000000000       0.62500000000000000        0.0000000000000000     
   1.0000000000000000       0.65625000000000000        0.0000000000000000     
   1.0312500000000000       0.65625000000000000        0.0000000000000000     
   1.0625000000000000       0.65625000000000000        0.0000000000000000     
   1.0937500000000000       0.65625000000000000        0.0000000000000000     
   1.1250000000000000       0.65625000000000000        0.0000000000000000     
   1.0000000000000000       0.68750000000000000        0.0000000000000000     
   1.0312500000000000       0.68750000000000000        0.0000000000000000     
   1.0625000000000000       0.68750000000000000        0.0000000000000000     
   1.0937500000000000       0.68750000000000000        0.0000000000000000     
   1.1250000000000000       0.68750000000000000        0.0000000000000000     
   1.0000000000000000       0.71875000000000000        0.0000000000000000     
   1.0312500000000000       0.71875000000000000        0.0000000000000000     
   1.0625000000000000       0.71875000000000000        0.0000000000000000     
   1.0937500000000000       0.71875000000000000        0.0000000000000000     
   1.1250000000000000       0.71875000000000000        0.0000000000000000     
   1.0000000000000000       0.75000000000000000        0.0000000000000000     
   1.0312500000000000       0.75000000000000000        0.0000000000000000     
   1.0625000000000000       0.75000000000000000        0.0000000000000000     
   1.0937500000000000       0.75000000000000000        0.0000000000000000     
   1.1250000000000000       0.75000000000000000        0.0000000000000000     
   1.1250000000000000       0.62500000000000000        0.0000000000000000     
   1.1562500000000000       0.62500000000000000        0.0000000000000000     
   1.1875000000000000       0.62500000000000000        0.0000000000000000     
   1.2187500000000000       0.62500000000000000        0.0000000000000000     
   1.2500000000000000       0.62500000000000000        0.0000000000000000     
   1.1250000000000000       0.65625000000000000        0.0000000000000000     
   1.1562500000000000       0.65625000000000000        0.0000000000000000     
   1.1875000000000000       0.65625000000000000        0.0000000000000000     
   1.2187500000000000       0.65625000000000000        0.0000000000000000     
   1.2500000000000000       0.65625000000000000        0.0000000000000000     
   1.1250000000000000       0.68750000000000000        0.0000000000000000     
   1.1562500000000000       0.68750000000000000        0.0000000000000000     
   1.1875000000000000       0.68750000000000000        0.0000000000000000     
   1.2187500000000000       0.68750000000000000        0.0000000000000000     
   1.2500000000000000       0.68750000000000000        0.0000000000000000     
   1.1250000000000000       0.71875000000000000        0.0000000000000000     
   1.1562500000000000       0.71875000000000000        0.0000000000000000     
   1.1875000000000000       0.71875000000000000        0.0000000000000000     
   1.2187500000000000       0.71875000000000000        0.0000000000000000     
   1.2500000000000000       0.71875000000000000        0.0000000000000000     
   1.1250000000000000       0.75000000000000000        0.0000000000000000     
   1.1562500000000000       0.75000000000000000        0.0000000000000000     
   1.1875000000000000       0.75000000000000000        0.0000000000000000     
   1.2187500000000000       0.75000000000000000        0.0000000000000000     
   1.2500000000000000       0.75000000000000000        0.0000000000000000     
   1.2500000000000000       0.62500000000000000        0.0000000000000000     
   1.2812500000000000       0.62500000000000000        0.0000000000000000     
   1.3125000000000000       0.62500000000000000        0.0000000000000000     
   1.3437500000000000       0.62500000000000000        0.0000000000000000     
   1.3750000000000000       0.62500000000000000        0.0000000000000000     
   1.2500000000000000       0.65625000000000000        0.0000000000000000     
   1.2812500000000000       0.65625000000000000        0.0000000000000000     
   1.3125000000000000       0.65625000000000000        0.0000000000000000     
   1.3437500000000000       0.65625000000000000        0.0000000000000000     
   1.3750000000000000       0.65625000000000000        0.0000000000000000     
   1.2500000000000000       0.68750000000000000        0.0000000000000000     
   1.2812500000000000       0.68750000000000000        0.0000000000000000     
   1.3125000000000000       0.68750000000000000        0.0000000000000000     
   1.3437500000000000       0.68750000000000000        0.0000000000000000     
   1.3750000000000000       0.68750000000000000        0.0000000000000000     
   1.2500000000000000       0.71875000000000000        0.0000000000000000     
   1.2812500000000000       0.71875000000000000        0.0000000000000000     
   1.3125000000000000       0.71875000000000000        0.0000000000000000     
   1.3437500000000000       0.71875000000000000        0.0000000000000000     
   1.3750000000000000       0.71875000000000000        0.0000000000000000     
   1.2500000000000000       0.75000000000000000        0.0000000000000000     
   1.2812500000000000       0.75000000000000000        0.0000000000000000     
   1.3125000000000000       0.75000000000000000        0.0000000000000000     
   1.3437500000000000       0.75000000000000000        0.0000000000000000     
   1.3750000000000000       0.75000000000000000        0.0000000000000000     
   1.3750000000000000       0.62500000000000000        0.0000000000000000     
   1.4062500000000000       0.62500000000000000        0.0000000000000000     
   1.4375000000000000       0.62500000000000000        0.0000000000000000     
   1.4687500000000000       0.62500000000000000        0.0000000000000000     
   1.5000000000000000       0.62500000000000000        0.0000000000000000     
   1.3750000000000000       0.65625000000000000        0.0000000000000000     
   1.4062500000000000       0.65625000000000000        0.0000000000000000     
   1.4375000000000000       0.65625000000000000        0.0000000000000000     
   1.4687500000000000       0.65625000000000000        0.0000000000000000     
   1.5000000000000000       0.65625000000000000        0.0000000000000000     
   1.3750000000000000       0.68750000000000000        0.0000000000000000     
   1.4062500000000000       0.68750000000000000        0.0000000000000000     
   1.4375000000000000       0.68750000000000000        0.0000000000000000     
   1.4687500000000000       0.68750000000000000        0.0000000000000000     
   1.5000000000000000       0.68750000000000000        0.0000000000000000     
   1.3750000000000000       0.71875000000000000        0.0000000000000000     
   1.4062500000000000       0.71875000000000000        0.0000000000000000     
   1.4375000000000000       0.71875000000000000        0.0000000000000000     
   1.4687500000000000       0.71875000000000000        0.0000000000000000     
   1.5000000000000000       0.71875000000000000        0.0000000000000000     
   1.3750000000000000       0.75000000000000000        0.0000000000000000     
   1.4062500000000000       0.75000000000000000        0.0000000000000000     
   1.4375000000000000       0.75000000000000000        0.0000000000000000     
   1.4687500000000000       0.75000000000000000        0.0000000000000000     
   1.5000000000000000       0.75000000000000000        0.0000000000000000     
  0.50000000000000000       0.75000000000000000        0.0000000000000000     
  0.53125000000000000       0.75000000000000000        0.0000000000000000     
  0.56250000000000000       0.75000000000000000        0.0000000000000000     
  0.59375000000000000       0.75000000000000000        0.0000000000000000     
  0.62500000000000000       0.75000000000000000        0.0000000000000000     
  0.50000000000000000       0.78125000000000000        0.0000000000000000     
  0.53125000000000000       0.78125000000000000        0.0000000000000000     
  0.56250000000000000       0.78125000000000000        0.0000000000000000     
  0.59375000000000000       0.78125000000000000        0.0000000000000000     
  0.62500000000000000       0.78125000000000000        0.0000000000000000     
  0.50000000000000000       0.81250000000000000        0.0000000000000000     
  0.53125000000000000       0.81250000000000000        0.0000000000000000     
  0.56250000000000000       0.81250000000000000        0.0000000000000000     
  0.59375000000000000       0.81250000000000000        0.0000000000000000     
  0.62500000000000000       0.81250000000000000        0.0000000000000000     
  0.50000000000000000       0.84375000000000000        0.0000000000000000     
  0.53125000000000000       0.84375000000000000        0.0000000000000000     
  0.56250000000000000       0.84375000000000000        0.0000000000000000     
  0.59375000000000000       0.84375000000000000        0.0000000000000000     
  0.62500000000000000       0.84375000000000000        0.0000000000000000     
  0.50000000000000000       0.87500000000000000        0.0000000000000000     
  0.53125000000000000       0.87500000000000000        0.0000000000000000     
  0.56250000000000000       0.87500000000000000        0.0000000000000000     
  0.59375000000000000       0.87500000000000000        0.0000000000000000     
  0.62500000000000000       0.87500000000000000        0.0000000000000000     
  0.62500000000000000       0.75000000000000000        0.0000000000000000     
  0.65625000000000000       0.75000000000000000        0.0000000000000000     
  0.68750000000000000       0.75000000000000000        0.0000000000000000     
  0.71875000000000000       0.75000000000000000        0.0000000000000000     
  0.75000000000000000       0.75000000000000000        0.0000000000000000     
  0.62500000000000000       0.78125000000000000        0.0000000000000000     
  0.65625000000000000       0.78125000000000000        0.0000000000000000     
  0.68750000000000000       0.78125000000000000        0.0000000000000000     
  0.71875000000000000       0.78125000000000000        0.0000000000000000     
  0.75000000000000000       0.78125000000000000        0.0000000000000000     
  0.62500000000000000       0.81250000000000000        0.0000000000000000     
  0.65625000000000000       0.81250000000000000        0.0000000000000000     
  0.68750000000000000       0.81250000000000000        0.0000000000000000     
  0.71875000000000000       0.81250000000000000        0.0000000000000000     
  0.75000000000000000       0.81250000000000000        0.0000000000000000     
  0.62500000000000000       0.84375000000000000        0.0000000000000000     
  0.65625000000000000       0.84375000000000000        0.0000000000000000     
  0.68750000000000000       0.84375000000000000        0.0000000000000000     
  0.71875000000000000       0.84375000000000000        0.0000000000000000     
  0.75000000000000000       0.84375000000000000        0.0000000000000000     
  0.62500000000000000       0.87500000000000000        0.0000000000000000     
  0.65625000000000000       0.87500000000000000        0.0000000000000000     
  0.68750000000000000       0.87500000000000000        0.0000000000000000     
  0.71875000000000000       0.87500000000000000        0.0000000000000000     
  0.75000000000000000       0.87500000000000000        0.0000000000000000     
  0.75000000000000000       0.75000000000000000        0.0000000000000000     
  0.78125000000000000       0.75000000000000000        0.0000000000000000     
  0.81250000000000000       0.75000000000000000        0.0000000000000000     
  0.84375000000000000       0.75000000000000000        0.0000000000000000     
  0.87500000000000000       0.75000000000000000        0.0000000000000000     
  0.75000000000000000       0.78125000000000000        0.0000000000000000     
  0.78125000000000000       0.78125000000000000        0.0000000000000000     
  0.81250000000000000       0.78125000000000000        0.0000000000000000     
  0.84375000000000000       0.78125000000000000        0.0000000000000000     
  0.87500000000000000       0.78125000000000000        0.0000000000000000     
  0.75000000000000000       0.81250000000000000        0.0000000000000000     
  0.78125000000000000       0.81250000000000000        0.0000000000000000     
  0.81250000000000000       0.81250000000000000        0.0000000000000000     
  0.84375000000000000       0.81250000000000000        0.0000000000000000     
  0.87500000000000000       0.81250000000000000        0.0000000000000000     
  0.75000000000000000       0.84375000000000000        0.0000000000000000     
  0.78125000000000000       0.84375000000000000        0.0000000000000000     
  0.81250000000000000       0.84375000000000000        0.0000000000000000     
  0.84375000000000000       0.84375000000000000        0.0000000000000000     
  0.87500000000000000       0.84375000000000000        0.0000000000000000     
  0.75000000000000000       0.87500000000000000        0.0000000000000000     
  0.78125000000000000       0.87500000000000000        0.0000000000000000     
  0.81250000000000000       0.87500000000000000        0.0000000000000000     
  0.84375000000000000       0.87500000000000000        0.0000000000000000     
  0.87500000000000000       0.87500000000000000        0.0000000000000000     
  0.87500000000000000       0.75000000000000000        0.0000000000000000     
  0.90625000000000000       0.75000000000000000        0.0000000000000000     
  0.93750000000000000       0.75000000000000000        0.0000000000000000     
  0.96875000000000000       0.75000000000000000        0.0000000000000000     
   1.0000000000000000       0.75000000000000000        0.0000000000000000     
  0.87500000000000000       0.78125000000000000        0.0000000000000000     
  0.90625000000000000       0.78125000000000000        0.0000000000000000     
  0.93750000000000000       0.78125000000000000        0.0000000000000000     
  0.96875000000000000       0.78125000000000000        0.0000000000000000     
   1.0000000000000000       0.78125000000000000        0.0000000000000000     
  0.87500000000000000       0.81250000000000000        0.0000000000000000     
  0.90625000000000000       0.81250000000000000        0.0000000000000000     
  0.93750000000000000       0.81250000000000000        0.0000000000000000     
  0.96875000000000000       0.81250000000000000        0.0000000000000000     
   1.0000000000000000       0.81250000000000000        0.0000000000000000     
  0.87500000000000000       0.84375000000000000        0.0000000000000000     
  0.90625000000000000       0.84375000000000000        0.0000000000000000     
  0.93750000000000000       0.84375000000000000        0.0000000000000000     
  0.96875000000000000       0.84375000000000000        0.0000000000000000     
   1.0000000000000000       0.84375000000000000        0.0000000000000000     
  0.87500000000000000       0.87500000000000000        0.0000000000000000     
  0.90625000000000000       0.87500000000000000        0.0000000000000000     
  0.93750000000000000       0.87500000000000000        0.0000000000000000     
  0.96875000000000000       0.87500000000000000        0.0000000000000000     
   1.0000000000000000       0.87500000000000000        0.0000000000000000     
   1.0000000000000000       0.75000000000000000        0.0000000000000000     
   1.0312500000000000       0.75000000000000000        0.0000000000000000     
   1.0625000000000000       0.75000000000000000        0.0000000000000000     
   1.0937500000000000       0.75000000000000000        0.0000000000000000     
   1.1250000000000000       0.75000000000000000        0.0000000000000000     
   1.0000000000000000       0.78125000000000000        0.0000000000000000     
   1.0312500000000000       0.78125000000000000        0.0000000000000000     
   1.0625000000000000       0.78125000000000000        0.0000000000000000     
   1.0937500000000000       0.78125000000000000        0.0000000000000000     
   1.1250000000000000       0.78125000000000000        0.0000000000000000     
   1.0000000000000000       0.81250000000000000        0.0000000000000000     
   1.0312500000000000       0.81250000000000000        0.0000000000000000     
   1.0625000000000000       0.81250000000000000        0.0000000000000000     
   1.0937500000000000       0.81250000000000000        0.0000000000000000     
   1.1250000000000000       0.81250000000000000        0.0000000000000000     
   1.0000000000000000       0.84375000000000000        0.0000000000000000     
   1.0312500000000000       0.84375000000000000        0.0000000000000000     
   1.0625000000000000       0.84375000000000000        0.0000000000000000     
   1.0937500000000000       0.84375000000000000        0.0000000000000000     
   1.1250000000000000       0.84375000000000000        0.0000000000000000     
   1.0000000000000000       0.87500000000000000        0.0000000000000000     
   1.0312500000000000       0.87500000000000000        0.0000000000000000     
   1.0625000000000000       0.87500000000000000        0.0000000000000000     
   1.0937500000000000       0.87500000000000000        0.0000000000000000     
   1.1250000000000000       0.87500000000000000        0.0000000000000000     
   1.1250000000000000       0.75000000000000000        0.0000000000000000     
   1.1562500000000000       0.75000000000000000        0.0000000000000000     
   1.1875000000000000       0.75000000000000000        0.0000000000000000     
   1.2187500000000000       0.75000000000000000        0.0000000000000000     
   1.2500000000000000       0.75000000000000000        0.0000000000000000     
   1.1250000000000000       0.78125000000000000        0.0000000000000000     
   1.1562500000000000       0.78125000000000000        0.0000000000000000     
   1.1875000000000000       0.78125000000000000        0.0000000000000000     
   1.2187500000000000       0.78125000000000000        0.0000000000000000     
   1.2500000000000000       0.78125000000000000        0.0000000000000000     
   1.1250000000000000       0.81250000000000000        0.0000000000000000     
   1.1562500000000000       0.81250000000000000        0.0000000000000000     
   1.1875000000000000       0.81250000000000000        0.0000000000000000     
   1.2187500000000000       0.81250000000000000        0.0000000000000000     
   1.2500000000000000       0.81250000000000000        0.0000000000000000     
   1.1250000000000000       0.84375000000000000        0.0000000000000000     
   1.1562500000000000       0.84375000000000000        0.0000000000000000     
   1.1875000000000000       0.84375000000000000        0.0000000000000000     
   1.2187500000000000       0.84375000000000000        0.0000000000000000     
   1.2500000000000000       0.84375000000000000        0.0000000000000000     
   1.1250000000000000       0.87500000000000000        0.0000000000000000     
   1.1562500000000000       0.87500000000000000        0.0000000000000000     
   1.1875000000000000       0.87500000000000000        0.0000000000000000     
   1.2187500000000000       0.87500000000000000        0.0000000000000000     
   1.2500000000000000       0.87500000000000000        0.0000000000000000     
   1.2500000000000000       0.75000000000000000        0.0000000000000000     
   1.2812500000000000       0.75000000000000000        0.0000000000000000     
   1.3125000000000000       0.75000000000000000        0.0000000000000000     
   1.3437500000000000       0.75000000000000000        0.0000000000000000     
   1.3750000000000000       0.75000000000000000        0.0000000000000000     
   1.2500000000000000       0.78125000000000000        0.0000000000000000     
   1.2812500000000000       0.78125000000000000        0.0000000000000000     
   1.3125000000000000       0.78125000000000000        0.0000000000000000     
   1.3437500000000000       0.78125000000000000        0.0000000000000000     
   1.3750000000000000       0.78125000000000000        0.0000000000000000     
   1.2500000000000000       0.81250000000000000        0.0000000000000000     
   1.2812500000000000       0.81250000000000000        0.0000000000000000     
   1.3125000000000000       0.81250000000000000        0.0000000000000000     
   1.3437500000000000       0.81250000000000000        0.0000000000000000     
   1.3750000000000000       0.81250000000000000        0.0000000000000000     
   1.2500000000000000       0.84375000000000000        0.0000000000000000     
   1.2812500000000000       0.84375000000000000        0.0000000000000000     
   1.3125000000000000       0.84375000000000000        0.0000000000000000     
   1.3437500000000000       0.84375000000000000        0.0000000000000000     
   1.3750000000000000       0.84375000000000000        0.0000000000000000     
   1.2500000000000000       0.87500000000000000        0.0000000000000000     
   1.2812500000000000       0.87500000000000000        0.0000000000000000     
   1.3125000000000000       0.87500000000000000        0.0000000000000000     
   1.3437500000000000       0.87500000000000000        0.0000000000000000     
   1.3750000000000000       0.87500000000000000        0.0000000000000000     
   1.3750000000000000       0.75000000000000000        0.0000000000000000     
   1.4062500000000000       0.75000000000000000        0.0000000000000000     
   1.4375000000000000       0.75000000000000000        0.0000000000000000     
   1.4687500000000000       0.75000000000000000        0.0000000000000000     
   1.5000000000000000       0.75000000000000000        0.0000000000000000     
   1.3750000000000000       0.78125000000000000        0.0000000000000000     
   1.4062500000000000       0.78125000000000000        0.0000000000000000     
   1.4375000000000000       0.78125000000000000        0.0000000000000000     
   1.4687500000000000       0.78125000000000000        0.0000000000000000     
   1.5000000000000000       0.78125000000000000        0.0000000000000000     
   1.3750000000000000       0.81250000000000000        0.0000000000000000     
   1.4062500000000000       0.81250000000000000        0.0000000000000000     
   1.4375000000000000       0.81250000000000000        0.0000000000000000     
   1.4687500000000000       0.81250000000000000        0.0000000000000000     
   1.5000000000000000       0.81250000000000000        0.0000000000000000     
   1.3750000000000000       0.84375000000000000        0.0000000000000000     
   1.4062500000000000       0.84375000000000000        0.0000000000000000     
   1.4375000000000000       0.84375000000000000        0.0000000000000000     
   1.4687500000000000       0.84375000000000000        0.0000000000000000     
   1.5000000000000000       0.84375000000000000        0.0000000000000000     
   1.3750000000000000       0.87500000000000000        0.0000000000000000     
   1.4062500000000000       0.87500000000000000        0.0000000000000000     
   1.4375000000000000       0.87500000000000000        0.0000000000000000     
   1.4687500000000000       0.87500000000000000        0.0000000000000000     
   1.5000000000000000       0.87500000000000000        0.0000000000000000     
  0.50000000000000000       0.87500000000000000        0.0000000000000000     
  0.53125000000000000       0.87500000000000000        0.0000000000000000     
  0.56250000000000000       0.87500000000000000        0.0000000000000000     
  0.59375000000000000       0.87500000000000000        0.0000000000000000     
  0.62500000000000000       0.87500000000000000        0.0000000000000000     
  0.50000000000000000       0.90625000000000000        0.0000000000000000     
  0.53125000000000000       0.90625000000000000        0.0000000000000000     
  0.56250000000000000       0.90625000000000000        0.0000000000000000     
  0.59375000000000000       0.90625000000000000        0.0000000000000000     
  0.62500000000000000       0.90625000000000000        0.0000000000000000     
  0.50000000000000000       0.93750000000000000        0.0000000000000000     
  0.53125000000000000       0.93750000000000000        0.0000000000000000     
  0.56250000000000000       0.93750000000000000        0.0000000000000000     
  0.59375000000000000       0.93750000000000000        0.0000000000000000     
  0.62500000000000000       0.93750000000000000        0.0000000000000000     
  0.50000000000000000       0.96875000000000000        0.0000000000000000     
  0.53125000000000000       0.96875000000000000        0.0000000000000000     
  0.56250000000000000       0.96875000000000000        0.0000000000000000     
  0.59375000000000000       0.96875000000000000        0.0000000000000000     
  0.62500000000000000       0.96875000000000000        0.0000000000000000     
  0.50000000000000000        1.0000000000000000        0.0000000000000000     
  0.53125000000000000        1.0000000000000000        0.0000000000000000     
  0.56250000000000000        1.0000000000000000        0.0000000000000000     
  0.59375000000000000        1.0000000000000000        0.0000000000000000     
  0.62500000000000000        1.0000000000000000        0.0000000000000000     
  0.62500000000000000       0.87500000000000000        0.0000000000000000     
  0.65625000000000000       0.87500000000000000        0.0000000000000000     
  0.68750000000000000       0.87500000000000000        0.0000000000000000     
  0.71875000000000000       0.87500000000000000        0.0000000000000000     
  0.75000000000000000       0.87500000000000000        0.0000000000000000     
  0.62500000000000000       0.90625000000000000        0.0000000000000000     
  0.65625000000000000       0.90625000000000000        0.0000000000000000     
  0.68750000000000000       0.90625000000000000        0.0000000000000000     
  0.71875000000000000       0.90625000000000000        0.0000000000000000     
  0.75000000000000000       0.90625000000000000        0.0000000000000000     
  0.62500000000000000       0.93750000000000000        0.0000000000000000     
  0.65625000000000000       0.93750000000000000        0.0000000000000000     
  0.68750000000000000       0.93750000000000000        0.0000000000000000     
  0.71875000000000000       0.93750000000000000        0.0000000000000000     
  0.75000000000000000       0.93750000000000000        0.0000000000000000     
  0.62500000000000000       0.96875000000000000        0.0000000000000000     
  0.65625000000000000       0.96875000000000000        0.0000000000000000     
  0.68750000000000000       0.96875000000000000        0.0000000000000000     
  0.71875000000000000       0.96875000000000000        0.0000000000000000     
  0.75000000000000000       0.96875000000000000        0.0000000000000000     
  0.62500000000000000        1.0000000000000000        0.0000000000000000     
  0.65625000000000000        1.0000000000000000        0.0000000000000000     
  0.68750000000000000        1.0000000000000000        0.0000000000000000     
  0.71875000000000000        1.0000000000000000        0.0000000000000000     
  0.75000000000000000        1.0000000000000000        0.0000000000000000     
  0.75000000000000000       0.87500000000000000        0.0000000000000000     
  0.78125000000000000       0.87500000000000000        0.0000000000000000     
  0.81250000000000000       0.87500000000000000        0.0000000000000000     
  0.84375000000000000       0.87500000000000000        0.0000000000000000     
  0.87500000000000000       0.87500000000000000        0.0000000000000000     
  0.75000000000000000       0.90625000000000000        0.0000000000000000     
  0.78125000000000000       0.90625000000000000        0.0000000000000000     
  0.81250000000000000       0.90625000000000000        0.0000000000000000     
  0.84375000000000000       0.90625000000000000        0.0000000000000000     
  0.87500000000000000       0.90625000000000000        0.0000000000000000     
  0.75000000000000000       0.93750000000000000        0.0000000000000000     
  0.78125000000000000       0.93750000000000000        0.0000000000000000     
  0.81250000000000000       0.93750000000000000        0.0000000000000000     
  0.84375000000000000       0.93750000000000000        0.0000000000000000     
  0.87500000000000000       0.93750000000000000        0.0000000000000000     
  0.75000000000000000       0.96875000000000000        0.0000000000000000     
  0.78125000000000000       0.96875000000000000        0.0000000000000000     
  0.81250000000000000       0.96875000000000000        0.0000000000000000     
  0.84375000000000000       0.96875000000000000        0.0000000000000000     
  0.87500000000000000       0.96875000000000000        0.0000000000000000     
  0.75000000000000000        1.0000000000000000        0.0000000000000000     
  0.78125000000000000        1.0000000000000000        0.0000000000000000     
  0.81250000000000000        1.0000000000000000        0.0000000000000000     
  0.84375000000000000        1.0000000000000000        0.0000000000000000     
  0.87500000000000000        1.0000000000000000        0.0000000000000000     
  0.87500000000000000       0.87500000000000000        0.0000000000000000     
  0.90625000000000000       0.87500000000000000        0.0000000000000000     
  0.93750000000000000       0.87500000000000000        0.0000000000000000     
  0.96875000000000000       0.87500000000000000        0.0000000000000000     
   1.0000000000000000       0.87500000000000000        0.0000000000000000     
  0.87500000000000000       0.90625000000000000        0.0000000000000000     
  0.90625000000000000       0.90625000000000000        0.0000000000000000     
  0.93750000000000000       0.90625000000000000        0.0000000000000000     
  0.96875000000000000       0.90625000000000000        0.0000000000000000     
   1.0000000000000000       0.90625000000000000        0.0000000000000000     
  0.87500000000000000       0.93750000000000000        0.0000000000000000     
  0.90625000000000000       0.93750000000000000        0.0000000000000000     
  0.93750000000000000       0.93750000000000000        0.0000000000000000     
  0.96875000000000000       0.93750000000000000        0.0000000000000000     
   1.0000000000000000       0.93750000000000000        0.0000000000000000     
  0.87500000000000000       0.96875000000000000        0.0000000000000000     
  0.90625000000000000       0.96875000000000000        0.0000000000000000     
  0.93750000000000000       0.96875000000000000        0.0000000000000000     
  0.96875000000000000       0.96875000000000000        0.0000000000000000     
   1.0000000000000000       0.96875000000000000        0.0000000000000000     
  0.87500000000000000        1.0000000000000000        0.0000000000000000     
  0.90625000000000000        1.0000000000000000        0.0000000000000000     
  0.93750000000000000        1.0000000000000000        0.0000000000000000     
  0.96875000000000000        1.0000000000000000        0.0000000000000000     
   1.0000000000000000        1.0000000000000000        0.0000000000000000     
   1.0000000000000000       0.87500000000000000        0.0000000000000000     
   1.0312500000000000       0.87500000000000000        0.0000000000000000     
   1.0625000000000000       0.87500000000000000        0.0000000000000000     
   1.0937500000000000       0.87500000000000000        0.0000000000000000     
   1.1250000000000000       0.87500000000000000        0.0000000000000000     
   1.0000000000000000       0.90625000000000000        0.0000000000000000     
   1.0312500000000000       0.90625000000000000        0.0000000000000000     
   1.0625000000000000       0.90625000000000000        0.0000000000000000     
   1.0937500000000000       0.90625000000000000        0.0000000000000000     
   1.1250000000000000       0.90625000000000000        0.0000000000000000     
   1.0000000000000000       0.93750000000000000        0.0000000000000000     
   1.0312500000000000       0.93750000000000000        0.0000000000000000     
   1.0625000000000000       0.93750000000000000        0.0000000000000000     
   1.0937500000000000       0.93750000000000000        0.0000000000000000     
   1.1250000000000000       0.93750000000000000        0.0000000000000000     
   1.0000000000000000       0.96875000000000000        0.0000000000000000     
   1.0312500000000000       0.96875000000000000        0.0000000000000000     
   1.0625000000000000       0.96875000000000000        0.0000000000000000     
   1.0937500000000000       0.96875000000000000        0.0000000000000000     
   1.1250000000000000       0.96875000000000000        0.0000000000000000     
   1.0000000000000000        1.0000000000000000        0.0000000000000000     
   1.0312500000000000        1.0000000000000000        0.0000000000000000     
   1.0625000000000000        1.0000000000000000        0.0000000000000000     
   1.0937500000000000        1.0000000000000000        0.0000000000000000     
   1.1250000000000000        1.0000000000000000        0.0000000000000000     
   1.1250000000000000       0.87500000000000000        0.0000000000000000     
   1.1562500000000000       0.87500000000000000        0.0000000000000000     
   1.1875000000000000       0.87500000000000000        0.0000000000000000     
   1.2187500000000000       0.87500000000000000        0.0000000000000000     
   1.2500000000000000       0.87500000000000000        0.0000000000000000     
   1.1250000000000000       0.90625000000000000        0.0000000000000000     
   1.1562500000000000       0.90625000000000000        0.0000000000000000     
   1.1875000000000000       0.90625000000000000        0.0000000000000000     
   1.2187500000000000       0.90625000000000000        0.0000000000000000     
   1.2500000000000000       0.90625000000000000        0.0000000000000000     
   1.1250000000000000       0.93750000000000000        0.0000000000000000     
   1.1562500000000000       0.93750000000000000        0.0000000000000000     
   1.1875000000000000       0.93750000000000000        0.0000000000000000     
   1.2187500000000000       0.93750000000000000        0.0000000000000000     
   1.2500000000000000       0.93750000000000000        0.0000000000000000     
   1.1250000000000000       0.96875000000000000        0.0000000000000000     
   1.1562500000000000       0.96875000000000000        0.0000000000000000     
   1.1875000000000000       0.96875000000000000        0.0000000000000000     
   1.2187500000000000       0.96875000000000000        0.0000000000000000     
   1.2500000000000000       0.96875000000000000        0.0000000000000000     
   1.1250000000000000        1.0000000000000000        0.0000000000000000     
   1.1562500000000000        1.0000000000000000        0.0000000000000000     
   1.1875000000000000        1.0000000000000000        0.0000000000000000     
   1.2187500000000000        1.0000000000000000        0.0000000000000000     
   1.2500000000000000        1.0000000000000000        0.0000000000000000     
   1.2500000000000000       0.87500000000000000        0.0000000000000000     
   1.2812500000000000       0.87500000000000000        0.0000000000000000     
   1.3125000000000000       0.87500000000000000        0.0000000000000000     
   1.3437500000000000       0.87500000000000000        0.0000000000000000     
   1.3750000000000000       0.87500000000000000        0.0000000000000000     
   1.2500000000000000       0.90625000000000000        0.0000000000000000     
   1.2812500000000000       0.90625000000000000        0.0000000000000000     
   1.3125000000000000       0.90625000000000000        0.0000000000000000     
   1.3437500000000000       0.90625000000000000        0.0000000000000000     
   1.3750000000000000       0.90625000000000000        0.0000000000000000     
   1.2500000000000000       0.93750000000000000        0.0000000000000000     
   1.2812500000000000       0.93750000000000000        0.0000000000000000     
   1.3125000000000000       0.93750000000000000        0.0000000000000000     
   1.3437500000000000       0.93750000000000000        0.0000000000000000     
   1.3750000000000000       0.93750000000000000        0.0000000000000000     
   1.2500000000000000       0.96875000000000000        0.0000000000000000     
   1.2812500000000000       0.96875000000000000        0.0000000000000000     
   1.3125000000000000       0.96875000000000000        0.0000000000000000     
   1.3437500000000000       0.96875000000000000        0.0000000000000000     
   1.3750000000000000       0.96875000000000000        0.0000000000000000     
   1.2500000000000000        1.0000000000000000        0.0000000000000000     
   1.2812500000000000        1.0000000000000000        0.0000000000000000     
   1.3125000000000000        1.0000000000000000        0.0000000000000000     
   1.3437500000000000        1.0000000000000000        0.0000000000000000     
   1.3750000000000000        1.0000000000000000        0.0000000000000000     
   1.3750000000000000       0.87500000000000000        0.0000000000000000     
   1.4062500000000000       0.87500000000000000        0.0000000000000000     
   1.4375000000000000       0.87500000000000000        0.0000000000000000     
   1.4687500000000000       0.87500000000000000        0.0000000000000000     
   1.5000000000000000       0.87500000000000000        0.0000000000000000     
   1.3750000000000000       0.90625000000000000        0.0000000000000000     
   1.4062500000000000       0.90625000000000000        0.0000000000000000     
   1.4375000000000000       0.90625000000000000        0.0000000000000000     
   1.4687500000000000       0.90625000000000000        0.0000000000000000     
   1.5000000000000000       0.90625000000000000        0.0000000000000000     
   1.3750000000000000       0.93750000000000000        0.0000000000000000     
   1.4062500000000000       0.93750000000000000        0.0000000000000000     
   1.4375000000000000       0.93750000000000000        0.0000000000000000     
   1.4687500000000000       0.93750000000000000        0.0000000000000000     
   1.5000000000000000       0.93750000000000000        0.0000000000000000     
   1.3750000000000000       0.96875000000000000        0.0000000000000000     
   1.4062500000000000       0.96875000000000000        0.0000000000000000     
   1.4375000000000000       0.96875000000000000        0.0000000000000000     
   1.4687500000000000       0.96875000000000000        0.0000000000000000     
   1.5000000000000000       0.96875000000000000        0.0000000000000000     
   1.3750000000000000        1.0000000000000000        0.0000000000000000     
   1.4062500000000000        1.0000000000000000        0.0000000000000000     
   1.4375000000000000        1.0000000000000000        0.0000000000000000     
   1.4687500000000000        1.0000000000000000        0.0000000000000000     
   1.5000000000000000        1.0000000000000000        0.0000000000000000     
 </DataArray>
 </Points>
 <Cells>
 <DataArray  type="Int32"  Name="connectivity"  format="ascii">
           0           1           6           5
           1           2           7           6
           2           3           8           7
           3           4           9           8
           5           6          11          10
           6           7          12          11
           7           8          13          12
           8           9          14          13
          10          11          16          15
          11          12          17          16
          12          13          18          17
          13          14          19          18
          15          16          21          20
          16          17          22          21
          17          18          23          22
          18          19          24          23
          25          26          31          30
          26          27          32          31
          27          28          33          32
          28          29          34          33
          30          31          36          35
          31          32          37          36
          32          33          38          37
          33          34          39          38
          35          36          41          40
          36          37          42          41
          37          38          43          42
          38          39          44          43
          40          41          46          45
          41          42          47          46
          42          43          48          47
          43          44          49          48
          50          51          56          55
          51          52          57          56
          52          53          58          57
          53          54          59          58
          55          56          61          60
          56          57          62          61
          57          58          63          62
          58          59          64          63
          60          61          66          65
          61          62          67          66
          62          63          68          67
          63          64          69          68
          65          66          71          70
          66          67          72          71
          67          68          73          72
          68          69          74          73
          75          76          81          80
          76          77          82          81
          77          78          83          82
          78          79          84          83
          80          81          86          85
          81          82          87          86
          82          83          88          87
          83          84          89          88
          85          86          91          90
          86          87          92          91
          87          88          93          92
          88          89          94          93
          90          91          96          95
          91          92          97          96
          92          93          98          97
          93          94          99          98
         100         101         106         105
         101         102         107         106
         102         103         108         107
         103         104         109         108
         105         106         111         110
         106         107         112         111
         107         108         113         112
         108         109         114         113
         110         111         116         115
         111         112         117         116
         112         113         118         117
         113         114         119         118
         115         116         121         120
         116         117         122         121
         117         118         123         122
         118         119         124         123
         125         126         131         130
         126         127         132         131
         127         128         133         132
         128         129         134         133
         130         131         136         135
         131         132         137         136
         132         133         138         137
         133         134         139         138
         135         136         141         140
         136         137         142         141
         137         138         143         142
         138         139         144         143
         140         141         146         145
         141         142         147         146
         142         143         148         147
         143         144         149         148
         150         151         156         155
         151         152         157         156
         152         153         158         157
         153         154         159         158
         155         156         161         160
         156         157         162         161
         157         158         163         162
         158         159         164         163
         160         161         166         165
         161         162         167         166
         162         163         168         167
         163         164         169         168
         165         166         171         170
         166         167         172         171
         167         168         173         172
         168         169         174         173
         175         176         181         180
         176         177         182         181
         177         178         183         182
         178         179         184         183
         180         181         186         185
         181         182         187         186
         182         183         188         187
         183         184         189         188
         185         186         191         190
         186         187         192         191
         187         188         193         192
         188         189         194         193
         190         191         196         195
         191         192         197         196
         192         193         198         197
         193         194         199         198
         200         201         206         205
         201         202         207         206
         202         203         208         207
         203         204         209         208
         205         206         211         210
         206         207         212         211
         207         208         213         212
         208         209         214         213
         210         211         216         215
         211         212         217         216
         212         213         218         217
         213         214         219         218
         215         216         221         220
         216         217         222         221
         217         218         223         222
         218         219         224         223
         225         226         231         230
         226         227         232         231
         227         228         233         232
         228         229         234         233
         230         231         236         235
         231         232         237         236
         232         233         238         237
         233         234         239         238
         235         236         241         240
         236         237         242         241
         237         238         243         242
         238         239         244         243
         240         241         246         245
         241         242         247         246
         242         243         248         247
         243         244         249         248
         250         251         256         255
         251         252         257         256
         252         253         258         257
         253         254         259         258
         255         256         261         260
         256         257         262         261
         257         258         263         262
         258         259         264         263
         260         261         266         265
         261         262         267         266
         262         263         268         267
         263         264         269         268
         265         266         271         270
         266         267         272         271
         267         268         273         272
         268         269         274         273
         275         276         281         280
         276         277         282         281
         277         278         283         282
         278         279         284         283
         280         281         286         285
         281         282         287         286
         282         283         288         287
         283         284         289         288
         285         286         291         290
         286         287         292         291
         287         288         293         292
         288         289         294         293
         290         291         296         295
         291         292         297         296
         292         293         298         297
         293         294         299         298
         300         301         306         305
         301         302         307         306
         302         303         308         307
         303         304         309         308
         305         306         311         310
         306         307         312         311
         307         308         313         312
         308         309         314         313
         310         311         316         315
         311         312         317         316
         312         313         318         317
         313         314         319         318
         315         316         321         320
         316         317         322         321
         317         318         323         322
         318         319         324         323
         325         326         331         330
         326         327         332         331
         327         328         333         332
         328         329         334         333
         330         331         336         335
         331         332         337         336
         332         333         338         337
         333         334         339         338
         335         336         341         340
         336         337         342         341
         337         338         343         342
         338         339         344         343
         340         341         346         345
         341         342         347         346
         342         343         348         347
         343         344         349         348
         350         351         356         355
         351         352         357         356
         352         353         358         357
         353         354         359         358
         355         356         361         360
         356         357         362         361
         357         358         363         362
         358         359         364         363
         360         361         366         365
         361         362         367         366
         362         363         368         367
         363         364         369         368
         365         366         371         370
         366         367         372         371
         367         368         373         372
         368         369         374         373
         375         376         381         380
         376         377         382         381
         377         378         383         382
         378         379         384         383
         380         381         386         385
         381         382         387         386
         382         383         388         387
         383         384         389         388
         385         386         391         390
         386         387         392         391
         387         388         393         392
         388         389         394         393
         390         391         396         395
         391         392         397         396
         392         393         398         397
         393         394         399         398
         400         401         406         405
         401         402         407         406
         402         403         408         407
         403         404         409         408
         405         406         411         410
         406         407         412         411
         407         408         413         412
         408         409         414         413
         410         411         416         415
         411         412         417         416
         412         413         418         417
         413         414         419         418
         415         416         421         420
         416         417         422         421
         417         418         423         422
         418         419         424         423
         425         426         431         430
         426         427         432         431
         427         428         433         432
         428         429         434         433
         430         431         436         435
         431         432         437         436
         432         433         438         437
         433         434         439         438
         435         436         441         440
         436         437         442         441
         437         438         443         442
         438         439         444         443
         440         441         446         445
         441         442         447         446
         442         443         448         447
         443         444         449         448
         450         451         456         455
         451         452         457         456
         452         453         458         457
         453         454         459         458
         455         456         461         460
         456         457         462         461
         457         458         463         462
         458         459         464         463
         460         461         466         465
         461         462         467         466
         462         463         468         467
         463         464         469         468
         465         466         471         470
         466         467         472         471
         467         468         473         472
         468         469         474         473
         475         476         481         480
         476         477         482         481
         477         478         483         482
         478         479         484         483
         480         481         486         485
         481         482         487         486
         482         483         488         487
         483         484         489         488
         485         486         491         490
         486         487         492         491
         487         488         493         492
         488         489         494         493
         490         491         496         495
         491         492         497         496
         492         493         498         497
         493         494         499         498
         500         501         506         505
         501         502         507         506
         502         503         508         507
         503         504         509         508
         505         506         511         510
         506         507         512         511
         507         508         513         512
         508         509         514         513
         510         511         516         515
         511         512         517         516
         512         513         518         517
         513         514         519         518
         515         516         521         520
         516         517         522         521
         517         518         523         522
         518         519         524         523
         525         526         531         530
         526         527         532         531
         527         528         533         532
         528         529         534         533
         530         531         536         535
         531         532         537         536
         532         533         538         537
         533         534         539         538
         535         536         541         540
         536         537         542         541
         537         538         543         542
         538         539         544         543
         540         541         546         545
         541         542         547         546
         542         543         548         547
         543         544         549         548
         550         551         556         555
         551         552         557         556
         552         553         558         557
         553         554         559         558
         555         556         561         560
         556         557         562         561
         557         558         563         562
         558         559         564         563
         560         561         566         565
         561         562         567         566
         562         563         568         567
         563         564         569         568
         565         566         571         570
         566         567         572         571
         567         568         573         572
         568         569         574         573
         575         576         581         580
         576         577         582         581
         577         578         583         582
         578         579         584         583
         580         581         586         585
         581         582         587         586
         582         583         588         587
         583         584         589         588
         585         586         591         590
         586         587         592         591
         587         588         593         592
         588         589         594         593
         590         591         596         595
         591         592         597         596
         592         593         598         597
         593         594         599         598
         600         601         606         605
         601         602         607         606
         602         603         608         607
         603         604         609         608
         605         606         611         610
         606         607         612         611
         607         608         613         612
         608         609         614         613
         610         611         616         615
         611         612         617         616
         612         613         618         617
         613         614         619         618
         615         616         621         620
         616         617         622         621
         617         618         623         622
         618         619         624         623
         625         626         631         630
         626         627         632         631
         627         628         633         632
         628         629         634         633
         630         631         636         635
         631         632         637         636
         632         633         638         637
         633         634         639         638
         635         636         641         640
         636         637         642         641
         637         638         643         642
         638         639         644         643
         640         641         646         645
         641         642         647         646
         642         643         648         647
         643         644         649         648
         650         651         656         655
         651         652         657         656
         652         653         658         657
         653         654         659         658
         655         656         661         660
         656         657         662         661
         657         658         663         662
         658         659         664         663
         660         661         666         665
         661         662         667         666
         662         663         668         667
         663         664         669         668
         665         666         671         670
         666         667         672         671
         667         668         673         672
         668         669         674         673
         675         676         681         680
         676         677         682         681
         677         678         683         682
         678         679         684         683
         680         681         686         685
         681         682         687         686
         682         683         688         687
         683         684         689         688
         685         686         691         690
         686         687         692         691
         687         688         693         692
         688         689         694         693
         690         691         696         695
         691         692         697         696
         692         693         698         697
         693         694         699         698
         700         701         706         705
         701         702         707         706
         702         703         708         707
         703         704         709         708
         705         706         711         710
         706         707         712         711
         707         708         713         712
         708         709         714         713
         710         711         716         715
         711         712         717         716
         712         713         718         717
         713         714         719         718
         715         716         721         720
         716         717         722         721
         717         718         723         722
         718         719         724         723
         725         726         731         730
         726         727         732         731
         727         728         733         732
         728         729         734         733
         730         731         736         735
         731         732         737         736
         732         733         738         737
         733         734         739         738
         735         736         741         740
         736         737         742         741
         737         738         743         742
         738         739         744         743
         740         741         746         745
         741         742         747         746
         742         743         748         747
         743         744         749         748
         750         751         756         755
         751         752         757         756
         752         753         758         757
         753         754         759         758
         755         756         761         760
         756         757         762         761
         757         758         763         762
         758         759         764         763
         760         761         766         765
         761         762         767         766
         762         763         768         767
         763         764         769         768
         765         766         771         770
         766         767         772         771
         767         768         773         772
         768         769         774         773
         775         776         781         780
         776         777         782         781
         777         778         783         782
         778         779         784         783
         780         781         786         785
         781         782         787         786
         782         783         788         787
         783         784         789         788
         785         786         791         790
         786         787         792         791
         787         788         793         792
         788         789         794         793
         790         791         796         795
         791         792         797         796
         792         793         798         797
         793         794         799         798
         800         801         806         805
         801         802         807         806
         802         803         808         807
         803         804         809         808
         805         806         811         810
         806         807         812         811
         807         808         813         812
         808         809         814         813
         810         811         816         815
         811         812         817         816
         812         813         818         817
         813         814         819         818
         815         816         821         820
         816         817         822         821
         817         818         823         822
         818         819         824         823
         825         826         831         830
         826         827         832         831
         827         828         833         832
         828         829         834         833
         830         831         836         835
         831         832         837         836
         832         833         838         837
         833         834         839         838
         835         836         841         840
         836         837         842         841
         837         838         843         842
         838         839         844         843
         840         841         846         845
         841         842         847         846
         842         843         848         847
         843         844         849         848
         850         851         856         855
         851         852         857         856
         852         853         858         857
         853         854         859         858
         855         856         861         860
         856         857         862         861
         857         858         863         862
         858         859         864         863
         860         861         866         865
         861         862         867         866
         862         863         868         867
         863         864         869         868
         865         866         871         870
         866         867         872         871
         867         868         873         872
         868         869         874         873
         875         876         881         880
         876         877         882         881
         877         878         883         882
         878         879         884         883
         880         881         886         885
         881         882         887         886
         882         883         888         887
         883         884         889         888
         885         886         891         890
         886         887         892         891
         887         888         893         892
         888         889         894         893
         890         891         896         895
         891         892         897         896
         892         893         898         897
         893         894         899         898
         900         901         906         905
         901         902         907         906
         902         903         908         907
         903         904         909         908
         905         906         911         910
         906         907         912         911
         907         908         913         912
         908         909         914         913
         910         911         916         915
         911         912         917         916
         912         913         918         917
         913         914         919         918
         915         916         921         920
         916         917         922         921
         917         918         923         922
         918         919         924         923
         925         926         931         930
         926         927         932         931
         927         928         933         932
         928         929         934         933
         930         931         936         935
         931         932         937         936
         932         933         938         937
         933         934         939         938
         935         936         941         940
         936         937         942         941
         937         938         943         942
         938         939         944         943
         940         941         946         945
         941         942         947         946
         942         943         948         947
         943         944         949         948
         950         951         956         955
         951         952         957         956
         952         953         958         957
         953         954         959         958
         955         956         961         960
         956         957         962         961
         957         958         963         962
         958         959         964         963
         960         961         966         965
         961         962         967         966
         962         963         968         967
         963         964         969         968
         965         966         971         970
         966         967         972         971
         967         968         973         972
         968         969         974         973
         975         976         981         980
         976         977         982         981
         977         978         983         982
         978         979         984         983
         980         981         986         985
         981         982         987         986
         982         983         988         987
         983         984         989         988
         985         986         991         990
         986         987         992         991
         987         988         993         992
         988         989         994         993
         990         991         996         995
         991         992         997         996
         992         993         998         997
         993         994         999         998
        1000        1001        1006        1005
        1001        1002        1007        1006
        1002        1003        1008        1007
        1003        1004        1009        1008
        1005        1006        1011        1010
        1006        1007        1012        1011
        1007        1008        1013        1012
        1008        1009        1014        1013
        1010        1011        1016        1015
        1011        1012        1017        1016
        1012        1013        1018        1017
        1013        1014        1019        1018
        1015        1016        1021        1020
        1016        1017        1022        1021
        1017        1018        1023        1022
        1018        1019        1024        1023
        1025        1026        1031        1030
        1026        1027        1032        1031
        1027        1028        1033        1032
        1028        1029        1034        1033
        1030        1031        1036        1035
        1031        1032        1037        1036
        1032        1033        1038        1037
        1033        1034        1039        1038
        1035        1036        1041        1040
        1036        1037        1042        1041
        1037        1038        1043        1042
        1038        1039        1044        1043
        1040        1041        1046        1045
        1041        1042        1047        1046
        1042        1043        1048        1047
        1043        1044        1049        1048
        1050        1051        1056        1055
        1051        1052        1057        1056
        1052        1053        1058        1057
        1053        1054        1059        1058
        1055        1056        1061        1060
        1056        1057        1062        1061
        1057        1058        1063        1062
        1058        1059        1064        1063
        1060        1061        1066        1065
        1061        1062        1067        1066
        1062        1063        1068        1067
        1063        1064        1069        1068
        1065        1066        1071        1070
        1066        1067        1072        1071
        1067        1068        1073        1072
        1068        1069        1074        1073
        1075        1076        1081        1080
        1076        1077        1082        1081
        1077        1078        1083        1082
        1078        1079        1084        1083
        1080        1081        1086        1085
        1081        1082        1087        1086
        1082        1083        1088        1087
        1083        1084        1089        1088
        1085        1086        1091        1090
        1086        1087        1092        1091
        1087        1088        1093        1092
        1088        1089        1094        1093
        1090        1091        1096        1095
        1091        1092        1097        1096
        1092        1093        1098        1097
        1093        1094        1099        1098
        1100        1101        1106        1105
        1101        1102        1107        1106
        1102        1103        1108        1107
        1103        1104        1109        1108
        1105        1106        1111        1110
        1106        1107        1112        1111
        1107        1108        1113        1112
        1108        1109        1114        1113
        1110        1111        1116        1115
        1111        1112        1117        1116
        1112        1113        1118        1117
        1113        1114        1119        1118
        1115        1116        1121        1120
        1116        1117        1122        1121
        1117        1118        1123        1122
        1118        1119        1124        1123
        1125        1126        1131        1130
        1126        1127        1132        1131
        1127        1128        1133        1132
        1128        1129        1134        1133
        1130        1131        1136        1135
        1131        1132        1137        1136
        1132        1133        1138        1137
        1133        1134        1139        1138
        1135        1136        1141        1140
        1136        1137        1142        1141
        1137        1138        1143        1142
        1138        1139        1144        1143
        1140        1141        1146        1145
        1141        1142        1147        1146
        1142        1143        1148        1147
        1143        1144        1149        1148
        1150        1151        1156        1155
        1151        1152        1157        1156
        1152        1153        1158        1157
        1153        1154        1159        1158
        1155        1156        1161        1160
        1156        1157        1162        1161
        1157        1158        1163        1162
        1158        1159        1164        1163
        1160        1161        1166        1165
        1161        1162        1167        1166
        1162        1163        1168        1167
        1163        1164        1169        1168
        1165        1166        1171        1170
        1166        1167        1172        1171
        1167        1168        1173        1172
        1168        1169        1174        1173
        1175        1176        1181        1180
        1176        1177        1182        1181
        1177        1178        1183        1182
        1178        1179        1184        1183
        1180        1181        1186        1185
        1181        1182        1187        1186
        1182        1183        1188        1187
        1183        1184        1189        1188
        1185        1186        1191        1190
        1186        1187        1192        1191
        1187        1188        1193        1192
        1188        1189        1194        1193
        1190        1191        1196        1195
        1191        1192        1197        1196
        1192        1193        1198        1197
        1193        1194        1199        1198
        1200        1201        1206        1205
        1201        1202        1207        1206
        1202        1203        1208        1207
        1203        1204        1209        1208
        1205        1206        1211        1210
        1206        1207        1212        1211
        1207        1208        1213        1212
        1208        1209        1214        1213
        1210        1211        1216        1215
        1211        1212        1217        1216
        1212        1213        1218        1217
        1213        1214        1219        1218
        1215        1216        1221        1220
        1216        1217        1222        1221
        1217        1218        1223        1222
        1218        1219        1224        1223
        1225        1226        1231        1230
        1226        1227        1232        1231
        1227        1228        1233        1232
        1228        1229        1234        1233
        1230        1231        1236        1235
        1231        1232        1237        1236
        1232        1233        1238        1237
        1233        1234        1239        1238
        1235        1236        1241        1240
        1236        1237        1242        1241
        1237        1238        1243        1242
        1238        1239        1244        1243
        1240        1241        1246        1245
        1241        1242        1247        1246
        1242        1243        1248        1247
        1243        1244        1249        1248
        1250        1251        1256        1255
        1251        1252        1257        1256
        1252        1253        1258        1257
        1253        1254        1259        1258
        1255        1256        1261        1260
        1256        1257        1262        1261
        1257        1258        1263        1262
        1258        1259        1264        1263
        1260        1261        1266        1265
        1261        1262        1267        1266
        1262        1263        1268        1267
        1263        1264        1269        1268
        1265        1266        1271        1270
        1266        1267        1272        1271
        1267        1268        1273        1272
        1268        1269        1274        1273
        1275        1276        1281        1280
        1276        1277        1282        1281
        1277        1278        1283        1282
        1278        1279        1284        1283
        1280        1281        1286        1285
        1281        1282        1287        1286
        1282        1283        1288        1287
        1283        1284        1289        1288
        1285        1286        1291        1290
        1286        1287        1292        1291
        1287        1288        1293        1292
        1288        1289        1294        1293
        1290        1291        1296        1295
        1291        1292        1297        1296
        1292        1293        1298        1297
        1293        1294        1299        1298
        1300        1301        1306        1305
        1301        1302        1307        1306
        1302        1303        1308        1307
        1303        1304        1309        1308
        1305        1306        1311        1310
        1306        1307        1312        1311
        1307        1308        1313        1312
        1308        1309        1314        1313
        1310        1311        1316        1315
        1311        1312        1317        1316
        1312        1313        1318        1317
        1313        1314        1319        1318
        1315        1316        1321        1320
        1316        1317        1322        1321
        1317        1318        1323        1322
        1318        1319        1324        1323
        1325        1326        1331        1330
        1326        1327        1332        1331
        1327        1328        1333        1332
        1328        1329        1334        1333
        1330        1331        1336        1335
        1331        1332        1337        1336
        1332        1333        1338        1337
        1333        1334        1339        1338
        1335        1336        1341        1340
        1336        1337        1342        1341
        1337        1338        1343        1342
        1338        1339        1344        1343
        1340        1341        1346        1345
        1341        1342        1347        1346
        1342        1343        1348        1347
        1343        1344        1349        1348
        1350        1351        1356        1355
        1351        1352        1357        1356
        1352        1353        1358        1357
        1353        1354        1359        1358
        1355        1356        1361        1360
        1356        1357        1362        1361
        1357        1358        1363        1362
        1358        1359        1364        1363
        1360        1361        1366        1365
        1361        1362        1367        1366
        1362        1363        1368        1367
        1363        1364        1369        1368
        1365        1366        1371        1370
        1366        1367        1372        1371
        1367        1368        1373        1372
        1368        1369        1374        1373
        1375        1376        1381        1380
        1376        1377        1382        1381
        1377        1378        1383        1382
        1378        1379        1384        1383
        1380        1381        1386        1385
        1381        1382        1387        1386
        1382        1383        1388        1387
        1383        1384        1389        1388
        1385        1386        1391        1390
        1386        1387        1392        1391
        1387        1388        1393        1392
        1388        1389        1394        1393
        1390        1391        1396        1395
        1391        1392        1397        1396
        1392        1393        1398        1397
        1393        1394        1399        1398
        1400        1401        1406        1405
        1401        1402        1407        1406
        1402        1403        1408        1407
        1403        1404        1409        1408
        1405        1406        1411        1410
        1406        1407        1412        1411
        1407        1408        1413        1412
        1408        1409        1414        1413
        1410        1411        1416        1415
        1411        1412        1417        1416
        1412        1413        1418        1417
        1413        1414        1419        1418
        1415        1416        1421        1420
        1416        1417        1422        1421
        1417        1418        1423        1422
        1418        1419        1424        1423
        1425        1426        1431        1430
        1426        1427        1432        1431
        1427        1428        1433        1432
        1428        1429        1434        1433
        1430        1431        1436        1435
        1431        1432        1437        1436
        1432        1433        1438        1437
        1433        1434        1439        1438
        1435        1436        1441        1440
        1436        1437        1442        1441
        1437        1438        1443        1442
        1438        1439        1444        1443
        1440        1441        1446        1445
        1441        1442        1447        1446
        1442        1443        1448        1447
        1443        1444        1449        1448
        1450        1451        1456        1455
        1451        1452        1457        1456
        1452        1453        1458        1457
        1453        1454        1459        1458
        1455        1456        1461        1460
        1456        1457        1462        1461
        1457        1458        1463        1462
        1458        1459        1464        1463
        1460        1461        1466        1465
        1461        1462        1467        1466
        1462        1463        1468        1467
        1463        1464        1469        1468
        1465        1466        1471        1470
        1466        1467        1472        1471
        1467        1468        1473        1472
        1468        1469        1474        1473
        1475        1476        1481        1480
        1476        1477        1482        1481
        1477        1478        1483        1482
        1478        1479        1484        1483
        1480        1481        1486        1485
        1481        1482        1487        1486
        1482        1483        1488        1487
        1483        1484        1489        1488
        1485        1486        1491        1490
        1486        1487        1492        1491
        1487        1488        1493        1492
        1488        1489        1494        1493
        1490        1491        1496        1495
        1491        1492        1497        1496
        1492        1493        1498        1497
        1493        1494        1499        1498
        1500        1501        1506        1505
        1501        1502        1507        1506
        1502        1503        1508        1507
        1503        1504        1509        1508
        1505        1506        1511        1510
        1506        1507        1512        1511
        1507        1508        1513        1512
        1508        1509        1514        1513
        1510        1511        1516        1515
        1511        1512        1517        1516
        1512        1513        1518        1517
        1513        1514        1519        1518
        1515        1516        1521        1520
        1516        1517        1522        1521
        1517        1518        1523        1522
        1518        1519        1524        1523
        1525        1526        1531        1530
        1526        1527        1532        1531
        1527        1528        1533        1532
        1528        1529        1534        1533
        1530        1531        1536        1535
        1531        1532        1537        1536
        1532        1533        1538        1537
        1533        1534        1539        1538
        1535        1536        1541        1540
        1536        1537        1542        1541
        1537        1538        1543        1542
        1538        1539        1544        1543
        1540        1541        1546        1545
        1541        1542        1547        1546
        1542        1543        1548        1547
        1543        1544        1549        1548
        1550        1551        1556        1555
        1551        1552        1557        1556
        1552        1553        1558        1557
        1553        1554        1559        1558
        1555        1556        1561        1560
        1556        1557        1562        1561
        1557        1558        1563        1562
        1558        1559        1564        1563
        1560        1561        1566        1565
        1561        1562        1567        1566
        1562        1563        1568        1567
        1563        1564        1569        1568
        1565        1566        1571        1570
        1566        1567        1572        1571
        1567        1568        1573        1572
        1568        1569        1574        1573
        1575        1576        1581        1580
        1576        1577        1582        1581
        1577        1578        1583        1582
        1578        1579        1584        1583
        1580        1581        1586        1585
        1581        1582        1587        1586
        1582        1583        1588        1587
        1583        1584        1589        1588
        1585        1586        1591        1590
        1586        1587        1592        1591
        1587        1588        1593        1592
        1588        1589        1594        1593
        1590        1591        1596        1595
        1591        1592        1597        1596
        1592        1593        1598        1597
        1593        1594        1599        1598
 </DataArray>
 <DataArray  type="Int32"  Name="offsets"  format="ascii"> 
           4
           8
          12
          16
          20
          24
          28
          32
          36
          40
          44
          48
          52
          56
          60
          64
          68
          72
          76
          80
          84
          88
          92
          96
         100
         104
         108
         112
         116
         120
         124
         128
         132
         136
         140
         144
         148
         152
         156
         160
         164
         168
         172
         176
         180
         184
         188
         192
         196
         200
         204
         208
         212
         216
         220
         224
         228
         232
         236
         240
         244
         248
         252
         256
         260
         264
         268
         272
         276
         280
         284
         288
         292
         296
         300
         304
         308
         312
         316
         320
         324
         328
         332
         336
         340
         344
         348
         352
         356
         360
         364
         368
         372
         376
         380
         384
         388
         392
         396
         400
         404
         408
         412
         416
         420
         424
         428
         432
         436
         440
         444
         448
         452
         456
         460
         464
         468
         472
         476
         480
         484
         488
         492
         496
         500
         504
         508
         512
         516
         520
         524
         528
         532
         536
         540
         544
         548
         552
         556
         560
         564
         568
         572
         576
         580
         584
         588
         592
         596
         600
         604
         608
         612
         616
         620
         624
         628
         632
         636
         640
         644
         648
         652
         656
         660
         664
         668
         672
         676
         680
         684
         688
         692
         696
         700
         704
         708
         712
         716
         720
         724
         728
         732
         736
         740
         744
         748
         752
         756
         760
         764
         768
         772
         776
         780
         784
         788
         792
         796
         800
         804
         808
         812
         816
         820
         824
         828
         832
         836
         840
         844
         848
         852
         856
         860
         864
         868
         872
         876
         880
         884
         888
         892
         896
         900
         904
         908
         912
         916
         920
         924
         928
         932
         936
         940
         944
         948
         952
         956
         960
         964
         968
         972
         976
         980
         984
         988
         992
         996
        1000
        1004
        1008
        1012
        1016
        1020
        1024
        1028
        1032
        1036
        1040
        1044
        1048
        1052
        1056
        1060
        1064
        1068
        1072
        1076
        1080
        1084
        1088
        1092
        1096
        1100
        1104
        1108
        1112
        1116
        1120
        1124
        1128
        1132
        1136
        1140
        1144
        1148
        1152
        1156
        1160
        1164
        1168
        1172
        1176
        1180
        1184
        1188
        1192
        1196
        1200
        1204
        1208
        1212
        1216
        1220
        1224
        1228
        1232
        1236
        1240
        1244
        1248
        1252
        1256
        1260
        1264
        1268
        1272
        1276
        1280
        1284
        1288
        1292
        1296
        1300
        1304
        1308
        1312
        1316
        1320
        1324
        1328
        1332
        1336
        1340
        1344
        1348
        1352
        1356
        1360
        1364
        1368
        1372
        1376
        1380
        1384
        1388
        1392
        1396
        1400
        1404
        1408
        1412
        1416
        1420
        1424
        1428
        1432
        1436
        1440
        1444
        1448
        1452
        1456
        1460
        1464
        1468
        1472
        1476
        1480
        1484
        1488
        1492
        1496
        1500
        1504
        1508
        1512
        1516
        1520
        1524
        1528
        1532
        1536
        1540
        1544
        1548
        1552
        1556
        1560
        1564
        1568
        1572
        1576
        1580
        1584
        1588
        1592
        1596
        1600
        1604
        1608
        1612
        1616
        1620
        1624
        1628
        1632
        1636
        1640
        1644
        1648
        1652
        1656
        1660
        1664
        1668
        1672
        1676
        1680
        1684
        1688
        1692
        1696
        1700
        1704
        1708
        1712
        1716
        1720
        1724
        1728
        1732
        1736
        1740
        1744
        1748
        1752
        1756
        1760
        1764
        1768
        1772
        1776
        1780
        1784
        1788
        1792
        1796
        1800
        1804
        1808
        1812
        1816
        1820
        1824
        1828
        1832
        1836
        1840
        1844
        1848
        1852
        1856
        1860
        1864
        1868
        1872
        1876
        1880
        1884
        1888
        1892
        1896
        1900
        1904
        1908
        1912
        1916
        1920
        1924
        1928
        1932
        1936
        1940
        1944
        1948
        1952
        1956
        1960
        1964
        1968
        1972
        1976
        1980
        1984
        1988
        1992
        1996
        2000
        2004
        2008
        2012
        2016
        2020
        2024
        2028
        2032
        2036
        2040
        2044
        2048
        2052
        2056
        2060
        2064
        2068
        2072
        2076
        2080
        2084
        2088
        2092
        2096
        2100
        2104
        2108
        2112
        2116
        2120
        2124
        2128
        2132
        2136
        2140
        2144
        2148
        2152
        2156
        2160
        2164
        2168
        2172
        2176
        2180
        2184
        2188
        2192
        2196
        2200
        2204
        2208
        2212
        2216
        2220
        2224
        2228
        2232
        2236
        2240
        2244
        2248
        2252
        2256
        2260
        2264
        2268
        2272
        2276
        2280
        2284
        2288
        2292
        2296
        2300
        2304
        2308
        2312
        2316
        2320
        2324
        2328
        2332
        2336
        2340
        2344
        2348
        2352
        2356
        2360
        2364
        2368
        2372
        2376
        2380
        2384
        2388
        2392
        2396
        2400
        2404
        2408
        2412
        2416
        2420
        2424
        2428
        2432
        2436
        2440
        2444
        2448
        2452
        2456
        2460
        2464
        2468
        2472
        2476
        2480
        2484
        2488
        2492
        2496
        2500
        2504
        2508
        2512
        2516
        2520
        2524
        2528
        2532
        2536
        2540
        2544
        2548
        2552
        2556
        2560
        2564
        2568
        2572
        2576
        2580
        2584
        2588
        2592
        2596
        2600
        2604
        2608
        2612
        2616
        2620
        2624
        2628
        2632
        2636
        2640
        2644
        2648
        2652
        2656
        2660
        2664
        2668
        2672
        2676
        2680
        2684
        2688
        2692
        2696
        2700
        2704
        2708
        2712
        2716
        2720
        2724
        2728
        2732
        2736
        2740
        2744
        2748
        2752
        2756
        2760
        2764
        2768
        2772
        2776
        2780
        2784
        2788
        2792
        2796
        2800
        2804
        2808
        2812
        2816
        2820
        2824
        2828
        2832
        2836
        2840
        2844
        2848
        2852
        2856
        2860
        2864
        2868
        2872
        2876
        2880
        2884
        2888
        2892
        2896
        2900
        2904
        2908
        2912
        2916
        2920
        2924
        2928
        2932
        2936
        2940
        2944
        2948
        2952
        2956
        2960
        2964
        2968
        2972
        2976
        2980
        2984
        2988
        2992
        2996
        3000
        3004
        3008
        3012
        3016
        3020
        3024
        3028
        3032
        3036
        3040
        3044
        3048
        3052
        3056
        3060
        3064
        3068
        3072
        3076
        3080
        3084
        3088
        3092
        3096
        3100
        3104
        3108
        3112
        3116
        3120
        3124
        3128
        3132
        3136
        3140
        3144
        3148
        3152
        3156
        3160
        3164
        3168
        3172
        3176
        3180
        3184
        3188
        3192
        3196
        3200
        3204
        3208
        3212
        3216
        3220
        3224
        3228
        3232
        3236
        3240
        3244
        3248
        3252
        3256
        3260
        3264
        3268
        3272
        3276
        3280
        3284
        3288
        3292
        3296
        3300
        3304
        3308
        3312
        3316
        3320
        3324
        3328
        3332
        3336
        3340
        3344
        3348
        3352
        3356
        3360
        3364
        3368
        3372
        3376
        3380
        3384
        3388
        3392
        3396
        3400
        3404
        3408
        3412
        3416
        3420
        3424
        3428
        3432
        3436
        3440
        3444
        3448
        3452
        3456
        3460
        3464
        3468
        3472
        3476
        3480
        3484
        3488
        3492
        3496
        3500
        3504
        3508
        3512
        3516
        3520
        3524
        3528
        3532
        3536
        3540
        3544
        3548
        3552
        3556
        3560
        3564
        3568
        3572
        3576
        3580
        3584
        3588
        3592
        3596
        3600
        3604
        3608
        3612
        3616
        3620
        3624
        3628
        3632
        3636
        3640
        3644
        3648
        3652
        3656
        3660
        3664
        3668
        3672
        3676
        3680
        3684
        3688
        3692
        3696
        3700
        3704
        3708
        3712
        3716
        3720
        3724
        3728
        3732
        3736
        3740
        3744
        3748
        3752
        3756
        3760
        3764
        3768
        3772
        3776
        3780
        3784
        3788
        3792
        3796
        3800
        3804
        3808
        3812
        3816
        3820
        3824
        3828
        3832
        3836
        3840
        3844
        3848
        3852
        3856
        3860
        3864
        3868
        3872
        3876
        3880
        3884
        3888
        3892
        3896
        3900
        3904
        3908
        3912
        3916
        3920
        3924
        3928
        3932
        3936
        3940
        3944
        3948
        3952
        3956
        3960
        3964
        3968
        3972
        3976
        3980
        3984
        3988
        3992
        3996
        4000
        4004
        4008
        4012
        4016
        4020
        4024
        4028
        4032
        4036
        4040
        4044
        4048
        4052
        4056
        4060
        4064
        4068
        4072
        4076
        4080
        4084
        4088
        4092
        4096
 </DataArray>
 <DataArray  type="UInt8"  Name="types"  format="ascii">
 9
 9
 9
 9
 9
 9
 9
 9
 9
 9
 9
 9
 9
 9
 9
 9
 9
 9
 9
 9
 9
 9
 9
 9
 9
 9
 9
 9
 9
 9
 9
 9
 9
 9
 9
 9
 9
 9
 9
 9
 9
 9
 9
 9
 9
 9
 9
 9
 9
 9
 9
 9
 9
 9
 9
 9
 9
 9
 9
 9
 9
 9
 9
 9
 9
 9
 9
 9
 9
 9
 9
 9
 9
 9
 9
 9
 9
 9
 9
 9
 9
 9
 9
 9
 9
 9
 9
 9
 9
 9
 9
 9
 9
 9
 9
 9
 9
 9
 9
 9
 9
 9
 9
 9
 9
 9
 9
 9
 9
 9
 9
 9
 9
 9
 9
 9
 9
 9
 9
 9
 9
 9
 9
 9
 9
 9
 9
 9
 9
 9
 9
 9
 9
 9
 9
 9
 9
 9
 9
 9
 9
 9
 9
 9
 9
 9
 9
 9
 9
 9
 9
 9
 9
 9
 9
 9
 9
 9
 9
 9
 9
 9
 9
 9
 9
 9
 9
 9
 9
 9
 9
 9
 9
 9
 9
 9
 9
 9
 9
 9
 9
 9
 9
 9
 9
 9
 9
 9
 9
 9
 9
 9
 9
 9
 9
 9
 9
 9
 9
 9
 9
 9
 9
 9
 9
 9
 9
 9
 9
 9
 9
 9
 9
 9
 9
 9
 9
 9
 9
 9
 9
 9
 9
 9
 9
 9
 9
 9
 9
 9
 9
 9
 9
 9
 9
 9
 9
 9
 9
 9
 9
 9
 9
 9
 9
 9
 9
 9
 9
 9
 9
 9
 9
 9
 9
 9
 9
 9
 9
 9
 9
 9
 9
 9
 9
 9
 9
 9
 9
 9
 9
 9
 9
 9
 9
 9
 9
 9
 9
 9
 9
 9
 9
 9
 9
 9
 9
 9
 9
 9
 9
 9
 9
 9
 9
 9
 9
 9
 9
 9
 9
 9
 9
 9
 9
 9
 9
 9
 9
 9
 9
 9
 9
 9
 9
 9
 9
 9
 9
 9
 9
 9
 9
 9
 9
 9
 9
 9
 9
 9
 9
 9
 9
 9
 9
 9
 9
 9
 9
 9
 9
 9
 9
 9
 9
 9
 9
 9
 9
 9
 9
 9
 9
 9
 9
 9
 9
 9
 9
 9
 9
 9
 9
 9
 9
 9
 9
 9
 9
 9
 9
 9
 9
 9
 9
 9
 9
 9
 9
 9
 9
 9
 9
 9
 9
 9
 9
 9
 9
 9
 9
 9
 9
 9
 9
 9
 9
 9
 9
 9
 9
 9
 9
 9
 9
 9
 9
 9
 9
 9
 9
 9
 9
 9
 9
 9
 9
 9
 9
 9
 9
 9
 9
 9
 9
 9
 9
 9
 9
 9
 9
 9
 9
 9
 9
 9
 9
 9
 9
 9
 9
 9
 9
 9
 9
 9
 9
 9
 9
 9
 9
 9
 9
 9
 9
 9
 9
 9
 9
 9
 9
 9
 9
 9
 9
 9
 9
 9
 9
 9
 9
 9
 9
 9
 9
 9
 9
 9
 9
 9
 9
 9
 9
 9
 9
 9
 9
 9
 9
 9
 9
 9
 9
 9
 9
 9
 9
 9
 9
 9
 9
 9
 9
 9
 9
 9
 9
 9
 9
 9
 9
 9
 9
 9
 9
 9
 9
 9
 9
 9
 9
 9
 9
 9
 9
 9
 9
 9
 9
 9
 9
 9
 9
 9
 9
 9
 9
 9
 9
 9
 9
 9
 9
 9
 9
 9
 9
 9
 9
 9
 9
 9
 9
 9
 9
 9
 9
 9
 9
 9
 9
 9
 9
 9
 9
 9
 9
 9
 9
 9
 9
 9
 9
 9
 9
 9
 9
 9
 9
 9
 9
 9
 9
 9
 9
 9
 9
 9
 9
 9
 9
 9
 9
 9
 9
 9
 9
 9
 9
 9
 9
 9
 9
 9
 9
 9
 9
 9
 9
 9
 9
 9
 9
 9
 9
 9
 9
 9
 9
 9
 9
 9
 9
 9
 9
 9
 9
 9
 9
 9
 9
 9
 9
 9
 9
 9
 9
 9
 9
 9
 9
 9
 9
 9
 9
 9
 9
 9
 9
 9
 9
 9
 9
 9
 9
 9
 9
 9
 9
 9
 9
 9
 9
 9
 9
 9
 9
 9
 9
 9
 9
 9
 9
 9
 9
 9
 9
 9
 9
 9
 9
 9
 9
 9
 9
 9
 9
 9
 9
 9
 9
 9
 9
 9
 9
 9
 9
 9
 9
 9
 9
 9
 9
 9
 9
 9
 9
 9
 9
 9
 9
 9
 9
 9
 9
 9
 9
 9
 9
 9
 9
 9
 9
 9
 9
 9
 9
 9
 9
 9
 9
 9
 9
 9
 9
 9
 9
 9
 9
 9
 9
 9
 9
 9
 9
 9
 9
 9
 9
 9
 9
 9
 9
 9
 9
 9
 9
 9
 9
 9
 9
 9
 9
 9
 9
 9
 9
 9
 9
 9
 9
 9
 9
 9
 9
 9
 9
 9
 9
 9
 9
 9
 9
 9
 9
 9
 9
 9
 9
 9
 9
 9
 9
 9
 9
 9
 9
 9
 9
 9
 9
 9
 9
 9
 9
 9
 9
 9
 9
 9
 9
 9
 9
 9
 9
 9
 9
 9
 9
 9
 9
 9
 9
 9
 9
 9
 9
 9
 9
 9
 9
 9
 9
 9
 9
 9
 9
 9
 9
 9
 9
 9
 9
 9
 9
 9
 9
 9
 9
 9
 9
 9
 9
 9
 9
 9
 9
 9
 9
 9
 9
 9
 9
 9
 9
 9
 9
 9
 9
 9
 9
 9
 9
 9
 9
 9
 9
 9
 9
 9
 9
 9
 9
 9
 9
 9
 9
 9
 9
 9
 9
 9
 9
 9
 9
 9
 9
 9
 9
 9
 9
 9
 9
 9
 9
 9
 9
 9
 9
 9
 9
 9
 9
 9
 9
 9
 9
 9
 9
 9
 9
 9
 9
 9
 9
 9
 9
 9
 9
 9
 9
 9
 9
 9
 9
 9
 9
 9
 9
 9
 9
 9
 9
 9
 9
 9
 9
 9
 9
 9
 9
 9
 9
 9
 9
 9
 9
 9
 9
 9
 9
 9
 9
 9
 9
 9
 9
 9
 9
 9
 9
 9
 9
 9
 9
 9
 9
 9
 9
 9
 9
 9
 9
 9
 9
 9
 9
 9
 9
 9
 9
 9
 9
 9
 9
 9
 9
 9
 9
 9
 9
 9
 9
 9
 9
 9
 9
 9
 9
 9
 9
 9
 9
 9
 9
 9
 9
 9
 9
 9
 9
 9
 9
 9
 </DataArray>
 </Cells> 
 <PointData>
 <DataArray  type="Float64" Name="disp" NumberOfComponents="3" format="ascii">
   6.5371555587563329E-002   6.2924331056121510E-002   0.0000000000000000     
   6.8467703458007900E-002   6.8247917414781159E-002   0.0000000000000000     
   7.1442902605202169E-002   7.3770564713685663E-002   0.0000000000000000     
   7.4297153029146135E-002   7.9492272952835008E-002   0.0000000000000000     
   7.7030454729839798E-002   8.5413042132229194E-002   0.0000000000000000     
   6.0054218523968785E-002   6.1875405650591922E-002   0.0000000000000000     
   6.2990687312508536E-002   6.7281061207746740E-002   0.0000000000000000     
   6.5807281500378484E-002   7.2870896304334257E-002   0.0000000000000000     
   6.8504001087578606E-002   7.8644910940354459E-002   0.0000000000000000     
   7.1080846074108903E-002   8.4603105115807348E-002   0.0000000000000000     
   5.5009859051226732E-002   6.0958236920601538E-002   0.0000000000000000     
   5.7771965852541407E-002   6.6419493507638400E-002   0.0000000000000000     
   6.0417569676999239E-002   7.2056391979162984E-002   0.0000000000000000     
   6.2946670524600248E-002   7.7868932335175250E-002   0.0000000000000000     
   6.5359268395344408E-002   8.3857114575675226E-002   0.0000000000000000     
   5.0238477169337173E-002   6.0172824866150325E-002   0.0000000000000000     
   5.2811539078106519E-002   6.5663214314456167E-002   0.0000000000000000     
   5.5273767135064489E-002   7.1327051738171873E-002   0.0000000000000000     
   5.7625161340211069E-002   7.7164337137297395E-002   0.0000000000000000     
   5.9865721693546280E-002   8.3175070511832788E-002   0.0000000000000000     
   4.5740072878300106E-002   5.9519169487238330E-002   0.0000000000000000     
   4.8109406989203865E-002   6.5012223628200028E-002   0.0000000000000000     
   5.0375873874574192E-002   7.0682875581360896E-002   0.0000000000000000     
   5.2539473534411081E-002   7.6531125346720907E-002   0.0000000000000000     
   5.4600205968714524E-002   8.2556972924280075E-002   0.0000000000000000     
   7.7030454729839798E-002   8.5413042132229194E-002   0.0000000000000000     
   7.9665838224541458E-002   9.1511810234788701E-002   0.0000000000000000     
   8.2226334030509440E-002   9.7767515243434008E-002   0.0000000000000000     
   8.4711942147743774E-002  0.10418015715816510        0.0000000000000000     
   8.7122662576244417E-002  0.11074973597898199        0.0000000000000000     
   7.1080846074108903E-002   8.4603105115807348E-002   0.0000000000000000     
   7.3561884471689709E-002   9.0731667835118490E-002   0.0000000000000000     
   7.5971184292041291E-002   9.7016788102713386E-002   0.0000000000000000     
   7.8308745535163690E-002  0.10345846591859206        0.0000000000000000     
   8.0574568201056879E-002  0.11005670128275451        0.0000000000000000     
   6.5359268395344408E-002   8.3857114575675226E-002   0.0000000000000000     
   6.7679773083472547E-002   9.0011473017169316E-002   0.0000000000000000     
   6.9932594383225508E-002   9.6322541976163994E-002   0.0000000000000000     
   7.2117732294603235E-002  0.10279032145265925        0.0000000000000000     
   7.4235186817605783E-002  0.10941481144665509        0.0000000000000000     
   5.9865721693546280E-002   8.3175070511832788E-002   0.0000000000000000     
   6.2019504059889978E-002   8.9351225780941193E-002   0.0000000000000000     
   6.4110564304062007E-002   9.5684776863785820E-002   0.0000000000000000     
   6.6138902426062421E-002  0.10217572376036664        0.0000000000000000     
   6.8104518425891158E-002  0.10882406647068371        0.0000000000000000     
   5.4600205968714524E-002   8.2556972924280075E-002   0.0000000000000000     
   5.6581077400941968E-002   8.8750926126434121E-002   0.0000000000000000     
   5.8505094054550864E-002   9.5103492765578862E-002   0.0000000000000000     
   6.0372255929541194E-002  0.10161467284171428        0.0000000000000000     
   6.2182563025912976E-002  0.10828446635484038        0.0000000000000000     
   8.7122662576244417E-002  0.11074973597898199        0.0000000000000000     
   8.9441932151289663E-002  0.11746410968886740        0.0000000000000000     
   9.1653187708157793E-002  0.12431113627080405        0.0000000000000000     
   9.3756429246848766E-002  0.13129081572479198        0.0000000000000000     
   9.5751656767362636E-002  0.13840314805083109        0.0000000000000000     
   8.0574568201056879E-002  0.11005670128275451        0.0000000000000000     
   8.2753524970091100E-002  0.11679966701324079        0.0000000000000000     
   8.4830488522636679E-002  0.12367553592809100        0.0000000000000000     
   8.6805458858693549E-002  0.13068430802730510        0.0000000000000000     
   8.8678435978261749E-002  0.13782598331088311        0.0000000000000000     
   7.4235186817605783E-002  0.10941481144665509        0.0000000000000000     
   7.6270955232980595E-002  0.11618423530358574        0.0000000000000000     
   7.8211034821475095E-002  0.12308681636888541        0.0000000000000000     
   8.0055425583089312E-002  0.13012255464255415        0.0000000000000000     
   8.1804127517823247E-002  0.13729145012459196        0.0000000000000000     
   6.8104518425891158E-002  0.10882406647068371        0.0000000000000000     
   6.9994222939958078E-002  0.11561781455990218        0.0000000000000000     
   7.1794826604673054E-002  0.12254497759318733        0.0000000000000000     
   7.3506329420036057E-002  0.12960555557053915        0.0000000000000000     
   7.5128731386047087E-002  0.13679954849195761        0.0000000000000000     
   6.2182563025912976E-002  0.10828446635484038        0.0000000000000000     
   6.3923328091023607E-002  0.11510040478219019        0.0000000000000000     
   6.5581863872230556E-002  0.12205001960099675        0.0000000000000000     
   6.7158170369533768E-002  0.12913331081126009        0.0000000000000000     
   6.8652247582933285E-002  0.13635027841298017        0.0000000000000000     
   9.5751656767362636E-002  0.13840314805083109        0.0000000000000000     
   9.7649250266675758E-002  0.14563714607802725        0.0000000000000000     
   9.9459589741764470E-002  0.15298182263548604        0.0000000000000000     
  0.10118267519262884       0.16043717772320756        0.0000000000000000     
  0.10281850661926883       0.16800321134119178        0.0000000000000000     
   8.8678435978261749E-002  0.13782598331088311        0.0000000000000000     
   9.0459423920331045E-002  0.14508901549012548        0.0000000000000000     
   9.2158426723891129E-002  0.15246185827633274        0.0000000000000000     
   9.3775444388942003E-002  0.15994451166950477        0.0000000000000000     
   9.5310476915483722E-002  0.16753697566964165        0.0000000000000000     
   8.1804127517823247E-002  0.13729145012459196        0.0000000000000000     
   8.3466410279779246E-002  0.14458152504705774        0.0000000000000000     
   8.5051543523059631E-002  0.15198080164201039        0.0000000000000000     
   8.6559527247664442E-002  0.15948927990944997        0.0000000000000000     
   8.7990361453593638E-002  0.16710695984937649        0.0000000000000000     
   7.5128731386047087E-002  0.13679954849195761        0.0000000000000000     
   7.6670209345020335E-002  0.14411467474882392        0.0000000000000000     
   7.8138940139270044E-002  0.15153865273251912        0.0000000000000000     
   7.9534923768796090E-002  0.15907148244304323        0.0000000000000000     
   8.0858160233598611E-002  0.16671316388039628        0.0000000000000000     
   6.8652247582933285E-002  0.13635027841298017        0.0000000000000000     
   7.0070821116054352E-002  0.14368846459542409        0.0000000000000000     
   7.1420616572522272E-002  0.15113541154785887        0.0000000000000000     
   7.2701633952337030E-002  0.15869111927028451        0.0000000000000000     
   7.3913873255498641E-002  0.16635558776270104        0.0000000000000000     
  0.10281850661926883       0.16800321134119178        0.0000000000000000     
  0.10436734044489163       0.17566913964386516        0.0000000000000000     
  0.10582943309270440       0.18342417878565415        0.0000000000000000     
  0.10720478456270717       0.19126832876655878        0.0000000000000000     
  0.10849339485489992       0.19920158958657902        0.0000000000000000     
   9.5310476915483722E-002  0.16753697566964165        0.0000000000000000     
   9.6761922744270201E-002  0.17522912159578985        0.0000000000000000     
   9.8128180316055441E-002  0.18301082076699574        0.0000000000000000     
   9.9409249630839469E-002  0.19088207318325939        0.0000000000000000     
  0.10060513068862223       0.19884287884458079        0.0000000000000000     
   8.7990361453593638E-002  0.16710695984937649        0.0000000000000000     
   8.9341226713281929E-002  0.17482416481458934        0.0000000000000000     
   9.0609303599163998E-002  0.18263121815788802        0.0000000000000000     
   9.1794592111239845E-002  0.19052811987927254        0.0000000000000000     
   9.2897092249509441E-002  0.19851486997874290        0.0000000000000000     
   8.0858160233598611E-002  0.16671316388039628        0.0000000000000000     
   8.2105252351926838E-002  0.17445426930026375        0.0000000000000000     
   8.3272802942030072E-002  0.18228537095833103        0.0000000000000000     
   8.4360812003908311E-002  0.19020646885459824        0.0000000000000000     
   8.5369279537561571E-002  0.19821756298906529        0.0000000000000000     
   7.3913873255498641E-002  0.16635558776270104        0.0000000000000000     
   7.5053999660204901E-002  0.17411943505281294        0.0000000000000000     
   7.6118678344653648E-002  0.18197327916832473        0.0000000000000000     
   7.7107909308844896E-002  0.18991712010923642        0.0000000000000000     
   7.8021692552778618E-002  0.19795095787554795        0.0000000000000000     
  0.10849339485489992       0.19920158958657902        0.0000000000000000     
  0.10970107704372084       0.20722039227219119        0.0000000000000000     
  0.11083364420360811       0.21532116784987154        0.0000000000000000     
  0.11189109633456173       0.22350391631962016        0.0000000000000000     
  0.11287343343658171       0.23176863768143696        0.0000000000000000     
  0.10060513068862223       0.19884287884458079        0.0000000000000000     
  0.10172192439317879       0.20688733561555173        0.0000000000000000     
  0.10276573164828412       0.21500954136076397        0.0000000000000000     
  0.10373655245393823       0.22320949608021748        0.0000000000000000     
  0.10463438681014116       0.23148719977391230        0.0000000000000000     
   9.2897092249509441E-002  0.19851486997874290        0.0000000000000000     
   9.3922227584069262E-002  0.20658415138541456        0.0000000000000000     
   9.4875421685015726E-002  0.21472864702840291        0.0000000000000000     
   9.5756674552348792E-002  0.22294835690770803        0.0000000000000000     
   9.6565986186068500E-002  0.23124328102332989        0.0000000000000000     
   8.5369279537561571E-002  0.19821756298906529        0.0000000000000000     
   8.6301986616392282E-002  0.20631083958177956        0.0000000000000000     
   8.7162714313802903E-002  0.21447848485278845        0.0000000000000000     
   8.7951462629793392E-002  0.22272049880209185        0.0000000000000000     
   8.8668231564363806E-002  0.23103688142968984        0.0000000000000000     
   7.8021692552778618E-002  0.19795095787554795        0.0000000000000000     
   7.8861201490147859E-002  0.20606740020464684        0.0000000000000000     
   7.9627609534645663E-002  0.21425905483392046        0.0000000000000000     
   8.0320916686272059E-002  0.22252592176336888        0.0000000000000000     
   8.0941122945027019E-002  0.23086800099299204        0.0000000000000000     
  0.11287343343658171       0.23176863768143696        0.0000000000000000     
  0.11380861409651484       0.24013174840208446        0.0000000000000000     
  0.11472459690120788       0.24860966494832504        0.0000000000000000     
  0.11562138185066086       0.25720238732015871        0.0000000000000000     
  0.11649896894487378       0.26590991551758553        0.0000000000000000     
  0.10463438681014116       0.23148719977391230        0.0000000000000000     
  0.10546410798504603       0.23986600184308146        0.0000000000000000     
  0.10623058924680608       0.24836925168895804        0.0000000000000000     
  0.10693383059542125       0.25699694931154210        0.0000000000000000     
  0.10757383203089160       0.26574909471083352        0.0000000000000000     
   9.6565986186068500E-002  0.23124328102332989        0.0000000000000000     
   9.7294094355277624E-002  0.23963979106035238        0.0000000000000000     
   9.7931736829078922E-002  0.24816425870385936        0.0000000000000000     
   9.8478913607472351E-002  0.25681668395385082        0.0000000000000000     
   9.8935624690457968E-002  0.26559706681032680        0.0000000000000000     
   8.8668231564363806E-002  0.23103688142968984        0.0000000000000000     
   8.9298573207209644E-002  0.23945311605389721        0.0000000000000000     
   8.9828039648026436E-002  0.24799468599302893        0.0000000000000000     
   9.0256630886814210E-002  0.25666159124708499        0.0000000000000000     
   9.0584346923572936E-002  0.26545383181606536        0.0000000000000000     
   8.0941122945027019E-002  0.23086800099299204        0.0000000000000000     
   8.1477544540842037E-002  0.23930597682371602        0.0000000000000000     
   8.1919497703648619E-002  0.24786053355646687        0.0000000000000000     
   8.2266982433446767E-002  0.25653167119124459        0.0000000000000000     
   8.2519998730236466E-002  0.26531938972804925        0.0000000000000000     
  0.11649896894487378       0.26590991551758553        0.0000000000000000     
  0.11729782359982915       0.27489687378353223        0.0000000000000000     
  0.11795841123150946       0.28432788636092560        0.0000000000000000     
  0.11848073183991477       0.29420295324976575        0.0000000000000000     
  0.11886478542504503       0.30452207445005264        0.0000000000000000     
  0.10757383203089160       0.26574909471083352        0.0000000000000000     
  0.10813168007747627       0.27475784875785936        0.0000000000000000     
  0.10858846125943443       0.28415537232364668        0.0000000000000000     
  0.10894417557676614       0.29394166540819544        0.0000000000000000     
  0.10919882302947136       0.30411672801150558        0.0000000000000000     
   9.8935624690457968E-002  0.26559706681032680        0.0000000000000000     
   9.9312915525927678E-002  0.27460370213639362        0.0000000000000000     
   9.9621831561773413E-002  0.28393488479515788        0.0000000000000000     
   9.9862372797995133E-002  0.29359061478661946        0.0000000000000000     
  0.10003453923459289       0.30357089211077837        0.0000000000000000     
   9.0584346923572936E-002  0.26545383181606536        0.0000000000000000     
   9.0841529945183394E-002  0.27443443391913508        0.0000000000000000     
   9.1058522138526346E-002  0.28366642377545925        0.0000000000000000     
   9.1235323503601765E-002  0.29314980138503788        0.0000000000000000     
   9.1371934040409677E-002  0.30288456674787084        0.0000000000000000     
   8.2519998730236466E-002  0.26531938972804925        0.0000000000000000     
   8.2717523335243417E-002  0.27425004410608367        0.0000000000000000     
   8.2898532989693255E-002  0.28334998926455079        0.0000000000000000     
   8.3063027693586006E-002  0.29261922520345063        0.0000000000000000     
   8.3211007446921670E-002  0.30205775192278311        0.0000000000000000     
   4.5740072878300106E-002   5.9519169487238330E-002   0.0000000000000000     
   4.8109406989203865E-002   6.5012223628200028E-002   0.0000000000000000     
   5.0375873874574192E-002   7.0682875581360896E-002   0.0000000000000000     
   5.2539473534411081E-002   7.6531125346720907E-002   0.0000000000000000     
   5.4600205968714524E-002   8.2556972924280075E-002   0.0000000000000000     
   4.1419649140745696E-002   5.8931835185715133E-002   0.0000000000000000     
   4.3581928009847434E-002   6.4421677027759028E-002   0.0000000000000000     
   4.5650173044147729E-002   7.0094580640443632E-002   0.0000000000000000     
   4.7624384243646546E-002   7.5950546023768953E-002   0.0000000000000000     
   4.9504561608343933E-002   8.1989573177734934E-002   0.0000000000000000     
   3.7182208919304099E-002   5.8345386363430403E-002   0.0000000000000000     
   3.9145460564051229E-002   6.3846730092022186E-002   0.0000000000000000     
   4.1022947792404479E-002   6.9532884047133606E-002   0.0000000000000000     
   4.2814670604363836E-002   7.5403848228764656E-002   0.0000000000000000     
   4.4520628999929306E-002   8.1459622636915335E-002   0.0000000000000000     
   3.3027752213975338E-002   5.7759823020384099E-002   0.0000000000000000     
   3.4800004651815236E-002   6.3287382820989488E-002   0.0000000000000000     
   3.6494198119344415E-002   6.8997785801430789E-002   0.0000000000000000     
   3.8110332616562881E-002   7.4891031961708057E-002   0.0000000000000000     
   3.9648408143470641E-002   8.0967121301821238E-002   0.0000000000000000     
   2.8956279024759390E-002   5.7175145156576235E-002   0.0000000000000000     
   3.0545560273139448E-002   6.2743635214660962E-002   0.0000000000000000     
   3.2063924024967563E-002   6.8489285903335265E-002   0.0000000000000000     
   3.3511370280243730E-002   7.4412097222599144E-002   0.0000000000000000     
   3.4887899038967940E-002   8.0512069172452655E-002   0.0000000000000000     
   5.4600205968714524E-002   8.2556972924280075E-002   0.0000000000000000     
   5.6581077400941968E-002   8.8750926126434121E-002   0.0000000000000000     
   5.8505094054550864E-002   9.5103492765578862E-002   0.0000000000000000     
   6.0372255929541194E-002  0.10161467284171428        0.0000000000000000     
   6.2182563025912976E-002  0.10828446635484038        0.0000000000000000     
   4.9504561608343933E-002   8.1989573177734934E-002   0.0000000000000000     
   5.1312222027225247E-002   8.8200005941551529E-002   0.0000000000000000     
   5.3068882389275894E-002   9.4570188154428511E-002   0.0000000000000000     
   5.4774542694495887E-002  0.10110011981636591        0.0000000000000000     
   5.6429202942885212E-002  0.10778980092736370        0.0000000000000000     
   4.4520628999929306E-002   8.1459622636915335E-002   0.0000000000000000     
   4.6160666859336487E-002   8.7687897114196778E-002   0.0000000000000000     
   4.7754628062820964E-002   9.4076361503220074E-002   0.0000000000000000     
   4.9302512610382744E-002  0.10062501580398528        0.0000000000000000     
   5.0804320502021813E-002  0.10733386001649231        0.0000000000000000     
   3.9648408143470641E-002   8.0967121301821238E-002   0.0000000000000000     
   4.1126411897275700E-002   8.7214599644369908E-002   0.0000000000000000     
   4.2562331075186075E-002   9.3622012811953606E-002   0.0000000000000000     
   4.3956165677201779E-002  0.10018936080457237        0.0000000000000000     
   4.5307915703322786E-002  0.10691664362222619        0.0000000000000000     
   3.4887899038967940E-002   8.0512069172452655E-002   0.0000000000000000     
   3.6209457141042879E-002   8.6780113532070907E-002   0.0000000000000000     
   3.7491991426371218E-002   9.3207142080629093E-002   0.0000000000000000     
   3.8735501894952964E-002   9.9793154818127255E-002   0.0000000000000000     
   3.9939988546788124E-002  0.10653815174456534        0.0000000000000000     
   6.2182563025912976E-002  0.10828446635484038        0.0000000000000000     
   6.3923328091023607E-002  0.11510040478219019        0.0000000000000000     
   6.5581863872230556E-002  0.12205001960099675        0.0000000000000000     
   6.7158170369533768E-002  0.12913331081126009        0.0000000000000000     
   6.8652247582933285E-002  0.13635027841298017        0.0000000000000000     
   5.6429202942885212E-002  0.10778980092736370        0.0000000000000000     
   5.8020679604989411E-002  0.11462633281714324        0.0000000000000000     
   5.9536789151354033E-002  0.12159681681542575        0.0000000000000000     
   6.0977531581979064E-002  0.12870125292221127        0.0000000000000000     
   6.2342906896864510E-002  0.13593964113749982        0.0000000000000000     
   5.0804320502021813E-002  0.10733386001649231        0.0000000000000000     
   5.2248686400667703E-002  0.11418992551145485        0.0000000000000000     
   5.3624244969249946E-002  0.12118024365958646        0.0000000000000000     
   5.4930996207768527E-002  0.12830481446088710        0.0000000000000000     
   5.6168940116223462E-002  0.13556363791535686        0.0000000000000000     
   4.5307915703322786E-002  0.10691664362222619        0.0000000000000000     
   4.6607348478058502E-002  0.11379118286512502        0.0000000000000000     
   4.7844231325918300E-002  0.12080030013347880        0.0000000000000000     
   4.9018564246902173E-002  0.12794399542728760        0.0000000000000000     
   5.0130347241010141E-002  0.13522226874655133        0.0000000000000000     
   3.9939988546788124E-002  0.10653815174456534        0.0000000000000000     
   4.1096665837161796E-002  0.11343010487815375        0.0000000000000000     
   4.2196748221359083E-002  0.12045698623710285        0.0000000000000000     
   4.3240235699380000E-002  0.12761879582141264        0.0000000000000000     
   4.4227128271224540E-002  0.13491553363108316        0.0000000000000000     
   6.8652247582933285E-002  0.13635027841298017        0.0000000000000000     
   7.0070821116054352E-002  0.14368846459542409        0.0000000000000000     
   7.1420616572522272E-002  0.15113541154785887        0.0000000000000000     
   7.2701633952337030E-002  0.15869111927028451        0.0000000000000000     
   7.3913873255498641E-002  0.16635558776270104        0.0000000000000000     
   6.2342906896864510E-002  0.13593964113749982        0.0000000000000000     
   6.3638198205319629E-002  0.14329944078602491        0.0000000000000000     
   6.4868688616653666E-002  0.15076811119252009        0.0000000000000000     
   6.6034378130866628E-002  0.15834565235698539        0.0000000000000000     
   6.7135266747958500E-002  0.16603206427942085        0.0000000000000000     
   5.6168940116223462E-002  0.13556363791535686        0.0000000000000000     
   5.7342293225254505E-002  0.14294414951979312        0.0000000000000000     
   5.8455272065501454E-002  0.15043378477099340        0.0000000000000000     
   5.9507876636964309E-002  0.15803254366895758        0.0000000000000000     
   6.0500106939643049E-002  0.16574042621368579        0.0000000000000000     
   5.0130347241010141E-002  0.13522226874655133        0.0000000000000000     
   5.1183106175859028E-002  0.14262259079672876        0.0000000000000000     
   5.2180366919065670E-002  0.15013243228327872        0.0000000000000000     
   5.3122129470630081E-002  0.15775179320620106        0.0000000000000000     
   5.4008393830552254E-002  0.16548067356549587        0.0000000000000000     
   4.4227128271224540E-002  0.13491553363108316        0.0000000000000000     
   4.5160637057133163E-002  0.14233476461683181        0.0000000000000000     
   4.6043973177346285E-002  0.14986405372937600        0.0000000000000000     
   4.6877136631863943E-002  0.15750340096871576        0.0000000000000000     
   4.7660127420686108E-002  0.16525280633485109        0.0000000000000000     
   7.3913873255498641E-002  0.16635558776270104        0.0000000000000000     
   7.5053999660204901E-002  0.17411943505281294        0.0000000000000000     
   7.6118678344653648E-002  0.18197327916832473        0.0000000000000000     
   7.7107909308844896E-002  0.18991712010923642        0.0000000000000000     
   7.8021692552778618E-002  0.19795095787554795        0.0000000000000000     
   6.7135266747958500E-002  0.16603206427942085        0.0000000000000000     
   6.8168318568799693E-002  0.17381785414334358        0.0000000000000000     
   6.9130497694260509E-002  0.18169352913227071        0.0000000000000000     
   7.0021804124340989E-002  0.18965908924620239        0.0000000000000000     
   7.0842237859041132E-002  0.19771453448513848        0.0000000000000000     
   6.0500106939643049E-002  0.16574042621368579        0.0000000000000000     
   6.1429059008394730E-002  0.17354771864296206        0.0000000000000000     
   6.2291828878076404E-002  0.18144470719457062        0.0000000000000000     
   6.3088416548688062E-002  0.18943139186851132        0.0000000000000000     
   6.3818822020229718E-002  0.19750777266478434        0.0000000000000000     
   5.4008393830552254E-002  0.16548067356549587        0.0000000000000000     
   5.4836220978990047E-002  0.17330902855166855        0.0000000000000000     
   5.5602671896101331E-002  0.18122681335522431        0.0000000000000000     
   5.6307746581886094E-002  0.18923402797616340        0.0000000000000000     
   5.6951445036344368E-002  0.19733067241448560        0.0000000000000000     
   4.7660127420686108E-002  0.16525280633485109        0.0000000000000000     
   4.8389804480585621E-002  0.17310178386946287        0.0000000000000000     
   4.9063026748335278E-002  0.18103984761423197        0.0000000000000000     
   4.9679794223935099E-002  0.18906699756915840        0.0000000000000000     
   5.0240106907385063E-002  0.19718323373424218        0.0000000000000000     
   7.8021692552778618E-002  0.19795095787554795        0.0000000000000000     
   7.8861201490147859E-002  0.20606740020464684        0.0000000000000000     
   7.9627609534645663E-002  0.21425905483392046        0.0000000000000000     
   8.0320916686272059E-002  0.22252592176336888        0.0000000000000000     
   8.0941122945027019E-002  0.23086800099299204        0.0000000000000000     
   7.0842237859041132E-002  0.19771453448513848        0.0000000000000000     
   7.1590457413020031E-002  0.20585304595793513        0.0000000000000000     
   7.2265121300936749E-002  0.21406780477344850        0.0000000000000000     
   7.2866229522791356E-002  0.22235881093167861        0.0000000000000000     
   7.3393782078583783E-002  0.23072606443262533        0.0000000000000000     
   6.3818822020229718E-002  0.19750777266478434        0.0000000000000000     
   6.4480339592692823E-002  0.20566698954556331        0.0000000000000000     
   6.5070263566068862E-002  0.21390218247302201        0.0000000000000000     
   6.5588593940357820E-002  0.22221335144716040        0.0000000000000000     
   6.6035330715559698E-002  0.23060049646797848        0.0000000000000000     
   5.6951445036344368E-002  0.19733067241448560        0.0000000000000000     
   5.7530848029166269E-002  0.20550923096753132        0.0000000000000000     
   5.8043036330041965E-002  0.21376218793264087        0.0000000000000000     
   5.8488009938971484E-002  0.22208954330981429        0.0000000000000000     
   5.8865768855954785E-002  0.23049129709905153        0.0000000000000000     
   5.0240106907385063E-002  0.19718323373424218        0.0000000000000000     
   5.0741982722440349E-002  0.20537977022383916        0.0000000000000000     
   5.1183439592856109E-002  0.21364782115230516        0.0000000000000000     
   5.1564477518632336E-002  0.22198738651964026        0.0000000000000000     
   5.1885096499769037E-002  0.23039846632584440        0.0000000000000000     
   8.0941122945027019E-002  0.23086800099299204        0.0000000000000000     
   8.1477544540842037E-002  0.23930597682371602        0.0000000000000000     
   8.1919497703648619E-002  0.24786053355646687        0.0000000000000000     
   8.2266982433446767E-002  0.25653167119124459        0.0000000000000000     
   8.2519998730236466E-002  0.26531938972804925        0.0000000000000000     
   7.3393782078583783E-002  0.23072606443262533        0.0000000000000000     
   7.3844440567292752E-002  0.23918337355438321        0.0000000000000000     
   7.4214866587896985E-002  0.24774454657504663        0.0000000000000000     
   7.4505060140396456E-002  0.25640958349461557        0.0000000000000000     
   7.4715021224791178E-002  0.26517848431309010        0.0000000000000000     
   6.6035330715559698E-002  0.23060049646797848        0.0000000000000000     
   6.6412693497679698E-002  0.23907030643047331        0.0000000000000000     
   6.6722901892723022E-002  0.24762947022964174        0.0000000000000000     
   6.6965955900689655E-002  0.25627798786548384        0.0000000000000000     
   6.7141855521579627E-002  0.26501585933799959        0.0000000000000000     
   5.8865768855954785E-002  0.23049129709905153        0.0000000000000000     
   5.9182303332002882E-002  0.23896677545198627        0.0000000000000000     
   5.9443603618126742E-002  0.24751530452025222        0.0000000000000000     
   5.9649669714326392E-002  0.25613688430384940        0.0000000000000000     
   5.9800501620601805E-002  0.26483151480277772        0.0000000000000000     
   5.1885096499769037E-002  0.23039846632584440        0.0000000000000000     
   5.2153270070262284E-002  0.23887278061892217        0.0000000000000000     
   5.2376971764108146E-002  0.24740204944687810        0.0000000000000000     
   5.2556201581306625E-002  0.25598627280971220        0.0000000000000000     
   5.2690959521857733E-002  0.26462545070742449        0.0000000000000000     
   8.2519998730236466E-002  0.26531938972804925        0.0000000000000000     
   8.2717523335243417E-002  0.27425004410608367        0.0000000000000000     
   8.2898532989693255E-002  0.28334998926455079        0.0000000000000000     
   8.3063027693586006E-002  0.29261922520345063        0.0000000000000000     
   8.3211007446921670E-002  0.30205775192278311        0.0000000000000000     
   7.4715021224791178E-002  0.26517848431309010        0.0000000000000000     
   7.4885697231542064E-002  0.27404484859389683        0.0000000000000000     
   7.5058035551110069E-002  0.28300227590046217        0.0000000000000000     
   7.5232036183495221E-002  0.29205076623278620        0.0000000000000000     
   7.5407699128697436E-002  0.30119031959086906        0.0000000000000000     
   6.7141855521579627E-002  0.26501585933799959        0.0000000000000000     
   6.7290853169513692E-002  0.27381316327923177        0.0000000000000000     
   6.7453201258612705E-002  0.28263997832122290        0.0000000000000000     
   6.7628899788876651E-002  0.29149630446397318        0.0000000000000000     
   6.7817948760305516E-002  0.30038214170748256        0.0000000000000000     
   5.9800501620601805E-002  0.26483151480277772        0.0000000000000000     
   5.9932991149158288E-002  0.27355498816208856        0.0000000000000000     
   6.0084030112201134E-002  0.28226309652683312        0.0000000000000000     
   6.0253618509730357E-002  0.29095583989701140        0.0000000000000000     
   6.0441756341745922E-002  0.29963321827262357        0.0000000000000000     
   5.2690959521857733E-002  0.26462545070742449        0.0000000000000000     
   5.2812111170475851E-002  0.27327032324246725        0.0000000000000000     
   5.2950522111875384E-002  0.28187163051729275        0.0000000000000000     
   5.3106192346056305E-002  0.29042937253190104        0.0000000000000000     
   5.3279121873018642E-002  0.29894354928629208        0.0000000000000000     
   2.8956279024759390E-002   5.7175145156576235E-002   0.0000000000000000     
   3.0545560273139448E-002   6.2743635214660962E-002   0.0000000000000000     
   3.2063924024967563E-002   6.8489285903335265E-002   0.0000000000000000     
   3.3511370280243730E-002   7.4412097222599144E-002   0.0000000000000000     
   3.4887899038967940E-002   8.0512069172452655E-002   0.0000000000000000     
   2.4997006066833805E-002   5.6648479958198883E-002   0.0000000000000000     
   2.6401966920183761E-002   6.2254259008409821E-002   0.0000000000000000     
   2.7743694538938483E-002   6.8032328484252766E-002   0.0000000000000000     
   2.9022188923097981E-002   7.3982688385727663E-002   0.0000000000000000     
   3.0237450072662250E-002   8.0105338712834567E-002   0.0000000000000000     
   2.1179150055376121E-002   5.6236954611444082E-002   0.0000000000000000     
   2.2389064085108035E-002   6.1858025937609362E-002   0.0000000000000000     
   2.3545078690921765E-002   6.7651857675589094E-002   0.0000000000000000     
   2.4647193872817292E-002   7.3618449825383334E-002   0.0000000000000000     
   2.5695409630794641E-002   7.9757802386991969E-002   0.0000000000000000     
   1.7502710990386337E-002   5.5940569116311831E-002   0.0000000000000000     
   1.8506851767912280E-002   6.1554936002259551E-002   0.0000000000000000     
   1.9468076480917387E-002   6.7347873477344333E-002   0.0000000000000000     
   2.0386385129401659E-002   7.3319381541566100E-002   0.0000000000000000     
   2.1261777713365102E-002   7.9469460194924929E-002   0.0000000000000000     
   1.3967688871864455E-002   5.5759323472802151E-002   0.0000000000000000     
   1.4755329968596485E-002   6.1344989202360395E-002   0.0000000000000000     
   1.5512687908925363E-002   6.7120375889518358E-002   0.0000000000000000     
   1.6239762692851080E-002   7.3085483534276019E-002   0.0000000000000000     
   1.6936554320373637E-002   7.9240312136633378E-002   0.0000000000000000     
   3.4887899038967940E-002   8.0512069172452655E-002   0.0000000000000000     
   3.6209457141042879E-002   8.6780113532070907E-002   0.0000000000000000     
   3.7491991426371218E-002   9.3207142080629093E-002   0.0000000000000000     
   3.8735501894952964E-002   9.9793154818127255E-002   0.0000000000000000     
   3.9939988546788124E-002  0.10653815174456534        0.0000000000000000     
   3.0237450072662250E-002   8.0105338712834567E-002   0.0000000000000000     
   3.1403095463726098E-002   8.6393039198182003E-002   0.0000000000000000     
   3.2532742572384352E-002   9.2838549574378565E-002   0.0000000000000000     
   3.3626391398637004E-002   9.9441869841424294E-002   0.0000000000000000     
   3.4684041942484048E-002  0.10620299999931912        0.0000000000000000     
   2.5695409630794641E-002   7.9757802386991969E-002   0.0000000000000000     
   2.6700619738413461E-002   8.6061977063585454E-002   0.0000000000000000     
   2.7673717969233420E-002   9.2523035558334132E-002   0.0000000000000000     
   2.8614704323254529E-002   9.9140977871237934E-002   0.0000000000000000     
   2.9523578800476780E-002  0.10591580400229691        0.0000000000000000     
   2.1261777713365102E-002   7.9469460194924929E-002   0.0000000000000000     
   2.2102029965104946E-002   8.5786927128281287E-002   0.0000000000000000     
   2.2914917616918429E-002   9.2260600032495713E-002   0.0000000000000000     
   2.3700440668805545E-002   9.8890478907568205E-002   0.0000000000000000     
   2.4458599120766311E-002  0.10567656375349872        0.0000000000000000     
   1.6936554320373637E-002   7.9240312136633378E-002   0.0000000000000000     
   1.7607326143800561E-002   8.5567889392269475E-002   0.0000000000000000     
   1.8256341515439367E-002   9.2051242996863375E-002   0.0000000000000000     
   1.8883600435290065E-002   9.8690372950415065E-002   0.0000000000000000     
   1.9489102903352647E-002  0.10548527925292456        0.0000000000000000     
   3.9939988546788124E-002  0.10653815174456534        0.0000000000000000     
   4.1096665837161796E-002  0.11343010487815375        0.0000000000000000     
   4.2196748221359083E-002  0.12045698623710285        0.0000000000000000     
   4.3240235699380000E-002  0.12761879582141264        0.0000000000000000     
   4.4227128271224540E-002  0.13491553363108316        0.0000000000000000     
   3.4684041942484048E-002  0.10620299999931912        0.0000000000000000     
   3.5698406849955774E-002  0.11311068747769538        0.0000000000000000     
   3.6662198767082453E-002  0.12015367970618540        0.0000000000000000     
   3.7575417693864084E-002  0.12733197668478910        0.0000000000000000     
   3.8438063630300674E-002  0.13464557841350658        0.0000000000000000     
   2.9523578800476780E-002  0.10591580400229691        0.0000000000000000     
   3.0394339888418630E-002  0.11283692659090426        0.0000000000000000     
   3.1220986074598542E-002  0.11989375827645316        0.0000000000000000     
   3.2003517359016513E-002  0.12708629905894361        0.0000000000000000     
   3.2741933741672537E-002  0.13441454893837562        0.0000000000000000     
   2.4458599120766311E-002  0.10567656375349872        0.0000000000000000     
   2.5184464952550362E-002  0.11260882221778040        0.0000000000000000     
   2.5873110143907349E-002  0.11967722194790621        0.0000000000000000     
   2.6524534694837270E-002  0.12688176294387621        0.0000000000000000     
   2.7138738605340124E-002  0.13422244520569040        0.0000000000000000     
   1.9489102903352647E-002  0.10548527925292456        0.0000000000000000     
   2.0068782042350967E-002  0.11242637435832374        0.0000000000000000     
   2.0618570975008875E-002  0.11950407072054452        0.0000000000000000     
   2.1138469701326369E-002  0.12671836833958688        0.0000000000000000     
   2.1628478221303447E-002  0.13406926721545082        0.0000000000000000     
   4.4227128271224540E-002  0.13491553363108316        0.0000000000000000     
   4.5160637057133163E-002  0.14233476461683181        0.0000000000000000     
   4.6043973177346285E-002  0.14986405372937600        0.0000000000000000     
   4.6877136631863943E-002  0.15750340096871576        0.0000000000000000     
   4.7660127420686108E-002  0.16525280633485109        0.0000000000000000     
   3.8438063630300674E-002  0.13464557841350658        0.0000000000000000     
   3.9253164381303829E-002  0.14208213322864130        0.0000000000000000     
   4.0023747751785160E-002  0.14962928946649681        0.0000000000000000     
   4.0749813741744662E-002  0.15728704712707317        0.0000000000000000     
   4.1431362351182346E-002  0.16505540621037032        0.0000000000000000     
   3.2741933741672537E-002  0.13441454893837562        0.0000000000000000     
   3.3438966660597959E-002  0.14186615888069629        0.0000000000000000     
   3.4097347553824119E-002  0.14942877985185260        0.0000000000000000     
   3.4717076421351023E-002  0.15710241185184470        0.0000000000000000     
   3.5298153263178644E-002  0.16488705488067243        0.0000000000000000     
   2.7138738605340124E-002  0.13422244520569040        0.0000000000000000     
   2.7718043895015549E-002  0.14168684157299677        0.0000000000000000     
   2.8264772583463185E-002  0.14926252488544339        0.0000000000000000     
   2.8778924670683007E-002  0.15694949514303028        0.0000000000000000     
   2.9260500156675036E-002  0.16474775234575736        0.0000000000000000     
   2.1628478221303447E-002  0.13406926721545082        0.0000000000000000     
   2.2090396084556603E-002  0.14154418130554280        0.0000000000000000     
   2.2526022840702337E-002  0.14913052456726919        0.0000000000000000     
   2.2935358489740633E-002  0.15682829700062997        0.0000000000000000     
   2.3318403031671500E-002  0.16463749860562518        0.0000000000000000     
   4.7660127420686108E-002  0.16525280633485109        0.0000000000000000     
   4.8389804480585621E-002  0.17310178386946287        0.0000000000000000     
   4.9063026748335278E-002  0.18103984761423197        0.0000000000000000     
   4.9679794223935099E-002  0.18906699756915840        0.0000000000000000     
   5.0240106907385063E-002  0.19718323373424218        0.0000000000000000     
   4.1431362351182346E-002  0.16505540621037032        0.0000000000000000     
   4.2065090617424694E-002  0.17292342386890994        0.0000000000000000     
   4.2647695577798232E-002  0.18088015725521370        0.0000000000000000     
   4.3179177232302947E-002  0.18892560636928157        0.0000000000000000     
   4.3659535580938852E-002  0.19705977121111357        0.0000000000000000     
   3.5298153263178644E-002  0.16488705488067243        0.0000000000000000     
   3.5837360493750525E-002  0.17277138782257448        0.0000000000000000     
   3.6331480527510167E-002  0.18074408956178967        0.0000000000000000     
   3.6780513364457562E-002  0.18880516009831785        0.0000000000000000     
   3.7184459004592718E-002  0.19695459943215915        0.0000000000000000     
   2.9260500156675036E-002  0.16474775234575736        0.0000000000000000     
   2.9706614109563115E-002  0.17264567573045664        0.0000000000000000     
   3.0114381597471079E-002  0.18063164453395997        0.0000000000000000     
   3.0483802620398934E-002  0.18870565875626741        0.0000000000000000     
   3.0814877178346682E-002  0.19686771839737885        0.0000000000000000     
   2.3318403031671500E-002  0.16463749860562518        0.0000000000000000     
   2.3672851464862445E-002  0.17254628759255625        0.0000000000000000     
   2.3996398787680964E-002  0.18054282217172452        0.0000000000000000     
   2.4289045000127064E-002  0.18862710234313004        0.0000000000000000     
   2.4550790102200737E-002  0.19679912810677280        0.0000000000000000     
   5.0240106907385063E-002  0.19718323373424218        0.0000000000000000     
   5.0741982722440349E-002  0.20537977022383916        0.0000000000000000     
   5.1183439592856109E-002  0.21364782115230516        0.0000000000000000     
   5.1564477518632336E-002  0.22198738651964026        0.0000000000000000     
   5.1885096499769037E-002  0.23039846632584440        0.0000000000000000     
   4.3659535580938852E-002  0.19705977121111357        0.0000000000000000     
   4.4088104318973378E-002  0.20527228500436392        0.0000000000000000     
   4.4464217141673971E-002  0.21355278097268698        0.0000000000000000     
   4.4787874049040652E-002  0.22190125911608261        0.0000000000000000     
   4.5059075041073399E-002  0.23031771943455093        0.0000000000000000     
   3.7184459004592718E-002  0.19695459943215915        0.0000000000000000     
   3.7543573465223627E-002  0.20518045299898283        0.0000000000000000     
   3.7858112763658289E-002  0.21347076623445835        0.0000000000000000     
   3.8128076899896682E-002  0.22182553913858574        0.0000000000000000     
   3.8353465873938813E-002  0.23024477171136495        0.0000000000000000     
   3.0814877178346682E-002  0.19686771839737885        0.0000000000000000     
   3.1108390161191116E-002  0.20510427420769570        0.0000000000000000     
   3.1365126458809033E-002  0.21340177693761928        0.0000000000000000     
   3.1585086071200433E-002  0.22176022658714950        0.0000000000000000     
   3.1768268998365309E-002  0.23017962315628640        0.0000000000000000     
   2.4550790102200737E-002  0.19679912810677280        0.0000000000000000     
   2.4782554406875840E-002  0.20504374863050273        0.0000000000000000     
   2.4985258227126231E-002  0.21334581308216977        0.0000000000000000     
   2.5158901562951901E-002  0.22170532146177399        0.0000000000000000     
   2.5303484414352862E-002  0.23012227376931535        0.0000000000000000     
   5.1885096499769037E-002  0.23039846632584440        0.0000000000000000     
   5.2153270070262284E-002  0.23887278061892217        0.0000000000000000     
   5.2376971764108146E-002  0.24740204944687810        0.0000000000000000     
   5.2556201581306625E-002  0.25598627280971220        0.0000000000000000     
   5.2690959521857733E-002  0.26462545070742449        0.0000000000000000     
   4.5059075041073399E-002  0.23031771943455093        0.0000000000000000     
   4.5286501522597646E-002  0.23878688476210252        0.0000000000000000     
   4.5478834898438812E-002  0.24729347793274797        0.0000000000000000     
   4.5636075168596912E-002  0.25583749894648744        0.0000000000000000     
   4.5758222333071932E-002  0.26441894780332065        0.0000000000000000     
   3.8353465873938813E-002  0.23024477171136495        0.0000000000000000     
   3.8542905499148711E-002  0.23870765071234892        0.0000000000000000     
   3.8705021588890352E-002  0.24719336290109059        0.0000000000000000     
   3.8839814143163745E-002  0.25570190827758987        0.0000000000000000     
   3.8947283161968896E-002  0.26423328684184699        0.0000000000000000     
   3.1768268998365309E-002  0.23017962315628640        0.0000000000000000     
   3.1922481999915479E-002  0.23863507846966137        0.0000000000000000     
   3.2055531835462760E-002  0.24710170435190590        0.0000000000000000     
   3.2167418505007143E-002  0.25557950080301983        0.0000000000000000     
   3.2258142008548631E-002  0.26406846782300342        0.0000000000000000     
   2.5303484414352862E-002  0.23012227376931535        0.0000000000000000     
   2.5425231024897951E-002  0.23856916803403994        0.0000000000000000     
   2.5530365638156031E-002  0.24701850228519395        0.0000000000000000     
   2.5618888254127087E-002  0.25547027652277732        0.0000000000000000     
   2.5690798872811133E-002  0.26392449074678997        0.0000000000000000     
   5.2690959521857733E-002  0.26462545070742449        0.0000000000000000     
   5.2812111170475851E-002  0.27327032324246725        0.0000000000000000     
   5.2950522111875384E-002  0.28187163051729275        0.0000000000000000     
   5.3106192346056305E-002  0.29042937253190104        0.0000000000000000     
   5.3279121873018642E-002  0.29894354928629208        0.0000000000000000     
   4.5758222333071932E-002  0.26441894780332065        0.0000000000000000     
   4.5869457019625401E-002  0.27298787078907216        0.0000000000000000     
   4.5993959856018868E-002  0.28149431418956639        0.0000000000000000     
   4.6131730842252326E-002  0.28993827800480315        0.0000000000000000     
   4.6282769978325783E-002  0.29831976223478263        0.0000000000000000     
   3.8947283161968896E-002  0.26423328684184699        0.0000000000000000     
   3.9046272482765938E-002  0.27273633307060779        0.0000000000000000     
   3.9155625943015054E-002  0.28115988144061849        0.0000000000000000     
   3.9275343542716216E-002  0.28950393195187901        0.0000000000000000     
   3.9405425281869438E-002  0.29776848460438948        0.0000000000000000     
   3.2258142008548631E-002  0.26406846782300342        0.0000000000000000     
   3.2342557559897470E-002  0.27251571008707393        0.0000000000000000     
   3.2435520372863923E-002  0.28086833227044905        0.0000000000000000     
   3.2537030447447969E-002  0.28912633437312868        0.0000000000000000     
   3.2647087783649630E-002  0.29728971639511287        0.0000000000000000     
   2.5690798872811133E-002  0.26392449074678997        0.0000000000000000     
   2.5758312251019988E-002  0.27232600183847067        0.0000000000000000     
   2.5833643145565476E-002  0.28061966667905802        0.0000000000000000     
   2.5916791556447587E-002  0.28880548526855199        0.0000000000000000     
   2.6007757483666336E-002  0.29688345760695256        0.0000000000000000     
   1.3967688871864455E-002   5.5759323472802151E-002   0.0000000000000000     
   1.4755329968596485E-002   6.1344989202360395E-002   0.0000000000000000     
   1.5512687908925363E-002   6.7120375889518358E-002   0.0000000000000000     
   1.6239762692851080E-002   7.3085483534276019E-002   0.0000000000000000     
   1.6936554320373637E-002   7.9240312136633378E-002   0.0000000000000000     
   1.0498845880098372E-002   5.5641589383118209E-002   0.0000000000000000     
   1.1070480851663803E-002   6.1197813925470398E-002   0.0000000000000000     
   1.1623851033060710E-002   6.6954091093123905E-002   0.0000000000000000     
   1.2158956424289089E-002   7.2910420886078714E-002   0.0000000000000000     
   1.2675797025348942E-002   7.9066803304334854E-002   0.0000000000000000     
   7.0209441953759943E-003   5.5535738549463226E-002   0.0000000000000000     
   7.3882865816173671E-003   6.1083038559148019E-002   0.0000000000000000     
   7.7465039114384448E-003   6.6833745269173545E-002   0.0000000000000000     
   8.0955961848392256E-003   7.2787858679539838E-002   0.0000000000000000     
   8.4355634018197130E-003   7.8945378790246865E-002   0.0000000000000000     
   3.5339838176973192E-003   5.5441770971837161E-002   0.0000000000000000     
   3.7087471584571793E-003   6.1000663103393249E-002   0.0000000000000000     
   3.8806465440585692E-003   6.6759338417667319E-002   0.0000000000000000     
   4.0496819745014911E-003   7.2717796914659377E-002   0.0000000000000000     
   4.2158534497859440E-003   7.8876038594369410E-002   0.0000000000000000     
   3.7964747062348321E-005   5.5359686650240048E-002   0.0000000000000000     
   3.1862582183236855E-005   6.0950687558206110E-002   0.0000000000000000     
   2.6278930921081996E-005   6.6730870538605200E-002   0.0000000000000000     
   2.1213793275882498E-005   7.2700235591437318E-002   0.0000000000000000     
   1.6667169247639281E-005   7.8858782716702491E-002   0.0000000000000000     
   1.6936554320373637E-002   7.9240312136633378E-002   0.0000000000000000     
   1.7607326143800561E-002   8.5567889392269475E-002   0.0000000000000000     
   1.8256341515439367E-002   9.2051242996863375E-002   0.0000000000000000     
   1.8883600435290065E-002   9.8690372950415065E-002   0.0000000000000000     
   1.9489102903352647E-002  0.10548527925292456        0.0000000000000000     
   1.2675797025348942E-002   7.9066803304334854E-002   0.0000000000000000     
   1.3175596937016842E-002   8.5401097931982792E-002   0.0000000000000000     
   1.3659580260069359E-002   9.1891164353113064E-002   0.0000000000000000     
   1.4127746994506496E-002   9.8537002567725629E-002   0.0000000000000000     
   1.4580097140328247E-002  0.10533861257582051        0.0000000000000000     
   8.4355634018197130E-003   7.8945378790246865E-002   0.0000000000000000     
   8.7659310072703313E-003   8.5282786823854040E-002   0.0000000000000000     
   9.0862244460815141E-003   9.1776564002920710E-002   0.0000000000000000     
   9.3964437182532598E-003   9.8426710327446959E-002   0.0000000000000000     
   9.6965888237855683E-003  0.10523322579743272        0.0000000000000000     
   4.2158534497859440E-003   7.8876038594369410E-002   0.0000000000000000     
   4.3783283545610245E-003   8.5212956067883178E-002   0.0000000000000000     
   4.5362740734758303E-003   9.1707441946286397E-002   0.0000000000000000     
   4.6896906065303588E-003   9.8359496229579055E-002   0.0000000000000000     
   4.8385779537246125E-003  0.10516911891776115        0.0000000000000000     
   1.6667169247639281E-005   7.8858782716702491E-002   0.0000000000000000     
   1.2788978888924251E-005   8.5191605664070219E-002   0.0000000000000000     
   9.7291422523089325E-006   9.1683798183210014E-002   0.0000000000000000     
   7.4876593377928505E-006   9.8335360274121902E-002   0.0000000000000000     
   6.0645301453773198E-006  0.10514629193680583        0.0000000000000000     
   1.9489102903352647E-002  0.10548527925292456        0.0000000000000000     
   2.0068782042350967E-002  0.11242637435832374        0.0000000000000000     
   2.0618570975008875E-002  0.11950407072054452        0.0000000000000000     
   2.1138469701326369E-002  0.12671836833958688        0.0000000000000000     
   2.1628478221303447E-002  0.13406926721545082        0.0000000000000000     
   1.4580097140328247E-002  0.10533861257582051        0.0000000000000000     
   1.5013363724236558E-002  0.11228659282944406        0.0000000000000000     
   1.5424279772933367E-002  0.11937154178064258        0.0000000000000000     
   1.5812845286418676E-002  0.12659345942941608        0.0000000000000000     
   1.6179060264692478E-002  0.13395234577576454        0.0000000000000000     
   9.6965888237855683E-003  0.10523322579743272        0.0000000000000000     
   9.9842825646232411E-003  0.11218648744805103        0.0000000000000000     
   1.0257147742711067E-002  0.11927687231447485        0.0000000000000000     
   1.0515184358049056E-002  0.12650438039670420        0.0000000000000000     
   1.0758392410637202E-002  0.13386901169473911        0.0000000000000000     
   4.8385779537246125E-003  0.10516911891776115        0.0000000000000000     
   4.9815385635110119E-003  0.11212605821414463        0.0000000000000000     
   5.1171748843419794E-003  0.11922006232204133        0.0000000000000000     
   5.2454869162175139E-003  0.12645113124145133        0.0000000000000000     
   5.3664746591376164E-003  0.13381926497237451        0.0000000000000000     
   6.0645301453773198E-006  0.10514629193680583        0.0000000000000000     
   5.1317208998751841E-006  0.11210530512772490        0.0000000000000000     
   4.3611978260969016E-006  0.11920111180334207        0.0000000000000000     
   3.7529609240462129E-006  0.12643371196365735        0.0000000000000000     
   3.3070101937210036E-006  0.13380310560867076        0.0000000000000000     
   2.1628478221303447E-002  0.13406926721545082        0.0000000000000000     
   2.2090396084556603E-002  0.14154418130554280        0.0000000000000000     
   2.2526022840702337E-002  0.14913052456726919        0.0000000000000000     
   2.2935358489740633E-002  0.15682829700062997        0.0000000000000000     
   2.3318403031671500E-002  0.16463749860562518        0.0000000000000000     
   1.6179060264692478E-002  0.13395234577576454        0.0000000000000000     
   1.6524171800459984E-002  0.14143546082141223        0.0000000000000000     
   1.6849426986426386E-002  0.14903006456808343        0.0000000000000000     
   1.7154825822591691E-002  0.15673615701577803        0.0000000000000000     
   1.7440368308955890E-002  0.16455373816449614        0.0000000000000000     
   1.0758392410637202E-002  0.13386901169473911        0.0000000000000000     
   1.0987519613964549E-002  0.14135796286368307        0.0000000000000000     
   1.1203313681520137E-002  0.14895843055863958        0.0000000000000000     
   1.1405774613303971E-002  0.15667041477960872        0.0000000000000000     
   1.1594902409316049E-002  0.16449391552659046        0.0000000000000000     
   5.3664746591376164E-003  0.13381926497237451        0.0000000000000000     
   5.4804395250703016E-003  0.14131168743235525        0.0000000000000000     
   5.5876829259835920E-003  0.14891562253893775        0.0000000000000000     
   5.6882048618774814E-003  0.15663107029212206        0.0000000000000000     
   5.7820053327519751E-003  0.16445803069190817        0.0000000000000000     
   3.3070101937210036E-006  0.13380310560867076        0.0000000000000000     
   2.9315337772457817E-006  0.14129663452742877        0.0000000000000000     
   2.5347198167474400E-006  0.14890164050897786        0.0000000000000000     
   2.1165683122206119E-006  0.15661812355331800        0.0000000000000000     
   1.6770792636709893E-006  0.16444608366044924        0.0000000000000000     
   2.3318403031671500E-002  0.16463749860562518        0.0000000000000000     
   2.3672851464862445E-002  0.17254628759255625        0.0000000000000000     
   2.3996398787680964E-002  0.18054282217172452        0.0000000000000000     
   2.4289045000127064E-002  0.18862710234313004        0.0000000000000000     
   2.4550790102200737E-002  0.19679912810677280        0.0000000000000000     
   1.7440368308955890E-002  0.16455373816449614        0.0000000000000000     
   1.7704426910414042E-002  0.17247081683069740        0.0000000000000000     
   1.7945374091861185E-002  0.18047540183084149        0.0000000000000000     
   1.8163209853297325E-002  0.18856749316492843        0.0000000000000000     
   1.8357934194722460E-002  0.19674709083295816        0.0000000000000000     
   1.1594902409316049E-002  0.16449391552659046        0.0000000000000000     
   1.1769694796983407E-002  0.17241685686670410        0.0000000000000000     
   1.1929149503733092E-002  0.18042716286706900        0.0000000000000000     
   1.2073266529565098E-002  0.18852483352768509        0.0000000000000000     
   1.2202045874479428E-002  0.19670986884855238        0.0000000000000000     
   5.7820053327519751E-003  0.16445803069190817        0.0000000000000000     
   5.8686551245705487E-003  0.17238440770057639        0.0000000000000000     
   5.9477250232966850E-003  0.18039810528040701        0.0000000000000000     
   6.0192150289303838E-003  0.18849912343140002        0.0000000000000000     
   6.0831251414716434E-003  0.19668746215355537        0.0000000000000000     
   1.6770792636709893E-006  0.16444608366044924        0.0000000000000000     
   1.3078931754633653E-006  0.17237346933231423        0.0000000000000000     
   1.1006505519670865E-006  0.18038822907085553        0.0000000000000000     
   1.0553513931832914E-006  0.18849036287607318        0.0000000000000000     
   1.1719956991081311E-006  0.19667987074796722        0.0000000000000000     
   2.4550790102200737E-002  0.19679912810677280        0.0000000000000000     
   2.4782554406875840E-002  0.20504374863050273        0.0000000000000000     
   2.4985258227126231E-002  0.21334581308216977        0.0000000000000000     
   2.5158901562951901E-002  0.22170532146177399        0.0000000000000000     
   2.5303484414352862E-002  0.23012227376931535        0.0000000000000000     
   1.8357934194722460E-002  0.19674709083295816        0.0000000000000000     
   1.8530356811326129E-002  0.20499763030485044        0.0000000000000000     
   1.8681287398297889E-002  0.21330254705052493        0.0000000000000000     
   1.8810725955637729E-002  0.22166184106998163        0.0000000000000000     
   1.8918672483345663E-002  0.23007551236322046        0.0000000000000000     
   1.2202045874479428E-002  0.19670986884855238        0.0000000000000000     
   1.2316087983590325E-002  0.20496467326818571        0.0000000000000000     
   1.2415993302012035E-002  0.21327165122509981        0.0000000000000000     
   1.2501761829744560E-002  0.22163080271929478        0.0000000000000000     
   1.2573393566787897E-002  0.23004212775077051        0.0000000000000000     
   6.0831251414716434E-003  0.19668746215355537        0.0000000000000000     
   6.1397479236684205E-003  0.20494487752050849        0.0000000000000000     
   6.1893759382686646E-003  0.21325312560589452        0.0000000000000000     
   6.2320091852723801E-003  0.22161220640971352        0.0000000000000000     
   6.2676476646795643E-003  0.23002211993196545        0.0000000000000000     
   1.1719956991081311E-006  0.19667987074796722        0.0000000000000000     
   1.3366315604155122E-006  0.20493824306181876        0.0000000000000000     
   1.4353070677792330E-006  0.21324697019290895        0.0000000000000000     
   1.4680222211950380E-006  0.22160605214123782        0.0000000000000000     
   1.4347770206668033E-006  0.23001548890680537        0.0000000000000000     
   2.5303484414352862E-002  0.23012227376931535        0.0000000000000000     
   2.5425231024897951E-002  0.23856916803403994        0.0000000000000000     
   2.5530365638156031E-002  0.24701850228519395        0.0000000000000000     
   2.5618888254127087E-002  0.25547027652277732        0.0000000000000000     
   2.5690798872811133E-002  0.26392449074678997        0.0000000000000000     
   1.8918672483345663E-002  0.23007551236322046        0.0000000000000000     
   1.9009491781285720E-002  0.23851441469897830        0.0000000000000000     
   1.9087548649321960E-002  0.24694940184599182        0.0000000000000000     
   1.9152843087454380E-002  0.25538047380426115        0.0000000000000000     
   1.9205375095682979E-002  0.26380763057378614        0.0000000000000000     
   1.2573393566787897E-002  0.23004212775077051        0.0000000000000000     
   1.2633603476268381E-002  0.23847531375797015        0.0000000000000000     
   1.2685106521312346E-002  0.24690004817933681        0.0000000000000000     
   1.2727902701919796E-002  0.25531633101487050        0.0000000000000000     
   1.2761992018090730E-002  0.26372416226457129        0.0000000000000000     
   6.2676476646795643E-003  0.23002211993196545        0.0000000000000000     
   6.2975661098459293E-003  0.23845186521101555        0.0000000000000000     
   6.3230392541271871E-003  0.24687044128522889        0.0000000000000000     
   6.3440670975233393E-003  0.25527784815460558        0.0000000000000000     
   6.3606496400343843E-003  0.26367408581914548        0.0000000000000000     
   1.4347770206668033E-006  0.23001548890680537        0.0000000000000000     
   1.3796820183703019E-006  0.23844406905811447        0.0000000000000000     
   1.3468477664834756E-006  0.24686058116366807        0.0000000000000000     
   1.3362742650088180E-006  0.25526502522346617        0.0000000000000000     
   1.3479615139423175E-006  0.26365740123750869        0.0000000000000000     
   2.5690798872811133E-002  0.26392449074678997        0.0000000000000000     
   2.5758312251019988E-002  0.27232600183847067        0.0000000000000000     
   2.5833643145565476E-002  0.28061966667905802        0.0000000000000000     
   2.5916791556447587E-002  0.28880548526855199        0.0000000000000000     
   2.6007757483666336E-002  0.29688345760695256        0.0000000000000000     
   1.9205375095682979E-002  0.26380763057378614        0.0000000000000000     
   1.9255120115566571E-002  0.27217353496680852        0.0000000000000000     
   1.9312053588663964E-002  0.28042084979557003        0.0000000000000000     
   1.9376175514975162E-002  0.28854957506007051        0.0000000000000000     
   1.9447485894500155E-002  0.29655971076031007        0.0000000000000000     
   1.2761992018090730E-002  0.26372416226457129        0.0000000000000000     
   1.2794564712970294E-002  0.27206463611409798        0.0000000000000000     
   1.2832811029703640E-002  0.28027884674910941        0.0000000000000000     
   1.2876730968290772E-002  0.28836679416960564        0.0000000000000000     
   1.2926324528731681E-002  0.29632847837558657        0.0000000000000000     
   6.3606496400343843E-003  0.26367408581914548        0.0000000000000000     
   6.3766460432311597E-003  0.27199930528033894        0.0000000000000000     
   6.3959154686845082E-003  0.28019365753967629        0.0000000000000000     
   6.4184579163944237E-003  0.28825714259715723        0.0000000000000000     
   6.4442733863609106E-003  0.29618976045278217        0.0000000000000000     
   1.3479615139423175E-006  0.26365740123750869        0.0000000000000000     
   1.3641063491666786E-006  0.27197754246553146        0.0000000000000000     
   1.3669056065584257E-006  0.28016528216727049        0.0000000000000000     
   1.3563592861189414E-006  0.28822062034272550        0.0000000000000000     
   1.3324673878460300E-006  0.29614355699189676        0.0000000000000000     
   3.7964747062348321E-005   5.5359686650240048E-002   0.0000000000000000     
   3.1862582183236855E-005   6.0950687558206110E-002   0.0000000000000000     
   2.6278930921081996E-005   6.6730870538605200E-002   0.0000000000000000     
   2.1213793275882498E-005   7.2700235591437318E-002   0.0000000000000000     
   1.6667169247639281E-005   7.8858782716702491E-002   0.0000000000000000     
  -3.4657011281141637E-003   5.5328074890079154E-002   0.0000000000000000     
  -3.6516898435579601E-003   6.0951581812249037E-002   0.0000000000000000     
  -3.8337800490213163E-003   6.6753221089167217E-002   0.0000000000000000     
  -4.0119717445042287E-003   7.2732992720833667E-002   0.0000000000000000     
  -4.1862649300067013E-003   7.8890896707248429E-002   0.0000000000000000     
  -6.9756019194174602E-003   5.5385524996761776E-002   0.0000000000000000     
  -7.3512328151199178E-003   6.1021815754184507E-002   0.0000000000000000     
  -7.7167115168159228E-003   6.6831269526533371E-002   0.0000000000000000     
  -8.0720380245054759E-003   7.2813886313808363E-002   0.0000000000000000     
  -8.4172123381885781E-003   7.8969666116009501E-002   0.0000000000000000     
  -1.0491737626847542E-002   5.5532036970287905E-002   0.0000000000000000     
  -1.1066766332502632E-002   6.1161389384012499E-002   0.0000000000000000     
  -1.1622515472462739E-002   6.6965015850703691E-002   0.0000000000000000     
  -1.2158985046727857E-002   7.2942916370361405E-002   0.0000000000000000     
  -1.2676175055297990E-002   7.9095090942985724E-002   0.0000000000000000     
  -1.4014108250404410E-002   5.5767610810657543E-002   0.0000000000000000     
  -1.4798290395706109E-002   6.1370302701733034E-002   0.0000000000000000     
  -1.5551191915961760E-002   6.7154460061678120E-002   0.0000000000000000     
  -1.6272812811171371E-002   7.3120082890492794E-002   0.0000000000000000     
  -1.6963153081334933E-002   7.9267171188177082E-002   0.0000000000000000     
   1.6667169247639281E-005   7.8858782716702491E-002   0.0000000000000000     
   1.2788978888924251E-005   8.5191605664070219E-002   0.0000000000000000     
   9.7291422523089325E-006   9.1683798183210014E-002   0.0000000000000000     
   7.4876593377928505E-006   9.8335360274121902E-002   0.0000000000000000     
   6.0645301453773198E-006  0.10514629193680583        0.0000000000000000     
  -4.1862649300067013E-003   7.8890896707248429E-002   0.0000000000000000     
  -4.3556153613181796E-003   8.5218326124066088E-002   0.0000000000000000     
  -4.5189787942281111E-003   9.1706674046941286E-002   0.0000000000000000     
  -4.6763552287364943E-003   9.8355940475874037E-002   0.0000000000000000     
  -4.8277446648433324E-003  0.10516612541086434        0.0000000000000000     
  -8.4172123381885781E-003   7.8969666116009501E-002   0.0000000000000000     
  -8.7518129076324912E-003   8.5292707959521680E-002   0.0000000000000000     
  -9.0754181826044871E-003   9.1777110870729872E-002   0.0000000000000000     
  -9.3880281631045590E-003   9.8422874849634051E-002   0.0000000000000000     
  -9.6896428491327138E-003  0.10522999989623420        0.0000000000000000     
  -1.2676175055297990E-002   7.9095090942985724E-002   0.0000000000000000     
  -1.3175803660054020E-002   8.5414751170437037E-002   0.0000000000000000     
  -1.3659589022876822E-002   9.1895108654575744E-002   0.0000000000000000     
  -1.4127531143766405E-002   9.8536163395401888E-002   0.0000000000000000     
  -1.4579630022722763E-002  0.10533791539291545        0.0000000000000000     
  -1.6963153081334933E-002   7.9267171188177082E-002   0.0000000000000000     
  -1.7627587618582751E-002   8.5584455756812075E-002   0.0000000000000000     
  -1.8271491315045119E-002   9.2060667398478915E-002   0.0000000000000000     
  -1.8894864170722031E-002   9.8695806113177575E-002   0.0000000000000000     
  -1.9497706185613486E-002  0.10548987190090808        0.0000000000000000     
   6.0645301453773198E-006  0.10514629193680583        0.0000000000000000     
   5.1317208998751841E-006  0.11210530512772490        0.0000000000000000     
   4.3611978260969016E-006  0.11920111180334207        0.0000000000000000     
   3.7529609240462129E-006  0.12643371196365735        0.0000000000000000     
   3.3070101937210036E-006  0.13380310560867076        0.0000000000000000     
  -4.8277446648433324E-003  0.10516612541086434        0.0000000000000000     
  -4.9723347841716687E-003  0.11212501244547354        0.0000000000000000     
  -5.1093132683445487E-003  0.11922038517326308        0.0000000000000000     
  -5.2386801173619716E-003  0.12645224359423293        0.0000000000000000     
  -5.3604353312239374E-003  0.13382058770838309        0.0000000000000000     
  -9.6896428491327138E-003  0.10522999989623420        0.0000000000000000     
  -9.9782577726651132E-003  0.11218596442407235        0.0000000000000000     
  -1.0251868465677929E-002  0.11927824684669050        0.0000000000000000     
  -1.0510474928171165E-002  0.12650684716408861        0.0000000000000000     
  -1.0754077160144815E-002  0.13387176537626672        0.0000000000000000     
  -1.4579630022722763E-002  0.10533791539291545        0.0000000000000000     
  -1.5012637244580459E-002  0.11228816106352128        0.0000000000000000     
  -1.5423304394174052E-002  0.11937469682362425        0.0000000000000000     
  -1.5811631471503534E-002  0.12659752267322436        0.0000000000000000     
  -1.6177618476568914E-002  0.13395663861232160        0.0000000000000000     
  -1.9497706185613486E-002  0.10548987190090808        0.0000000000000000     
  -2.0075473199917711E-002  0.11243160236382038        0.0000000000000000     
  -2.0623621053832909E-002  0.11950973510406442        0.0000000000000000     
  -2.1142149747359080E-002  0.12672427012164025        0.0000000000000000     
  -2.1631059280496232E-002  0.13407520741654777        0.0000000000000000     
   3.3070101937210036E-006  0.13380310560867076        0.0000000000000000     
   2.9315337772457817E-006  0.14129663452742877        0.0000000000000000     
   2.5347198167474400E-006  0.14890164050897786        0.0000000000000000     
   2.1165683122206119E-006  0.15661812355331800        0.0000000000000000     
   1.6770792636709893E-006  0.16444608366044924        0.0000000000000000     
  -5.3604353312239374E-003  0.13382058770838309        0.0000000000000000     
  -5.4750443409372091E-003  0.14131287784343294        0.0000000000000000     
  -5.5829725775085499E-003  0.14891657432710179        0.0000000000000000     
  -5.6842200409379573E-003  0.15663167715938969        0.0000000000000000     
  -5.7787867312254345E-003  0.16445818634029663        0.0000000000000000     
  -1.0754077160144815E-002  0.13387176537626672        0.0000000000000000     
  -1.0983528080095655E-002  0.14136049107489693        0.0000000000000000     
  -1.1199680606520450E-002  0.14896051385165140        0.0000000000000000     
  -1.1402534739419200E-002  0.15667183370653018        0.0000000000000000     
  -1.1592090478791913E-002  0.16449445063953314        0.0000000000000000     
  -1.6177618476568914E-002  0.13395663861232160        0.0000000000000000     
  -1.6522519683698084E-002  0.14143947422182082        0.0000000000000000     
  -1.6847589367218949E-002  0.14903345908262675        0.0000000000000000     
  -1.7152827527131514E-002  0.15673859319473946        0.0000000000000000     
  -1.7438234163435769E-002  0.16455487655815887        0.0000000000000000     
  -2.1631059280496232E-002  0.13407520741654777        0.0000000000000000     
  -2.2092019151744507E-002  0.14154982728420451        0.0000000000000000     
  -2.2526698859604056E-002  0.14913541002002775        0.0000000000000000     
  -2.2935098404074882E-002  0.15683195562401750        0.0000000000000000     
  -2.3317217785156989E-002  0.16463946409617380        0.0000000000000000     
   1.6770792636709893E-006  0.16444608366044924        0.0000000000000000     
   1.3078931754633653E-006  0.17237346933231423        0.0000000000000000     
   1.1006505519670865E-006  0.18038822907085553        0.0000000000000000     
   1.0553513931832914E-006  0.18849036287607318        0.0000000000000000     
   1.1719956991081311E-006  0.19667987074796722        0.0000000000000000     
  -5.7787867312254345E-003  0.16445818634029663        0.0000000000000000     
  -5.8660793519535875E-003  0.17238415505998633        0.0000000000000000     
  -5.9455046067050273E-003  0.18039763650862259        0.0000000000000000     
  -6.0170624954797493E-003  0.18849863068620543        0.0000000000000000     
  -6.0807530182777582E-003  0.19668713759273482        0.0000000000000000     
  -1.1592090478791913E-002  0.16449445063953314        0.0000000000000000     
  -1.1767239065568343E-002  0.17241657818166148        0.0000000000000000     
  -1.1926871740678259E-002  0.18042642986391624        0.0000000000000000     
  -1.2070988504121650E-002  0.18852400568629740        0.0000000000000000     
  -1.2199589355898528E-002  0.19670930564880501        0.0000000000000000     
  -1.7438234163435769E-002  0.16455487655815887        0.0000000000000000     
  -1.7702171247668805E-002  0.17247073869733973        0.0000000000000000     
  -1.7943000751367729E-002  0.18047460913673644        0.0000000000000000     
  -1.8160722674532531E-002  0.18856648787634928        0.0000000000000000     
  -1.8355337017163208E-002  0.19674637491617794        0.0000000000000000     
  -2.3317217785156989E-002  0.16463946409617380        0.0000000000000000     
  -2.3670875898254971E-002  0.17254663660702094        0.0000000000000000     
  -2.3993891638773437E-002  0.18054217432708330        0.0000000000000000     
  -2.4286265006712372E-002  0.18862607725636085        0.0000000000000000     
  -2.4547996002071790E-002  0.19679834539485364        0.0000000000000000     
   1.1719956991081311E-006  0.19667987074796722        0.0000000000000000     
   1.3366315604155122E-006  0.20493824306181876        0.0000000000000000     
   1.4353070677792330E-006  0.21324697019290895        0.0000000000000000     
   1.4680222211950380E-006  0.22160605214123782        0.0000000000000000     
   1.4347770206668033E-006  0.23001548890680537        0.0000000000000000     
  -6.0807530182777582E-003  0.19668713759273482        0.0000000000000000     
  -6.1370729482683479E-003  0.20494477748363210        0.0000000000000000     
  -6.1865190586208214E-003  0.21325317061431881        0.0000000000000000     
  -6.2290913493351797E-003  0.22161231698479497        0.0000000000000000     
  -6.2647898204114174E-003  0.23002221659506050        0.0000000000000000     
  -1.2199589355898528E-002  0.19670930564880501        0.0000000000000000     
  -1.2313407871352542E-002  0.20496448837746412        0.0000000000000000     
  -1.2413177625827341E-002  0.21327171249829985        0.0000000000000000     
  -1.2498898619322931E-002  0.22163097801131215        0.0000000000000000     
  -1.2570570851839307E-002  0.23004228491650108        0.0000000000000000     
  -1.8355337017163208E-002  0.19674637491617794        0.0000000000000000     
  -1.8527668137692160E-002  0.20499737574331486        0.0000000000000000     
  -1.8678540394551777E-002  0.21330259584485201        0.0000000000000000     
  -1.8807953787742054E-002  0.22166203522078948        0.0000000000000000     
  -1.8915908317263003E-002  0.23007569387112720        0.0000000000000000     
  -2.4547996002071790E-002  0.19679834539485364        0.0000000000000000     
  -2.4779853747287209E-002  0.20504343958118423        0.0000000000000000     
  -2.4982607364794126E-002  0.21334582065397528        0.0000000000000000     
  -2.5156256854592565E-002  0.22170548861322678        0.0000000000000000     
  -2.5300802216682509E-002  0.23012244345893879        0.0000000000000000     
   1.4347770206668033E-006  0.23001548890680537        0.0000000000000000     
   1.3796820183703019E-006  0.23844406905811447        0.0000000000000000     
   1.3468477664834756E-006  0.24686058116366807        0.0000000000000000     
   1.3362742650088180E-006  0.25526502522346617        0.0000000000000000     
   1.3479615139423175E-006  0.26365740123750869        0.0000000000000000     
  -6.2647898204114174E-003  0.23002221659506050        0.0000000000000000     
  -6.2948087163887207E-003  0.23845191730383869        0.0000000000000000     
  -6.3203422818062741E-003  0.24687046696985296        0.0000000000000000     
  -6.3413905166640767E-003  0.25527786559310323        0.0000000000000000     
  -6.3579534209621310E-003  0.26367411317358957        0.0000000000000000     
  -1.2570570851839307E-002  0.23004228491650108        0.0000000000000000     
  -1.2630851994549764E-002  0.23847540195275999        0.0000000000000000     
  -1.2682399718627594E-002  0.24690009785898223        0.0000000000000000     
  -1.2725214024072794E-002  0.25531637263516788        0.0000000000000000     
  -1.2759294910885370E-002  0.26372422628131692        0.0000000000000000     
  -1.8915908317263003E-002  0.23007569387112720        0.0000000000000000     
  -1.9006750152464759E-002  0.23851452300487830        0.0000000000000000     
  -1.9084825462697477E-002  0.24694947383105592        0.0000000000000000     
  -1.9150134247961147E-002  0.25538054634966012        0.0000000000000000     
  -1.9202676508255780E-002  0.26380774056069067        0.0000000000000000     
  -2.5300802216682509E-002  0.23012244345893879        0.0000000000000000     
  -2.5422503190133710E-002  0.23856928046019371        0.0000000000000000     
  -2.5527619514015921E-002  0.24701859488607403        0.0000000000000000     
  -2.5616151188329137E-002  0.25547038673657974        0.0000000000000000     
  -2.5688098213073357E-002  0.26392465601171095        0.0000000000000000     
   1.3479615139423175E-006  0.26365740123750869        0.0000000000000000     
   1.3641063491666786E-006  0.27197754246553146        0.0000000000000000     
   1.3669056065584257E-006  0.28016528216727049        0.0000000000000000     
   1.3563592861189414E-006  0.28822062034272550        0.0000000000000000     
   1.3324673878460300E-006  0.29614355699189676        0.0000000000000000     
  -6.3579534209621310E-003  0.26367411317358957        0.0000000000000000     
  -6.3739223811858804E-003  0.27199935170624101        0.0000000000000000     
  -6.3931887838207749E-003  0.28019372318598679        0.0000000000000000     
  -6.4157526288668174E-003  0.28825722761282679        0.0000000000000000     
  -6.4416139163239981E-003  0.29618986498676114        0.0000000000000000     
  -1.2759294910885370E-002  0.26372422628131692        0.0000000000000000     
  -1.2791854702884175E-002  0.27206473703903300        0.0000000000000000     
  -1.2830105723888067E-002  0.28027898314991984        0.0000000000000000     
  -1.2874047973897046E-002  0.28836696461397754        0.0000000000000000     
  -1.2923681452911109E-002  0.29632868143120594        0.0000000000000000     
  -1.9202676508255780E-002  0.26380774056069067        0.0000000000000000     
  -1.9252432858745717E-002  0.27217369846390743        0.0000000000000000     
  -1.9309383914595316E-002  0.28042106205906969        0.0000000000000000     
  -1.9373529675804562E-002  0.28854983134617773        0.0000000000000000     
  -1.9444870142373484E-002  0.29656000632523116        0.0000000000000000     
  -2.5688098213073357E-002  0.26392465601171095        0.0000000000000000     
  -2.5755656848770511E-002  0.27232623598086420        0.0000000000000000     
  -2.5831023355942520E-002  0.28061995991343636        0.0000000000000000     
  -2.5914197734589393E-002  0.28880582780942721        0.0000000000000000     
  -2.6005179984711125E-002  0.29688383966883691        0.0000000000000000     
  -1.4014108250404410E-002   5.5767610810657543E-002   0.0000000000000000     
  -1.4798290395706109E-002   6.1370302701733034E-002   0.0000000000000000     
  -1.5551191915961760E-002   6.7154460061678120E-002   0.0000000000000000     
  -1.6272812811171371E-002   7.3120082890492794E-002   0.0000000000000000     
  -1.6963153081334933E-002   7.9267171188177082E-002   0.0000000000000000     
  -1.7590923310594728E-002   5.6065741550297539E-002   0.0000000000000000     
  -1.8585763374612624E-002   6.1637845808554047E-002   0.0000000000000000     
  -1.9536870785286698E-002   6.7399276460646904E-002   0.0000000000000000     
  -2.0444245542616955E-002   7.3350033506576109E-002   0.0000000000000000     
  -2.1307887646603404E-002   7.9490116946341657E-002   0.0000000000000000     
  -2.1270392327925169E-002   5.6399924221634742E-002   0.0000000000000000     
  -2.2469143639104454E-002   6.1953308805683484E-002   0.0000000000000000     
  -2.3613682018411245E-002   6.7699139348800189E-002   0.0000000000000000     
  -2.4704007465845557E-002   7.3637415850984878E-002   0.0000000000000000     
  -2.5740119981407385E-002   7.9768138312237530E-002   0.0000000000000000     
  -2.5052515302395727E-002   5.6770158824669160E-002   0.0000000000000000     
  -2.6448431189181592E-002   6.2316691693121352E-002   0.0000000000000000     
  -2.7781625615335401E-002   6.8054048726138017E-002   0.0000000000000000     
  -2.9052098580857163E-002   7.3982229923719126E-002   0.0000000000000000     
  -3.0259850085746869E-002   8.0101235285864686E-002   0.0000000000000000     
  -2.8937292234006404E-002   5.7176445359400793E-002   0.0000000000000000     
  -3.0523626024844049E-002   6.2727994470867660E-002   0.0000000000000000     
  -3.2040701576059177E-002   6.8464004592660346E-002   0.0000000000000000     
  -3.3488518887651787E-002   7.4384475724778826E-002   0.0000000000000000     
  -3.4867077959621871E-002   8.0489407867223098E-002   0.0000000000000000     
  -1.6963153081334933E-002   7.9267171188177082E-002   0.0000000000000000     
  -1.7627587618582751E-002   8.5584455756812075E-002   0.0000000000000000     
  -1.8271491315045119E-002   9.2060667398478915E-002   0.0000000000000000     
  -1.8894864170722031E-002   9.8695806113177575E-002   0.0000000000000000     
  -1.9497706185613486E-002  0.10548987190090808        0.0000000000000000     
  -2.1307887646603404E-002   7.9490116946341657E-002   0.0000000000000000     
  -2.2137082305137053E-002   8.5803389154509413E-002   0.0000000000000000     
  -2.2941114726108911E-002   9.2273712505645131E-002   0.0000000000000000     
  -2.3719984909518980E-002   9.8901086999748880E-002   0.0000000000000000     
  -2.4473692855367265E-002  0.10568551263682063        0.0000000000000000     
  -2.5740119981407385E-002   7.9768138312237530E-002   0.0000000000000000     
  -2.6734205241635264E-002   8.6073118799391515E-002   0.0000000000000000     
  -2.7698448923067741E-002   9.2534169379280190E-002   0.0000000000000000     
  -2.8632851025704804E-002   9.9151290051903582E-002   0.0000000000000000     
  -2.9537411549546474E-002  0.10592448081726168        0.0000000000000000     
  -3.0259850085746869E-002   8.0101235285864686E-002   0.0000000000000000     
  -3.1418956428077391E-002   8.6393644691458424E-002   0.0000000000000000     
  -3.2543493905921608E-002   9.2842038019384093E-002   0.0000000000000000     
  -3.3633462519279518E-002   9.9446415269641680E-002   0.0000000000000000     
  -3.4688862268151113E-002  0.10620677644223117        0.0000000000000000     
  -3.4867077959621871E-002   8.0489407867223098E-002   0.0000000000000000     
  -3.6191335864463450E-002   8.6764966830710125E-002   0.0000000000000000     
  -3.7476249674670524E-002   9.3197318425956799E-002   0.0000000000000000     
  -3.8721819390243106E-002   9.9786462652963148E-002   0.0000000000000000     
  -3.9928045011181190E-002  0.10653239951172919        0.0000000000000000     
  -1.9497706185613486E-002  0.10548987190090808        0.0000000000000000     
  -2.0075473199917711E-002  0.11243160236382038        0.0000000000000000     
  -2.0623621053832909E-002  0.11950973510406442        0.0000000000000000     
  -2.1142149747359080E-002  0.12672427012164025        0.0000000000000000     
  -2.1631059280496232E-002  0.13407520741654777        0.0000000000000000     
  -2.4473692855367265E-002  0.10568551263682063        0.0000000000000000     
  -2.5196440077750060E-002  0.11261668946761444        0.0000000000000000     
  -2.5882428090763680E-002  0.11968431754288439        0.0000000000000000     
  -2.6531656894408111E-002  0.12688839686263048        0.0000000000000000     
  -2.7144126488683366E-002  0.13422892742685272        0.0000000000000000     
  -2.9537411549546474E-002  0.10592448081726168        0.0000000000000000     
  -3.0405212317150723E-002  0.11284382351754835        0.0000000000000000     
  -3.1229335151075545E-002  0.11989939999495763        0.0000000000000000     
  -3.2009780051320956E-002  0.12709121024948944        0.0000000000000000     
  -3.2746547017886936E-002  0.13441925428114382        0.0000000000000000     
  -3.4688862268151113E-002  0.10620677644223117        0.0000000000000000     
  -3.5701789918119682E-002  0.11311300451362215        0.0000000000000000     
  -3.6664342234768506E-002  0.12015498246028411        0.0000000000000000     
  -3.7576519218097584E-002  0.12733271028221710        0.0000000000000000     
  -3.8438320868106918E-002  0.13464618797942110        0.0000000000000000     
  -3.9928045011181190E-002  0.10653239951172919        0.0000000000000000     
  -4.1086172880656940E-002  0.11342423245583579        0.0000000000000000     
  -4.2187449341842556E-002  0.12045106493886389        0.0000000000000000     
  -4.3231874394738017E-002  0.12761289696081349        0.0000000000000000     
  -4.4219448039343336E-002  0.13490972852168459        0.0000000000000000     
  -2.1631059280496232E-002  0.13407520741654777        0.0000000000000000     
  -2.2092019151744507E-002  0.14154982728420451        0.0000000000000000     
  -2.2526698859604056E-002  0.14913541002002775        0.0000000000000000     
  -2.2935098404074882E-002  0.15683195562401750        0.0000000000000000     
  -2.3317217785156989E-002  0.16463946409617380        0.0000000000000000     
  -2.7144126488683366E-002  0.13422892742685272        0.0000000000000000     
  -2.7721928004667312E-002  0.14169307091402938        0.0000000000000000     
  -2.8267152573437829E-002  0.14926798900263885        0.0000000000000000     
  -2.8779800194994921E-002  0.15695368169268112        0.0000000000000000     
  -2.9259870869338570E-002  0.16475014898415613        0.0000000000000000     
  -3.2746547017886936E-002  0.13441925428114382        0.0000000000000000     
  -3.3442147762898916E-002  0.14187072576327683        0.0000000000000000     
  -3.4099093998482342E-002  0.14943281836924455        0.0000000000000000     
  -3.4717385724637201E-002  0.15710553209904699        0.0000000000000000     
  -3.5297022941363512E-002  0.16488886695268418        0.0000000000000000     
  -3.8438320868106918E-002  0.13464618797942110        0.0000000000000000     
  -3.9252678426439321E-002  0.14208279183194680        0.0000000000000000     
  -4.0022523134737600E-002  0.14962989811984478        0.0000000000000000     
  -4.0747854993001757E-002  0.15728750684311518        0.0000000000000000     
  -4.1428674001231784E-002  0.16505561800175791        0.0000000000000000     
  -4.4219448039343336E-002  0.13490972852168459        0.0000000000000000     
  -4.5153519995288514E-002  0.14232926912003926        0.0000000000000000     
  -4.6037439982203596E-002  0.14985922825443965        0.0000000000000000     
  -4.6871208000088559E-002  0.15749960592488566        0.0000000000000000     
  -4.7654824048943410E-002  0.16525040213137732        0.0000000000000000     
  -2.3317217785156989E-002  0.16463946409617380        0.0000000000000000     
  -2.3670875898254971E-002  0.17254663660702094        0.0000000000000000     
  -2.3993891638773437E-002  0.18054217432708330        0.0000000000000000     
  -2.4286265006712372E-002  0.18862607725636085        0.0000000000000000     
  -2.4547996002071790E-002  0.19679834539485364        0.0000000000000000     
  -2.9259870869338570E-002  0.16475014898415613        0.0000000000000000     
  -2.9704708007067340E-002  0.17264634198711590        0.0000000000000000     
  -3.0111655018779760E-002  0.18063121181161229        0.0000000000000000     
  -3.0480711904475828E-002  0.18870475845764537        0.0000000000000000     
  -3.0811878664155551E-002  0.19686698192521507        0.0000000000000000     
  -3.5297022941363512E-002  0.16488886695268418        0.0000000000000000     
  -3.5835022563846415E-002  0.17277192491403515        0.0000000000000000     
  -3.6328401507271083E-002  0.18074380796697903        0.0000000000000000     
  -3.6777159771637549E-002  0.18880451611151580        0.0000000000000000     
  -3.7181297356945774E-002  0.19695404934764543        0.0000000000000000     
  -4.1428674001231784E-002  0.16505561800175791        0.0000000000000000     
  -4.2061819568592174E-002  0.17292338538777877        0.0000000000000000     
  -4.2644131104247411E-002  0.18087996279318352        0.0000000000000000     
  -4.3175608608197497E-002  0.18892535021797219        0.0000000000000000     
  -4.3656252080442430E-002  0.19705954766214473        0.0000000000000000     
  -4.7654824048943410E-002  0.16525040213137732        0.0000000000000000     
  -4.8385099021304646E-002  0.17310072340834673        0.0000000000000000     
  -4.9058843809708749E-002  0.18103967629022577        0.0000000000000000     
  -4.9676058414155719E-002  0.18906726077701450        0.0000000000000000     
  -5.0236742834645548E-002  0.19718347686871293        0.0000000000000000     
  -2.4547996002071790E-002  0.19679834539485364        0.0000000000000000     
  -2.4779853747287209E-002  0.20504343958118423        0.0000000000000000     
  -2.4982607364794126E-002  0.21334582065397528        0.0000000000000000     
  -2.5156256854592565E-002  0.22170548861322678        0.0000000000000000     
  -2.5300802216682509E-002  0.23012244345893879        0.0000000000000000     
  -3.0811878664155551E-002  0.19686698192521507        0.0000000000000000     
  -3.1105656333507498E-002  0.20510395235239420        0.0000000000000000     
  -3.1362545948220230E-002  0.21340173987725553        0.0000000000000000     
  -3.1582547508293743E-002  0.22176034449979898        0.0000000000000000     
  -3.1765661013728054E-002  0.23017976622002459        0.0000000000000000     
  -3.7181297356945774E-002  0.19695404934764543        0.0000000000000000     
  -3.7540767529722865E-002  0.20518018651826675        0.0000000000000000     
  -3.7855523556495907E-002  0.21347070646627853        0.0000000000000000     
  -3.8125565437264926E-002  0.22182560919168071        0.0000000000000000     
  -3.8350893172029880E-002  0.23024489469447329        0.0000000000000000     
  -4.3656252080442430E-002  0.19705954766214473        0.0000000000000000     
  -4.4085187335933293E-002  0.20527214207880187        0.0000000000000000     
  -4.4461540189621174E-002  0.21355272042104426        0.0000000000000000     
  -4.4785310641506065E-002  0.22190128268887196        0.0000000000000000     
  -4.5056498691587975E-002  0.23031782888228491        0.0000000000000000     
  -5.0236742834645548E-002  0.19718347686871293        0.0000000000000000     
  -5.0738915752138812E-002  0.20537981903399952        0.0000000000000000     
  -5.1180595847596023E-002  0.21364778174155283        0.0000000000000000     
  -5.1561783121017203E-002  0.22198736499137273        0.0000000000000000     
  -5.1882477572402358E-002  0.23039856878345938        0.0000000000000000     
  -2.5300802216682509E-002  0.23012244345893879        0.0000000000000000     
  -2.5422503190133710E-002  0.23856928046019371        0.0000000000000000     
  -2.5527619514015921E-002  0.24701859488607403        0.0000000000000000     
  -2.5616151188329137E-002  0.25547038673657974        0.0000000000000000     
  -2.5688098213073357E-002  0.26392465601171095        0.0000000000000000     
  -3.1765661013728054E-002  0.23017976622002459        0.0000000000000000     
  -3.1919775380146780E-002  0.23863519719708237        0.0000000000000000     
  -3.2052779523173543E-002  0.24710182959012242        0.0000000000000000     
  -3.2164673442808357E-002  0.25557966339914473        0.0000000000000000     
  -3.2255457139051209E-002  0.26406869862414917        0.0000000000000000     
  -3.8350893172029880E-002  0.23024489469447329        0.0000000000000000     
  -3.8540230995094113E-002  0.23870779609392062        0.0000000000000000     
  -3.8702303140760966E-002  0.24719354650928702        0.0000000000000000     
  -3.8837109609030397E-002  0.25570214594057245        0.0000000000000000     
  -3.8944650399902449E-002  0.26423359438777694        0.0000000000000000     
  -4.5056498691587975E-002  0.23031782888228491        0.0000000000000000     
  -4.5283870034975741E-002  0.23878707715070838        0.0000000000000000     
  -4.5476190366778163E-002  0.24729374564356776        0.0000000000000000     
  -4.5633459686995302E-002  0.25583783436086310        0.0000000000000000     
  -4.5755677995627089E-002  0.26441934330259415        0.0000000000000000     
  -5.1882477572402358E-002  0.23039856878345938        0.0000000000000000     
  -5.2150692499791630E-002  0.23887304036744569        0.0000000000000000     
  -5.2374441201225169E-002  0.24740242699296475        0.0000000000000000     
  -5.2553723676703010E-002  0.25598672866001654        0.0000000000000000     
  -5.2688539926225103E-002  0.26462594536860101        0.0000000000000000     
  -2.5688098213073357E-002  0.26392465601171095        0.0000000000000000     
  -2.5755656848770511E-002  0.27232623598086420        0.0000000000000000     
  -2.5831023355942520E-002  0.28061995991343636        0.0000000000000000     
  -2.5914197734589393E-002  0.28880582780942721        0.0000000000000000     
  -2.6005179984711125E-002  0.29688383966883691        0.0000000000000000     
  -3.2255457139051209E-002  0.26406869862414917        0.0000000000000000     
  -3.2339947564549033E-002  0.27251601834192180        0.0000000000000000     
  -3.2432961671948771E-002  0.28086870562924859        0.0000000000000000     
  -3.2534499461250407E-002  0.28912676048612945        0.0000000000000000     
  -3.2644560932453937E-002  0.29729018291256443        0.0000000000000000     
  -3.8944650399902449E-002  0.26423359438777694        0.0000000000000000     
  -3.9043725897671806E-002  0.27273671429909857        0.0000000000000000     
  -3.9153136486633149E-002  0.28116032812273539        0.0000000000000000     
  -3.9272882166786489E-002  0.28950443585868751        0.0000000000000000     
  -3.9402962938131843E-002  0.29776903750695488        0.0000000000000000     
  -4.5755677995627089E-002  0.26441934330259415        0.0000000000000000     
  -4.5866991848138805E-002  0.27298832385239447        0.0000000000000000     
  -4.5991547799995647E-002  0.28149482739389686        0.0000000000000000     
  -4.6129345851197670E-002  0.28993885392710145        0.0000000000000000     
  -4.6280386001744826E-002  0.29832040345200833        0.0000000000000000     
  -5.2688539926225103E-002  0.26462594536860101        0.0000000000000000     
  -5.2809745415950037E-002  0.27327084700180942        0.0000000000000000     
  -5.2948195612036300E-002  0.28187220344273284        0.0000000000000000     
  -5.3103890514483928E-002  0.29043001469137131        0.0000000000000000     
  -5.3276830123292901E-002  0.29894428074772478        0.0000000000000000     
  -2.8937292234006404E-002   5.7176445359400793E-002   0.0000000000000000     
  -3.0523626024844049E-002   6.2727994470867660E-002   0.0000000000000000     
  -3.2040701576059177E-002   6.8464004592660346E-002   0.0000000000000000     
  -3.3488518887651787E-002   7.4384475724778826E-002   0.0000000000000000     
  -3.4867077959621871E-002   8.0489407867223098E-002   0.0000000000000000     
  -3.2939078513960336E-002   5.7641017284754716E-002   0.0000000000000000     
  -3.4714468878925375E-002   6.3196628356447765E-002   0.0000000000000000     
  -3.6414429434621857E-002   6.8929948135911301E-002   0.0000000000000000     
  -3.8038960181049769E-002   7.4840976623145303E-002   0.0000000000000000     
  -3.9588061118209117E-002   8.0929713818149784E-002   0.0000000000000000     
  -3.7072229533460649E-002   5.8186108059656023E-002   0.0000000000000000     
  -3.9040700484259123E-002   6.3732004567387049E-002   0.0000000000000000     
  -4.0926328725062723E-002   6.9452820543435018E-002   0.0000000000000000     
  -4.2729114255871468E-002   7.5348555987799895E-002   0.0000000000000000     
  -4.4449057076685353E-002   8.1419210900481737E-002   0.0000000000000000     
  -4.1336745292507353E-002   5.8811717684104717E-002   0.0000000000000000     
  -4.3502320840845272E-002   6.4334123103685512E-002   0.0000000000000000     
  -4.5576399447381795E-002   7.0032621815231469E-002   0.0000000000000000     
  -4.7558981112116892E-002   7.5907213818742603E-002   0.0000000000000000     
  -4.9450065835050579E-002   8.1957899114218913E-002   0.0000000000000000     
  -4.5732625791100448E-002   5.9517846158100796E-002   0.0000000000000000     
  -4.8099329948683857E-002   6.5002983965343139E-002   0.0000000000000000     
  -5.0364641601579045E-002   7.0669351951300682E-002   0.0000000000000000     
  -5.2528560749786027E-002   7.6516950115973412E-002   0.0000000000000000     
  -5.4591087393304802E-002   8.2545778459361369E-002   0.0000000000000000     
  -3.4867077959621871E-002   8.0489407867223098E-002   0.0000000000000000     
  -3.6191335864463450E-002   8.6764966830710125E-002   0.0000000000000000     
  -3.7476249674670524E-002   9.3197318425956799E-002   0.0000000000000000     
  -3.8721819390243106E-002   9.9786462652963148E-002   0.0000000000000000     
  -3.9928045011181190E-002  0.10653239951172919        0.0000000000000000     
  -3.9588061118209117E-002   8.0929713818149784E-002   0.0000000000000000     
  -4.1077411738942214E-002   8.7186191078090669E-002   0.0000000000000000     
  -4.2522691536091381E-002   9.3600439760133936E-002   0.0000000000000000     
  -4.3923900509656617E-002  0.10017245986427954        0.0000000000000000     
  -4.5281038659637923E-002  0.10690225139052752        0.0000000000000000     
  -4.4449057076685353E-002   8.1419210900481737E-002   0.0000000000000000     
  -4.6103252239662516E-002   8.7656423294544206E-002   0.0000000000000000     
  -4.7708794796961107E-002   9.4051831183051063E-002   0.0000000000000000     
  -4.9265684748581125E-002  0.10060543456600236        0.0000000000000000     
  -5.0773922094522562E-002  0.10731723344339804        0.0000000000000000     
  -4.9450065835050579E-002   8.1957899114218913E-002   0.0000000000000000     
  -5.1268857366624350E-002   8.8175663480070693E-002   0.0000000000000000     
  -5.3034559457279702E-002   9.4551492694708264E-002   0.0000000000000000     
  -5.4747172107016615E-002  0.10108538675813158        0.0000000000000000     
  -5.6406695315835108E-002  0.10777734567034071        0.0000000000000000     
  -5.4591087393304802E-002   8.2545778459361369E-002   0.0000000000000000     
  -5.6574227119827715E-002   8.8743911634670158E-002   0.0000000000000000     
  -5.8499985517047152E-002   9.5099424295105442E-002   0.0000000000000000     
  -6.0368362584963087E-002  0.10161231644066726        0.0000000000000000     
  -6.2179358323575531E-002  0.10828258807135557        0.0000000000000000     
  -3.9928045011181190E-002  0.10653239951172919        0.0000000000000000     
  -4.1086172880656940E-002  0.11342423245583579        0.0000000000000000     
  -4.2187449341842556E-002  0.12045106493886389        0.0000000000000000     
  -4.3231874394738017E-002  0.12761289696081349        0.0000000000000000     
  -4.4219448039343336E-002  0.13490972852168459        0.0000000000000000     
  -4.5281038659637923E-002  0.10690225139052752        0.0000000000000000     
  -4.6584532958896849E-002  0.11377805558887276        0.0000000000000000     
  -4.7824810380294916E-002  0.12078811370931011        0.0000000000000000     
  -4.9001870923832139E-002  0.12793242575183966        0.0000000000000000     
  -5.0115714589508517E-002  0.13521099171646137        0.0000000000000000     
  -5.0773922094522562E-002  0.10731723344339804        0.0000000000000000     
  -5.2223041906973702E-002  0.11417502215741646        0.0000000000000000     
  -5.3602579258122784E-002  0.12116659505023601        0.0000000000000000     
  -5.4912534147969837E-002  0.12829195212185668        0.0000000000000000     
  -5.6152906576514852E-002  0.13555109337227855        0.0000000000000000     
  -5.6406695315835108E-002  0.10777734567034071        0.0000000000000000     
  -5.8001699724887501E-002  0.11461513216146690        0.0000000000000000     
  -5.9520755975326176E-002  0.12158650896164155        0.0000000000000000     
  -6.0963864067151097E-002  0.12869147607086459        0.0000000000000000     
  -6.2331024000362299E-002  0.13593003348913607        0.0000000000000000     
  -6.2179358323575531E-002  0.10828258807135557        0.0000000000000000     
  -6.3920506412638273E-002  0.11509838560102416        0.0000000000000000     
  -6.5579340531905075E-002  0.12204785544352674        0.0000000000000000     
  -6.7155860681375940E-002  0.12913099759886337        0.0000000000000000     
  -6.8650066861050865E-002  0.13634781206703400        0.0000000000000000     
  -4.4219448039343336E-002  0.13490972852168459        0.0000000000000000     
  -4.5153519995288514E-002  0.14232926912003926        0.0000000000000000     
  -4.6037439982203596E-002  0.14985922825443965        0.0000000000000000     
  -4.6871208000088559E-002  0.15749960592488566        0.0000000000000000     
  -4.7654824048943410E-002  0.16525040213137732        0.0000000000000000     
  -5.0115714589508517E-002  0.13521099171646137        0.0000000000000000     
  -5.1170218268496583E-002  0.14261182465483271        0.0000000000000000     
  -5.2169258851968860E-002  0.15012293761861112        0.0000000000000000     
  -5.3112836339925328E-002  0.15774433060779663        0.0000000000000000     
  -5.4000950732366014E-002  0.16547600362238923        0.0000000000000000     
  -5.6152906576514852E-002  0.13555109337227855        0.0000000000000000     
  -5.7328319045113610E-002  0.14293212546360543        0.0000000000000000     
  -5.8443394055121924E-002  0.15042315505794138        0.0000000000000000     
  -5.9498131606539793E-002  0.15802418215528632        0.0000000000000000     
  -6.0492531699367219E-002  0.16573520675564035        0.0000000000000000     
  -6.2331024000362299E-002  0.13593003348913607        0.0000000000000000     
  -6.3627822325139582E-002  0.14329017154635751        0.0000000000000000     
  -6.4859845591662801E-002  0.15075988057243037        0.0000000000000000     
  -6.6027093799931949E-002  0.15833916056735478        0.0000000000000000     
  -6.7129566949947012E-002  0.16602801153113064        0.0000000000000000     
  -6.8650066861050865E-002  0.13634781206703400        0.0000000000000000     
  -7.0068728108574507E-002  0.14368596290308885        0.0000000000000000     
  -7.1418613461591493E-002  0.15113311416207814        0.0000000000000000     
  -7.2699722920101795E-002  0.15868926584400195        0.0000000000000000     
  -7.3912056484105412E-002  0.16635441794886016        0.0000000000000000     
  -4.7654824048943410E-002  0.16525040213137732        0.0000000000000000     
  -4.8385099021304646E-002  0.17310072340834673        0.0000000000000000     
  -4.9058843809708749E-002  0.18103967629022577        0.0000000000000000     
  -4.9676058414155719E-002  0.18906726077701450        0.0000000000000000     
  -5.0236742834645548E-002  0.19718347686871293        0.0000000000000000     
  -5.4000950732366014E-002  0.16547600362238923        0.0000000000000000     
  -5.4830436379269980E-002  0.17330707130324954        0.0000000000000000     
  -5.5598127630616306E-002  0.18122664829123819        0.0000000000000000     
  -5.6304024486404987E-002  0.18923473458635517        0.0000000000000000     
  -5.6948126946636049E-002  0.19733133018860047        0.0000000000000000     
  -6.0492531699367219E-002  0.16573520675564035        0.0000000000000000     
  -6.1423407099774348E-002  0.17354556139999780        0.0000000000000000     
  -6.2287570573931333E-002  0.18144457862935318        0.0000000000000000     
  -6.3085022121838169E-002  0.18943225844370648        0.0000000000000000     
  -6.3815761743494862E-002  0.19750860084305777        0.0000000000000000     
  -6.7129566949947012E-002  0.16602801153113064        0.0000000000000000     
  -6.8164011182817730E-002  0.17381619369859144        0.0000000000000000     
  -6.9127172639653789E-002  0.18169346730457078        0.0000000000000000     
  -7.0019051320455189E-002  0.18965983234906855        0.0000000000000000     
  -7.0839647225221972E-002  0.19771528883208481        0.0000000000000000     
  -7.3912056484105412E-002  0.16635441794886016        0.0000000000000000     
  -7.5052248628400139E-002  0.17411896819903058        0.0000000000000000     
  -7.6116933827783728E-002  0.18197331431689096        0.0000000000000000     
  -7.7106112082256137E-002  0.18991745630244128        0.0000000000000000     
  -7.8019783391817407E-002  0.19795139415568158        0.0000000000000000     
  -5.0236742834645548E-002  0.19718347686871293        0.0000000000000000     
  -5.0738915752138812E-002  0.20537981903399952        0.0000000000000000     
  -5.1180595847596023E-002  0.21364778174155283        0.0000000000000000     
  -5.1561783121017203E-002  0.22198736499137273        0.0000000000000000     
  -5.1882477572402358E-002  0.23039856878345938        0.0000000000000000     
  -5.6948126946636049E-002  0.19733133018860047        0.0000000000000000     
  -5.7527719533073597E-002  0.20550947378001477        0.0000000000000000     
  -5.8040086767481763E-002  0.21376220404263874        0.0000000000000000     
  -5.8485228649860554E-002  0.22208952097647228        0.0000000000000000     
  -5.8863145180209964E-002  0.23049142458151559        0.0000000000000000     
  -6.3815761743494862E-002  0.19750860084305777        0.0000000000000000     
  -6.4477365433471892E-002  0.20566736271300259        0.0000000000000000     
  -6.5067409186339714E-002  0.21390230093913659        0.0000000000000000     
  -6.5585893002098328E-002  0.22221341552145984        0.0000000000000000     
  -6.6032816880747733E-002  0.23060070645997227        0.0000000000000000     
  -7.0839647225221972E-002  0.19771528883208481        0.0000000000000000     
  -7.1587853453333683E-002  0.20585348583296295        0.0000000000000000     
  -7.2262563104169855E-002  0.21406807243104645        0.0000000000000000     
  -7.2863776177730530E-002  0.22235904862633527        0.0000000000000000     
  -7.3391492674015679E-002  0.23072641441882949        0.0000000000000000     
  -7.8019783391817407E-002  0.19795139415568158        0.0000000000000000     
  -7.8859183592658963E-002  0.20606784313989585        0.0000000000000000     
  -7.9625548520972228E-002  0.21425951851836825        0.0000000000000000     
  -8.0318878176757175E-002  0.22252642029109865        0.0000000000000000     
  -8.0939172560013845E-002  0.23086854845808721        0.0000000000000000     
  -5.1882477572402358E-002  0.23039856878345938        0.0000000000000000     
  -5.2150692499791630E-002  0.23887304036744569        0.0000000000000000     
  -5.2374441201225169E-002  0.24740242699296475        0.0000000000000000     
  -5.2553723676703010E-002  0.25598672866001654        0.0000000000000000     
  -5.2688539926225103E-002  0.26462594536860101        0.0000000000000000     
  -5.8863145180209964E-002  0.23049142458151559        0.0000000000000000     
  -5.9179815723828424E-002  0.23896711448568569        0.0000000000000000     
  -5.9441219646014370E-002  0.24751579031689980        0.0000000000000000     
  -5.9647356946767822E-002  0.25613745207515798        0.0000000000000000     
  -5.9798227626088760E-002  0.26483209976046018        0.0000000000000000     
  -6.6032816880747733E-002  0.23060070645997227        0.0000000000000000     
  -6.6410357041372770E-002  0.23907072824698147        0.0000000000000000     
  -6.6720689703058181E-002  0.24763003537479489        0.0000000000000000     
  -6.6963814865804008E-002  0.25627862784341260        0.0000000000000000     
  -6.7139732529610266E-002  0.26501650565283452        0.0000000000000000     
  -7.3391492674015679E-002  0.23072641441882949        0.0000000000000000     
  -7.3842316452424631E-002  0.23918388165133306        0.0000000000000000     
  -7.4212851372356586E-002  0.24774516216665002        0.0000000000000000     
  -7.4503097433811602E-002  0.25641025596478034        0.0000000000000000     
  -7.4713054636789636E-002  0.26517916304572403        0.0000000000000000     
  -8.0939172560013845E-002  0.23086854845808721        0.0000000000000000     
  -8.1475693956984035E-002  0.23930657469874050        0.0000000000000000     
  -8.1917704653909629E-002  0.24786117069246519        0.0000000000000000     
  -8.2265204650790569E-002  0.25653233643926127        0.0000000000000000     
  -8.2518193947626897E-002  0.26532007193912882        0.0000000000000000     
  -5.2688539926225103E-002  0.26462594536860101        0.0000000000000000     
  -5.2809745415950037E-002  0.27327084700180942        0.0000000000000000     
  -5.2948195612036300E-002  0.28187220344273284        0.0000000000000000     
  -5.3103890514483928E-002  0.29043001469137131        0.0000000000000000     
  -5.3276830123292901E-002  0.29894428074772478        0.0000000000000000     
  -5.9798227626088760E-002  0.26483209976046018        0.0000000000000000     
  -5.9930739430022605E-002  0.27355557603708164        0.0000000000000000     
  -6.0081800104614794E-002  0.28226372356929746        0.0000000000000000     
  -6.0251409649865313E-002  0.29095654235710788        0.0000000000000000     
  -6.0439568065774177E-002  0.29963403240051256        0.0000000000000000     
  -6.7139732529610266E-002  0.26501650565283452        0.0000000000000000     
  -6.7288726719273634E-002  0.27381380324794918        0.0000000000000000     
  -6.7451081459590848E-002  0.28264065507364500        0.0000000000000000     
  -6.7626796750561907E-002  0.29149706112992196        0.0000000000000000     
  -6.7815872592186771E-002  0.30038302141678019        0.0000000000000000     
  -7.4713054636789636E-002  0.26517916304572403        0.0000000000000000     
  -7.4883707283703138E-002  0.27404552863441206        0.0000000000000000     
  -7.5056039676964489E-002  0.28300299795577527        0.0000000000000000     
  -7.5230051816573662E-002  0.29205157100981388        0.0000000000000000     
  -7.5405743702530698E-002  0.30119124779652751        0.0000000000000000     
  -8.2518193947626897E-002  0.26532007193912882        0.0000000000000000     
  -8.2715681123311111E-002  0.27425075219647033        0.0000000000000000     
  -8.2896674756735692E-002  0.28335075221568840        0.0000000000000000     
  -8.3061174847900626E-002  0.29262007199678319        0.0000000000000000     
  -8.3209181396805942E-002  0.30205871153975450        0.0000000000000000     
  -4.5732625791100448E-002   5.9517846158100796E-002   0.0000000000000000     
  -4.8099329948683857E-002   6.5002983965343139E-002   0.0000000000000000     
  -5.0364641601579045E-002   7.0669351951300682E-002   0.0000000000000000     
  -5.2528560749786027E-002   7.6516950115973412E-002   0.0000000000000000     
  -5.4591087393304802E-002   8.2545778459361369E-002   0.0000000000000000     
  -5.0301480244744283E-002   6.0278557445300293E-002   0.0000000000000000     
  -5.2866849075171675E-002   6.5726928399398685E-002   0.0000000000000000     
  -5.5321711663324988E-002   7.1360838648034858E-002   0.0000000000000000     
  -5.7666068009204235E-002   7.7180288191208771E-002   0.0000000000000000     
  -5.9899918112809404E-002   8.3185277028920479E-002   0.0000000000000000     
  -5.5084917868943248E-002   6.1067915509359243E-002   0.0000000000000000     
  -5.7839999487705587E-002   6.6494297652890916E-002   0.0000000000000000     
  -6.0478266108290116E-002   7.2104909601826209E-002   0.0000000000000000     
  -6.2999717730696847E-002   7.7899751356165128E-002   0.0000000000000000     
  -6.5404354354925767E-002   8.3878822915907703E-002   0.0000000000000000     
  -6.0082938663697322E-002   6.1885920350277651E-002   0.0000000000000000     
  -6.3018781186285580E-002   6.7305091725819763E-002   0.0000000000000000     
  -6.5834304936474422E-002   7.2901564812674721E-002   0.0000000000000000     
  -6.8529509914263861E-002   7.8675339610842485E-002   0.0000000000000000     
  -7.1104396119653898E-002   8.4626416120323053E-002   0.0000000000000000     
  -6.5295542629006526E-002   6.2732571968055512E-002   0.0000000000000000     
  -6.8403194170911674E-002   6.8159310618185337E-002   0.0000000000000000     
  -7.1389828147877935E-002   7.3750804280580451E-002   0.0000000000000000     
  -7.4255444559905293E-002   7.9507052955240839E-002   0.0000000000000000     
  -7.7000043406993790E-002   8.5428056642166489E-002   0.0000000000000000     
  -5.4591087393304802E-002   8.2545778459361369E-002   0.0000000000000000     
  -5.6574227119827715E-002   8.8743911634670158E-002   0.0000000000000000     
  -5.8499985517047152E-002   9.5099424295105442E-002   0.0000000000000000     
  -6.0368362584963087E-002  0.10161231644066726        0.0000000000000000     
  -6.2179358323575531E-002  0.10828258807135557        0.0000000000000000     
  -5.9899918112809404E-002   8.3185277028920479E-002   0.0000000000000000     
  -6.2047598637642309E-002   8.9361521487508061E-002   0.0000000000000000     
  -6.4133446247204809E-002   9.5694737893309650E-002   0.0000000000000000     
  -6.6157460941496868E-002  0.10218492624632527        0.0000000000000000     
  -6.8119642720518486E-002  0.10883208654655493        0.0000000000000000     
  -6.5404354354925767E-002   8.3878822915907703E-002   0.0000000000000000     
  -6.7717209058437824E-002   9.0028846767749929E-002   0.0000000000000000     
  -6.9963314918693995E-002   9.6336545398387943E-002   0.0000000000000000     
  -7.2142671935694236E-002  0.10280191880782162        0.0000000000000000     
  -7.4255280109438604E-002  0.10942496699605105        0.0000000000000000     
  -7.1104396119653898E-002   8.4626416120323053E-002   0.0000000000000000     
  -7.3583058382214253E-002   9.0745887475395831E-002   0.0000000000000000     
  -7.5989591531514716E-002   9.7024846810340237E-002   0.0000000000000000     
  -7.8323995567555246E-002  0.10346329412515629        0.0000000000000000     
  -8.0586270490335857E-002  0.11006122941984396        0.0000000000000000     
  -7.7000043406993790E-002   8.5428056642166489E-002   0.0000000000000000     
  -7.9645146608971609E-002   9.1512643610445657E-002   0.0000000000000000     
  -8.2212276085666960E-002   9.7759642129166588E-002   0.0000000000000000     
  -8.4701431837079830E-002  0.10416905219832924        0.0000000000000000     
  -8.7112613863210259E-002  0.11074087381793365        0.0000000000000000     
  -6.2179358323575531E-002  0.10828258807135557        0.0000000000000000     
  -6.3920506412638273E-002  0.11509838560102416        0.0000000000000000     
  -6.5579340531905075E-002  0.12204785544352674        0.0000000000000000     
  -6.7155860681375940E-002  0.12913099759886337        0.0000000000000000     
  -6.8650066861050865E-002  0.13634781206703400        0.0000000000000000     
  -6.8119642720518486E-002  0.10883208654655493        0.0000000000000000     
  -7.0006587102982007E-002  0.11562457462341466        0.0000000000000000     
  -7.1804889607599662E-002  0.12255074630632058        0.0000000000000000     
  -7.3514550234371520E-002  0.12961060159527274        0.0000000000000000     
  -7.5135568983297554E-002  0.13680414049027106        0.0000000000000000     
  -7.4255280109438604E-002  0.10942496699605105        0.0000000000000000     
  -7.6287066928674679E-002  0.11619349137596494        0.0000000000000000     
  -7.8223959882150168E-002  0.12309529336045208        0.0000000000000000     
  -8.0065958969865014E-002  0.13013037294951244        0.0000000000000000     
  -8.1813064191819287E-002  0.13729873014314603        0.0000000000000000     
  -8.0586270490335857E-002  0.11006122941984396        0.0000000000000000     
  -8.2761945889716346E-002  0.11680513585867500        0.0000000000000000     
  -8.4836551355556539E-002  0.12368149660592116        0.0000000000000000     
  -8.6810086887856464E-002  0.13069031166158249        0.0000000000000000     
  -8.8682552486616065E-002  0.13783158102565890        0.0000000000000000     
  -8.7112613863210259E-002  0.11074087381793365        0.0000000000000000     
  -8.9431223986106978E-002  0.11745950807154486        0.0000000000000000     
  -9.1642664027818829E-002  0.12430935604272791        0.0000000000000000     
  -9.3746933988345799E-002  0.13129041773148287        0.0000000000000000     
  -9.5744033867687886E-002  0.13840269313780965        0.0000000000000000     
  -6.8650066861050865E-002  0.13634781206703400        0.0000000000000000     
  -7.0068728108574507E-002  0.14368596290308885        0.0000000000000000     
  -7.1418613461591493E-002  0.15113311416207814        0.0000000000000000     
  -7.2699722920101795E-002  0.15868926584400195        0.0000000000000000     
  -7.3912056484105412E-002  0.16635441794886016        0.0000000000000000     
  -7.5135568983297554E-002  0.13680414049027106        0.0000000000000000     
  -7.6675872247855978E-002  0.14411884023954552        0.0000000000000000     
  -7.8143386421525074E-002  0.15154217809132617        0.0000000000000000     
  -7.9538111504304815E-002  0.15907415404561290        0.0000000000000000     
  -8.0860047496195200E-002  0.16671476810240579        0.0000000000000000     
  -8.1813064191819287E-002  0.13729873014314603        0.0000000000000000     
  -8.3474090595421588E-002  0.14458814426147359        0.0000000000000000     
  -8.5057853228080682E-002  0.15198639462461580        0.0000000000000000     
  -8.6564352089796529E-002  0.15949348123257281        0.0000000000000000     
  -8.7993587180569169E-002  0.16710940408534444        0.0000000000000000     
  -8.8682552486616065E-002  0.13783158102565890        0.0000000000000000     
  -9.0463383151271323E-002  0.14509387496887297        0.0000000000000000     
  -9.2162013881258290E-002  0.15246576376194720        0.0000000000000000     
  -9.3778444676576964E-002  0.15994724740488156        0.0000000000000000     
  -9.5312675537227276E-002  0.16753832589767614        0.0000000000000000     
  -9.5744033867687886E-002  0.13840269313780965        0.0000000000000000     
  -9.7643749915405226E-002  0.14563603236174366        0.0000000000000000     
  -9.9455868381057952E-002  0.15298028550332018        0.0000000000000000     
 -0.10118038926464606       0.16043545256253924        0.0000000000000000     
 -0.10281731256616958       0.16800153353940084        0.0000000000000000     
  -7.3912056484105412E-002  0.16635441794886016        0.0000000000000000     
  -7.5052248628400139E-002  0.17411896819903058        0.0000000000000000     
  -7.6116933827783728E-002  0.18197331431689096        0.0000000000000000     
  -7.7106112082256137E-002  0.18991745630244128        0.0000000000000000     
  -7.8019783391817407E-002  0.19795139415568158        0.0000000000000000     
  -8.0860047496195200E-002  0.16671476810240579        0.0000000000000000     
  -8.2105955978577505E-002  0.17445489636244504        0.0000000000000000     
  -8.3272598532832920E-002  0.18228541492647099        0.0000000000000000     
  -8.4359975158961487E-002  0.19020632379448354        0.0000000000000000     
  -8.5368085856963205E-002  0.19821762296648271        0.0000000000000000     
  -8.7993587180569169E-002  0.16710940408534444        0.0000000000000000     
  -8.9342969775405678E-002  0.17482498964996485        0.0000000000000000     
  -9.0609911149313230E-002  0.18263106439346805        0.0000000000000000     
  -9.1794411302291809E-002  0.19052762831585407        0.0000000000000000     
  -9.2896470234341458E-002  0.19851468141712289        0.0000000000000000     
  -9.5312675537227276E-002  0.16753832589767614        0.0000000000000000     
  -9.6763290018884701E-002  0.17522924806158999        0.0000000000000000     
  -9.8128871677224672E-002  0.18301026271788229        0.0000000000000000     
  -9.9409420512247132E-002  0.19088136986655296        0.0000000000000000     
 -0.10060493652395211       0.19884256950760207        0.0000000000000000     
 -0.10281731256616958       0.16800153353940084        0.0000000000000000     
 -0.10436691670901457       0.17566767159732047        0.0000000000000000     
 -0.10582948011656719       0.18342300989971358        0.0000000000000000     
 -0.10720500278882741       0.19126754844658023        0.0000000000000000     
 -0.10849348472579523       0.19920128723792030        0.0000000000000000     
  -7.8019783391817407E-002  0.19795139415568158        0.0000000000000000     
  -7.8859183592658963E-002  0.20606784313989585        0.0000000000000000     
  -7.9625548520972228E-002  0.21425951851836825        0.0000000000000000     
  -8.0318878176757175E-002  0.22252642029109865        0.0000000000000000     
  -8.0939172560013845E-002  0.23086854845808721        0.0000000000000000     
  -8.5368085856963205E-002  0.19821762296648271        0.0000000000000000     
  -8.6300603693014538E-002  0.20631124267039017        0.0000000000000000     
  -8.7161201733291949E-002  0.21447911313412754        0.0000000000000000     
  -8.7949879977795423E-002  0.22272123435769473        0.0000000000000000     
  -8.8666638426524974E-002  0.23103760634109183        0.0000000000000000     
  -9.2896470234341458E-002  0.19851468141712289        0.0000000000000000     
  -9.3921361595967201E-002  0.20658449246103475        0.0000000000000000     
  -9.4874359037674230E-002  0.21472933021134979        0.0000000000000000     
  -9.5755462559462504E-002  0.22294919466806812        0.0000000000000000     
  -9.6564672161332007E-002  0.23124408583118969        0.0000000000000000     
 -0.10060493652395211       0.19884256950760207        0.0000000000000000     
 -0.10172145730151699       0.20688759251182950        0.0000000000000000     
 -0.10276502043411907       0.21501016975003512        0.0000000000000000     
 -0.10373562592175838       0.22321030122221883        0.0000000000000000     
 -0.10463327376443488       0.23148798692838077        0.0000000000000000     
 -0.10849348472579523       0.19920128723792030        0.0000000000000000     
 -0.10970089080966385       0.20722054282277449        0.0000000000000000     
 -0.11083318592262645       0.21532163175018337        0.0000000000000000     
 -0.11189037006468305       0.22350455402014693        0.0000000000000000     
 -0.11287244323583362       0.23176930963266518        0.0000000000000000     
  -8.0939172560013845E-002  0.23086854845808721        0.0000000000000000     
  -8.1475693956984035E-002  0.23930657469874050        0.0000000000000000     
  -8.1917704653909629E-002  0.24786117069246519        0.0000000000000000     
  -8.2265204650790569E-002  0.25653233643926127        0.0000000000000000     
  -8.2518193947626897E-002  0.26532007193912882        0.0000000000000000     
  -8.8666638426524974E-002  0.23103760634109183        0.0000000000000000     
  -8.9296990539285373E-002  0.23945378554945010        0.0000000000000000     
  -8.9826449775881320E-002  0.24799532844790106        0.0000000000000000     
  -9.0255016136312829E-002  0.25666223503644459        0.0000000000000000     
  -9.0582689620579901E-002  0.26545450531508069        0.0000000000000000     
  -9.6564672161332007E-002  0.23124408583118969        0.0000000000000000     
  -9.7292707183563018E-002  0.23964049236370843        0.0000000000000000     
  -9.7930286966435798E-002  0.24816490292861829        0.0000000000000000     
  -9.8477411509950319E-002  0.25681731752591941        0.0000000000000000     
  -9.8934080814106609E-002  0.26559773615561161        0.0000000000000000     
 -0.10463327376443488       0.23148798692838077        0.0000000000000000     
 -0.10546284388981698       0.23986669514151532        0.0000000000000000     
 -0.10622921622557302       0.24836989413461705        0.0000000000000000     
 -0.10693239077170301       0.25699758390768584        0.0000000000000000     
 -0.10757236752820694       0.26574976446072168        0.0000000000000000     
 -0.11287244323583362       0.23176930963266518        0.0000000000000000     
 -0.11380740065804726       0.24013239388287094        0.0000000000000000     
 -0.11472323755329304       0.24861030206589713        0.0000000000000000     
 -0.11561995392157093       0.25720303418174378        0.0000000000000000     
 -0.11649754976288096       0.26591059023041080        0.0000000000000000     
  -8.2518193947626897E-002  0.26532007193912882        0.0000000000000000     
  -8.2715681123311111E-002  0.27425075219647033        0.0000000000000000     
  -8.2896674756735692E-002  0.28335075221568840        0.0000000000000000     
  -8.3061174847900626E-002  0.29262007199678319        0.0000000000000000     
  -8.3209181396805942E-002  0.30205871153975450        0.0000000000000000     
  -9.0582689620579901E-002  0.26545450531508069        0.0000000000000000     
  -9.0839831502215446E-002  0.27443515950329422        0.0000000000000000     
  -9.1056803054752333E-002  0.28366721782057003        0.0000000000000000     
  -9.1233604278190536E-002  0.29315068026690810        0.0000000000000000     
  -9.1370235172530095E-002  0.30288554684230840        0.0000000000000000     
  -9.8934080814106609E-002  0.26559773615561161        0.0000000000000000     
  -9.9311341684534107E-002  0.27460443612405400        0.0000000000000000     
  -9.9620240926862280E-002  0.28393569473760560        0.0000000000000000     
  -9.9860778541091183E-002  0.29359151199626637        0.0000000000000000     
 -0.10003295452722076       0.30357188790003642        0.0000000000000000     
 -0.10757236752820694       0.26574976446072168        0.0000000000000000     
 -0.10813021167026705       0.27475858205874976        0.0000000000000000     
 -0.10858698837306559       0.28415618296679523        0.0000000000000000     
 -0.10894269763660254       0.29394256718485817        0.0000000000000000     
 -0.10919733946087794       0.30411773471293835        0.0000000000000000     
 -0.11649754976288096       0.26591059023041080        0.0000000000000000     
 -0.11729644145941431       0.27489759730738145        0.0000000000000000     
 -0.11795704539336220       0.28432868250813892        0.0000000000000000     
 -0.11847936156472465       0.29420384583268328        0.0000000000000000     
 -0.11886338997350163       0.30452308728101440        0.0000000000000000     
 </DataArray>
 <DataArray  type="Float64" Name="stress" NumberOfComponents="3" format="ascii">
   5954492010.3665390       -354075584.02447104       -169676285.89555660     
   5759627331.5238972       -229552684.69798613       -135172917.77236545     
   5553335525.5630808       -143120209.09874749       -100724659.58326995     
   5335616592.4840908       -94778157.226732969       -66331511.328264371     
   5106470532.2869253       -84526529.081990719       -31993473.007348064     
   5699851186.3841629       -177495014.18393064        98006783.461043105     
   5490499309.9958115       -108137157.85829878        110678048.59414917     
   5273735688.4887085       -63485118.595168591        124990820.08792496     
   5049560321.8628635       -43538896.394507408        140945097.94235957     
   4817973210.1182785       -48298491.256329298        158540882.15745878     
   5411807308.1182089       -10935360.628463984        343801822.13702381     
   5192815709.3120127        4711695.2346608639        339325596.61271065     
   4970427747.3865032        9037540.7000610828        338187493.74381918     
   4744643422.3416729        2042175.7677366734        340387513.53035033     
   4515462734.1775265       -16274399.562319040        345925655.97230500     
   5090360375.5686455        145603376.64191842        567708830.13238144     
   4866576529.4724998        108993874.58091593        550769726.28331804     
   4643411702.2564545        74447768.786944151        538865361.38443244     
   4420865893.9205189        41965059.259987831        531995735.43572199     
   4198939104.4646912        11545746.000062466        530160848.43719411     
   4735510388.7354889        292121197.62722254        769727807.44712830     
   4511781770.4772644        204709380.18046165        745010437.60597181     
   4292687553.0985599        132745565.66545844        727024423.00975287     
   4078227736.5993958        76229754.082250595        715769763.65847051     
   3868402320.9797664        35161945.430827379        711246459.55212200     
   5106470532.2869253       -84526529.081990719       -31993473.007348064     
   4968590332.8540201       -64845985.962831259       -27794495.679968655     
   4830301539.7119036       -46527421.874388695       -21604572.262964219     
   4691604152.8605680       -29570836.816679955       -13423702.756357180     
   4552498172.3000097       -13976230.789692640       -3251887.1601084652     
   4817973210.1182785       -48298491.256329298        158540882.15745878     
   4684206121.4733114       -35061892.472626209        157889666.15524843     
   4550367384.5728130       -22064121.207356930        159898499.51616901     
   4416456999.4167633       -9305177.4606060982        164567382.24021989     
   4282474966.0051808        3214938.7677242756        171896314.32739660     
   4515462734.1775265       -16274399.562319040        345925655.97230500     
   4387720479.9591055       -8908228.0224652290        340817349.66979992     
   4260243522.9388151       -657732.48882389069        339038196.00393075     
   4133031863.1166615        8477087.0386049747        340588194.97469366     
   4006085500.4926481        18496230.559816837        345467346.58209693     
   4198939104.4646912        11545746.000062466        530160848.43719411     
   4079133408.3113999        13615007.387643337        520988554.86368001     
   3959929954.8099155        17691744.281255245        515814517.20030630     
   3841328743.9602499        23775956.680917025        514638735.44708115     
   3723329775.7623863        31867644.586597681        517461209.60399801     
   3868402320.9797664        35161945.430827379        711246459.55212200     
   3758444906.5301938        32507813.757685423        698403281.73688316     
   3649426680.1861176        32984309.102865219        690227463.10530019     
   3541347641.9475231        36591431.466315985        686719003.65737033     
   3434207791.8144197        43329180.848073483        687877903.39309490     
   4552498172.3000097       -13976230.789692640       -3251887.1601084652     
   4343373612.3913221       -19768380.818353415       -7846713.1063562576     
   4134406317.2350125       -25036315.005774498       -8100117.9608126860     
   3925596286.8310757       -29780033.351933956       -4012101.7234546924     
   3716943521.1795115       -33999535.856870413        4417335.6057049148     
   4282474966.0051808        3214938.7677242756        171896314.32739660     
   4084702951.3796592       -3268524.4565100670        165362853.05627188     
   3887090550.8854742       -9219940.5762505531        163380231.64860022     
   3689637764.5226407       -14639309.591489315        165948450.10436121     
   3492344592.2911601       -19526631.502242327        173067508.42358553     
   4006085500.4926481        18496230.559816837        345467346.58209693     
   3820264370.4978275        11500955.944284201        336997990.92824221     
   3634605204.0133295        5045559.6964898109        333288893.90947098     
   3449108001.0391583       -869958.18355274200        334340055.52579504     
   3263772761.5753050       -6245597.6958584785        340151475.77721596     
   3723329775.7623863        31867644.586597681        517461209.60399801     
   3550057869.7458339        24540060.384028912        507058700.50954038     
   3376950276.6185908        17760185.812472582        501625868.82181317     
   3204006996.3806319        11528020.871867537        501162714.54083192     
   3031228029.0319738        5843565.5622791052        505669237.66658378     
   3434207791.8144197        43329180.848073483        687877903.39309490     
   3274083449.1236963        35848788.862745523        675544981.80017126     
   3114125768.7012362        28923937.771639228        668391156.38562822     
   2954334750.5470543        22554627.574784636        666416427.14947093     
   2794710394.6611409        16740858.272166133        669620794.09169054     
   3716943521.1795115       -33999535.856870413        4417335.6057049148     
   3551855027.5628390       -25868759.543093204        815699.50988863863     
   3386135201.4190254       -19842424.986487627        1264907.9600374629     
   3219784042.7480550       -15920532.187059999        5764960.9561206428     
   3052801551.5499191       -14103081.144839168        14315858.498161236     
   3492344592.2911601       -19526631.502242327        173067508.42358553     
   3337112372.4010639       -12262478.010391712        167274453.61960271     
   3181412751.3687339       -6556328.3259978294        165212293.17209136     
   3025245729.1941733       -2408182.4490339756        166881027.08104756     
   2868611305.8773961        181959.62053990364        172280655.34650087     
   3263772761.5753050       -6245597.6958584785        340151475.77721596     
   3117482672.0132680       -122310.04552960396        332358255.54747772     
   2970889112.6939244        4989411.7471280098        327975979.48473263     
   2823992083.6172791        9089567.6821143627        327004647.58898228     
   2676791584.7833381        12178157.759445190        329444259.86023086     
   3031228029.0319738        5843565.5622791052        505669237.66658378     
   2892965926.3994694        10551744.351528525        496067105.29350889     
   2754564285.3945975        14794795.232889771        489555966.89795476     
   2616023106.0173550        18572718.206340790        486135822.47991401     
   2477342388.2677402        21885513.271895170        485806672.03938645     
   2794710394.6611409        16740858.272166133        669620794.09169054     
   2663562135.5596704        19759685.180803180        658401002.85770035     
   2532438269.4707651        22859822.131312847        649952255.41174281     
   2401338796.3944082        26041269.123663783        644274551.75382829     
   2270263716.3306170        29304026.157887578        641367891.88395166     
   3052801551.5499191       -14103081.144839168        14315858.498161236     
   2886748762.5788932       -12468839.730854034        9382291.7857328411     
   2721022611.4341569       -9745805.5625488758        5282772.7894833032     
   2555623098.1156645       -5933978.6401191950        2017301.5094254303     
   2390550222.6234670       -1033358.9633513689       -414122.05446383479     
   2868611305.8773961        181959.62053990364        172280655.34650087     
   2705101663.4257469        354662.92294359207        165316196.58255020     
   2541825439.9009247        1305429.3147913218        159811234.68154073     
   2378782635.3029461        3034258.7961087227        155765769.64348015     
   2215973249.6318078        5541151.3668699265        153179801.46833003     
   2676791584.7833381        12178157.759445190        329444259.86023086     
   2517612086.4132152        11425422.218892336        320340153.66210264     
   2358572788.0704989        11140020.103026986        313320993.47366321     
   2199673689.7551823        11321951.411823034        308386779.29491454     
   2040914791.4672580        11971216.145270705        305537511.12586617     
   2477342388.2677402        21885513.271895170        485806672.03938645     
   2324280031.5413113        20743438.157045960        474454163.02439094     
   2171264655.9428477        19757966.802081704        465812049.16584623     
   2018296261.4723485        18929099.207009792        459880330.46374214     
   1865374848.1298165        18256835.371807456        456659006.91809458     
   2270263716.3306170        29304026.157887578        641367891.88395166     
   2125105498.8100314        28308710.737383723        627658224.66941142     
   1979901043.5179822        27159269.411972046        617284401.75808918     
   1834650350.4544649        25855702.181678176        610246423.14996314     
   1689353419.6194658        24398009.046451211        606544288.84502935     
   2390550222.6234670       -1033358.9633513689       -414122.05446383479     
   2248566463.4097953        6423628.8330887556       -6713678.4827503962     
   2103374505.8662598        3186622.1966484785       -11041349.639850928     
   1954974349.9928346       -10744378.872751355       -13397135.525765432     
   1803365995.7895169       -35369374.375136495       -13781036.140493905     
   2215973249.6318078        5541151.3668699265        153179801.46833003     
   2077955544.9271934        12595412.172595501        143192513.18090087     
   1937798837.0836451        12519662.515203595        134377087.78092530     
   1795503126.1011698        5313902.3947178125        126733525.26844692     
   1651068411.9797666       -9021868.1888605356        120261825.64346313     
   2040914791.4672580        11971216.145270705        305537511.12586617     
   1904577363.0325611        17937016.488486767        293109885.36868685     
   1767170126.6498866        20336790.338452220        281054100.11530304     
   1628693082.3192353        19170537.695158482        269370155.36570960     
   1489146230.0406127        14438258.558621109        258058051.11991674     
   1865374848.1298165        18256835.371807456        456659006.91809458     
   1728431917.7259026        22448441.780779958        443038438.08064437     
   1591488374.5649772        26638005.666357279        428989687.36328381     
   1454544218.6470203        30825527.028515399        414512754.76602703     
   1317599449.9720476        35011005.867272556        399607640.28886914     
   1689353419.6194658        24398009.046451211        606544288.84502935     
   1549519209.0072231        26129688.049467027        592978171.31675005     
   1410753580.8288987        31423308.498881578        578183849.52487314     
   1273056535.0845215        40278870.394779682        562161323.46939158     
   1136428071.7740636        52696373.737085164        544910593.15031362     
   1803365995.7895169       -35369374.375136495       -13781036.140493905     
   1772154510.4269216       -16541385.380662203       -8299361.6307472158     
   1748986777.5775170        29099111.991083145       -41550139.349172823     
   1733862797.2412615        101552117.74001235       -113533369.29580404     
   1726782569.4181530        200817631.86608779       -224249051.47063318     
   1651068411.9797666       -9021868.1888605356        120261825.64346313     
   1528209477.7796607       -13816204.728866577        135704187.25239453     
   1409512865.4440513       -4736135.0538566113        124832269.41475625     
   1294978574.9729834        18218340.836277664        87646072.130561769     
   1184606606.3664522        55047222.941556513        24145595.399811707     
   1489146230.0406127        14438258.558621109        258058051.11991674     
   1310120340.6647573       -3334255.4174137115        278932764.07127643     
   1131375342.5047963       -20170465.340478241        285911370.35771525     
   952911235.56072748       -36070371.210556805        278993869.97922385     
   774728019.83255935       -51033973.027639031        258180262.93578911     
   1317599449.9720476        35011005.867272556        399607640.28886914     
   1117887099.0822577        14904462.553771913        421386368.82592833     
   914574208.75972712       -17203878.868844807        441687163.47968507     
   707660779.00445640       -61314018.400615960        460510024.25015229     
   497146809.81644696       -117425956.04149708        477854951.13730770     
   1136428071.7740636        52696373.737085164        544910593.15031362     
   951509753.03213573        40899949.184654176        563065001.51632738     
   759109464.20884013        4163624.3610081971        592159648.78067815     
   559227205.30417264       -57512600.733891010        632194534.94334781     
   351862976.31813037       -144128726.10002309        683169660.00435174     
   1726782569.4181530        200817631.86608779       -224249051.47063318     
   1456418901.0670798        184514352.98938322       -96625909.724289671     
   1153890319.2065337        60994695.747790277        60132645.293357983     
   819196823.83653092       -169741339.85868508        246026613.58231875     
   452338414.95700479       -507693753.83020556        461055995.14259136     
   1184606606.3664522        55047222.941556513        24145595.399811707     
   977594093.43433285        11833446.777309060        155582598.98278585     
   732759591.62327528       -157453625.65004316        312825962.06768143     
   450103100.93327981       -452813994.34050524        495875684.65450990     
   129624621.36438102       -874247659.29401171        704731766.74326241     
   774728019.83255935       -51033973.027639031        258180262.93578911     
   621555080.12111759       -124011721.13896543        386831207.09103733     
   424903076.16130388       -341919683.41153228        537959456.97882748     
   184772007.95312402       -704757859.84533727        711565012.59916162     
  -98838124.503441989       -1212526250.4404044        907647873.95203328     
   497146809.81644696       -117425956.04149708        477854951.13730770     
   388301861.12746406       -223021150.75934157        597119914.60046995     
   230320772.82065636       -492403477.53659010        735533130.02679312     
   23203544.896015763       -925572936.37328482        893094597.41629779     
  -233049822.64642829       -1522529527.2693326        1069804316.7689271     
   351862976.31813037       -144128726.10002309        683169660.00435174     
   277834436.45335317       -285194842.08388150        786448721.51109898     
   149012681.60130554       -608905008.02529716        905546981.21160018     
  -34602288.238012373       -1115259223.9242911        1040464439.1058804     
  -273010473.06459224       -1804257489.7808144        1191201095.1939466     
   4735510388.7354889        292121197.62722254        769727807.44712830     
   4511781770.4772644        204709380.18046165        745010437.60597181     
   4292687553.0985599        132745565.66545844        727024423.00975287     
   4078227736.5993958        76229754.082250595        715769763.65847051     
   3868402320.9797664        35161945.430827379        711246459.55212200     
   4289888319.1517301        160134696.88990927        826618321.64347887     
   4094110778.9524527        109359438.95499110        811864257.07415998     
   3900615848.9996657        66192881.841694117        803425075.87945390     
   3709403529.2933607        30635025.550004721        801300778.05934680     
   3520473819.8335347        2685870.0799298286        805491363.61385131     
   3861799443.9969988        33408154.481297493        895746573.74532378     
   3692783062.2271733        18912480.169394255        888212058.70929015     
   3523697500.0707750        4186204.5689287186        886575955.17753518     
   3354542757.5278153       -10770672.320097446        890838263.15005374     
   3185318834.5982833       -25958150.497675061        900998982.62684727     
   3451243763.2713099       -88058429.598598480        977112563.75267375     
   3307798620.3014126       -66631496.176352024        974053842.51136231     
   3161932506.3118954       -53274466.152837515        976477060.90399730     
   3013645421.3027668       -47987339.528044105        984382218.93057954     
   2862937365.2740111       -50770116.301983953        997769316.59110236     
   3058221276.9746528       -204265055.34978473        1070716291.6655184     
   2939157453.1751752       -147272490.08224130        1069389608.4803739     
   2815320867.7230263       -106189130.32359123        1073128393.0588422     
   2686711520.6182013       -81014976.073859930        1081932645.4009275     
   2553329411.8607159       -71750027.332999706        1095802365.5066266     
   3868402320.9797664        35161945.430827379        711246459.55212200     
   3758444906.5301938        32507813.757685423        698403281.73688316     
   3649426680.1861176        32984309.102865219        690227463.10530019     
   3541347641.9475231        36591431.466315985        686719003.65737033     
   3434207791.8144197        43329180.848073483        687877903.39309490     
   3520473819.8335347        2685870.0799298286        805491363.61385131     
   3423731422.1651950        6611574.9017033577        797613945.26328659     
   3327487952.7697601        12200373.966490746        793716141.44658232     
   3231743411.6472340        19452267.274308205        793797952.16372502     
   3136497798.7976151        28367254.825149298        797859377.41472435     
   3185318834.5982833       -25958150.497675061        900998982.62684727     
   3099826468.9974627       -16042104.595105529        897573687.26961219     
   3014392771.8369608       -5930497.2248035669        897440261.79643083     
   2929017743.1167889        4376671.6132601500        900598706.20730627     
   2843701382.8369389        14879401.919060230        907049020.50223100     
   2862937365.2740111       -50770116.301983953        997769316.59110236     
   2786730047.0269947       -35453224.732741594        998282507.75585067     
   2710141137.3877211       -21408304.471026421        1001399824.1548542     
   2633170636.3561835       -8635355.5168482065        1007121265.7881125     
   2555818543.9323950        2865622.1298142672        1015446832.6556244     
   2553329411.8607159       -71750027.332999706        1095802365.5066266     
   2484442156.2537985       -51621785.511182904        1099740406.7220109     
   2414733049.4220271       -34233047.772207141        1105594828.5218472     
   2344202091.3654294       -19583814.115986824        1113365630.9061456     
   2272849282.0839829       -7674084.5425919294        1123052813.8748953     
   3434207791.8144197        43329180.848073483        687877903.39309490     
   3274083449.1236963        35848788.862745523        675544981.80017126     
   3114125768.7012362        28923937.771639228        668391156.38562822     
   2954334750.5470543        22554627.574784636        666416427.14947093     
   2794710394.6611409        16740858.272166133        669620794.09169054     
   3136497798.7976151        28367254.825149298        797859377.41472435     
   2990181022.1519637        22994206.739663601        787338165.30687892     
   2844046622.8394413        18229083.097927570        781772751.53998041     
   2698094600.8600492        14071883.899966002        781163136.11402762     
   2552324956.2137876        10522609.145773172        785509319.02901268     
   2843701382.8369389        14879401.919060230        907049020.50223100     
   2710554178.4151163        11422299.587042928        898357852.12180030     
   2577605066.3912849        8625505.2483168840        894399184.24487674     
   2444854046.7654352        6489018.9028679132        895173016.87146366     
   2312301119.5375762        5012840.5507092476        900679350.00155413     
   2555818543.9323950        2865622.1298142672        1015446832.6556244     
   2435202917.9131598        1133067.4048987627        1008604042.2449386     
   2314801099.3567672        113204.22278630733        1006270454.5003237     
   2194613088.2632151       -193967.41651701927        1008446069.4217765     
   2074638884.6325138        211552.48700702190        1015130887.0093062     
   2272849282.0839829       -7674084.5425919294        1123052813.8748953     
   2164127240.6460848       -7873489.8067914248        1118076735.6762881     
   2055634721.7358904       -7307819.9786360264        1117386562.3063133     
   1947371725.3533840       -5977075.0581861734        1120982293.7649758     
   1839338251.4985876       -3881255.0453743935        1128863930.0522723     
   2794710394.6611409        16740858.272166133        669620794.09169054     
   2663562135.5596704        19759685.180803180        658401002.85770035     
   2532438269.4707651        22859822.131312847        649952255.41174281     
   2401338796.3944082        26041269.123663783        644274551.75382829     
   2270263716.3306170        29304026.157887578        641367891.88395166     
   2552324956.2137876        10522609.145773172        785509319.02901268     
   2428997482.6548176        14156772.190758228        775363260.63524437     
   2305784853.6130414        18173750.293069601        768320146.68543184     
   2182687069.0884700        22573543.452721596        764379977.17957044     
   2059704129.0810900        27356151.669684172        763542752.11766851     
   2312301119.5375762        5012840.5507092476        900679350.00155413     
   2197742719.1094456        9546826.0085425377        891712551.20341563     
   2083389614.7031560        14765131.539177895        886180597.50515985     
   1969241806.3187068        20667757.142615438        884083488.90677750     
   1855299293.9560974        27254702.818854690        885421225.40828037     
   2074638884.6325138        211552.48700702190        1015130887.0093062     
   1969797844.9235678        5929846.6341860294        1007448874.5622152     
   1865252552.7411048        12633965.869643211        1003533607.8709311     
   1761003008.0851192        20323910.193366885        1003385086.9354408     
   1657049210.9556243        28999679.605374217        1007003311.7557553     
   1839338251.4985876       -3881255.0453743935        1128863930.0522723     
   1745162860.0971780        3305834.0676759481        1122572230.7116523     
   1651373667.7268860        11780253.284446597        1120379177.7827475     
   1557970674.3877211        21542002.604978919        1122284771.2655652     
   1464953880.0796785        32591082.029252052        1128289011.1601021     
   2270263716.3306170        29304026.157887578        641367891.88395166     
   2125105498.8100314        28308710.737383723        627658224.66941142     
   1979901043.5179822        27159269.411972046        617284401.75808918     
   1834650350.4544649        25855702.181678176        610246423.14996314     
   1689353419.6194658        24398009.046451211        606544288.84502935     
   2059704129.0810900        27356151.669684172        763542752.11766851     
   1923920200.4537089        28328306.679282308        751947397.30697131     
   1788041104.2620525        28983236.474646330        743773158.01165128     
   1652066840.5061336        29320941.055790722        739020034.23171842     
   1515997409.1859384        29341420.422685742        737688025.96717882     
   1855299293.9560974        27254702.818854690        885421225.40828037     
   1729133286.2567165        30267417.868975163        875883098.24313855     
   1602823181.2002673        32799808.395550489        869851357.80557001     
   1476368978.7867596        34851874.398590505        867326004.09557116     
   1349770679.0161848        36423615.878075898        868307037.11314118     
   1657049210.9556243        28999679.605374217        1007003311.7557553     
   1540744756.2190585        34126044.306477368        999465327.47791600     
   1424247274.3326242        38608985.174700737        995519001.13984156     
   1307556765.2963417        42448502.210087121        995164332.74151051     
   1190673229.1101921        45644595.412585735        998401322.28294075     
   1464953880.0796785        32591082.029252052        1128289011.1601021     
   1358754610.3407280        39904185.991757929        1122694085.0113106     
   1252313383.6591325        46410766.812108040        1120776088.0144570     
   1145630200.0348768        52110824.490260899        1122535020.1695385     
   1038705059.4679646        57004359.026218653        1127970881.4765596     
   1689353419.6194658        24398009.046451211        606544288.84502935     
   1549519209.0072231        26129688.049467027        592978171.31675005     
   1410753580.8288987        31423308.498881578        578183849.52487314     
   1273056535.0845215        40278870.394779682        562161323.46939158     
   1136428071.7740636        52696373.737085164        544910593.15031362     
   1515997409.1859384        29341420.422685742        737688025.96717882     
   1374340477.3667498        27907910.489825070        728273867.39262164     
   1232925258.7271385        27280111.155565202        719416248.06152272     
   1091751753.2671309        27458022.419981599        711115167.97387493     
   950819960.98670590        28441644.283012092        703370627.12968171     
   1349770679.0161848        36423615.878075898        868307037.11314118     
   1211390293.1530452        33354697.158227086        862080156.69558716     
   1072424751.2151490        28335258.189188242        858194559.02853835     
   932874053.20251238        21365298.971015513        856650244.11199510     
   792738199.11512446        12444819.503671885        857447211.94595766     
   1190673229.1101921        45644595.412585735        998401322.28294075     
   1060668656.3661076        42470048.054652512        994397039.22565377     
   929252058.29292572        34588749.599743754        994518782.42592895     
   796423434.89066136        22000700.047879577        998766551.88375509     
   662182786.15930867        4705899.3990647197        1007140347.5991340     
   1038705059.4679646        57004359.026218653        1127970881.4765596     
   922175567.00593519        55253963.179114163        1125224514.9828143     
   803407179.96046782        46040585.387213826        1128388918.2536809     
   682399898.33158064        29364225.650570929        1137464091.2891524     
   559153722.11926651        5224883.9691829681        1152450034.0892320     
   1136428071.7740636        52696373.737085164        544910593.15031362     
   951509753.03213573        40899949.184654176        563065001.51632738     
   759109464.20884013        4163624.3610081971        592159648.78067815     
   559227205.30417264       -57512600.733891010        632194534.94334781     
   351862976.31813037       -144128726.10002309        683169660.00435174     
   950819960.98670590        28441644.283012092        703370627.12968171     
   791613248.00744033        11240396.889214247        721340713.57254016     
   623789617.64166415       -34683908.459618479        749395986.20558202     
   447349069.88935757       -109331271.76354453        787536445.02882111     
   262291604.75054324       -212701693.02251297        835762090.04223406     
   792738199.11512446        12444819.503671885        857447211.94595766     
   656800084.16095912       -10894153.052766383        873908871.27632797     
   511110104.51513451       -66739341.248083711        899600664.08873105     
   355668260.17764688       -155090745.08227322        934522590.38318062     
   190474551.14849505       -275948364.55533791        978674650.15967488     
   662182786.15930867        4705899.3990647197        1007140347.5991340     
   547070261.49268842       -25503700.641304672        1020769474.6276773     
   421070924.82926571       -92002674.004347771        1042773682.4301116     
   284184776.16903657       -194791020.69006854        1073152971.0064504     
   136411815.51199922       -333868740.69850540        1111907340.3566775     
   559153722.11926651        5224883.9691829681        1152450034.0892320     
   462423780.00264394       -32588245.876335084        1161922523.6266043     
   353672078.58405995       -110473906.72839133        1178915041.2297316     
   232898617.86352849       -228432098.58694446        1203427586.8986173     
   100103397.84104154       -386462821.45200485        1235460160.6332514     
   351862976.31813037       -144128726.10002309        683169660.00435174     
   277834436.45335317       -285194842.08388150        786448721.51109898     
   149012681.60130554       -608905008.02529716        905546981.21160018     
  -34602288.238012373       -1115259223.9242911        1040464439.1058804     
  -273010473.06459224       -1804257489.7808144        1191201095.1939466     
   262291604.75054324       -212701693.02251297        835762090.04223406     
   223595686.95909888       -352326887.69017768        885090986.45254135     
   140661804.61161956       -639411964.21129215        945447104.42175984     
   13489957.708092332       -1073956922.5859106        1016830443.9498676     
  -157919853.75148308       -1655961762.8140121        1099241005.0368917     
   190474551.14849505       -275948364.55533791        978674650.15967488     
   173419893.61648169       -418240046.45094937        986367840.30998075     
   122682521.95964405       -672807442.09596145        1000296275.3843143     
   38262436.177985132       -1039650551.4903971        1020459955.3826728     
  -79840363.728509963       -1518769374.6342506        1046858880.3050759     
   136411815.51199922       -333868740.69850540        1111907340.3566775     
   127307056.42549166       -482934318.36623633        1090279283.0833972     
   95074833.645383060       -709091441.67931604        1070094494.0992889     
   39715147.171669066       -1012340110.6377579        1051352973.4043263     
  -38772002.995652318       -1392680325.2415237        1034054720.9985451     
   100103397.84104154       -386462821.45200485        1235460160.6332514     
   85257175.386120737       -546409703.43605745        1196825314.7728186     
   57838739.668820202       -748263962.96137619        1154841760.5666790     
   17848090.689139307       -992025600.02795982        1109509498.0148113     
  -34714771.552924395       -1277694614.6358359        1060828527.1172481     
   3058221276.9746528       -204265055.34978473        1070716291.6655184     
   2939157453.1751752       -147272490.08224130        1069389608.4803739     
   2815320867.7230263       -106189130.32359123        1073128393.0588422     
   2686711520.6182013       -81014976.073859930        1081932645.4009275     
   2553329411.8607159       -71750027.332999706        1095802365.5066266     
   2734098754.5552459       -80433296.960299730        1204481983.5347610     
   2617324682.8897099       -64987501.102614164        1191637786.3467546     
   2499158014.5129218       -54183694.282436967        1185077185.2081380     
   2379598749.4248924       -48021876.499740839        1184800180.1189051     
   2258646887.6256089       -46502047.754550934        1190806771.0790641     
   2385604463.2783198        36086930.771934032        1320032183.6561110     
   2274600510.2775116        11030067.178988934        1299613998.2302296     
   2165584125.5068746       -7401568.9800500870        1286697537.1395135     
   2058555308.9664066       -19207977.705186963        1281282800.3839600     
   1953514060.6561127       -24389158.996417165        1283369787.9635644     
   2012738403.1438825        145295627.84691399        1417366892.0295637     
   1910984935.3385808        80780214.762579441        1393318244.1308019     
   1814599200.7048724        34157245.583549380        1377989448.8529773     
   1723581199.2427497        5426720.3098151684        1371380506.1960871     
   1637930930.9522254       -5411361.0585982800        1373491416.1601326     
   1615500574.1519287        247192794.26463553        1496486108.6551168     
   1526477958.0729136        144262941.64813882        1472750524.0484669     
   1446203240.1069138        70492749.408351958        1458952920.3485243     
   1374676420.2539258        25882217.545274436        1455093297.5552883     
   1311897498.5139477        10431346.058896780        1461171655.6687620     
   2553329411.8607159       -71750027.332999706        1095802365.5066266     
   2484442156.2537985       -51621785.511182904        1099740406.7220109     
   2414733049.4220271       -34233047.772207141        1105594828.5218472     
   2344202091.3654294       -19583814.115986824        1113365630.9061456     
   2272849282.0839829       -7674084.5425919294        1123052813.8748953     
   2258646887.6256089       -46502047.754550934        1190806771.0790641     
   2194129117.3729844       -31172274.534112930        1190537892.5223150     
   2128946614.3884740       -18058277.086631775        1192821114.8693461     
   2063099378.6720755       -7160055.4121068716        1197656438.1201594     
   1996587410.2237890        1522390.4894576073        1205043862.2747500     
   1953514060.6561127       -24389158.996417165        1283369787.9635644     
   1895182119.5272846       -13312951.246492028        1279077294.5431280     
   1836342564.1595213       -3928790.9596893787        1277972622.3457999     
   1776995394.5528257        3763321.8640074730        1280055771.3715730     
   1717140610.7071936        9763387.2245854139        1285326741.6204538     
   1637930930.9522254       -5411361.0585982800        1373491416.1601326     
   1587601162.7166910        1956184.3516572714        1365358612.7844567     
   1536920898.7351723        8155410.6086375117        1361049350.9512057     
   1485890139.0076759        13186317.712352037        1360563630.6603870     
   1434508883.5341952        17048905.662792981        1363901451.9119959     
   1311897498.5139477        10431346.058896780        1461171655.6687620     
   1271386246.9412012        14635132.260331154        1449381847.2462881     
   1230681618.1154308        18194327.618353248        1442051300.6855681     
   1189783612.0366275        21108932.132926822        1439180015.9866014     
   1148692228.7047961        23378945.804080427        1440767993.1493833     
   2272849282.0839829       -7674084.5425919294        1123052813.8748953     
   2164127240.6460848       -7873489.8067914248        1118076735.6762881     
   2055634721.7358904       -7307819.9786360264        1117386562.3063133     
   1947371725.3533840       -5977075.0581861734        1120982293.7649758     
   1839338251.4985876       -3881255.0453743935        1128863930.0522723     
   1996587410.2237890        1522390.4894576073        1205043862.2747500     
   1899115609.7655110        283527.17015159130        1199392156.8454516     
   1801890942.2910621       -131559.53638827801        1198348453.0460982     
   1704913407.8004475        277130.36984872818        1201912750.8766887     
   1608183006.2936659        1509596.8888679743        1210085050.3372242     
   1717140610.7071936        9763387.2245854139        1285326741.6204538     
   1631839327.8037050        7761148.8227099180        1279019954.4926164     
   1546802788.3401775        6641388.5540497303        1277643265.7960324     
   1462030992.3166170        6404106.4186054468        1281196675.5307047     
   1377523939.7330213        7049302.4163801670        1289680183.6966271     
   1434508883.5341952        17048905.662792981        1363901451.9119959     
   1362298394.7606652        14559375.150902212        1356960128.6177766     
   1290370259.8832316        13011024.292670727        1355271000.5561244     
   1218724478.9018979        12403853.088100553        1358834067.7270281     
   1147361051.8166595        12737861.537187338        1367649330.1305068     
   1148692228.7047961        23378945.804080427        1440767993.1493833     
   1090492810.6363976        20678206.154732943        1433212679.2209389     
   1032593356.9202231        18977347.679464638        1431231657.3263667     
   974993867.55628681        18276370.378325224        1434824927.4656701     
   917694342.54457414        18575274.251263916        1443992489.6388447     
   1839338251.4985876       -3881255.0453743935        1128863930.0522723     
   1745162860.0971780        3305834.0676759481        1122572230.7116523     
   1651373667.7268860        11780253.284446597        1120379177.7827475     
   1557970674.3877211        21542002.604978919        1122284771.2655652     
   1464953880.0796785        32591082.029252052        1128289011.1601021     
   1608183006.2936659        1509596.8888679743        1210085050.3372242     
   1524503631.4484322        7489582.7444328666        1204445780.8449457     
   1441125834.3917189        14474827.895062268        1203060286.1205106     
   1358049615.1235390        22465332.340803087        1205928566.1639025     
   1275274973.6438806        31461096.081619740        1213050620.9751351     
   1377523939.7330213        7049302.4163801670        1289680183.6966271     
   1304783805.3185744        11955152.176846147        1284594619.2696807     
   1232260627.4500546        17584190.423734725        1283917957.9666734     
   1159954406.1274660        23936417.157059848        1287650199.7876167     
   1087865141.3508024        31011832.376810014        1295791344.7325094     
   1147361051.8166595        12737861.537187338        1367649330.1305068     
   1086003381.7076101        16702542.364932477        1363018745.9858441     
   1024778046.9018940        21108340.870455325        1362952193.3212445     
   963685047.39950824        25955257.053748012        1367449672.1367071     
   902724383.20045614        31243290.914816499        1376511182.4322248     
   917694342.54457414        18575274.251263916        1443992489.6388447     
   868162360.61553371        21731753.308678567        1439718160.9934430     
   818678092.74723339        25047279.235224366        1440162992.1842151     
   769241538.93966365        28521852.030873001        1445326983.2111685     
   719852699.19282901        32155471.695638716        1455210134.0742934     
   1464953880.0796785        32591082.029252052        1128289011.1601021     
   1358754610.3407280        39904185.991757929        1122694085.0113106     
   1252313383.6591325        46410766.812108040        1120776088.0144570     
   1145630200.0348768        52110824.490260899        1122535020.1695385     
   1038705059.4679646        57004359.026218653        1127970881.4765596     
   1275274973.6438806        31461096.081619740        1213050620.9751351     
   1178599819.8323207        36399740.936879277        1208236452.1876755     
   1081697616.6810379        40581554.659709394        1207619549.3710246     
   984568364.19001627        44006537.250090480        1211199912.5251796     
   887212062.35927105        46674688.708051950        1218977541.6501431     
   1087865141.3508024        31011832.376810014        1295791344.7325094     
   1002200780.0919780        34022021.112409949        1291775325.5097952     
   916324277.09635425        36325070.725334913        1292476909.0767503     
   830235632.36391616        37920981.215548426        1297896095.4333863     
   743934845.89467394        38809752.583087564        1308032884.5797062     
   902724383.20045614        31243290.914816499        1376511182.4322248     
   829557491.11971521        32771026.518382967        1373310704.9776669     
   756193364.90508235        33641315.008973509        1375348167.1316464     
   682632004.55657518        33854156.386647403        1382623568.8941786     
   608873410.07417893        33409550.651360452        1395136910.2652626     
   719852699.19282901        32155471.695638716        1455210134.0742934     
   660669952.91550636        32646757.154738903        1452842590.5912933     
   601304880.10723138        32530287.510665119        1456233323.5357075     
   541757480.76798415        31806062.763349652        1465382332.9075413     
   482027754.89778787        30474082.912871197        1480289618.7067947     
   1038705059.4679646        57004359.026218653        1127970881.4765596     
   922175567.00593519        55253963.179114163        1125224514.9828143     
   803407179.96046782        46040585.387213826        1128388918.2536809     
   682399898.33158064        29364225.650570929        1137464091.2891524     
   559153722.11926651        5224883.9691829681        1152450034.0892320     
   887212062.35927105        46674688.708051950        1218977541.6501431     
   785814217.08472216        44399729.263344228        1216467878.5317035     
   682183653.32383883        34682374.864190608        1219808227.3923151     
   576320371.07663679        17522625.510634691        1228998588.2319875     
   468224370.34310365       -7079518.7973469198        1244038961.0507135     
   743934845.89467394        38809752.583087564        1308032884.5797062     
   657495054.13460088        35958151.438878447        1305767130.2831895     
   568828719.98530686        25684742.330597371        1309290630.1801708     
   477935843.44678444        7989525.2582194209        1318603384.2706628     
   384816424.51903903       -17127499.778233975        1333705392.5546565     
   608873410.07417893        33409550.651360452        1395136910.2652626     
   537218078.15558565        29929229.705772817        1393122270.2372811     
   463342379.94487238        19047687.786442921        1396836126.6172535     
   387246315.44201922        764924.89331355691        1406278479.4051712     
   308929884.64705801       -24919058.973505944        1421449328.6010542     
   482027754.89778787        30474082.912871197        1480289618.7067947     
   424983289.14766264        26312964.063961506        1478533298.3939743     
   365724633.20252246        14771211.231677234        1482444716.7035537     
   304251787.06236136       -4151175.5840142816        1492023873.6355314     
   240564750.72717118       -30454196.383136347        1507270769.1899116     
   559153722.11926651        5224883.9691829681        1152450034.0892320     
   462423780.00264394       -32588245.876335084        1161922523.6266043     
   353672078.58405995       -110473906.72839133        1178915041.2297316     
   232898617.86352849       -228432098.58694446        1203427586.8986173     
   100103397.84104154       -386462821.45200485        1235460160.6332514     
   468224370.34310365       -7079518.7973469198        1244038961.0507135     
   390562692.28319943       -41355902.625347286        1242606988.4615941     
   302735137.33241177       -109518542.75628133        1247506711.0770745     
   204741705.49074322       -211567439.19015989        1258738128.8971484     
   96582396.758189783       -347502591.92698252        1276301241.9218373     
   384816424.51903903       -17127499.778233975        1333705392.5546565     
   322827773.76970625       -48885708.612550765        1323534153.9852898     
   252529128.54056418       -108343899.04623865        1318506277.7593644     
   173920488.83161581       -195502071.07927817        1318621763.8768954     
   87001854.642847076       -310360224.71171755        1323880612.3378828     
   308929884.64705801       -24919058.973505944        1421449328.6010542     
   259219024.46215844       -55177663.837978944        1404704020.1976807     
   203054052.20851573       -106949975.59825912        1391913741.2766190     
   140434967.88614255       -180235994.25431347        1383078491.8378456     
   71361771.495017022       -275035719.80620044        1378198271.8813820     
   240564750.72717118       -30454196.383136347        1507270769.1899116     
   199736444.36055475       -60231768.301623881        1486116587.0987923     
   154309908.33627731       -105336772.41231497        1467729101.6288254     
   104285142.65433303       -165769208.71523416        1452108312.7800014     
   49662147.314709172       -241529077.21041328        1439254220.5523312     
   100103397.84104154       -386462821.45200485        1235460160.6332514     
   85257175.386120737       -546409703.43605745        1196825314.7728186     
   57838739.668820202       -748263962.96137619        1154841760.5666790     
   17848090.689139307       -992025600.02795982        1109509498.0148113     
  -34714771.552924395       -1277694614.6358359        1060828527.1172481     
   96582396.758189783       -347502591.92698252        1276301241.9218373     
   79691046.740143359       -488723250.96307409        1221979457.9209166     
   51427621.582022548       -667850827.13274944        1165111771.1522334     
   11792121.283830523       -884885320.43599582        1105698181.6157997     
  -39215454.154420793       -1139826730.8727760        1043738689.3115984     
   87001854.642847076       -310360224.71171755        1323880612.3378828     
   70359107.284401178       -432166541.73303670        1255272051.3391628     
   43544422.908195674       -587879315.48022413        1184920393.1506438     
   6557801.5142295659       -777498545.95327961        1112825637.7723138     
  -40600756.897497475       -1001024233.1522031        1038987785.2041861     
   71361771.495017022       -275035719.80620044        1378198271.8813820     
   57261357.018902034       -376739575.74591815        1296703095.0275643     
   34189143.647336662       -508349428.00381219        1214267626.5618985     
   2145131.3803158104       -669865276.57987714        1130891866.4843898     
  -38870679.782150894       -861287121.47410345        1046575814.7950116     
   49662147.314709172       -241529077.21041328        1439254220.5523312     
   40397795.943643242       -322442353.00173408        1346272588.9861236     
   23361783.799439102       -429261164.70351845        1253153471.3860021     
  -1445889.1179006994       -561985512.31576049        1159896867.7519908     
  -34025222.808381319       -720615395.83846366        1066502778.0840937     
   1615500574.1519287        247192794.26463553        1496486108.6551168     
   1526477958.0729136        144262941.64813882        1472750524.0484669     
   1446203240.1069138        70492749.408351958        1458952920.3485243     
   1374676420.2539258        25882217.545274436        1455093297.5552883     
   1311897498.5139477        10431346.058896780        1461171655.6687620     
   1154594380.2701116        131736787.67565876        1464240658.3069272     
   1103915562.1963439        79702051.175000489        1456784611.5790417     
   1057568056.1109545        42105021.302268147        1457140786.3832867     
   1015551862.0139360        18945698.057440281        1465309182.7196667     
   977866979.90529466        10224081.440535009        1481289800.5881817     
   721439267.36041605        24606105.378316790        1449722310.1394904     
   703030649.07882726        21644405.529582977        1453393117.4782929     
   684536756.66097546        18398458.559971839        1462750386.9746513     
   665957590.10686123        14868264.469485492        1477794118.6285701     
   647293149.41648436        11053823.258122832        1498524312.4400489     
   316035235.42284387       -74199252.627388224        1452931064.1528149     
   323823218.72036320       -29909995.288121238        1462576041.7462223     
   327109341.75698352       -626938.81852169335        1475781722.1226192     
   325893604.53270149        13649916.781404495        1492548105.2819993     
   320176007.04751730        12920571.511658534        1512875191.2243652     
  -61617715.542607963       -164679286.34145549        1473866920.3468924     
  -33706728.879049376       -74961151.278111652        1484333384.3828337     
  -14714188.601029404       -14971170.833229866        1496234791.8271878     
  -4640094.7085466227        15290654.993193224        1509571142.6799531     
  -3484447.2016015397        15824326.201158708        1524342436.9411285     
   1311897498.5139477        10431346.058896780        1461171655.6687620     
   1271386246.9412012        14635132.260331154        1449381847.2462881     
   1230681618.1154308        18194327.618353248        1442051300.6855681     
   1189783612.0366275        21108932.132926822        1439180015.9866014     
   1148692228.7047961        23378945.804080427        1440767993.1493833     
   977866979.90529466        10224081.440535009        1481289800.5881817     
   947606995.19555068        10583632.879835010        1470633567.5992544     
   917534620.80723071        11568552.057214439        1464290793.7421460     
   887649856.74034679        13178838.972713590        1462261479.0168567     
   857952702.99488759        15414493.626292497        1464545623.4233873     
   647293149.41648436        11053823.258122832        1498524312.4400489     
   626867852.34135735        7444166.1667593420        1489446140.3882010     
   607011153.16211796        5729835.3950218856        1484535624.7382393     
   587723051.87876427        5910830.9429031312        1483792765.4901619     
   569003548.49129629        7987152.8104031086        1487217562.6439698     
   320176007.04751730        12920571.511658534        1512875191.2243652     
   309168818.37862837        5216732.1211280376        1505819565.6131296     
   299111215.18008250        678177.63173921406        1502785793.6738467     
   290003197.45188260       -695091.95649541914        1503773875.4065168     
   281844765.19402409        1096923.3564077765        1508783810.8111372     
  -3484447.2016015397        15824326.201158708        1524342436.9411285     
  -5490106.6926352028        3901330.7429413339        1519753843.2740414     
  -6165193.1388693601       -3586421.2326117153        1519041300.5489702     
  -5509706.5402988065       -6638929.7254822217        1522204808.7659199     
  -3523646.8969312860       -5256194.7356958259        1529244367.9248867     
   1148692228.7047961        23378945.804080427        1440767993.1493833     
   1090492810.6363976        20678206.154732943        1433212679.2209389     
   1032593356.9202231        18977347.679464638        1431231657.3263667     
   974993867.55628681        18276370.378325224        1434824927.4656701     
   917694342.54457414        18575274.251263916        1443992489.6388447     
   857952702.99488759        15414493.626292497        1464545623.4233873     
   814646040.81578827        14102378.382912010        1457881745.3886690     
   771504570.05139148        13340901.188533694        1456779089.6027815     
   728528290.70168853        13130062.043137908        1461237656.0657177     
   685717202.76668525        13469860.946740925        1471257444.7774842     
   569003548.49129629        7987152.8104031086        1487217562.6439698     
   540552299.95851195        8052459.3001075685        1481287885.4091978     
   512131469.90289104        8219160.7136912346        1480906360.6382022     
   483741058.32443595        8487257.0511607528        1486072988.3309894     
   455381065.22314578        8856748.3125127554        1496787768.4875553     
   281844765.19402409        1096923.3564077765        1508783810.8111372     
   268211588.06455746        2528448.9062864631        1503431099.2825160     
   254474056.47472703        3612126.2549518049        1503613470.4326262     
   240632170.42452654        4347955.4023833424        1509330924.2614737     
   226685929.91395813        4735936.3485884517        1520583460.7690489     
  -3523646.8969312860       -5256194.7356958259        1529244367.9248867     
  -2376094.8660661280       -2469652.7985237823        1524311387.0086303     
  -1467670.2330991691       -480202.18768045760        1524900418.9860599     
  -798372.99803702044        712157.09681280539        1531011463.8571730     
  -368203.16087430628        1107425.0549773958        1542644521.6219754     
   917694342.54457414        18575274.251263916        1443992489.6388447     
   868162360.61553371        21731753.308678567        1439718160.9934430     
   818678092.74723339        25047279.235224366        1440162992.1842151     
   769241538.93966365        28521852.030873001        1445326983.2111685     
   719852699.19282901        32155471.695638716        1455210134.0742934     
   685717202.76668525        13469860.946740925        1471257444.7774842     
   648264990.77905989        15709793.048364341        1467634088.0222065     
   610840425.01222289        18041879.219284296        1468795212.9908707     
   573443505.46616459        20466119.459468365        1474740819.6834774     
   536074232.14089257        22982513.768937558        1485470908.1000223     
   455381065.22314578        8856748.3125127554        1496787768.4875553     
   430195257.14197755        10236123.647860855        1493791971.1424577     
   405017027.44164705        11640760.252668813        1495645977.4090691     
   379846376.12214583        13070658.126908079        1502349787.2873864     
   354683303.18347883        14525817.270593226        1513903400.7774067     
   226685929.91395813        4735936.3485884517        1520583460.7690489     
   213953159.70428842        5310745.1071720123        1518191810.3541961     
   201207900.03550628        5843922.3353800997        1520715285.4388099     
   188450150.90760595        6335468.0331946611        1528153886.0228977     
   175679912.32058209        6785382.2005973160        1540507612.1064529     
  -368203.16087430628        1107425.0549773958        1542644521.6219754     
  -461301.53400313668        933657.42630911153        1540833605.6574144     
  -586957.20619284268        651365.46743721399        1544003137.0800946     
  -745170.17745509103        260549.17832489673        1552153115.8900073     
  -935940.44778873783       -238791.44102749729        1565283542.0871549     
   719852699.19282901        32155471.695638716        1455210134.0742934     
   660669952.91550636        32646757.154738903        1452842590.5912933     
   601304880.10723138        32530287.510665119        1456233323.5357075     
   541757480.76798415        31806062.763349652        1465382332.9075413     
   482027754.89778787        30474082.912871197        1480289618.7067947     
   536074232.14089257        22982513.768937558        1485470908.1000223     
   491790662.13590491        23283701.822741717        1483756430.2029443     
   447386533.43643624        23183027.561613187        1487788449.3353117     
   402861846.04249662        22680490.985578850        1497566965.4971285     
   358216599.95409089        21776092.094658792        1513091978.6883843     
   354683303.18347883        14525817.270593226        1513903400.7774067     
   325265254.02803153        14626811.292232916        1512914050.9421606     
   295788414.01459861        14531835.787255228        1517659418.7383826     
   266252783.14318180        14240890.755663171        1528139504.1660783     
   236658361.41378319        13753976.197466522        1544354307.2252433     
   175679912.32058209        6785382.2005973160        1540507612.1064529     
   161093728.59190068        6676085.5632618964        1540315452.8089366     
   146510521.84171870        6576712.1875912398        1545846231.7449186     
   131930292.07003494        6487262.0735828876        1557099948.9143929     
   117353039.27686691        6407735.2212933227        1574076604.3173680     
  -935940.44778873783       -238791.44102749729        1565283542.0871549     
  -723914.17249292601       -568475.36419129185        1565960635.8032727     
  -447143.08221097640       -682343.23740268149        1572348888.3549142     
  -105627.17693360156       -580395.06062932056        1584448299.7420793     
   300633.54334134876       -262630.83386265347        1602258869.9647677     
   482027754.89778787        30474082.912871197        1480289618.7067947     
   424983289.14766264        26312964.063961506        1478533298.3939743     
   365724633.20252246        14771211.231677234        1482444716.7035537     
   304251787.06236136       -4151175.5840142816        1492023873.6355314     
   240564750.72717118       -30454196.383136347        1507270769.1899116     
   358216599.95409089        21776092.094658792        1513091978.6883843     
   316093814.37926131        18915796.489487723        1509780847.1192229     
   272303037.03626174        10495528.323747069        1511980002.4677947     
   226844267.92510703       -3484712.4025111943        1519689444.7340996     
   179717507.04579264       -23024925.689297616        1532909173.9181416     
   236658361.41378319        13753976.197466522        1544354307.2252433     
   209007394.00089499        12059545.231971115        1540125595.8977506     
   180234633.24670964        6625803.1288178563        1541249719.7833238     
   150340079.15122873       -2547250.1119881943        1547726678.8819578     
   119323731.71444985       -15459614.490451522        1559556473.1936595     
   117353039.27686691        6407735.2212933227        1574076604.3173680     
   103724028.01258385        5744210.2914777212        1569567544.7295530     
   89519421.833874643        3162035.6469095983        1570253868.6501338     
   74739220.740725666       -1338788.7124561667        1576135576.0791097     
   59383424.733146183       -7758262.7865920141        1587212667.0164843     
   300633.54334134876       -262630.83386265347        1602258869.9647677     
   243716.41433638637       -30208.331959918462        1598106693.6146383     
   157402.79775109416        104225.87800977164        1598992449.0682294     
   41692.693605305125        140671.79610940447        1604916136.3255560     
  -103413.89811802286        79129.422285988971        1615877755.3866093     
   240564750.72717118       -30454196.383136347        1507270769.1899116     
   199736444.36055475       -60231768.301623881        1486116587.0987923     
   154309908.33627731       -105336772.41231497        1467729101.6288254     
   104285142.65433303       -165769208.71523416        1452108312.7800014     
   49662147.314709172       -241529077.21041328        1439254220.5523312     
   179717507.04579264       -23024925.689297616        1532909173.9181416     
   148451744.86719704       -45564581.566835389        1507296714.1446693     
   113738979.59898153       -79594247.743106171        1484603072.6544600     
   75579211.241150811       -125113924.21809357        1464828249.4475079     
   33972439.793703958       -182123610.99180284        1447972244.5238276     
   119323731.71444985       -15459614.490451522        1559556473.1936595     
   98055147.044180542       -30630964.330974519        1530828833.4005656     
   74490785.852348939       -53454902.576705933        1505172133.5528479     
   48630648.138950780       -83931429.227658495        1482586373.6504953     
   20474733.903986327       -122060544.28383276        1463071553.6935163     
   59383424.733146183       -7758262.7865920141        1587212667.0164843     
   48546650.891521536       -15430916.593991410        1556712944.8664982     
   36565327.096381001       -26918736.913109221        1529436284.3239915     
   23439453.347731873       -42221723.743922330        1505382685.3889673     
   9169029.6455612779       -61339877.086474903        1484552148.0614245     
  -103413.89811802286        79129.422285988971        1615877755.3866093     
  -73743.590788675356        35561.644089676171        1584949048.5424516     
  -37396.668919200529        14249.247694481593        1557395524.9678874     
   5626.8674914081002        15192.233102372522        1533217184.6629088     
   55327.018436653925        38390.600293081290        1512414027.6275339     
   49662147.314709172       -241529077.21041328        1439254220.5523312     
   40397795.943643242       -322442353.00173408        1346272588.9861236     
   23361783.799439102       -429261164.70351845        1253153471.3860021     
  -1445889.1179006994       -561985512.31576049        1159896867.7519908     
  -34025222.808381319       -720615395.83846366        1066502778.0840937     
   33972439.793703958       -182123610.99180284        1447972244.5238276     
   29822005.101536199       -241964493.86736131        1347497237.0710762     
   19842905.062672868       -321234261.23190236        1246230637.8092780     
   4035139.6771251559       -419932913.08539051        1144172446.7384236     
  -17601291.055129260       -538060449.42790532        1041322663.8585289     
   20474733.903986327       -122060544.28383276        1463071553.6935163     
   19569342.247421682       -161389696.33658081        1357369998.3517597     
   14778280.670600906       -213671081.45685133        1250222745.4257863     
   6101549.1735294610       -278904699.64462686        1141629794.9156075     
  -6460852.2438060641       -357090550.89993894        1031591146.8212279     
   9169029.6455612779       -61339877.086474903        1484552148.0614245     
   9639807.3812937103       -80717960.409415960        1375890872.8281627     
   8167910.6232105568       -106571625.37840915        1265129794.2355404     
   4753339.3713115007       -138900871.99345326        1152268912.2835386     
  -603906.37439630926       -177705700.25453332        1037308226.9721963     
   55327.018436653925        38390.600293081290        1512414027.6275339     
   33400.503156570412        50713.914152783538        1403059860.5002861     
   11794.920501055978        64107.003425634379        1290951784.2385259     
  -9489.7295165987307        78569.868157670702        1176089798.8422425     
  -30453.446917690773        94102.508279636997        1058473904.3114376     
  -61617715.542607963       -164679286.34145549        1473866920.3468924     
  -33706728.879049376       -74961151.278111652        1484333384.3828337     
  -14714188.601029404       -14971170.833229866        1496234791.8271878     
  -4640094.7085466227        15290654.993193224        1509571142.6799531     
  -3484447.2016015397        15824326.201158708        1524342436.9411285     
  -388351054.32423800       -91700503.636412293        1497347011.6104589     
  -365792135.85613942       -41454572.617579177        1492449526.8128827     
  -348302985.03857803       -8107867.1005322337        1491109093.2360473     
  -335883601.87155211        8339612.9147269577        1493325710.8799453     
  -328533986.35506165        7887867.4282013029        1499099379.7445810     
  -738699282.30196714       -25806187.690193862        1504017969.6686518     
  -715429266.85125792       -13213511.162451893        1488246661.2283971     
  -693380340.31608272       -4691131.0198239088        1478154511.8212059     
  -672552502.69644034       -239047.26230391860        1473741521.4470773     
  -652945753.99233055        142740.11010625958        1475007690.1060104     
  -1112662399.4758031        33003661.497189164        1493879794.5214794     
  -1082618121.8644073        9762033.0872636437        1471724787.6293807     
  -1049946254.4335438       -4720962.5910978913        1457371047.5826695     
  -1014646797.1832113       -10445325.537899792        1450818574.3813477     
  -976719750.11340785       -7411055.7531305552        1452067368.0254138     
  -1510240405.8457401        84729043.925743639        1466932486.1689348     
  -1467358700.8955874        27472060.131568193        1442883906.0158298     
  -1418000727.3909626       -8197361.8143684268        1428758700.5204377     
  -1362166485.3318655       -22279221.912060380        1424556869.6827574     
  -1299855974.7182965       -14773520.161513984        1430278413.5027933     
  -3484447.2016015397        15824326.201158708        1524342436.9411285     
  -5490106.6926352028        3901330.7429413339        1519753843.2740414     
  -6165193.1388693601       -3586421.2326117153        1519041300.5489702     
  -5509706.5402988065       -6638929.7254822217        1522204808.7659199     
  -3523646.8969312860       -5256194.7356958259        1529244367.9248867     
  -328533986.35506165        7887867.4282013029        1499099379.7445810     
  -318997635.78300035        1358912.8985087723        1495818628.8633068     
  -308831009.57787478       -3069122.8543064445        1496295517.6435058     
  -298034107.73968720       -5396239.8302463442        1500530046.0851769     
  -286606930.26843452       -5622438.0293028504        1508522214.1883183     
  -652945753.99233055        142740.11010625958        1475007690.1060104     
  -632205711.30158758       -1093668.8743795455        1472217768.3635221     
  -611535690.38952005       -2563483.7877831161        1473067075.0019619     
  -590935691.25612926       -4266704.6301098764        1477555610.0213263     
  -570405713.90141380       -6203331.4013510346        1485683373.4216199     
  -976719750.11340785       -7411055.7531305552        1452067368.0254138     
  -945114333.24840271       -3456414.5757400393        1448951261.7746837     
  -914279235.57380986       -2069504.0330582261        1449355972.6243341     
  -884214457.08963513       -3250324.1251025796        1453281500.5743649     
  -854919997.79586816       -6998874.8518392444        1460727845.6247787     
  -1299855974.7182965       -14773520.161513984        1430278413.5027933     
  -1257723501.6234446       -5729324.2055684924        1426019109.0967929     
  -1217061645.1307425       -1587183.5901252627        1425162210.5106268     
  -1177870405.2401984       -2347098.3152073026        1427707717.7442973     
  -1140149781.9518011       -8009068.3807777166        1433655630.7978003     
  -3523646.8969312860       -5256194.7356958259        1529244367.9248867     
  -2376094.8660661280       -2469652.7985237823        1524311387.0086303     
  -1467670.2330991691       -480202.18768045760        1524900418.9860599     
  -798372.99803702044        712157.09681280539        1531011463.8571730     
  -368203.16087430628        1107425.0549773958        1542644521.6219754     
  -286606930.26843452       -5622438.0293028504        1508522214.1883183     
  -271512068.14626157       -4020695.9503144771        1503090560.8001595     
  -256567722.39378536       -2920675.1036488712        1503139009.9404395     
  -241773893.01100248       -2322375.4892951846        1508667561.6091559     
  -227130579.99791810       -2225797.1072693467        1519676215.8063157     
  -570405713.90141380       -6203331.4013510346        1485683373.4216199     
  -541483285.58863723       -5822312.3507634401        1479856427.0944593     
  -512622762.61735111       -5647644.4384740591        1479467672.9304912     
  -483824144.98755527       -5679327.6644859314        1484517110.9297197     
  -455087432.69925112       -5917362.0288061798        1495004741.0921412     
  -854919997.79586816       -6998874.8518392444        1460727845.6247787     
  -812289747.19319415       -7874501.9998696148        1454608985.8915265     
  -769632790.90380192       -8661110.1921699941        1453886407.9562228     
  -726949128.92769372       -9358699.4287524223        1458560111.8188663     
  -684238761.26487231       -9967269.7096211910        1468630097.4794590     
  -1140149781.9518011       -8009068.3807777166        1433655630.7978003     
  -1083931452.9599276       -10177264.897618890        1427348237.1913624     
  -1027597807.2531335       -11961072.364726841        1426395215.0176265     
  -971148844.83141744       -13360490.782094538        1430796564.2765920     
  -914584565.69478416       -14375520.149736643        1440552284.9682584     
  -368203.16087430628        1107425.0549773958        1542644521.6219754     
  -461301.53400313668        933657.42630911153        1540833605.6574144     
  -586957.20619284268        651365.46743721399        1544003137.0800946     
  -745170.17745509103        260549.17832489673        1552153115.8900073     
  -935940.44778873783       -238791.44102749729        1565283542.0871549     
  -227130579.99791810       -2225797.1072693467        1519676215.8063157     
  -214555022.81582028       -3064221.2753088027        1517363817.1738341     
  -202036427.81399328       -4092519.3775831163        1519969473.0903003     
  -189574794.99243248       -5310691.4140776172        1527493183.5557163     
  -177170124.35113695       -6718737.3847919926        1539934948.5700810     
  -455087432.69925112       -5917362.0288061798        1495004741.0921412     
  -430021485.21418130       -7473922.3119098544        1492162387.4303360     
  -405036904.79057699       -9301706.1332317889        1494175695.4791949     
  -380133691.42844057       -11400713.492782667        1501044665.2387161     
  -355311845.12777156       -13770944.390555739        1512769296.7088959     
  -684238761.26487231       -9967269.7096211910        1468630097.4794590     
  -646860688.72907579       -12295445.683460951        1465229316.4269321     
  -609588388.13594496       -14976194.799519032        1466621804.2467797     
  -572421859.48548114       -18009517.057800770        1472807560.9390025     
  -535361102.77768219       -21395412.458298922        1483786586.5036004     
  -914584565.69478416       -14375520.149736643        1440552284.9682584     
  -865072633.36050773       -17528791.389976621        1436564604.1636126     
  -815690877.85009575       -21115985.376436174        1437307799.3930526     
  -766439299.16355431       -25137102.109127462        1442781870.6565833     
  -717317897.30087245       -29592141.588019401        1452986817.9541972     
  -935940.44778873783       -238791.44102749729        1565283542.0871549     
  -723914.17249292601       -568475.36419129185        1565960635.8032727     
  -447143.08221097640       -682343.23740268149        1572348888.3549142     
  -105627.17693360156       -580395.06062932056        1584448299.7420793     
   300633.54334134876       -262630.83386265347        1602258869.9647677     
  -177170124.35113695       -6718737.3847919926        1539934948.5700810     
  -162234958.07515791       -7285992.0491685197        1540025800.4611094     
  -147188999.32266581       -7483938.4585019648        1545785809.8420384     
  -132032248.09366859       -7312576.6128205210        1557214976.7128642     
  -116764704.38817286       -6771906.5121419728        1574313301.0735903     
  -355311845.12777156       -13770944.390555739        1512769296.7088959     
  -325773542.69573742       -14611770.949491814        1512327629.0466001     
  -296078400.12568676       -14929797.048370242        1517513117.5285797     
  -266226417.41762000       -14725022.687196419        1528325762.1548305     
  -236217594.57154071       -13997447.865980729        1544765562.9253540     
  -535361102.77768219       -21395412.458298922        1483786586.5036004     
  -491339668.03424478       -22545812.065207601        1482866121.5597484     
  -447115345.49127704       -23019919.007016420        1487530811.4145384     
  -402688135.14878571       -22817733.283746704        1497780656.0679755     
  -358058037.00676292       -21939254.895370781        1513615655.5200686     
  -717317897.30087245       -29592141.588019401        1452986817.9541972     
  -658933334.09067500       -31088115.396296889        1451641278.0005457     
  -600299835.41943395       -31754304.334430873        1455838891.4999130     
  -541417401.28715265       -31590708.402430296        1465579658.4523063     
  -482286031.69383746       -30597327.600316539        1480863578.8577197     
   300633.54334134876       -262630.83386265347        1602258869.9647677     
   243716.41433638637       -30208.331959918462        1598106693.6146383     
   157402.79775109416        104225.87800977164        1598992449.0682294     
   41692.693605305125        140671.79610940447        1604916136.3255560     
  -103413.89811802286        79129.422285988971        1615877755.3866093     
  -116764704.38817286       -6771906.5121419728        1574313301.0735903     
  -103271151.45435858       -5785842.4167170711        1569706529.9708722     
  -89243825.353384584       -3020534.4307601415        1570311348.2834671     
  -74682726.085227937        1524017.4458064660        1576127756.0113878     
  -59587853.649909601        7847813.2129106931        1587155753.1546223     
  -236217594.57154071       -13997447.865980729        1544765562.9253540     
  -208677406.97036415       -12108892.795679063        1540361228.3339112     
  -180040276.54727429       -6563861.6523371115        1541342140.7693806     
  -150306203.30227980        2637645.5640244111        1547708300.2317581     
  -119475187.23537041        15495628.853431284        1559459706.7210472     
  -358058037.00676292       -21939254.895370781        1513615655.5200686     
  -315975050.13367540       -18999359.468826935        1510070788.7037644     
  -272231950.78393328       -10525755.786767766        1512084826.5259616     
  -226828738.95754308        3481556.1507856995        1519657768.9866638     
  -179765414.65449816        23022576.343853481        1532789616.0858669     
  -482286031.69383746       -30597327.600316539        1480863578.8577197     
  -425164080.94429368       -26457242.436166883        1478835211.0804203     
  -365818848.06334329       -14906216.833995417        1482539405.5532148     
  -304250333.05102170        4055749.2060794830        1491976162.2761047     
  -240458535.90729421        30428655.684175164        1507145481.2490871     
  -103413.89811802286        79129.422285988971        1615877755.3866093     
  -73743.590788675356        35561.644089676171        1584949048.5424516     
  -37396.668919200529        14249.247694481593        1557395524.9678874     
   5626.8674914081002        15192.233102372522        1533217184.6629088     
   55327.018436653925        38390.600293081290        1512414027.6275339     
  -59587853.649909601        7847813.2129106931        1587155753.1546223     
  -48688449.759513512        15473043.931831211        1556683827.0366862     
  -36634857.158081070        26945570.354204509        1529428328.4444811     
  -23427075.845614970        42265392.480024382        1505389257.3780193     
  -9065105.8221126981        61432510.309297808        1484566613.8373048     
  -119475187.23537041        15495628.853431284        1559459706.7210472     
  -98159637.601477712        30653581.717590943        1530783325.4418948     
  -74542387.160055354        53483870.606850833        1505164615.9446328     
  -48623435.911098145        83986495.521226674        1482603578.2292638     
  -20402783.854604453        122161456.46072315        1463100212.2957852     
  -179765414.65449816        23022576.343853481        1532789616.0858669     
  -148487307.11668232        45577175.001370229        1507247543.7580872     
  -113759986.67483392        79629150.005659193        1484604387.4683461     
  -75583453.328954756        125178501.35672030        1464860147.2166505     
  -33957707.079042271        182225229.05455634        1448014823.0030026     
  -240458535.90729421        30428655.684175164        1507145481.2490871     
  -199671458.30511507        60243823.783204362        1486076481.9852545     
  -154287655.70241413        105381408.55064040        1467747643.0156193     
  -104307128.09918228        165841409.98651260        1452158964.3401740     
  -49729875.495414957        241623828.09083569        1439310445.9589283     
   55327.018436653925        38390.600293081290        1512414027.6275339     
   33400.503156570412        50713.914152783538        1403059860.5002861     
   11794.920501055978        64107.003425634379        1290951784.2385259     
  -9489.7295165987307        78569.868157670702        1176089798.8422425     
  -30453.446917690773        94102.508279636997        1058473904.3114376     
  -9065105.8221126981        61432510.309297808        1484566613.8373048     
  -9575726.5668811761        80834072.591394231        1375898290.3989751     
  -8144126.1216106564        106709705.50695641        1265133517.6951926     
  -4770304.4862917215        139059409.05601257        1152272295.7259605     
   545738.33907146752        177883183.23854861        1037314624.4913000     
  -20402783.854604453        122161456.46072315        1463100212.2957852     
  -19523642.060082808        161515794.74168316        1357383282.8466985     
  -14760378.818100393        213817204.51417962        1250227364.0012279     
  -6112994.1286597699        279065685.77820611        1141632455.7593796     
   6418512.0082393885        357261238.53375793        1031598558.1211709     
  -33957707.079042271        182225229.05455634        1448014823.0030026     
  -29810345.976441249        242095880.36504003        1347514837.8434529     
  -19836963.168966055        321386604.02510715        1246233323.1566050     
  -4037558.6566247046        420097400.03473228        1144170278.9424529     
   17587867.560591519        538228268.39392912        1041325705.2009984     
  -49729875.495414957        241623828.09083569        1439310445.9589283     
  -40435838.315970004        322574329.46142590        1346292955.3892415     
  -23373879.174221933        429417904.03969091        1253151395.1613407     
   1456001.9298050106        562154551.82555020        1159885765.2751963     
   34053804.996123552        720784272.81905437        1066496065.7308460     
  -1510240405.8457401        84729043.925743639        1466932486.1689348     
  -1467358700.8955874        27472060.131568193        1442883906.0158298     
  -1418000727.3909626       -8197361.8143684268        1428758700.5204377     
  -1362166485.3318655       -22279221.912060380        1424556869.6827574     
  -1299855974.7182965       -14773520.161513984        1430278413.5027933     
  -1945021986.5527244        23514278.572297215        1365636201.2883320     
  -1868355843.6995130       -820893.31741905212        1352374769.3357637     
  -1788214556.6956098       -13572251.371488094        1347580650.6729546     
  -1704598125.5410147       -14739795.589911938        1351253845.2999072     
  -1617506550.2357221       -4323525.9726837277        1363394353.2166240     
  -2363488744.0030518       -32806039.804157257        1274854603.2843759     
  -2257198338.5837879       -25467452.390512109        1268879007.7279346     
  -2150433913.4176083       -16548799.153815031        1269914664.0933013     
  -2043195468.5045156       -6050080.0940690041        1277961572.3804789     
  -1935483003.8445024        6028704.7887350321        1293019732.5894706     
  -2765640678.1967149       -84231911.203609824        1194587692.1570594     
  -2633886185.5483999       -46467617.087705851        1192396621.1923380     
  -2504658797.5569553       -17127005.161350727        1195760740.7814710     
  -2377958514.2223692        3789924.5754662752        1204680050.9244683     
  -2253785335.5446420        16283172.122750282        1219154551.6213255     
  -3151477789.1337233       -130763335.62606597        1124835467.9063880     
  -2998419384.5933695       -63821387.409013391        1122927609.7289777     
  -2850889209.1136470       -15306869.394082308        1125118880.7374744     
  -2708887262.6945739        14780218.418697357        1131409280.9318812     
  -2572413545.3361354        26439876.029355764        1141798810.3121946     
  -1299855974.7182965       -14773520.161513984        1430278413.5027933     
  -1257723501.6234446       -5729324.2055684924        1426019109.0967929     
  -1217061645.1307425       -1587183.5901252627        1425162210.5106268     
  -1177870405.2401984       -2347098.3152073026        1427707717.7442973     
  -1140149781.9518011       -8009068.3807777166        1433655630.7978003     
  -1617506550.2357221       -4323525.9726837277        1363394353.2166240     
  -1568311033.0356097       -1376789.0344194174        1357653391.8465092     
  -1520019703.0064602       -1444009.3326917887        1355350241.4339142     
  -1472632560.1482735       -4525186.8675128818        1356484901.9788413     
  -1426149604.4610479       -10620321.638864815        1361057373.4812903     
  -1935483003.8445024        6028704.7887350321        1293019732.5894706     
  -1879123285.0028863        2908329.9701895714        1286457948.5916288     
  -1823101323.9010389       -1337903.9809238911        1283369380.6889949     
  -1767417120.5389633       -6709997.0646098852        1283754028.8815689     
  -1712070674.9166582       -13207949.280864477        1287611893.1693535     
  -2253785335.5446420        16283172.122750282        1219154551.6213255     
  -2190160257.5252686        7126032.8082718849        1212432779.3321490     
  -2126306507.8144817       -1268867.5348199606        1209219628.2758648     
  -2062224086.4122696       -8901528.9064948559        1209515098.4524798     
  -1997912993.3186367       -15771951.306772947        1213319189.8619847     
  -2572413545.3361354        26439876.029355764        1141798810.3121946     
  -2501421950.6027637        11276319.479815364        1135577884.0680704     
  -2429635254.7467794       -1236899.9943556786        1132900984.1945281     
  -2357053457.7681861       -11099782.393158078        1133768110.6915686     
  -2283676559.6669788       -18312327.716586947        1138179263.5591888     
  -1140149781.9518011       -8009068.3807777166        1433655630.7978003     
  -1083931452.9599276       -10177264.897618890        1427348237.1913624     
  -1027597807.2531335       -11961072.364726841        1426395215.0176265     
  -971148844.83141744       -13360490.782094538        1430796564.2765920     
  -914584565.69478416       -14375520.149736643        1440552284.9682584     
  -1426149604.4610479       -10620321.638864815        1361057373.4812903     
  -1355677070.0075762       -10970813.423391402        1354731983.5682781     
  -1285257863.0928409       -11499063.670369446        1353597525.3317177     
  -1214891983.7168381       -12205072.379791498        1357653998.7716136     
  -1144579431.8795781       -13088839.551687181        1366901403.8879623     
  -1712070674.9166582       -13207949.280864477        1287611893.1693535     
  -1627810905.7337239       -11880827.552713513        1281071755.3204982     
  -1543773108.3431833       -11293611.799209297        1279559109.3918457     
  -1459957282.7450352       -11446302.020341396        1283073955.3834028     
  -1376363428.9392772       -12338898.216115832        1291616293.2951703     
  -1997912993.3186367       -15771951.306772947        1213319189.8619847     
  -1900332960.1383705       -12907307.285582066        1206367552.4480183     
  -1803143543.0041564       -11344716.751231551        1204279967.1980128     
  -1706344741.9159875       -11084179.703697801        1207056434.1119673     
  -1609936556.8738713       -12125696.143006504        1214696953.1898830     
  -2283676559.6669788       -18312327.716586947        1138179263.5591888     
  -2173243233.2215185       -14050252.622006059        1130619374.9508440     
  -2063369167.0757647       -11652378.526446104        1127760098.7502186     
  -1954054361.2297144       -11118705.429895520        1129601434.9573052     
  -1845298815.6833723       -12449233.332378983        1136143383.5721033     
  -914584565.69478416       -14375520.149736643        1440552284.9682584     
  -865072633.36050773       -17528791.389976621        1436564604.1636126     
  -815690877.85009575       -21115985.376436174        1437307799.3930526     
  -766439299.16355431       -25137102.109127462        1442781870.6565833     
  -717317897.30087245       -29592141.588019401        1452986817.9541972     
  -1144579431.8795781       -13088839.551687181        1366901403.8879623     
  -1083171735.5950031       -16888980.769060433        1362067556.1717186     
  -1021872195.7583005       -21049643.479338527        1361802697.7624955     
  -960680812.36946654       -25570827.682511330        1366106828.6602871     
  -899597585.42849767       -30452533.378571898        1374979948.8650973     
  -1376363428.9392772       -12338898.216115832        1291616293.2951703     
  -1303522502.2103195       -16924669.462402105        1285961969.1059957     
  -1230767711.5532339       -21797560.948258698        1284714747.4967673     
  -1158099056.9680214       -26957572.673691154        1287874628.4674895     
  -1085516538.4546802       -32404704.638698280        1295441612.0181603     
  -1609936556.8738713       -12125696.143006504        1214696953.1898830     
  -1526124933.2064443       -17635857.469973803        1208247842.9664357     
  -1442377425.2348948       -23359737.783197463        1206043948.5958719     
  -1358694032.9592168       -29297337.082664847        1208085270.0781817     
  -1275074756.3794138       -35448655.368373334        1214371807.4133751     
  -1845298815.6833723       -12449233.332378983        1136143383.5721033     
  -1750979028.5833864       -19022544.791797400        1128925177.7530539     
  -1656701336.8032842       -25736173.984155595        1125790301.0598080     
  -1562465740.3430564       -32590120.909430385        1126738753.4923761     
  -1468272239.2027073       -39584385.567636371        1131770535.0507493     
  -717317897.30087245       -29592141.588019401        1452986817.9541972     
  -658933334.09067500       -31088115.396296889        1451641278.0005457     
  -600299835.41943395       -31754304.334430873        1455838891.4999130     
  -541417401.28715265       -31590708.402430296        1465579658.4523063     
  -482286031.69383746       -30597327.600316539        1480863578.8577197     
  -899597585.42849767       -30452533.378571898        1374979948.8650973     
  -827285440.70708156       -31908857.478479803        1372399813.6115839     
  -754827750.79360557       -32880030.938182741        1374980899.2117474     
  -682224515.68806994       -33366053.757688701        1382723205.6655855     
  -609475735.39047480       -33366925.936997384        1395626732.9730961     
  -1085516538.4546802       -32404704.638698280        1295441612.0181603     
  -1000368048.2201833       -34148749.829686165        1291506259.4843113     
  -915177403.06260240       -35752278.610389560        1292350195.2047937     
  -829944602.98194170       -37215290.980827034        1297973419.1796000     
  -744669647.97819829       -38537786.940987438        1308375931.4087386     
  -1275074756.3794138       -35448655.368373334        1214371807.4133751     
  -1178181156.6299775       -37807792.449899495        1208960615.6187210     
  -1081348792.2264256       -40371047.351043940        1207946779.4790449     
  -984577663.16877437       -43138420.071853518        1211330298.9943545     
  -887867769.45701325       -46109910.612299979        1219111174.1646440     
  -1468272239.2027073       -39584385.567636371        1131770535.0507493     
  -1360724765.9364543       -42885985.339107573        1124762882.0148125     
  -1253341918.2850702       -46736337.160141349        1121770652.0345116     
  -1146123696.2485650       -51135441.030771494        1122793845.1098444     
  -1039070099.8269278       -56083296.950962365        1127832461.2408092     
  -482286031.69383746       -30597327.600316539        1480863578.8577197     
  -425164080.94429368       -26457242.436166883        1478835211.0804203     
  -365818848.06334329       -14906216.833995417        1482539405.5532148     
  -304250333.05102170        4055749.2060794830        1491976162.2761047     
  -240458535.90729421        30428655.684175164        1507145481.2490871     
  -609475735.39047480       -33366925.936997384        1395626732.9730961     
  -537645576.72781658       -30016613.419096500        1393419385.7002265     
  -463569685.55106723       -19180525.854221225        1396975737.4903271     
  -387248061.86020947       -858663.24232357740        1406295788.3433990     
  -308680705.65526682        24948974.416530699        1421379538.2594566     
  -744669647.97819829       -38537786.940987438        1308375931.4087386     
  -658042319.07992446       -35950558.372628152        1306015796.7534525     
  -569146807.28484106       -25802720.148229539        1309450497.9740186     
  -477983112.59295887       -8094272.2678352892        1318680035.0704389     
  -384551235.00426251        17174785.268605903        1333704408.0427160     
  -887867769.45701325       -46109910.612299979        1219111174.1646440     
  -786354308.00060344       -44259077.296704531        1216624444.2400997     
  -682550213.26468253       -34772799.716074347        1219963687.0042920     
  -576455485.24923861       -17651077.870366067        1229128902.4572196     
  -468070123.95428336        7106088.2403802574        1244120090.5988860     
  -1039070099.8269278       -56083296.950962365        1127832461.2408092     
  -922581543.48986423       -54942170.191378772        1125245328.1601677     
  -803779903.49058425       -46090764.557732195        1128515304.5811489     
  -682665179.82907748       -29529080.049996585        1137642390.5037413     
  -559237372.50534749       -5257116.6681917608        1152626585.9279473     
  -240458535.90729421        30428655.684175164        1507145481.2490871     
  -199671458.30511507        60243823.783204362        1486076481.9852545     
  -154287655.70241413        105381408.55064040        1467747643.0156193     
  -104307128.09918228        165841409.98651260        1452158964.3401740     
  -49729875.495414957        241623828.09083569        1439310445.9589283     
  -308680705.65526682        24948974.416530699        1421379538.2594566     
  -259056336.87287721        55258107.315977097        1404677747.1276698     
  -202984695.24151224        107058149.71200456        1391919720.1171434     
  -140465780.76118383        180349101.60458034        1383105457.2278700     
  -71499593.431867927        275130962.99377906        1378234958.4598615     
  -384551235.00426251        17174785.268605903        1333704408.0427160     
  -322650706.96434289        49009543.391653731        1323528797.5328364     
  -252452358.22700438        108503703.83943722        1318500554.9712694     
  -173956188.79224944        195657266.61194223        1318619680.3580282     
  -87162198.660066813        310470231.70920539        1323886173.6930995     
  -468070123.95428336        7106088.2403802574        1244120090.5988860     
  -390454568.57951427        41498132.010234490        1242629633.2007580     
  -302690644.65888286        109718070.93296058        1247490147.5780141     
  -204778352.19238159        211765905.00859076        1258701633.7306471     
  -96717691.180006966        347641634.23712593        1276264091.6586637     
  -559237372.50534749       -5257116.6681917608        1152626585.9279473     
  -462467921.71840888        32723873.171658337        1161980254.1314323     
  -353699554.53715193        110701250.99256346        1178888497.9373598     
  -232932270.96159071        228675016.79448870        1203351317.3457317     
  -100166070.99170634        386645170.57748544        1235368712.3565464     
  -49729875.495414957        241623828.09083569        1439310445.9589283     
  -40435838.315970004        322574329.46142590        1346292955.3892415     
  -23373879.174221933        429417904.03969091        1253151395.1613407     
   1456001.9298050106        562154551.82555020        1159885765.2751963     
   34053804.996123552        720784272.81905437        1066496065.7308460     
  -71499593.431867927        275130962.99377906        1378234958.4598615     
  -57347907.615565211        376854813.22030401        1296715553.0577700     
  -34223930.280408531        508486301.84301174        1214263020.3755043     
  -2127661.4263779819        670025428.86196685        1130877360.4130533     
   38940898.946521550        861472194.27713919        1046558573.1704521     
  -87162198.660066813        310470231.70920539        1323886173.6930995     
  -70464457.412483960        432273952.82994169        1255269951.2746105     
  -43590055.089461416        587999877.53547955        1184911543.9539962     
  -6538991.6909863651        777648005.82585251        1112810951.7312555     
   40688732.782930613        1001218337.7010407        1038968174.6063993     
  -96717691.180006966        347641634.23712593        1276264091.6586637     
  -79785487.706711620        488831748.29039514        1221956150.0397854     
  -51472253.601398468        667958631.11706519        1165096965.8968208     
  -11777988.864049137        885022282.71719015        1105686539.2298045     
   39297306.505330384        1140022703.0907331        1043724870.0387102     
  -100166070.99170634        386645170.57748544        1235368712.3565464     
  -85310998.498243809        546528199.60167050        1196774149.3532739     
  -57870525.816198140        748362562.58781052        1154819286.2039876     
  -17844652.945527494        992148259.53603113        1109504122.9086819     
   34766620.113737643        1277885290.4462276        1060828659.4673687     
  -3151477789.1337233       -130763335.62606597        1124835467.9063880     
  -2998419384.5933695       -63821387.409013391        1122927609.7289777     
  -2850889209.1136470       -15306869.394082308        1125118880.7374744     
  -2708887262.6945739        14780218.418697357        1131409280.9318812     
  -2572413545.3361354        26439876.029355764        1141798810.3121946     
  -3505911274.6782384       -82497190.158443809        1033320419.5057408     
  -3348551622.0192051       -40715793.947151065        1023454667.7199448     
  -3194211710.1278129       -9000200.2946593761        1018604720.3793182     
  -3042891539.0040646        12649590.799017072        1018770577.4838655     
  -2894591108.6479583        24233579.333889008        1023952239.0335820     
  -3870144518.8080435       -37170972.266410351        930168653.02083707     
  -3705864545.8610134       -19764406.410073757        915271577.30181468     
  -3542095825.3886247       -4062015.4692242146        906306981.28722990     
  -3378838357.3908787        9936200.5561428070        903274864.97707832     
  -3216092141.8677812        22230241.666028857        906175228.37136340     
  -4244177521.5231581        5215318.0500314236        815380168.45167160     
  -4070358156.1187987       -967224.79779815674        798378338.47459221     
  -3894541554.8960857       -492314.91778326035        788225663.46121097     
  -3716727717.8550210        6640047.6900706291        784922143.41152537     
  -3536916644.9956021        20429863.025761127        788467778.32554173     
  -4628010282.8235607        44661680.790886402        688954965.79824841     
  -4442032452.7925520        15675750.889687300        672774951.23827350     
  -4251548898.6501956        1708901.3596596718        664360766.90125763     
  -4056559620.3964849        2761132.2007985115        663712412.78720260     
  -3857064618.0314274        18832443.413101912        670829888.89611411     
  -2572413545.3361354        26439876.029355764        1141798810.3121946     
  -2501421950.6027637        11276319.479815364        1135577884.0680704     
  -2429635254.7467794       -1236899.9943556786        1132900984.1945281     
  -2357053457.7681861       -11099782.393158078        1133768110.6915686     
  -2283676559.6669788       -18312327.716586947        1138179263.5591888     
  -2894591108.6479583        24233579.333889008        1023952239.0335820     
  -2813742570.9700613        11675433.989717722        1018637378.5052589     
  -2732450050.3765650        597231.69754552841        1016759506.6701324     
  -2650713546.8674631       -9001027.5426034927        1018318623.5282058     
  -2568533060.4427552       -17119343.730745435        1023314729.0794739     
  -3216092141.8677812        22230241.666028857        906175228.37136340     
  -3125692483.1807489        12185760.946590781        901356795.65066671     
  -3035199959.7851191        2450829.2558130026        899868313.94578397     
  -2944614571.6808848       -6974553.4062955379        901709783.25671530     
  -2853936318.8680611       -16090387.039751053        906881203.58346140     
  -3536916644.9956021        20429863.025761127        788467778.32554173     
  -3437271687.2348123        12807300.350457191        783736135.50429749     
  -3337884982.9724312        4323892.6804578304        782227406.02148485     
  -3238756532.2084589       -5020359.9842383862        783941589.87710059     
  -3139886334.9428883       -15225457.643615603        788878687.07114923     
  -3857064618.0314274        18832443.413101912        670829888.89611411     
  -3748480183.1322627        13540052.201307535        665775398.06615102     
  -3640505119.9385109        6216421.9714674950        663836782.89723241     
  -3533139428.4501700       -3138447.2764053345        665014043.38936305     
  -3426383108.6672487       -14524555.542343378        669307179.54253995     
  -2283676559.6669788       -18312327.716586947        1138179263.5591888     
  -2173243233.2215185       -14050252.622006059        1130619374.9508440     
  -2063369167.0757647       -11652378.526446104        1127760098.7502186     
  -1954054361.2297144       -11118705.429895520        1129601434.9573052     
  -1845298815.6833723       -12449233.332378983        1136143383.5721033     
  -2568533060.4427552       -17119343.730745435        1023314729.0794739     
  -2445926832.7203050       -13019936.298656464        1015012907.9873940     
  -2323705246.4425473       -10202667.015536904        1011411783.3920118     
  -2201868301.6094780       -8667535.8813705444        1012511355.2933295     
  -2080415998.2210889       -8414542.8961566687        1018311623.6913438     
  -2853936318.8680611       -16090387.039751053        906881203.58346140     
  -2719156949.6143827       -12153575.193898320        898041172.00516629     
  -2584587602.9503784       -8916838.6469444036        893901921.01255167     
  -2450228278.8760362       -6380177.3988736868        894463450.60562038     
  -2316078977.3913689       -4543591.4497015476        899725760.78437567     
  -3139886334.9428883       -15225457.643615603        788878687.07114923     
  -2992933583.9037442       -11451169.307725072        779704167.00415814     
  -2846016236.5992517       -7794893.4206602573        775230511.61183763     
  -2699134293.0294070       -4256629.9824258089        775457720.89418197     
  -2552287753.1942120       -836378.99302971363        780385794.85119677     
  -3426383108.6672487       -14524555.542343378        669307179.54253995     
  -3267256735.5883932       -10912718.640131354        660001892.98437977     
  -3107991147.3891702       -6836831.3366930485        655397555.18986785     
  -2948586344.0695739       -2296893.6320140362        655494166.15901208     
  -2789042325.6296101        2707094.4738992453        660291725.89180779     
  -1845298815.6833723       -12449233.332378983        1136143383.5721033     
  -1750979028.5833864       -19022544.791797400        1128925177.7530539     
  -1656701336.8032842       -25736173.984155595        1125790301.0598080     
  -1562465740.3430564       -32590120.909430385        1126738753.4923761     
  -1468272239.2027073       -39584385.567636371        1131770535.0507493     
  -2080415998.2210889       -8414542.8961566687        1018311623.6913438     
  -1975582269.2471063       -13932590.950629592        1010638837.7814109     
  -1870881790.2891159       -19894805.725070000        1006726848.0168381     
  -1766314561.3471146       -26301187.219478846        1006575654.3976146     
  -1661880582.4211082       -33151735.433868408        1010185256.9237504     
  -2316078977.3913689       -4543591.4497015476        899725760.78437567     
  -2201652829.3446803       -9282832.9396110773        891492047.63809884     
  -2087451086.0100970       -14770090.136538744        886696597.65672529     
  -1973473747.3876171       -21005363.040473938        885339410.84025300     
  -1859720813.4772446       -27988651.651431084        887420487.18868375     
  -2552287753.1942120       -836378.99302971363        780385794.85119677     
  -2429190708.8761067       -5073270.7587517500        771484807.32310843     
  -2306409223.9662285       -10362027.218544602        765699549.97947013     
  -2183943298.4645667       -16702648.372396469        763030022.82027841     
  -2061792932.3711228       -24095134.220307827        763476225.84554243     
  -2789042325.6296101        2707094.4738992453        660291725.89180779     
  -2658195907.8413939       -1303904.4080539942        650617116.83644259     
  -2527756204.1575079       -6670616.9711004496        643735704.98507774     
  -2397723214.5779548       -13393043.215250492        639647490.33770859     
  -2268096939.1027346       -21471183.140518188        638352472.89433408     
  -1468272239.2027073       -39584385.567636371        1131770535.0507493     
  -1360724765.9364543       -42885985.339107573        1124762882.0148125     
  -1253341918.2850702       -46736337.160141349        1121770652.0345116     
  -1146123696.2485650       -51135441.030771494        1122793845.1098444     
  -1039070099.8269278       -56083296.950962365        1127832461.2408092     
  -1661880582.4211082       -33151735.433868408        1010185256.9237504     
  -1544149978.8184278       -36200521.660487533        1001478125.6784980     
  -1426409570.5284822       -39216625.596207976        996530406.97220123     
  -1308659357.5512717       -42200047.241050601        995342100.80486536     
  -1190899339.8867981       -45150786.595022082        997913207.17648304     
  -1859720813.4772446       -27988651.651431084        887420487.18868375     
  -1732538538.1572199       -31004061.918911457        877217379.75327575     
  -1605172027.8477855       -33405355.555048764        870517674.34014821     
  -1477621282.5489509       -35192532.559841275        867321370.94930363     
  -1349886302.2607074       -36365592.933270097        867628469.58073306     
  -2061792932.3711228       -24095134.220307827        763476225.84554243     
  -1925890443.9528179       -27296606.114381433        751980644.23914468     
  -1789629290.2429800       -29302527.036653519        743732454.13834453     
  -1653009471.2415938       -30112896.987104475        738731655.54315150     
  -1516030986.9486606       -29727715.965743065        736978248.45355701     
  -2268096939.1027346       -21471183.140518188        638352472.89433408     
  -2124205696.2052393       -25078154.246898174        625767919.13610327     
  -1979781357.7140622       -26908140.041016340        616174746.36679494     
  -1834823923.6292098       -26961140.522870898        609572954.58641946     
  -1689333393.9506674       -25237155.692432165        605962543.79496121     
  -1039070099.8269278       -56083296.950962365        1127832461.2408092     
  -922581543.48986423       -54942170.191378772        1125245328.1601677     
  -803779903.49058425       -46090764.557732195        1128515304.5811489     
  -682665179.82907748       -29529080.049996585        1137642390.5037413     
  -559237372.50534749       -5257116.6681917608        1152626585.9279473     
  -1190899339.8867981       -45150786.595022082        997913207.17648304     
  -1060954778.5263875       -42244501.715015411        994125848.38344550     
  -929568377.15532613       -34532083.466174841        994424809.00204110     
  -796740135.77361608       -22013531.848498523        998810089.03227091     
  -662470054.38125563       -4688846.8620000184        1007281688.4741281     
  -1349886302.2607074       -36365592.933270097        867628469.58073306     
  -1211545136.1340518       -33211970.009989381        861624434.14846563     
  -1072633373.6483109       -28156359.223096251        857935928.03784633     
  -933151014.80349219       -21198760.572608173        856562951.24887073     
  -793098059.59959376       -12339174.058520615        857505503.78155136     
  -1516030986.9486606       -29727715.965743065        736978248.45355701     
  -1374352616.3128536       -27844575.076303720        727741085.45522678     
  -1232974892.9695299       -26963591.828488231        719048661.68856025     
  -1091897816.9186995       -27084766.222310603        710900977.15355861     
  -951121388.16035807       -28208098.257774055        703298031.85021985     
  -1689333393.9506674       -25237155.692432165        605962543.79496121     
  -1549377219.0627980       -26142316.913960874        592475802.30373025     
  -1410592935.1189888       -30953781.282348931        577763009.95418394     
  -1272980542.1192446       -39671548.797621906        561824166.74631155     
  -1136540040.0635624       -52295619.459772885        544659272.68013012     
  -559237372.50534749       -5257116.6681917608        1152626585.9279473     
  -462467921.71840888        32723873.171658337        1161980254.1314323     
  -353699554.53715193        110701250.99256346        1178888497.9373598     
  -232932270.96159071        228675016.79448870        1203351317.3457317     
  -100166070.99170634        386645170.57748544        1235368712.3565464     
  -662470054.38125563       -4688846.8620000184        1007281688.4741281     
  -547271843.80871725        25598811.211733133        1020812748.4811394     
  -421196000.06014770        92145246.538914442        1042740586.2052763     
  -284242523.13553494        194950459.11957669        1073065201.6465291     
  -136411413.03487653        334014448.95370650        1111786594.8049037     
  -793098059.59959376       -12339174.058520615        857505503.78155136     
  -657064797.48524773        10977039.775924653        873905791.83744204     
  -511275185.41313678        66814420.136262447        899545059.72513068     
  -355729223.38324946        155172967.02250743        934423307.44461584     
  -190426911.39559549        276052680.43465960        978540534.99590290     
  -951121388.16035807       -28208098.257774055        703298031.85021985     
  -791846782.74798667       -11141441.135751367        721259384.20033598     
  -623937110.59611106        34708771.784624010        749301918.49693227     
  -447392371.70474279        109342540.50331092        787425634.74000049     
  -262212566.07386237        212759865.02034992        835630532.92954314     
  -1136540040.0635624       -52295619.459772885        544659272.68013012     
  -951617799.59693420       -40756631.523276627        562873525.56982148     
  -759181775.60907745       -4171698.5160187185        592011162.52067125     
  -559231968.09999883        57459179.561973959        632072183.53267300     
  -351768377.06968319        144136002.71076745        683056588.60582030     
  -100166070.99170634        386645170.57748544        1235368712.3565464     
  -85310998.498243809        546528199.60167050        1196774149.3532739     
  -57870525.816198140        748362562.58781052        1154819286.2039876     
  -17844652.945527494        992148259.53603113        1109504122.9086819     
   34766620.113737643        1277885290.4462276        1060828659.4673687     
  -136411413.03487653        334014448.95370650        1111786594.8049037     
  -127316681.86454424        483042991.73482835        1090206463.5742927     
  -95087188.292632133        709187409.18791318        1070060482.1433821     
  -39722932.319123685        1012447701.3129603        1051348650.5121759     
   38776086.055976689        1392823868.1099792        1034070968.6806602     
  -190426911.39559549        276052680.43465960        978540534.99590290     
  -173394093.13206965        418336265.49763185        986282424.78644073     
  -122677150.25396737        672900265.94251287        1000252914.3223898     
  -38276082.761284888        1039744681.7693335        1020452003.6037550     
   79809109.345967829        1518869512.9780564        1046879692.6305262     
  -262212566.07386237        212759865.02034992        835630532.92954314     
  -223543232.30081674        352408020.89006233        885002032.98971176     
  -140640411.70021453        639501132.85163522        945396582.74099684     
  -13504104.272027254        1074039200.9051390        1016814182.1834260     
   157865689.98370051        1656022225.0504563        1099254831.3169556     
  -351768377.06968319        144136002.71076745        683056588.60582030     
  -277764099.37078243        285258257.91213381        786365288.18410301     
  -148976972.63134068        608990009.91532564        905491487.39921904     
   34593003.148653865        1115331258.7203460        1040435186.2511752     
   272945827.96918809        1804282004.3271823        1191196384.7399709     
  -4628010282.8235607        44661680.790886402        688954965.79824841     
  -4442032452.7925520        15675750.889687300        672774951.23827350     
  -4251548898.6501956        1708901.3596596718        664360766.90125763     
  -4056559620.3964849        2761132.2007985115        663712412.78720260     
  -3857064618.0314274        18832443.413101912        670829888.89611411     
  -5038652938.2871122       -23529304.278024673        501751582.45522195     
  -4824092109.6964006       -15566492.863064766        495364306.60165930     
  -4608581948.7031908       -4439240.1064517498        494671489.88271469     
  -4392122455.3074903        9852453.9918053150        499673132.29839069     
  -4174713629.5092921        27308589.431714773        510369233.84868598     
  -5427448999.6053982       -85166311.103355885        327535776.99937952     
  -5190223375.5645313       -42030219.305106163        326792116.19189906     
  -4955604810.8300247       -7584325.1947150230        329671543.43069088     
  -4723593305.4018812        18171371.227797747        336174058.71576756     
  -4494188859.2800970        35236869.962435007        346299662.04711723     
  -5794398466.7784309       -140249339.68511105        166307549.43071893     
  -5540426250.3969584       -63715428.436433792        167058380.00898704     
  -5292617485.0306940       -7726353.9051342010        169360927.54519150     
  -5050972170.6796579        27717883.908758640        173215192.03933588     
  -4815490307.3438282        42617285.005288124        178621173.49140522     
  -6139501339.8061905       -188778390.02328444        18066899.749240413     
  -5874700734.1936665       -80622120.257046223        16163098.052929686     
  -5619619971.3051977       -4865326.2377033234        13739642.226205982     
  -5374259051.1408100        38491992.034736872        10796532.269088676     
  -5138617973.7005014        49449834.560248375        7333768.1815555114     
  -3857064618.0314274        18832443.413101912        670829888.89611411     
  -3748480183.1322627        13540052.201307535        665775398.06615102     
  -3640505119.9385109        6216421.9714674950        663836782.89723241     
  -3533139428.4501700       -3138447.2764053345        665014043.38936305     
  -3426383108.6672487       -14524555.542343378        669307179.54253995     
  -4174713629.5092921        27308589.431714773        510369233.84868598     
  -4059478780.9808788        15694093.462353945        504546064.90304530     
  -3944150476.8736353        4391116.0890953541        502181670.33983409     
  -3828728717.1875639       -6600342.6880736351        503276050.15904963     
  -3713213501.9226661       -17280282.869139671        507829204.36069846     
  -4494188859.2800970        35236869.962435007        346299662.04711723     
  -4371323886.4899130        17594182.425268888        340527780.15074831     
  -4247662630.8366528        2605771.0983583927        338557571.35819143     
  -4123205092.3203325       -9728364.0183479786        340389035.66944456     
  -3997951270.9409361       -19408222.924803495        346022173.08450556     
  -4815490307.3438282        42617285.005288124        178621173.49140522     
  -4684015499.6593513        19240319.090091944        173720543.80925882     
  -4551041581.8275595        860386.99925613403        172964485.95230412     
  -4416568553.8484631       -12522511.267217159        176352999.92053840     
  -4280596415.7220545       -20908375.709320784        183886085.71397030     
  -5138617973.7005014        49449834.560248375        7333768.1815555114     
  -4997553620.4892187        20632503.456740141        4124355.8785721320     
  -4854287329.8463669       -845036.20822906494        5402414.1221726360     
  -4708819101.7719784       -14982784.434730530        11167942.912339328     
  -4561148936.2660255       -21780741.222684145        21420942.249082375     
  -3426383108.6672487       -14524555.542343378        669307179.54253995     
  -3267256735.5883932       -10912718.640131354        660001892.98437977     
  -3107991147.3891702       -6836831.3366930485        655397555.18986785     
  -2948586344.0695739       -2296893.6320140362        655494166.15901208     
  -2789042325.6296101        2707094.4738992453        660291725.89180779     
  -3713213501.9226661       -17280282.869139671        507829204.36069846     
  -3541150053.2032814       -11043472.017819881        499236643.83849525     
  -3369211523.1422548       -5223056.6943631172        495288967.98017561     
  -3197397911.7395849        180963.10123431683        495986176.78573388     
  -3025709218.9952774        5168587.3689672947        501328270.25518280     
  -3997951270.9409361       -19408222.924803495        346022173.08450556     
  -3813110929.7232151       -10594493.067034006        337834182.52308065     
  -3628659640.9425917       -3077604.6662220955        334235012.52576029     
  -3444597404.5990467        3142442.2776508331        335224663.09256214     
  -3260924220.6925936        8065647.7645359039        340803134.22347152     
  -4280596415.7220545       -20908375.709320784        183886085.71397030     
  -4083139365.1482029       -9565781.7877483368        175794509.03813091     
  -3886335500.7901707       -400475.25225067139        172235688.82663569     
  -3690184822.6479464        6587543.8972277641        173209625.07948145     
  -3494687330.7215443        11398275.660629988        178716317.79667619     
  -4561148936.2660255       -21780741.222684145        21420942.249082375     
  -4351235359.4782333       -7957338.1799757481        13117623.383652914     
  -4142239102.6849952        2808331.5475640297        9290996.8827832062     
  -3934160165.8862991        10516267.959969759        9941062.7465060782     
  -3726998549.0821452        15166471.057209015        15067820.974793507     
  -2789042325.6296101        2707094.4738992453        660291725.89180779     
  -2658195907.8413939       -1303904.4080539942        650617116.83644259     
  -2527756204.1575079       -6670616.9711004496        643735704.98507774     
  -2397723214.5779548       -13393043.215250492        639647490.33770859     
  -2268096939.1027346       -21471183.140518188        638352472.89433408     
  -3025709218.9952774        5168587.3689672947        501328270.25518280     
  -2887556603.8281531       -172877.09910690784        492064657.55373365     
  -2749455948.3297005       -5687540.4627567530        485935029.99809200     
  -2611407252.4999118       -11375402.721954465        482939387.58825940     
  -2473410516.3387938       -17236463.876714706        483077730.32423884     
  -3260924220.6925936        8065647.7645359039        340803134.22347152     
  -3114491728.3128071        1685821.6604704857        332364398.05087405     
  -2967756441.1660295       -3684688.5536276102        327400434.96589863     
  -2820718359.2522697       -8045882.8777720928        325911244.96854645     
  -2673377482.5715055       -11397761.311917067        327896828.05880630     
  -3494687330.7215443        11398275.660629988        178716317.79667619     
  -3339001281.2953601        4272191.8706686497        171516338.32787305     
  -3182657682.6665154       -662061.24375891685        168131919.88849989     
  -3025656534.8350286       -3404483.6827135086        168563062.47855601     
  -2867997837.8008699       -3955075.4460899830        172809766.09804454     
  -3726998549.0821452        15166471.057209015        15067820.974793507     
  -3561085262.7758002        7586233.5315208435        9520478.3847258911     
  -3394159672.8311572        3380341.4668383598        8129484.7658894919     
  -3226221779.2481899        2548794.8632348776        10894840.118305286     
  -3057271582.0269041        5091593.7206826210        17816544.441965427     
  -2268096939.1027346       -21471183.140518188        638352472.89433408     
  -2124205696.2052393       -25078154.246898174        625767919.13610327     
  -1979781357.7140622       -26908140.041016340        616174746.36679494     
  -1834823923.6292098       -26961140.522870898        609572954.58641946     
  -1689333393.9506674       -25237155.692432165        605962543.79496121     
  -2473410516.3387938       -17236463.876714706        483077730.32423884     
  -2321664634.3990574       -18718797.422811270        472587942.29894096     
  -2169699330.8949819       -19469725.754454374        464658502.34176761     
  -2017514605.8265793       -19489248.871667981        459289410.45270556     
  -1865110459.1938562       -18777366.774480462        456480666.63175976     
  -2673377482.5715055       -11397761.311917067        327896828.05880630     
  -2515008484.2204022       -11124914.086965680        319135852.73221165     
  -2356733738.3343315       -11166241.745435596        312504192.55291879     
  -2198553244.9132733       -11521744.287292600        308001847.52092981     
  -2040467003.9572406       -12191421.712567687        305628817.63625067     
  -2867997837.8008699       -3955075.4460899830        172809766.09804454     
  -2704237245.6692996       -2296504.2393872738        165411650.43590203     
  -2540884580.0321116       -1997688.0139523745        159711817.00025895     
  -2377939840.8892851       -3058626.7697174549        155710265.79110032     
  -2215403028.2408285       -5479320.5067325830        153406996.80844411     
  -3057271582.0269041        5091593.7206826210        17816544.441965427     
  -2889350918.7457352        7766432.1199094057        11415335.410022495     
  -2722151855.9883065        8035935.4400331974        6281375.6837702785     
  -2555674393.7545791        5900103.6811330318        2414665.2632071776     
  -2389918532.0446110        1358936.8430441618       -184795.85167225238     
  -1689333393.9506674       -25237155.692432165        605962543.79496121     
  -1549377219.0627980       -26142316.913960874        592475802.30373025     
  -1410592935.1189888       -30953781.282348931        577763009.95418394     
  -1272980542.1192446       -39671548.797621906        561824166.74631155     
  -1136540040.0635624       -52295619.459772885        544659272.68013012     
  -1865110459.1938562       -18777366.774480462        456480666.63175976     
  -1728127732.7336116       -22454971.526765108        442822952.98580134     
  -1591208204.1878731       -26343235.994066179        428743816.83785635     
  -1454351873.5566242       -30442160.176329911        414243258.18792534     
  -1317558740.8398769       -34751744.073607326        399321277.03600901     
  -2040467003.9572406       -12191421.712567687        305628817.63625067     
  -1904158787.7636733       -17951788.547360182        293093607.03672177     
  -1766805076.4550436       -20227171.665254235        280941602.29154295     
  -1628405870.0313435       -19017571.066246092        269172803.40071326     
  -1488961168.4925714       -14322986.750345826        257787210.36422595     
  -2215403028.2408285       -5479320.5067325830        153406996.80844411     
  -2077470384.1529903       -12632767.975743651        143287764.45650372     
  -1937383551.9205010       -12605588.295909286        134356366.31524080     
  -1795142531.5433927       -5397781.4673581123        126612802.38467117     
  -1650747323.0216477        8990652.5099996328        120057072.66477053     
  -2389918532.0446110        1358936.8430441618       -184795.85167225238     
  -2248062521.9015274       -6497909.8118398190       -6594574.7548598824     
  -2102943630.5842593       -3478485.8860976696       -11011891.091037156     
  -1954561858.0927806        10417208.620350599       -13436744.860205196     
  -1802917204.4271085        35189173.707422853       -13869136.062349109     
  -1136540040.0635624       -52295619.459772885        544659272.68013012     
  -951617799.59693420       -40756631.523276627        562873525.56982148     
  -759181775.60907745       -4171698.5160187185        592011162.52067125     
  -559231968.09999883        57459179.561973959        632072183.53267300     
  -351768377.06968319        144136002.71076745        683056588.60582030     
  -1317558740.8398769       -34751744.073607326        399321277.03600901     
  -1117857810.8475995       -14796384.885066152        421184817.31578481     
  -914538119.92775106        17221510.728707135        441550956.72674054     
  -707599668.08033526        61301942.767707586        460419695.26888323     
  -497042455.30536687        117444911.23190537        477791032.94220716     
  -1488961168.4925714       -14322986.750345826        257787210.36422595     
  -1309969505.9174094        3402356.6074076891        278755845.00814420     
  -1131254105.0083570        20206827.744826555        285806293.85327131     
  -952814965.76537919        36090426.661982298        278938556.89961618     
  -774652088.18849874        51053153.358812153        258152634.14717254     
  -1650747323.0216477        8990652.5099996328        120057072.66477053     
  -1527952884.8063805        13839592.954116464        135586608.64689600     
  -1409329730.8508658        4784252.5324018002        124777173.90026215     
  -1294877861.1550906       -18175368.755119860        87628768.424868464     
  -1184597275.7190847       -55039270.908532262        24141392.220731121     
  -1802917204.4271085        35189173.707422853       -13869136.062349109     
  -1771807947.5145016        16515324.155080080       -8322891.7679615347     
  -1748764997.4553025       -29046214.908621192       -41536403.132287733     
  -1733788354.2495024       -101495443.48364729       -113509670.15534098     
  -1726878017.8971226       -200832361.57008576       -224242692.83712369     
  -351768377.06968319        144136002.71076745        683056588.60582030     
  -277764099.37078243        285258257.91213381        786365288.18410301     
  -148976972.63134068        608990009.91532564        905491487.39921904     
   34593003.148653865        1115331258.7203460        1040435186.2511752     
   272945827.96918809        1804282004.3271823        1191196384.7399709     
  -497042455.30536687        117444911.23190537        477791032.94220716     
  -388228489.73780853        223068023.55901068        597065333.26757812     
  -230283976.50982276        492459628.08754367        735490926.82606268     
  -23208915.621426880        925619724.81746173        893067813.61766148     
   232996692.92739615        1522548313.7488091        1069795993.6423725     
  -774652088.18849874        51053153.358812153        258152634.14717254     
  -621503310.19150639        124034660.17987597        386798183.60949957     
  -424876285.91422111        341943654.60194099        537928819.90121186     
  -184771015.35661599        704780136.62505507        711544543.02230453     
   98812501.481276810        1212544106.2491376        907645352.97277975     
  -1184597275.7190847       -55039270.908532262        24141392.220731121     
  -977588560.73188770       -11841832.225272000        155563839.20986375     
  -732753900.84449530        157442089.45861185        312805166.62465191     
  -450093296.05692261        452812494.14310813        495865374.46509600     
  -129606746.36918759        874269381.82814932        704744462.73120022     
  -1726878017.8971226       -200832361.57008576       -224242692.83712369     
  -1456484241.3589134       -184561453.65636015       -96637699.931328550     
  -1153916821.3006701       -61045067.342487454        60119966.996395066     
  -819175757.72234428        169716797.37162668        246030307.94605628     
  -452261050.62398434        507724140.48588800        461093322.91763669     
 </DataArray>
 <DataArray  type="Float64" Name="VM" NumberOfComponents="1" format="ascii">
   6146222822.4208345     
   5882427602.8692131     
   5628965248.2931557     
   5384857178.9387445     
   5149552311.4278831     
   5793126891.6684189     
   5548671210.2900705     
   5310177993.5577068     
   5077342210.7658243     
   4850082996.0509939     
   5449913491.5697489     
   5223630519.8077793     
   5000342545.1504850     
   4780119973.1733131     
   4563129264.3263426     
   5114555248.0027723     
   4906634449.8227720     
   4700239429.9904852     
   4495481376.5129662     
   4292546400.2769384     
   4785863888.8358946     
   4597781887.1088743     
   4411422232.2543554     
   4226564705.9079542     
   4043187715.9896536     
   5149552311.4278831     
   5001560320.3975792     
   4853876751.1831350     
   4706516674.7530317     
   4559505832.1333513     
   4850082996.0509939     
   4709781406.4071350     
   4569839451.0072746     
   4430295949.4873247     
   4291209538.5963578     
   4563129264.3263426     
   4431673112.8120470     
   4300850858.0254555     
   4170730047.2907181     
   4041411724.8068557     
   4292546400.2769384     
   4171122693.3088217     
   4050863367.8696384     
   3931869737.6115446     
   3814294787.5343990     
   4043187715.9896536     
   3932948954.4310899     
   3824692287.4275904     
   3718554563.8591657     
   3614745799.4608536     
   4559505832.1333513     
   4353312681.3983030     
   4147004888.7980523     
   3940576827.9272451     
   3734067219.6901722     
   4291209538.5963578     
   4096363564.8302402     
   3901983598.4101329     
   3708135860.0472507     
   3514954175.2335114     
   4041411724.8068557     
   3858927101.9198065     
   3677674032.5365438     
   3497813196.4954929     
   3319600117.1453204     
   3814294787.5343990     
   3645232507.7976699     
   3478364395.4272475     
   3313962894.7728400     
   3152422634.3072386     
   3614745799.4608536     
   3460147209.0805879     
   3308894578.4539375     
   3161376468.0292549     
   3018124685.8560872     
   3734067219.6901722     
   3564860082.7074175     
   3396100595.9516439     
   3227789200.8451476     
   3059977932.8383384     
   3514954175.2335114     
   3355790942.5328026     
   3197526195.6701360     
   3040222145.9324698     
   2883999091.2814255     
   3319600117.1453204     
   3170246923.3171687     
   3022265500.3277745     
   2875785311.8809648     
   2731000488.2367244     
   3152422634.3072386     
   3012820119.5237317     
   2875080035.0521312     
   2739401265.0219011     
   2606052712.9119577     
   3018124685.8560872     
   2888390241.5670128     
   2761012291.6593037     
   2636255174.8693266     
   2514455511.3436995     
   3059977932.8383384     
   2893048976.4392686     
   2725923937.4988794     
   2558597634.0795288     
   2391067177.1631536     
   2883999091.2814255     
   2720037512.7099409     
   2556204019.6005898     
   2392527348.9738731     
   2229053893.2414155     
   2731000488.2367244     
   2572467651.6918349     
   2414793010.4369102     
   2258117611.2592864     
   2102642094.1420510     
   2606052712.9119577     
   2455568092.0283694     
   2307124488.1567116     
   2161051441.9489932     
   2017799083.2494633     
   2514455511.3436995     
   2374569499.5744977     
   2238323747.8412642     
   2106270719.4449406     
   1979136504.1862202     
   2391067177.1631536     
   2245391651.2375860     
   2101870010.4446297     
   1960505951.4398289     
   1821464681.3280215     
   2229053893.2414155     
   2086479684.0683510     
   1945541593.6574135     
   1806239946.4957931     
   1668649974.3349338     
   2102642094.1420510     
   1962476610.6822248     
   1823277130.5486887     
   1685071685.5928853     
   1547916713.7468607     
   2017799083.2494633     
   1880965017.3051400     
   1744490529.9180889     
   1608500692.1295197     
   1473167470.9809840     
   1979136504.1862202     
   1848262270.6467791     
   1717490097.9937239     
   1587165432.6359191     
   1457786916.9765222     
   1821464681.3280215     
   1780540860.2944999     
   1736112550.0922489     
   1696816157.1529410     
   1681130657.6922886     
   1668649974.3349338     
   1553053775.5711453     
   1428346554.0897822     
   1294895578.1865568     
   1158819543.3170600     
   1547916713.7468607     
   1397928882.5771434     
   1244376677.5106487     
   1085000228.1071086     
   917778058.40700662     
   1473167470.9809840     
   1328883598.5096099     
   1199057476.4492638     
   1088182503.2243104     
   1002176535.3858186     
   1457786916.9765222     
   1348797057.8291647     
   1274779595.3393545     
   1243871041.3103070     
   1263113834.6881282     
   1681130657.6922886     
   1383647740.5477052     
   1129446695.4272473     
   1010215031.0202401     
   1153139310.3983245     
   1158819543.3170600     
   1008404566.4437338     
   985233051.31724751     
   1161518136.6787779     
   1544142520.3752534     
   917778058.40700662     
   963174380.99818242     
   1144960938.7992699     
   1476488456.5369666     
   1957452183.7395267     
   1002176535.3858186     
   1164805938.4245651     
   1425463625.8669219     
   1808743795.5743256     
   2334743449.1761045     
   1263113834.6881282     
   1446813669.7445552     
   1715736186.5120580     
   2110475937.0589685     
   2663489959.5439620     
   4785863888.8358946     
   4597781887.1088743     
   4411422232.2543554     
   4226564705.9079542     
   4043187715.9896536     
   4448788430.0440273     
   4278240714.9622989     
   4110652995.9030762     
   3946292460.8782926     
   3785595937.9338207     
   4146405820.8489428     
   3991732296.1157603     
   3841843496.3746610     
   3697293906.8413601     
   3558793670.5292773     
   3884198217.5512204     
   3743356475.7053041     
   3609657596.0769315     
   3483676706.4386697     
   3366150687.7416673     
   3668573218.8283396     
   3538922881.6040220     
   3419221817.6257796     
   3309740297.7399621     
   3210948314.7095637     
   4043187715.9896536     
   3932948954.4310899     
   3824692287.4275904     
   3718554563.8591657     
   3614745799.4608536     
   3785595937.9338207     
   3688889849.8516359     
   3594674431.3134370     
   3503144972.6495819     
   3414555325.2330561     
   3558793670.5292773     
   3475028748.0387487     
   3394211671.6769199     
   3316561296.7052431     
   3242338685.6279125     
   3366150687.7416673     
   3294787360.1565986     
   3226723981.0901556     
   3162163858.2025981     
   3101336718.4120197     
   3210948314.7095637     
   3151452976.5088897     
   3095446825.2469668     
   3043078124.7273474     
   2994509585.2983150     
   3614745799.4608536     
   3460147209.0805879     
   3308894578.4539375     
   3161376468.0292549     
   3018124685.8560872     
   3414555325.2330561     
   3276073655.7372108     
   3141750313.9625974     
   3012074493.5679665     
   2887679165.0617933     
   3242338685.6279125     
   3120482999.8872638     
   3003620953.7710090     
   2892316183.2053747     
   2787263940.4486461     
   3101336718.4120197     
   2996548285.6617546     
   2897547718.3197517     
   2804931862.4571333     
   2719404310.6255665     
   2994509585.2983150     
   2907031939.9517498     
   2826016261.5943089     
   2752042125.0236073     
   2685762559.5265441     
   3018124685.8560872     
   2888390241.5670128     
   2761012291.6593037     
   2636255174.8693266     
   2514455511.3436995     
   2887679165.0617933     
   2769369418.9755878     
   2654433435.1420631     
   2543263980.3157258     
   2436344902.2608271     
   2787263940.4486461     
   2682281967.9995704     
   2581843707.1669717     
   2486453595.5057211     
   2396711266.9851236     
   2719404310.6255665     
   2629318888.6850357     
   2544995141.8206186     
   2467002044.3601465     
   2395989603.9839149     
   2685762559.5265441     
   2611578135.4307013     
   2544301214.6331143     
   2484500793.9717045     
   2432800011.3917127     
   2514455511.3436995     
   2374569499.5744977     
   2238323747.8412642     
   2106270719.4449406     
   1979136504.1862202     
   2436344902.2608271     
   2311718991.1748400     
   2192191445.1324420     
   2078508176.9435403     
   1971592862.9497344     
   2396711266.9851236     
   2289103589.5876617     
   2188028756.3048611     
   2094323036.3531494     
   2008958777.3496194     
   2395989603.9839149     
   2306354762.2584958     
   2224445201.6562953     
   2151059945.9459944     
   2087068271.7169826     
   2432800011.3917127     
   2361125253.7829933     
   2297985871.1789675     
   2244045225.3680906     
   2199977706.6500235     
   1979136504.1862202     
   1848262270.6467791     
   1717490097.9937239     
   1587165432.6359191     
   1457786916.9765222     
   1971592862.9497344     
   1855366299.6704173     
   1743529114.7245624     
   1636995062.9144685     
   1536884953.2606909     
   2008958777.3496194     
   1912516669.6016707     
   1824829856.4797561     
   1747091372.6250987     
   1680586328.0084140     
   2087068271.7169826     
   2012026706.9886413     
   1949299086.4603176     
   1899962189.3155668     
   1865043447.6134100     
   2199977706.6500235     
   2144970291.0205123     
   2104846347.8264382     
   2080376747.4448578     
   2072240795.4362173     
   1457786916.9765222     
   1348797057.8291647     
   1274779595.3393545     
   1243871041.3103070     
   1263113834.6881282     
   1536884953.2606909     
   1476101998.1778958     
   1448010688.8428080     
   1456579801.0392187     
   1505099192.0762501     
   1680586328.0084140     
   1652213805.6719222     
   1651557717.6638231     
   1680985223.5491261     
   1743101089.4409742     
   1865043447.6134100     
   1854669670.5693827     
   1867253524.5908270     
   1905002117.8209181     
   1970947478.0179846     
   2072240795.4362173     
   2068854557.1536610     
   2084677908.6402853     
   2122342663.3392706     
   2185668289.0425906     
   1263113834.6881282     
   1446813669.7445552     
   1715736186.5120580     
   2110475937.0589685     
   2663489959.5439620     
   1505099192.0762501     
   1613402058.5092866     
   1788906069.5877330     
   2066370136.0659027     
   2476011139.3474970     
   1743101089.4409742     
   1787818472.1923664     
   1884685778.7882931     
   2060614570.3962178     
   2340836675.9638500     
   1970947478.0179846     
   1969020145.7456398     
   2003640019.1694648     
   2093476594.8204563     
   2257182369.4258776     
   2185668289.0425906     
   2156290843.1205645     
   2146509119.1226430     
   2166834808.3973923     
   2228323418.8082199     
   3668573218.8283396     
   3538922881.6040220     
   3419221817.6257796     
   3309740297.7399621     
   3210948314.7095637     
   3471888338.9221888     
   3359271811.4535861     
   3255359284.7418027     
   3160747301.9177375     
   3076157051.7446747     
   3291470290.9694018     
   3196221172.0234342     
   3110081954.6115584     
   3033581453.4375224     
   2967418173.9784670     
   3131544559.6142907     
   3054181769.4738812     
   2988062922.6207442     
   2933165812.7185307     
   2889835023.6391797     
   2998335922.0997958     
   2938998957.2093906     
   2894850094.2530589     
   2864736460.6879301     
   2848256804.5694771     
   3210948314.7095637     
   3151452976.5088897     
   3095446825.2469668     
   3043078124.7273474     
   2994509585.2983150     
   3076157051.7446747     
   3022533988.2634983     
   2973155147.7155051     
   2928198259.9978757     
   2887856670.3820992     
   2967418173.9784670     
   2919801216.5650277     
   2877329686.4981489     
   2840187973.1274586     
   2808575544.6742988     
   2889835023.6391797     
   2847804077.2636580     
   2811943126.3564062     
   2782418039.0343537     
   2759407745.7088432     
   2848256804.5694771     
   2810721168.5812497     
   2780477066.1880379     
   2757649891.5222993     
   2742375325.9326754     
   2994509585.2983150     
   2907031939.9517498     
   2826016261.5943089     
   2752042125.0236073     
   2685762559.5265441     
   2887856670.3820992     
   2814556157.9892507     
   2748666055.7276511     
   2690732261.6298375     
   2641352804.8521643     
   2808575544.6742988     
   2749176424.1843309     
   2698052445.6775990     
   2655674565.3758159     
   2622543849.5904045     
   2759407745.7088432     
   2712979367.8446202     
   2675577341.5081048     
   2647568016.5959301     
   2629330481.4629979     
   2742375325.9326754     
   2707276948.2913713     
   2681843669.5927072     
   2666326205.8264952     
   2660978100.8983135     
   2685762559.5265441     
   2611578135.4307013     
   2544301214.6331143     
   2484500793.9717045     
   2432800011.3917127     
   2641352804.8521643     
   2581630964.5343957     
   2529477277.7961388     
   2485374324.4078350     
   2449830593.6609669     
   2622543849.5904045     
   2576345245.2853775     
   2538196824.6295729     
   2508471872.4458265     
   2487549242.7995224     
   2629330481.4629979     
   2595188549.6504593     
   2569416331.9659529     
   2552274607.1507220     
   2544018962.3535604     
   2660978100.8983135     
   2636982482.4070506     
   2621557525.4263463     
   2614864454.0623493     
   2617056415.6584044     
   2432800011.3917127     
   2361125253.7829933     
   2297985871.1789675     
   2244045225.3680906     
   2199977706.6500235     
   2449830593.6609669     
   2393120916.6116295     
   2345816393.8434415     
   2308462622.3947330     
   2281585449.7422218     
   2487549242.7995224     
   2444896210.5222769     
   2412296380.8115001     
   2390156622.4553990     
   2378849176.7975760     
   2544018962.3535604     
   2513961216.4730515     
   2494447543.3455548     
   2485752688.1606336     
   2488116121.8257995     
   2617056415.6584044     
   2597736831.3656974     
   2589384412.4699602     
   2592164687.2745957     
   2606216057.4682684     
   2199977706.6500235     
   2144970291.0205123     
   2104846347.8264382     
   2080376747.4448578     
   2072240795.4362173     
   2281585449.7422218     
   2241420906.4206471     
   2215110378.6582794     
   2203103755.1860390     
   2205787340.9821796     
   2378849176.7975760     
   2350539049.6061678     
   2335024938.2819047     
   2332554967.7343407     
   2343347647.5849657     
   2488116121.8257995     
   2468965264.7451277     
   2461641092.5114260     
   2466276862.9051661     
   2483004522.0425057     
   2606216057.4682684     
   2593897211.0507321     
   2592585102.6436038     
   2602355683.4672589     
   2623303371.4182425     
   2072240795.4362173     
   2068854557.1536610     
   2084677908.6402853     
   2122342663.3392706     
   2185668289.0425906     
   2205787340.9821796     
   2191487618.7825913     
   2192171746.9696393     
   2209810321.5066504     
   2247328063.3590617     
   2343347647.5849657     
   2318968999.1030216     
   2306132208.9384627     
   2306243976.7966576     
   2321394911.2815933     
   2483004522.0425057     
   2450331065.4890065     
   2426243487.5320363     
   2411687536.4873457     
   2408039786.9720678     
   2623303371.4182425     
   2584797965.7426109     
   2552224135.6183538     
   2526162651.7802491     
   2507420110.5439682     
   2185668289.0425906     
   2156290843.1205645     
   2146509119.1226430     
   2166834808.3973923     
   2228323418.8082199     
   2247328063.3590617     
   2182624414.1262693     
   2134355130.9486873     
   2112179245.6971562     
   2127020300.8071673     
   2321394911.2815933     
   2224690752.5464215     
   2141309432.6091652     
   2079612554.0860245     
   2049766437.5948761     
   2408039786.9720678     
   2282783594.7047172     
   2168018836.8326054     
   2070485518.0423479     
   1998952332.5497510     
   2507420110.5439682     
   2357111933.0385547     
   2214953745.6860299     
   2085928922.4166079     
   1976919242.6822345     
   2998335922.0997958     
   2938998957.2093906     
   2894850094.2530589     
   2864736460.6879301     
   2848256804.5694771     
   2762307427.8165679     
   2739281267.8493271     
   2728639205.6516242     
   2730175303.5040078     
   2743900324.4596124     
   2609293505.1126842     
   2610853989.6298971     
   2622069933.6841841     
   2642999302.8174787     
   2673701720.3012853     
   2542018766.4398198     
   2555939684.2290320     
   2577013982.5221801     
   2604811716.9700866     
   2639112879.8003664     
   2556876990.6813216     
   2571763093.7841582     
   2591597193.1404638     
   2614716311.4059863     
   2640298711.2976489     
   2848256804.5694771     
   2810721168.5812497     
   2780477066.1880379     
   2757649891.5222993     
   2742375325.9326754     
   2743900324.4596124     
   2715940201.2058539     
   2695149652.7401733     
   2681608408.1184168     
   2675402248.2579713     
   2673701720.3012853     
   2653997292.1620479     
   2641316974.6240530     
   2635697688.4297733     
   2637182653.9745502     
   2639112879.8003664     
   2626114508.9648924     
   2619992472.0196562     
   2620746367.2855587     
   2628386249.4122958     
   2640298711.2976489     
   2632303556.3577662     
   2631062177.0236907     
   2636543246.9788547     
   2648733005.2661486     
   2742375325.9326754     
   2707276948.2913713     
   2681843669.5927072     
   2666326205.8264952     
   2660978100.8983135     
   2675402248.2579713     
   2651153739.9384637     
   2636611587.3846254     
   2631920726.3400211     
   2637223617.8211269     
   2637182653.9745502     
   2621173449.8266954     
   2614839928.7807498     
   2618245708.5372810     
   2631451696.8311119     
   2628386249.4122958     
   2617667072.1463017     
   2616564791.0673885     
   2625093523.0977960     
   2643266455.2163472     
   2648733005.2661486     
   2640185881.8225174     
   2641205320.1792512     
   2651789965.3857245     
   2671939020.6350341     
   2660978100.8983135     
   2636982482.4070506     
   2621557525.4263463     
   2614864454.0623493     
   2617056415.6584044     
   2637223617.8211269     
   2621480428.3068910     
   2614289379.1964273     
   2615741120.3028121     
   2625919820.0473962     
   2631451696.8311119     
   2622024516.4374352     
   2621131485.2410626     
   2628812264.0312915     
   2645102965.9976830     
   2643266455.2163472     
   2638065015.6780882     
   2641413989.7459488     
   2653322930.9162545     
   2673800390.1802936     
   2671939020.6350341     
   2668802374.8832703     
   2674292095.6879239     
   2688408209.8556242     
   2711150753.9969139     
   2617056415.6584044     
   2597736831.3656974     
   2589384412.4699602     
   2592164687.2745957     
   2606216057.4682684     
   2625919820.0473962     
   2614488269.5288601     
   2613592125.5349994     
   2623317635.2941608     
   2643735005.8038225     
   2645102965.9976830     
   2639693279.9495029     
   2644479900.7200570     
   2659498581.1768570     
   2684777837.5787382     
   2673800390.1802936     
   2672570928.2412510     
   2681318098.4767208     
   2700050475.9878860     
   2728774870.9765286     
   2711150753.9969139     
   2712323464.1806216     
   2723388228.0271711     
   2744345009.3559179     
   2775193812.5928149     
   2606216057.4682684     
   2593897211.0507321     
   2592585102.6436038     
   2602355683.4672589     
   2623303371.4182425     
   2643735005.8038225     
   2632984724.5218482     
   2632423164.9648666     
   2642087995.7816682     
   2662028947.6701312     
   2684777837.5787382     
   2675307373.4946194     
   2675385265.9548516     
   2685026107.7380066     
   2704250548.8144140     
   2728774870.9765286     
   2720445310.9215255     
   2721182150.7911057     
   2730988441.2139010     
   2749868986.8794646     
   2775193812.5928149     
   2768002001.4805326     
   2769536166.1774473     
   2779796292.8200874     
   2798782375.6410184     
   2623303371.4182425     
   2584797965.7426109     
   2552224135.6183538     
   2526162651.7802491     
   2507420110.5439682     
   2662028947.6701312     
   2616621552.0589080     
   2576909703.1676235     
   2543223766.0204272     
   2516024877.1603541     
   2704250548.8144140     
   2654028512.1039844     
   2609409445.9013290     
   2570540435.5029235     
   2537627289.8211770     
   2749868986.8794646     
   2696925951.5168958     
   2649636197.1756129     
   2608036200.7571521     
   2572176961.1981316     
   2798782375.6410184     
   2745212281.1819234     
   2697488177.1204171     
   2655610062.9071941     
   2619577938.3909340     
   2507420110.5439682     
   2357111933.0385547     
   2214953745.6860299     
   2085928922.4166079     
   1976919242.6822345     
   2516024877.1603541     
   2348169169.0322952     
   2183857097.0332732     
   2026190066.4621990     
   1879735876.3682733     
   2537627289.8211770     
   2357317929.4950433     
   2176741178.7769923     
   1997368913.6068337     
   1821479941.5493226     
   2572176961.1981316     
   2384662135.9020848     
   2194072670.2637243     
   2000786652.3206675     
   1805407830.9992225     
   2619577938.3909340     
   2430170964.8571787     
   2235994081.2038369     
   2037047287.5785787     
   1833330584.2027879     
   2556876990.6813216     
   2571763093.7841582     
   2591597193.1404638     
   2614716311.4059863     
   2640298711.2976489     
   2617204186.9195018     
   2608174722.2604370     
   2605527911.2640443     
   2608783915.6777759     
   2617725173.1655679     
   2704346452.6442404     
   2673423773.7615595     
   2651861204.4140363     
   2639679596.1449094     
   2636925186.1203375     
   2823271030.4735241     
   2771398094.9286160     
   2732991726.7883549     
   2708069888.1430211     
   2696719635.6570807     
   2978529683.7453761     
   2905159124.1042089     
   2850126956.3907328     
   2813135743.7854834     
   2794231447.7965946     
   2640298711.2976489     
   2632303556.3577662     
   2631062177.0236907     
   2636543246.9788547     
   2648733005.2661486     
   2617725173.1655679     
   2610481744.7445936     
   2609815893.8979797     
   2615724840.8176827     
   2628208805.7614379     
   2636925186.1203375     
   2627026704.5199795     
   2623393724.2827010     
   2626064277.5901852     
   2635076469.9111929     
   2696719635.6570807     
   2681112757.7465773     
   2671313703.9719801     
   2667405695.9687676     
   2669481452.5968137     
   2794231447.7965946     
   2770430801.2505312     
   2751830635.3646445     
   2738552100.0498471     
   2730747065.5569334     
   2648733005.2661486     
   2640185881.8225174     
   2641205320.1792512     
   2651789965.3857245     
   2671939020.6350341     
   2628208805.7614379     
   2617343501.2569022     
   2615982955.8260455     
   2624144042.0376463     
   2641843127.5564475     
   2635076469.9111929     
   2619162174.7249436     
   2612736624.1712742     
   2615863799.9929681     
   2628604990.7021165     
   2669481452.5968137     
   2645967151.9970365     
   2631938607.7517376     
   2627533467.3935733     
   2632885323.4182119     
   2730747065.5569334     
   2697396612.3929291     
   2673503147.0459719     
   2659298776.2526836     
   2655013486.1645656     
   2671939020.6350341     
   2668802374.8832703     
   2674292095.6879239     
   2688408209.8556242     
   2711150753.9969139     
   2641843127.5564475     
   2636771636.7192154     
   2640251924.7719722     
   2652294536.9116073     
   2672909084.1888561     
   2628604990.7021165     
   2619428594.4596758     
   2618789206.5991206     
   2626728586.1784534     
   2643285077.6509771     
   2632885323.4182119     
   2617502117.9161210     
   2610676449.6943779     
   2612502329.4451032     
   2623067461.0649185     
   2655013486.1645656     
   2631472558.7770801     
   2616511896.9701252     
   2610297605.4785728     
   2612987900.3350458     
   2711150753.9969139     
   2712323464.1806216     
   2723388228.0271711     
   2744345009.3559179     
   2775193812.5928149     
   2672909084.1888561     
   2672120809.9456878     
   2681227399.3771544     
   2700236275.4915314     
   2729153027.0503898     
   2643285077.6509771     
   2638747117.3488131     
   2644239609.6137991     
   2659795489.7672458     
   2685440405.2719436     
   2623067461.0649185     
   2612952570.2964745     
   2613119445.1321311     
   2623648344.1482220     
   2644603641.4055724     
   2612987900.3350458     
   2595469478.5628362     
   2588572339.8417187     
   2592450235.1700740     
   2607230363.1778221     
   2775193812.5928149     
   2768002001.4805326     
   2769536166.1774473     
   2779796292.8200874     
   2798782375.6410184     
   2729153027.0503898     
   2720668422.7936087     
   2721274923.9259639     
   2730975972.0273318     
   2749776370.7500796     
   2685440405.2719436     
   2675687607.7707195     
   2675534079.5300136     
   2684995030.5791044     
   2704091253.7665157     
   2644603641.4055724     
   2633465254.2032452     
   2632595135.4815927     
   2642031854.3814282     
   2661825750.8432550     
   2607230363.1778221     
   2594431836.9985466     
   2592751803.9491820     
   2602267719.4536309     
   2623075588.9835691     
   2798782375.6410184     
   2745212281.1819234     
   2697488177.1204171     
   2655610062.9071941     
   2619577938.3909340     
   2749776370.7500796     
   2696879113.1274967     
   2649624192.0670776     
   2608048273.0438242     
   2572202774.7505488     
   2704091253.7665157     
   2653954910.9492412     
   2609399446.3407602     
   2570572269.4502797     
   2537679810.8676100     
   2661825750.8432550     
   2616539482.9301105     
   2576915076.0188518     
   2543283250.3960090     
   2516105700.0519571     
   2623075588.9835691     
   2584723759.4457541     
   2552257511.1426115     
   2526257857.8947172     
   2507531602.4419732     
   2619577938.3909340     
   2430170964.8571787     
   2235994081.2038369     
   2037047287.5785787     
   1833330584.2027879     
   2572202774.7505488     
   2384677798.6503510     
   2194085412.6781735     
   2000804328.5807602     
   1805439153.6651201     
   2537679810.8676100     
   2357348092.8299398     
   2176762980.6108761     
   1997397042.3289220     
   1821529703.2051120     
   2516105700.0519571     
   2348213096.9302835     
   2183884309.1655450     
   2026220910.2009916     
   1879789984.9235413     
   2507531602.4419732     
   2357169273.4445024     
   2214982730.0288839     
   2085954536.2810719     
   1976963772.3451772     
   2978529683.7453761     
   2905159124.1042089     
   2850126956.3907328     
   2813135743.7854834     
   2794231447.7965946     
   3069899988.7779737     
   2995992834.0924287     
   2936246965.0082517     
   2891091051.2385993     
   2861098615.6545358     
   3222635777.1256752     
   3141380213.9140582     
   3070358699.2468667     
   3010295694.9771228     
   2962009342.6090674     
   3421114940.8480606     
   3329047066.3285255     
   3243492403.2460485     
   3165039560.1934543     
   3094434636.1126847     
   3651380293.4053855     
   3547693326.7000642     
   3447004914.6304135     
   3349415991.6612401     
   3255324619.7882051     
   2794231447.7965946     
   2770430801.2505312     
   2751830635.3646445     
   2738552100.0498471     
   2730747065.5569334     
   2861098615.6545358     
   2826147617.4526725     
   2796281439.8623562     
   2771670446.6607914     
   2752508099.8527441     
   2962009342.6090674     
   2915733192.4705415     
   2874434204.2475195     
   2838313259.3766088     
   2807593393.9029942     
   3094434636.1126847     
   3036846986.7667804     
   2984144651.6757622     
   2936540616.5473790     
   2894274428.3042159     
   3255324619.7882051     
   3186543135.7131686     
   3122581897.2709031     
   3063650080.2048621     
   3009991801.4751983     
   2730747065.5569334     
   2697396612.3929291     
   2673503147.0459719     
   2659298776.2526836     
   2655013486.1645656     
   2752508099.8527441     
   2707213334.5199447     
   2670939820.1493001     
   2644041753.1570859     
   2626882281.5111456     
   2807593393.9029942     
   2748454890.4919949     
   2697729179.2917833     
   2655886198.2819862     
   2623425942.5395017     
   2894274428.3042159     
   2820083649.7002120     
   2753519548.6326032     
   2695139608.8034992     
   2645559905.2816839     
   3009991801.4751983     
   2920196818.1868744     
   2837095955.3721480     
   2761290227.9527950     
   2693469047.7435632     
   2655013486.1645656     
   2631472558.7770801     
   2616511896.9701252     
   2610297605.4785728     
   2612987900.3350458     
   2626882281.5111456     
   2592476935.7851672     
   2566451945.6736317     
   2549066434.7774525     
   2540574290.6562696     
   2623425942.5395017     
   2576526776.2395291     
   2537698269.4100170     
   2507302090.4817095     
   2485704585.7818537     
   2645559905.2816839     
   2584964673.5533557     
   2531981590.2910552     
   2487068907.6547365     
   2450707900.9618678     
   2693469047.7435632     
   2618472361.8252578     
   2550469745.3713064     
   2489992171.5131364     
   2437618360.1184211     
   2612987900.3350458     
   2595469478.5628362     
   2588572339.8417187     
   2592450235.1700740     
   2607230363.1778221     
   2540574290.6562696     
   2511864922.2387099     
   2493540593.1315761     
   2485870236.7465324     
   2489088111.2207637     
   2485704585.7818537     
   2443707491.8369379     
   2411766014.3860602     
   2390295250.1090837     
   2379677049.3233175     
   2450707900.9618678     
   2393690278.3612647     
   2346208881.3192210     
   2308840456.3882923     
   2282146349.6742125     
   2437618360.1184211     
   2364387805.8143539     
   2299909090.8489265     
   2244906429.1408772     
   2200126294.8920174     
   2607230363.1778221     
   2594431836.9985466     
   2592751803.9491820     
   2602267719.4536309     
   2623075588.9835691     
   2489088111.2207637     
   2469550205.4338970     
   2461909191.8681617     
   2466299417.3412557     
   2482854581.2722378     
   2379677049.3233175     
   2351103343.4650025     
   2335356536.5380855     
   2332684194.7411070     
   2343305689.5283670     
   2282146349.6742125     
   2241881745.8781056     
   2215464726.0096602     
   2203340873.0679994     
   2205894531.5965366     
   2200126294.8920174     
   2145231423.3934026     
   2105179336.6757326     
   2080729647.4050510     
   2072553555.3354516     
   2623075588.9835691     
   2584723759.4457541     
   2552257511.1426115     
   2526257857.8947172     
   2507531602.4419732     
   2482854581.2722378     
   2450272908.6346569     
   2426255741.1714497     
   2411748624.7163987     
   2408127030.0413866     
   2343305689.5283670     
   2318944546.8935890     
   2306128444.6471143     
   2306263622.8950562     
   2321437934.6332664     
   2205894531.5965366     
   2191521210.5388842     
   2192159966.7878556     
   2209781313.4782186     
   2247305544.1652012     
   2072553555.3354516     
   2068979338.9698739     
   2084669613.3250675     
   2122257919.2945724     
   2185558057.7330561     
   2507531602.4419732     
   2357169273.4445024     
   2214982730.0288839     
   2085954536.2810719     
   1976963772.3451772     
   2408127030.0413866     
   2282834607.3235326     
   2168048902.6456404     
   2070510807.1219707     
   1998989438.3639364     
   2321437934.6332664     
   2224723333.6557288     
   2141336264.3277535     
   2079641521.0571594     
   2049809754.7965491     
   2247305544.1652012     
   2182625570.1538181     
   2134373978.8651433     
   2112215688.2335317     
   2127082751.8661449     
   2185558057.7330561     
   2156246970.9012542     
   2146514945.0226090     
   2166882400.6288719     
   2228417401.4787040     
   3651380293.4053855     
   3547693326.7000642     
   3447004914.6304135     
   3349415991.6612401     
   3255324619.7882051     
   3900287821.5968661     
   3771007182.9650354     
   3645132046.5362267     
   3522998826.5318122     
   3405117592.5902171     
   4175066994.9416804     
   4021659437.5574589     
   3872498976.2631187     
   3727993647.2748027     
   3588690288.6295214     
   4475459666.5251255     
   4298383814.5631523     
   4126673710.6170144     
   3960693952.0563707     
   3800986683.4696803     
   4801160838.4112988     
   4599935721.2947054     
   4405344722.2032461     
   4217632840.3190889     
   4037323160.1227694     
   3255324619.7882051     
   3186543135.7131686     
   3122581897.2709031     
   3063650080.2048621     
   3009991801.4751983     
   3405117592.5902171     
   3326109072.7400503     
   3251048326.8451900     
   3180160787.9907179     
   3113712038.4558182     
   3588690288.6295214     
   3499360391.9533629     
   3413088411.7809191     
   3330091267.2511086     
   3250629327.5288777     
   3800986683.4696803     
   3701587475.6620965     
   3604381591.3746099     
   3509558747.8002777     
   3417352857.5885162     
   4037323160.1227694     
   3928334542.2347240     
   3820730939.3881044     
   3714663717.2992296     
   3610327101.5330906     
   3009991801.4751983     
   2920196818.1868744     
   2837095955.3721480     
   2761290227.9527950     
   2693469047.7435632     
   3113712038.4558182     
   3006931224.4134035     
   2906004742.3636065     
   2811539098.9802036     
   2724256131.3801279     
   3250629327.5288777     
   3127354886.7092581     
   3009037748.1649556     
   2896242570.5711250     
   2789666376.2815928     
   3417352857.5885162     
   3278311416.2434769     
   3143347232.5713720     
   3012948533.4852734     
   2887740424.8288388     
   3610327101.5330906     
   3456333101.1961489     
   3305608078.5973568     
   3158545855.3838172     
   3015670756.8009882     
   2693469047.7435632     
   2618472361.8252578     
   2550469745.3713064     
   2489992171.5131364     
   2437618360.1184211     
   2724256131.3801279     
   2634343755.3409562     
   2550268708.6524091     
   2472586976.4656367     
   2401931439.9703007     
   2789666376.2815928     
   2685367384.4650946     
   2585639363.9174485     
   2490996575.9813409     
   2402048949.1121950     
   2887740424.8288388     
   2770241094.1588717     
   2656053314.1044116     
   2545595042.3362279     
   2439380933.0079436     
   3015670756.8009882     
   2886598179.4200988     
   2759695853.7076502     
   2635258983.9307146     
   2513664188.2048721     
   2437618360.1184211     
   2364387805.8143539     
   2299909090.8489265     
   2244906429.1408772     
   2200126294.8920174     
   2401931439.9703007     
   2310559652.7109485     
   2226984910.7267613     
   2152036794.3616753     
   2086624570.0876195     
   2402048949.1121950     
   2292916548.8445301     
   2190313876.6996841     
   2095075419.9809854     
   2008174184.0008001     
   2439380933.0079436     
   2313796339.7579036     
   2193309112.7197113     
   2078639836.8543167     
   1970679164.1438780     
   2513664188.2048721     
   2373681541.6920247     
   2237409214.3613768     
   2105367984.2417908     
   1978237112.5606122     
   2200126294.8920174     
   2145231423.3934026     
   2105179336.6757326     
   2080729647.4050510     
   2072553555.3354516     
   2086624570.0876195     
   2011827214.5774422     
   1949315777.9293983     
   1900159245.1795020     
   1865377049.6623507     
   2008174184.0008001     
   1912039970.2098231     
   1824635814.1010540     
   1747151632.5992494     
   1680868132.6627529     
   1970679164.1438780     
   1854770452.6705139     
   1743215885.6140113     
   1636930428.5756614     
   1537036964.7683451     
   1978237112.5606122     
   1847655705.5768628     
   1717119001.9929123     
   1586975540.3671675     
   1457732211.0030196     
   2072553555.3354516     
   2068979338.9698739     
   2084669613.3250675     
   2122257919.2945724     
   2185558057.7330561     
   1865377049.6623507     
   1854817317.4620883     
   1867252477.9879932     
   1904893562.5934818     
   1970772794.0672183     
   1680868132.6627529     
   1652332069.8137548     
   1651535945.8481333     
   1680851641.7577174     
   1742888431.9332311     
   1537036964.7683451     
   1476132935.2844687     
   1447935911.1462803     
   1456417568.7914469     
   1504873969.0842447     
   1457732211.0030196     
   1348678101.2813520     
   1274613252.5774214     
   1243672262.7445183     
   1262900461.5756612     
   2185558057.7330561     
   2156246970.9012542     
   2146514945.0226090     
   2166882400.6288719     
   2228417401.4787040     
   1970772794.0672183     
   1968931156.7213895     
   2003624540.1209929     
   2093525162.3907351     
   2257290845.0309391     
   1742888431.9332311     
   1787698756.5783224     
   1884651590.0723417     
   2060654820.7416797     
   2340936936.5431070     
   1504873969.0842447     
   1613266008.1838377     
   1788855841.8452287     
   2066392931.3038349     
   2476082722.2187400     
   1262900461.5756612     
   1446675765.7077038     
   1715672742.6430523     
   2110472450.7013595     
   2663514259.7021027     
   4801160838.4112988     
   4599935721.2947054     
   4405344722.2032461     
   4217632840.3190889     
   4037323160.1227694     
   5101498310.6947899     
   4892153941.9670343     
   4685369604.5940094     
   4481420493.0028496     
   4280702682.1012144     
   5415169359.2638788     
   5200232520.0407515     
   4984630540.4044170     
   4768389358.5058327     
   4551604844.0198555     
   5732803634.6312437     
   5516438848.2641325     
   5296887413.8460178     
   5073765950.3155737     
   4846823993.7953386     
   6047403413.2135611     
   5834874595.9754810     
   5617239298.9888573     
   5393640478.7616272     
   5163536106.8661966     
   4037323160.1227694     
   3928334542.2347240     
   3820730939.3881044     
   3714663717.2992296     
   3610327101.5330906     
   4280702682.1012144     
   4160171187.8272758     
   4041066787.2253437     
   3923492905.6566815     
   3807592315.5945878     
   4551604844.0198555     
   4419679790.7670326     
   4289239645.8276901     
   4160336154.8262324     
   4033062353.5007229     
   4846823993.7953386     
   4703299886.8654194     
   4561320643.9584570     
   4420885569.2492714     
   4282042128.9269247     
   5163536106.8661966     
   5007906844.4958143     
   4853873886.3375244     
   4701385409.0411224     
   4550448921.2747450     
   3610327101.5330906     
   3456333101.1961489     
   3305608078.5973568     
   3158545855.3838172     
   3015670756.8009882     
   3807592315.5945878     
   3639844879.3466096     
   3474183281.0897746     
   3310881893.4649239     
   3150328830.1907516     
   4033062353.5007229     
   3852521905.5824094     
   3673030330.9947343     
   3494740666.6967750     
   3317895963.2294130     
   4282042128.9269247     
   4089715306.4060559     
   3897568832.1579595     
   3705647230.6743469     
   3514060533.9802260     
   4550448921.2747450     
   4347321524.5341883     
   4143675230.8979921     
   3939466456.1874118     
   3734696070.6349916     
   3015670756.8009882     
   2886598179.4200988     
   2759695853.7076502     
   2635258983.9307146     
   2513664188.2048721     
   3150328830.1907516     
   3010625659.1328840     
   2872681896.4346075     
   2736706558.1242676     
   2602982156.6063042     
   3317895963.2294130     
   3168076754.8491740     
   3019640665.2565556     
   2872712315.5121565     
   2727481538.7814007     
   3514060533.9802260     
   3354320531.0741763     
   3195623300.1581426     
   3038017244.3706055     
   2881609574.2138815     
   3734696070.6349916     
   3564922571.7613111     
   3395880297.6012797     
   3227552096.4614692     
   3059976163.8210406     
   2513664188.2048721     
   2373681541.6920247     
   2237409214.3613768     
   2105367984.2417908     
   1978237112.5606122     
   2602982156.6063042     
   2452964815.8178473     
   2305092921.5891538     
   2159691056.3670816     
   2017198936.2370350     
   2727481538.7814007     
   2569621618.7595506     
   2412670584.8075533     
   2256774992.6054072     
   2102142943.2307849     
   2881609574.2138815     
   2718230509.8717437     
   2554906287.6357260     
   2391667006.9744992     
   2228565192.5079260     
   3059976163.8210406     
   2893309511.0190516     
   2726200415.7679071     
   2558632965.8314910     
   2390598311.5766649     
   1978237112.5606122     
   1847655705.5768628     
   1717119001.9929123     
   1586975540.3671675     
   1457732211.0030196     
   2017198936.2370350     
   1880532140.2276883     
   1744185690.6157956     
   1608286328.8011723     
   1473008384.9038725     
   2102142943.2307849     
   1962057972.4535482     
   1822925231.2628753     
   1684773283.1083179     
   1547658513.8919454     
   2228565192.5079260     
   2085999216.8859618     
   1945082766.4112167     
   1805815179.5507364     
   1668271546.8260236     
   2390598311.5766649     
   2244849679.3638716     
   2101293111.1049027     
   1959929410.0352163     
   1820925300.3507602     
   1457732211.0030196     
   1348678101.2813520     
   1274613252.5774214     
   1243672262.7445183     
   1262900461.5756612     
   1473008384.9038725     
   1328711674.8469434     
   1198886159.4979782     
   1088021755.3817935     
   1002034146.1607127     
   1547658513.8919454     
   1397713536.1892149     
   1244210165.3819289     
   1084880883.8316031     
   917697696.20069504     
   1668271546.8260236     
   1552781048.2592723     
   1428174988.5941460     
   1294812936.2524185     
   1158813650.7059598     
   1820925300.3507602     
   1780181438.2201018     
   1735915756.4064288     
   1696763124.3382583     
   1681214647.6714087     
   1262900461.5756612     
   1446675765.7077038     
   1715672742.6430523     
   2110472450.7013595     
   2663514259.7021027     
   1002034146.1607127     
   1164707303.0781202     
   1425409929.4203856     
   1808729807.8999481     
   2334755342.3707166     
   917697696.20069504     
   963108206.75354695     
   1144915419.1707499     
   1476470528.2053525     
   1957465929.2240305     
   1158813650.7059598     
   1008386586.3605584     
   985202422.21842551     
   1161498345.5745187     
   1544166553.1886103     
   1681214647.6714087     
   1383696123.3716993     
   1129448020.9192924     
   1010184803.2510014     
   1153156048.0978429     
 </DataArray>
 <DataArray  type="Float64" Name="strain" NumberOfComponents="3" format="ascii">
  0.10101191142623134       -3.5673719785573876E-002  -7.3526390554741194E-003
   9.7141552282221544E-002  -3.2624014735919249E-002  -5.8574931034691691E-003
   9.3271193138211750E-002  -3.0152014446127862E-002  -4.3647352486083646E-003
   8.9400833994201845E-002  -2.8257718916199340E-002  -2.8743654908914562E-003
   8.5530474850192051E-002  -2.6941128146134474E-002  -1.3863838303184162E-003
   9.5884994843989046E-002  -3.1457506168319660E-002   4.2469606166452012E-003
   9.2049007622555024E-002  -2.9254782514284039E-002   4.7960487724131307E-003
   8.8213020401121001E-002  -2.7426763752363026E-002   5.4162688704767481E-003
   8.4377033179686922E-002  -2.5973449882556107E-002   6.1076209108355817E-003
   8.0541045958252955E-002  -2.4894840904863547E-002   6.8701048934898812E-003
   9.0251465271779130E-002  -2.7241292551065444E-002   1.4898078959271033E-002
   8.6523370012360240E-002  -2.5885550292649051E-002   1.4704109186550796E-002
   8.2795274752941406E-002  -2.4701513058598162E-002   1.4654791395565497E-002
   7.9067179493522544E-002  -2.3689180848912757E-002   1.4750125586315180E-002
   7.5339084234103709E-002  -2.2848553663592952E-002   1.4990111758799884E-002
   8.4111322709601172E-002  -2.3025078933811255E-002   2.4600715972403195E-002
   8.0564639451637082E-002  -2.2516318071013897E-002   2.3866688138943784E-002
   7.7017956193672854E-002  -2.1976262364833202E-002   2.3350832326658737E-002
   7.3471272935708709E-002  -2.1404911815269465E-002   2.3053148535547952E-002
   6.9924589677744536E-002  -2.0802266422322413E-002   2.2973636765611746E-002
   7.7464567157455366E-002  -1.8808865316557066E-002   3.3354871656042229E-002
   7.4172815940385439E-002  -1.9147085849378631E-002   3.2283785629592110E-002
   7.0881064723315373E-002  -1.9251011671068491E-002   3.1504391663755960E-002
   6.7589313506245349E-002  -1.9120642781626139E-002   3.1016689758533722E-002
   6.4297562289175297E-002  -1.8755979181051707E-002   3.0820679913925286E-002
   8.5530474850192051E-002  -2.6941128146134474E-002  -1.3863838303184162E-003
   8.3134068810714501E-002  -2.5923718096983961E-002  -1.2044281461319750E-003
   8.0737662771237007E-002  -2.4926964729799328E-002  -9.3619813139511621E-004
   7.8341256731759540E-002  -2.3950868044580839E-002  -5.8169378610881117E-004
   7.5944850692281962E-002  -2.2995428041328259E-002  -1.4091511027136683E-004
   8.0541045958252955E-002  -2.4894840904863547E-002   6.8701048934898812E-003
   7.8245411486918326E-002  -2.4005395481910330E-002   6.8418855333940987E-003
   7.5949777015583669E-002  -2.3119572276320013E-002   6.9289349790339905E-003
   7.3654142544249082E-002  -2.2237371288093919E-002   7.1312532304095289E-003
   7.1358508072914384E-002  -2.1358792517230496E-002   7.4488402875205195E-003
   7.5339084234103709E-002  -2.2848553663592952E-002   1.4990111758799884E-002
   7.3173215806097425E-002  -2.2087072866836616E-002   1.4768751819024664E-002
   7.1007347378091043E-002  -2.1312179822841143E-002   1.4691655160170333E-002
   6.8841478950084661E-002  -2.0523874531606555E-002   1.4758821782236725E-002
   6.6675610522078377E-002  -1.9722156993132955E-002   1.4970251685224201E-002
   6.9924589677744536E-002  -2.0802266422322413E-002   2.2973636765611746E-002
   6.7917481768251783E-002  -2.0168750251762943E-002   2.2576170710759468E-002
   6.5910373858758989E-002  -1.9504787369361995E-002   2.2351962412013274E-002
   6.3903265949266250E-002  -1.8810377775119302E-002   2.2301011869373517E-002
   6.1896158039773455E-002  -1.8085521469035304E-002   2.2423319082839913E-002
   6.4297562289175297E-002  -1.8755979181051707E-002   3.0820679913925286E-002
   6.2478209373381471E-002  -1.8250427636689548E-002   3.0264142208598271E-002
   6.0658856457587632E-002  -1.7697394915882833E-002   2.9909856734563006E-002
   5.8839503541793813E-002  -1.7096881018632350E-002   2.9757823491819380E-002
   5.7020150625999966E-002  -1.6448885944937541E-002   2.9808042480367447E-002
   7.5944850692281962E-002  -2.2995428041328259E-002  -1.4091511027136683E-004
   7.2488402110613803E-002  -2.2046341075595832E-002  -3.4002423460877118E-004
   6.9031953528945755E-002  -2.1089303502937973E-002  -3.5100511163521642E-004
   6.5575504947277596E-002  -2.0124315323354278E-002  -1.7385774134970333E-004
   6.2119056365609548E-002  -1.9151376536845399E-002   1.9141787624721296E-004
   7.1358508072914384E-002  -2.1358792517230496E-002   7.4488402875205195E-003
   6.8094725145276869E-002  -2.0477990164506799E-002   7.1657236324384477E-003
   6.4830942217639159E-002  -1.9589118430698216E-002   7.0798100381060103E-003
   6.1567159290001464E-002  -1.8692177315804692E-002   7.1910995045223192E-003
   5.8303376362363879E-002  -1.7787166819826505E-002   7.4995920316887066E-003
   6.6675610522078377E-002  -1.9722156993132955E-002   1.4970251685224201E-002
   6.3613568061909043E-002  -1.8909639253417737E-002   1.4603246273557163E-002
   6.0551525601739709E-002  -1.8088933358458487E-002   1.4442518736077076E-002
   5.7489483141570402E-002  -1.7260039308255003E-002   1.4488069072784451E-002
   5.4427440681401040E-002  -1.6422957102807501E-002   1.4739897283679360E-002
   6.1896158039773455E-002  -1.8085521469035304E-002   2.2423319082839913E-002
   5.9044930860510422E-002  -1.7341288342328690E-002   2.1972543688746751E-002
   5.6193703681247487E-002  -1.6588748286218410E-002   2.1737120982278570E-002
   5.3342476501984523E-002  -1.5827901300705365E-002   2.1717050963436051E-002
   5.0491249322721504E-002  -1.5058747385788551E-002   2.1912333632218631E-002
   5.7020150625999966E-002  -1.6448885944937541E-002   2.9808042480367447E-002
   5.4388813541081216E-002  -1.5772937431239392E-002   2.9273615878007420E-002
   5.1757476456162410E-002  -1.5088563213978862E-002   2.8963616776710555E-002
   4.9126139371243646E-002  -1.4395763293155527E-002   2.8878045176477074E-002
   4.6494802286324854E-002  -1.3694537668769602E-002   2.9016901077306589E-002
   6.2119056365609548E-002  -1.9151376536845399E-002   1.9141787624721296E-004
   5.9326927590429457E-002  -1.8190421130199086E-002   3.5346978761841008E-005
   5.6534798815249532E-002  -1.7261383090203253E-002   5.4812678268290060E-005
   5.3742670040069551E-002  -1.6364262416857941E-002   2.4981497476522785E-004
   5.0950541264889515E-002  -1.5499059110163582E-002   6.2035386825365357E-004
   5.8303376362363879E-002  -1.7787166819826505E-002   7.4995920316887066E-003
   5.5679851930069690E-002  -1.6889936495511848E-002   7.2485596568494515E-003
   5.3056327497775557E-002  -1.6016335895610301E-002   7.1591993707906254E-003
   5.0432803065481396E-002  -1.5166365020121433E-002   7.2315111735120619E-003
   4.7809278633187235E-002  -1.4340023869044649E-002   7.4654950650150376E-003
   5.4427440681401040E-002  -1.6422957102807501E-002   1.4739897283679360E-002
   5.1958656083782112E-002  -1.5589451860825165E-002   1.4402191073724036E-002
   4.9489871486163101E-002  -1.4771288701017488E-002   1.4212292444338415E-002
   4.7021086888544075E-002  -1.3968467623384488E-002   1.4170201395522566E-002
   4.4552302290925078E-002  -1.3180988627925938E-002   1.4275917927276671E-002
   5.0491249322721504E-002  -1.5058747385788551E-002   2.1912333632218631E-002
   4.8163340051566847E-002  -1.4288967226138538E-002   2.1496241229385385E-002
   4.5835430780412183E-002  -1.3526241506424827E-002   2.1214091898911373E-002
   4.3507521509257546E-002  -1.2770570226647762E-002   2.1065885640796273E-002
   4.1179612238102861E-002  -1.2021953386807116E-002   2.1051622455040081E-002
   4.6494802286324854E-002  -1.3694537668769602E-002   2.9016901077306589E-002
   4.4293903833423826E-002  -1.2988482591451633E-002   2.8530710123833680E-002
   4.2093005380522852E-002  -1.2281194311831944E-002   2.8164597734508856E-002
   3.9892106927621823E-002  -1.1572672829910979E-002   2.7918563909332561E-002
   3.7691208474720850E-002  -1.0862918145688294E-002   2.7792608648304573E-002
   5.0950541264889515E-002  -1.5499059110163582E-002   6.2035386825365357E-004
   4.8174823574969161E-002  -1.4641557808408701E-002   4.0656597738175648E-004
   4.5399105885048696E-002  -1.3767543149879935E-002   2.2892015421094314E-004
   4.2623388195128342E-002  -1.2877015134580311E-002   8.7416398741768653E-005
   3.9847670505207877E-002  -1.1969973762506525E-002  -1.7945289026766176E-005
   4.7809278633187235E-002  -1.4340023869044649E-002   7.4654950650150376E-003
   4.5083254409147733E-002  -1.3519597268413008E-002   7.1637018519105089E-003
   4.2357230185108119E-002  -1.2687370044258101E-002   6.9251535028667655E-003
   3.9631205961068561E-002  -1.1843342196579586E-002   6.7498500178841403E-003
   3.6905181737029114E-002  -1.0987513725377873E-002   6.6377913969609681E-003
   4.4552302290925078E-002  -1.3180988627925938E-002   1.4275917927276671E-002
   4.1903074329125795E-002  -1.2397636728417871E-002   1.3881406658691114E-002
   3.9253846367326511E-002  -1.1607196938635378E-002   1.3577243050525406E-002
   3.6604618405527256E-002  -1.0809669258578861E-002   1.3363427102779629E-002
   3.3955390443727945E-002  -1.0005053688248444E-002   1.3239958815454200E-002
   4.1179612238102861E-002  -1.2021953386807116E-002   2.1051622455040081E-002
   3.8634283334903291E-002  -1.1275676188422457E-002   2.0559680397723608E-002
   3.6088954431703721E-002  -1.0527023833012877E-002   2.0185188797186671E-002
   3.3543625528504095E-002  -9.7759963205782466E-003   1.9928147653428825E-002
   3.0998296625304574E-002  -9.0225936511189597E-003   1.9788556966450765E-002
   3.7691208474720850E-002  -1.0862918145688294E-002   2.7792608648304573E-002
   3.5276881426480278E-002  -1.0153715648427097E-002   2.7198523069007829E-002
   3.2862554378239844E-002  -9.4468507273903768E-003   2.6748990742850531E-002
   3.0448227329999356E-002  -8.7423233825776880E-003   2.6444011669831735E-002
   2.8033900281758839E-002  -8.0401336139898083E-003   2.6283585849951274E-002
   3.9847670505207877E-002  -1.1969973762506525E-002  -1.7945289026766176E-005
   3.7443989579331149E-002  -1.1135771836497499E-002  -2.9092606758585049E-004
   3.5040308653454422E-002  -1.0463762159387158E-002  -4.7845848439354022E-004
   3.2636627727577666E-002  -9.9539447311766949E-003  -5.8054253944983536E-004
   3.0232946801700966E-002  -9.6063195518665268E-003  -5.9717823275473592E-004
   3.6905181737029114E-002  -1.0987513725377873E-002   6.6377913969609681E-003
   3.4569615354590244E-002  -1.0179854188426041E-002   6.2050089045057044E-003
   3.2234048972151402E-002  -9.4803331434981652E-003   5.8230071371734304E-003
   2.9898482589712574E-002  -8.8889505905938859E-003   5.4917860949660335E-003
   2.7562916207273747E-002  -8.4057065297131750E-003   5.2113457778834027E-003
   3.3955390443727945E-002  -1.0005053688248444E-002   1.3239958815454200E-002
   3.1653270968100250E-002  -9.2239365403546936E-003   1.2701428365976430E-002
   2.9351151492472513E-002  -8.4969041276085622E-003   1.2179011004996465E-002
   2.7049032016844797E-002  -7.8239564500102027E-003   1.1672706732514082E-002
   2.4746912541217109E-002  -7.2050935075593792E-003   1.1182515548529726E-002
   3.0998296625304574E-002  -9.0225936511189597E-003   1.9788556966450765E-002
   2.8694956419861146E-002  -8.2680188922831799E-003   1.9198332316827924E-002
   2.6391616214417834E-002  -7.5134751117189313E-003   1.8589553119075633E-002
   2.4088276008974431E-002  -6.7589623094265125E-003   1.7962219373194505E-002
   2.1784935803531094E-002  -6.0044804854056943E-003   1.7316331079184330E-002
   2.8033900281758839E-002  -8.0401336139898083E-003   2.6283585849951274E-002
   2.5694671709873051E-002  -7.3121012442116662E-003   2.5695720757059171E-002
   2.3355443137987236E-002  -6.5300460958298001E-003   2.5054633479411170E-002
   2.1016214566101463E-002  -5.6939681688429472E-003   2.4360324017006968E-002
   1.8676985994215634E-002  -4.8038674632522316E-003   2.3612792369846924E-002
   3.0232946801700966E-002  -9.6063195518665268E-003  -5.9717823275473592E-004
   2.9618615434018669E-002  -9.1364623084789764E-003  -3.5963900399904603E-004
   2.9004284066336539E-002  -8.2599486880362005E-003  -1.8005060384641558E-003
   2.8389952698654297E-002  -6.9767786905394341E-003  -4.9197793361515085E-003
   2.7775621330972111E-002  -5.2869523159893017E-003  -9.7174588970607712E-003
   2.7562916207273747E-002  -8.4057065297131750E-003   5.2113457778834027E-003
   2.5539238986638679E-002  -7.8713174677127462E-003   5.8805147809370961E-003
   2.3515561766003473E-002  -7.1264999114512007E-003   5.4093983413061042E-003
   2.1491884545368337E-002  -6.1712538609269563E-003   3.7979964589910098E-003
   1.9468207324733089E-002  -5.0055793161396522E-003   1.0463091339918407E-003
   2.4746912541217109E-002  -7.2050935075593792E-003   1.1182515548529726E-002
   2.1852010288166357E-002  -6.6061726269473486E-003   1.2087086443088646E-002
   1.8957108035115661E-002  -5.9930511348652848E-003   1.2389492715500994E-002
   1.6062205782064909E-002  -5.3657290313129172E-003   1.2089734365766366E-002
   1.3167303529014185E-002  -4.7242063162901138E-003   1.1187811393884195E-002
   2.1784935803531094E-002  -6.0044804854056943E-003   1.7316331079184330E-002
   1.8556929338602104E-002  -5.3410277861817568E-003   1.8260075982456894E-002
   1.5328922873673011E-002  -4.8596023582793829E-003   1.9139777084119687E-002
   1.2100916408744021E-002  -4.5602042016992146E-003   1.9955434384173267E-002
   8.8729099438149342E-003  -4.4428333164405198E-003   2.0707047882616667E-002
   1.8676985994215634E-002  -4.8038674632522316E-003   2.3612792369846924E-002
   1.5653996137945658E-002  -4.0758829454164425E-003   2.4399483399040856E-002
   1.2631006281675627E-002  -3.7261535816940639E-003   2.5660251447162719E-002
   9.6080164254056660E-003  -3.7546793720857133E-003   2.7395096514211736E-002
   6.5850265691356213E-003  -4.1614603165910369E-003   2.9604018600188575E-002
   2.7775621330972111E-002  -5.2869523159893017E-003  -9.7174588970607712E-003
   2.3351076586171082E-002  -4.2068552888456789E-003  -4.1871227547192191E-003
   1.8926531841369942E-002  -4.7528733335694962E-003   2.6057479627121793E-003
   1.4501987096568941E-002  -6.9250064501607395E-003   1.0661153255233813E-002
   1.0077442351767774E-002  -1.0723254638621782E-002   1.9979093122845626E-002
   1.9468207324733089E-002  -5.0055793161396522E-003   1.0463091339918407E-003
   1.6234067656685669E-002  -4.6907463542165129E-003   6.7419126225873871E-003
   1.2999927988638138E-002  -6.2880250522837633E-003   1.3555791689599528E-002
   9.7657883205905238E-003  -9.7974154103414868E-003   2.1487946335028763E-002
   6.5316486525430761E-003  -1.5218917428388767E-002   3.0538376558874702E-002
   1.3167303529014185E-002  -4.7242063162901138E-003   1.1187811393884195E-002
   1.0979309941046789E-002  -5.1746374195883460E-003   1.6762685640611619E-002
   8.7913163530793925E-003  -7.8231767709987243E-003   2.3311576469082523E-002
   6.6033227651120865E-003  -1.2669824370521242E-002   3.0834483879297006E-002
   4.4153291771446557E-003  -1.9714580218156197E-002   3.9331407871254775E-002
   8.8729099438149342E-003  -4.4428333164405198E-003   2.0707047882616667E-002
   7.5868034392544415E-003  -5.6585284849596795E-003   2.5875196299353698E-002
   6.3006969346938897E-003  -9.3583284897131164E-003   3.1873102301161034E-002
   5.0145904301333536E-003  -1.5542233330701493E-002   3.8700765888039571E-002
   3.7284839255728591E-003  -2.4210243007923404E-002   4.6358187059986844E-002
   6.5850265691356213E-003  -4.1614603165910369E-003   2.9604018600188575E-002
   6.0565481513086272E-003  -6.1424195503314571E-003   3.4079444598814290E-002
   5.5280697334815776E-003  -1.0893480208428147E-002   3.9240369185836010E-002
   4.9995913156545835E-003  -1.8414642290881460E-002   4.5086792361254818E-002
   4.4711128978275338E-003  -2.8705905797690612E-002   5.1618714125071019E-002
   7.7464567157455366E-002  -1.8808865316557066E-002   3.3354871656042229E-002
   7.4172815940385439E-002  -1.9147085849378631E-002   3.2283785629592110E-002
   7.0881064723315373E-002  -1.9251011671068491E-002   3.1504391663755960E-002
   6.7589313506245349E-002  -1.9120642781626139E-002   3.1016689758533722E-002
   6.4297562289175297E-002  -1.8755979181051707E-002   3.0820679913925286E-002
   7.0697465168079288E-002  -1.8780529980926830E-002   3.5820127271217417E-002
   6.7688382454432594E-002  -1.8647896578845746E-002   3.5180784473213600E-002
   6.4679299740785956E-002  -1.8399864547636757E-002   3.4815086621443003E-002
   6.1670217027139318E-002  -1.8036433887300057E-002   3.4723033715905030E-002
   5.8661134313492597E-002  -1.7557604597835508E-002   3.4904625756600222E-002
   6.4196283294210163E-002  -1.8752194645296705E-002   3.8815684862297362E-002
   6.1451821969605913E-002  -1.8148707308312625E-002   3.8489189210735908E-002
   5.8707360645001615E-002  -1.7548717424205065E-002   3.8418291391026524E-002
   5.5962899320397413E-002  -1.6952224992974035E-002   3.8602991403168994E-002
   5.3218437995793101E-002  -1.6359230014619336E-002   3.9043289247163382E-002
   5.7961021535848159E-002  -1.8723859309666524E-002   4.2341544429282528E-002
   5.5463134485905299E-002  -1.7649518037779595E-002   4.2208999842159034E-002
   5.2965247435962447E-002  -1.6697570300773436E-002   4.2314005972506549E-002
   5.0467360386019663E-002  -1.5868016098647901E-002   4.2656562820325115E-002
   4.7969473336076776E-002  -1.5160855431403122E-002   4.3236670385614434E-002
   5.1991679892993137E-002  -1.8695523974036343E-002   4.6397705972172465E-002
   4.9722320003330794E-002  -1.7150328767246564E-002   4.6340216367482867E-002
   4.7452960113668397E-002  -1.5846423177341654E-002   4.6502230365883163E-002
   4.5183600224005985E-002  -1.4783807204322003E-002   4.6883747967373532E-002
   4.2914240334343601E-002  -1.3962480848186909E-002   4.7484769171953822E-002
   6.4297562289175297E-002  -1.8755979181051707E-002   3.0820679913925286E-002
   6.2478209373381471E-002  -1.8250427636689548E-002   3.0264142208598271E-002
   6.0658856457587632E-002  -1.7697394915882833E-002   2.9909856734563006E-002
   5.8839503541793813E-002  -1.7096881018632350E-002   2.9757823491819380E-002
   5.7020150625999966E-002  -1.6448885944937541E-002   2.9808042480367447E-002
   5.8661134313492597E-002  -1.7557604597835508E-002   3.4904625756600222E-002
   5.7029132494911400E-002  -1.7008464195797587E-002   3.4563270961409084E-002
   5.5397130676330217E-002  -1.6434100197740623E-002   3.4394366129351900E-002
   5.3765128857749027E-002  -1.5834512603664367E-002   3.4397911260428085E-002
   5.2133127039167837E-002  -1.5209701413568921E-002   3.4573906354638057E-002
   5.3218437995793101E-002  -1.6359230014619336E-002   3.9043289247163382E-002
   5.1743985006266570E-002  -1.5766500754905738E-002   3.8894859781683194E-002
   5.0269532016740032E-002  -1.5170805479598197E-002   3.8889078011178670E-002
   4.8795079027213514E-002  -1.4572144188696274E-002   3.9025943935649940E-002
   4.7320626037687011E-002  -1.3970516882200357E-002   3.9305457555096679E-002
   4.7969473336076776E-002  -1.5160855431403122E-002   4.3236670385614434E-002
   4.6622766907446947E-002  -1.4524537314013999E-002   4.3258908669420199E-002
   4.5276060478817153E-002  -1.3907510761455712E-002   4.3393992380043683E-002
   4.3929354050187303E-002  -1.3309775773728390E-002   4.3641921517484875E-002
   4.2582647621557515E-002  -1.2731332350831737E-002   4.4002696081743724E-002
   4.2914240334343601E-002  -1.3962480848186909E-002   4.7484769171953822E-002
   4.1665478198452552E-002  -1.3282573873122039E-002   4.7655417624620472E-002
   4.0416716062561489E-002  -1.2644216043313589E-002   4.7909109235946712E-002
   3.9167953926670426E-002  -1.2047407358760261E-002   4.8245844005932972E-002
   3.7919191790779350E-002  -1.1492147819463117E-002   4.8665621934578795E-002
   5.7020150625999966E-002  -1.6448885944937541E-002   2.9808042480367447E-002
   5.4388813541081216E-002  -1.5772937431239392E-002   2.9273615878007420E-002
   5.1757476456162410E-002  -1.5088563213978862E-002   2.8963616776710555E-002
   4.9126139371243646E-002  -1.4395763293155527E-002   2.8878045176477074E-002
   4.6494802286324854E-002  -1.3694537668769602E-002   2.9016901077306589E-002
   5.2133127039167837E-002  -1.5209701413568921E-002   3.4573906354638057E-002
   4.9721379335501081E-002  -1.4567668331765427E-002   3.4117987163298086E-002
   4.7309631631834381E-002  -1.3916415062565080E-002   3.3876819233399150E-002
   4.4897883928167653E-002  -1.3255941605967478E-002   3.3850402564941200E-002
   4.2486136224500926E-002  -1.2586247961972719E-002   3.4038737157923882E-002
   4.7320626037687011E-002  -1.3970516882200357E-002   3.9305457555096679E-002
   4.5118791475650052E-002  -1.3362399232291530E-002   3.8928840258611347E-002
   4.2916956913613170E-002  -1.2744266911151145E-002   3.8757297983944658E-002
   4.0715122351576247E-002  -1.2116119918779377E-002   3.8790830731096758E-002
   3.8513287789539385E-002  -1.1477958255176057E-002   3.9029438500067348E-002
   4.2582647621557515E-002  -1.2731332350831737E-002   4.4002696081743724E-002
   4.0581049961528171E-002  -1.2157130132817488E-002   4.3706175163947342E-002
   3.8579452301498854E-002  -1.1572118759737397E-002   4.3605053028347357E-002
   3.6577854641469502E-002  -1.0976298231591358E-002   4.3699329674943652E-002
   3.4576256981440193E-002  -1.0369668548379118E-002   4.3989005103736600E-002
   3.7919191790779350E-002  -1.1492147819463117E-002   4.8665621934578795E-002
   3.6108154793135366E-002  -1.0951861033343613E-002   4.8449991879305820E-002
   3.4297117795491355E-002  -1.0399970608323386E-002   4.8420084366606914E-002
   3.2486080797847330E-002  -9.8364765444033560E-003   4.8575899396482283E-002
   3.0675043800203333E-002  -9.2613788415825127E-003   4.8917436968931804E-002
   4.6494802286324854E-002  -1.3694537668769602E-002   2.9016901077306589E-002
   4.4293903833423826E-002  -1.2988482591451633E-002   2.8530710123833680E-002
   4.2093005380522852E-002  -1.2281194311831944E-002   2.8164597734508856E-002
   3.9892106927621823E-002  -1.1572672829910979E-002   2.7918563909332561E-002
   3.7691208474720850E-002  -1.0862918145688294E-002   2.7792608648304573E-002
   4.2486136224500926E-002  -1.2586247961972719E-002   3.4038737157923882E-002
   4.0412507516626506E-002  -1.1909041210094784E-002   3.3599074627527259E-002
   3.8338878808752003E-002  -1.1226028429847379E-002   3.3293873023035381E-002
   3.6265250100877555E-002  -1.0537209621230323E-002   3.3123132344448053E-002
   3.4191621393003080E-002  -9.8425847842440461E-003   3.3086852591765636E-002
   3.8513287789539385E-002  -1.1477958255176057E-002   3.9029438500067348E-002
   3.6581311188448047E-002  -1.0829599828738184E-002   3.8640877218814679E-002
   3.4649334587356709E-002  -1.0170862547862813E-002   3.8401159225223594E-002
   3.2717357986265370E-002  -9.5017464125499440E-003   3.8310284519293691E-002
   3.0785381385174018E-002  -8.8222514227995763E-003   3.8368253101025485E-002
   3.4576256981440193E-002  -1.0369668548379118E-002   4.3989005103736600E-002
   3.2800314848888533E-002  -9.7501584473814046E-003   4.3656117897695995E-002
   3.1024372716336863E-002  -9.1156966658781369E-003   4.3486456341073683E-002
   2.9248430583785151E-002  -8.4662832038694819E-003   4.3480020433869102E-002
   2.7472488451233533E-002  -7.8019180613552175E-003   4.3636810176082730E-002
   3.0675043800203333E-002  -9.2613788415825127E-003   4.8917436968931804E-002
   2.9069518497947922E-002  -8.6707170660246247E-003   4.8644796664171597E-002
   2.7463993195692538E-002  -8.0605307838936546E-003   4.8549764370585724E-002
   2.5858467893437126E-002  -7.4308199951889572E-003   4.8632340088174492E-002
   2.4252942591181714E-002  -6.7815846999108587E-003   4.8892523816937761E-002
   3.7691208474720850E-002  -1.0862918145688294E-002   2.7792608648304573E-002
   3.5276881426480278E-002  -1.0153715648427097E-002   2.7198523069007829E-002
   3.2862554378239844E-002  -9.4468507273903768E-003   2.6748990742850531E-002
   3.0448227329999356E-002  -8.7423233825776880E-003   2.6444011669831735E-002
   2.8033900281758839E-002  -8.0401336139898083E-003   2.6283585849951274E-002
   3.4191621393003080E-002  -9.8425847842440461E-003   3.3086852591765636E-002
   3.1923695140832070E-002  -9.1474625576138391E-003   3.2584387216635424E-002
   2.9655768888660977E-002  -8.4571515800661579E-003   3.2230170180504891E-002
   2.7387842636489940E-002  -7.7716518516008221E-003   3.2024201483374468E-002
   2.5119916384318874E-002  -7.0909633722182619E-003   3.1966481125244417E-002
   3.0785381385174018E-002  -8.8222514227995763E-003   3.8368253101025485E-002
   2.8667551014933734E-002  -8.1412094668006640E-003   3.7954934257202672E-002
   2.6549720644693367E-002  -7.4674524327421610E-003   3.7693558838241367E-002
   2.4431890274453041E-002  -6.8009803206239561E-003   3.7584126844141419E-002
   2.2314059904212702E-002  -6.1417931304463269E-003   3.7626638274902785E-002
   2.7472488451233533E-002  -7.8019180613552175E-003   4.3636810176082730E-002
   2.5508449048785256E-002  -7.1349563759873363E-003   4.3310164190709696E-002
   2.3544409646336899E-002  -6.4777532854181086E-003   4.3139156716059800E-002
   2.1580370243888591E-002  -5.8303087896469236E-003   4.3123787752132124E-002
   1.9616330841440269E-002  -5.1926228886745307E-003   4.3264057298927433E-002
   2.4252942591181714E-002  -6.7815846999108587E-003   4.8892523816937761E-002
   2.2446389242386677E-002  -6.1287032851743417E-003   4.8650077017156790E-002
   2.0639835893591668E-002  -5.4880541380938619E-003   4.8566963813959807E-002
   1.8833282544796645E-002  -4.8596372586700368E-003   4.8643184207346674E-002
   1.7026729196001650E-002  -4.2434526469028455E-003   4.8878738197317584E-002
   2.8033900281758839E-002  -8.0401336139898083E-003   2.6283585849951274E-002
   2.5694671709873051E-002  -7.3121012442116662E-003   2.5695720757059171E-002
   2.3355443137987236E-002  -6.5300460958298001E-003   2.5054633479411170E-002
   2.1016214566101463E-002  -5.6939681688429472E-003   2.4360324017006968E-002
   1.8676985994215634E-002  -4.8038674632522316E-003   2.3612792369846924E-002
   2.5119916384318874E-002  -7.0909633722182619E-003   3.1966481125244417E-002
   2.2766135070330040E-002  -6.4065705453366650E-003   3.1558534253680270E-002
   2.0412353756341151E-002  -5.7099577743762731E-003   3.1174704082665983E-002
   1.8058572442352275E-002  -5.0011250593359619E-003   3.0814990612201248E-002
   1.5704791128363371E-002  -4.2800724002166612E-003   3.0479393842286207E-002
   2.2314059904212702E-002  -6.1417931304463269E-003   3.7626638274902785E-002
   2.0023064733426285E-002  -5.5010398464614418E-003   3.7356806790142111E-002
   1.7732069562639875E-002  -4.8898694529226072E-003   3.7188430891236662E-002
   1.5441074391853462E-002  -4.3082819498289696E-003   3.7121510578186453E-002
   1.3150079221067049E-002  -3.7562773371810909E-003   3.7156045850991498E-002
   1.9616330841440269E-002  -5.1926228886745307E-003   4.3264057298927433E-002
   1.7465460699161866E-002  -4.5955091475863297E-003   4.3090538366444997E-002
   1.5314590556883377E-002  -4.0697811314688997E-003   4.3095813905123591E-002
   1.3163720414604958E-002  -3.6154388403219807E-003   4.3279883914962722E-002
   1.1012850272326489E-002  -3.2324822741454651E-003   4.3642748395962473E-002
   1.7026729196001650E-002  -4.2434526469028455E-003   4.8878738197317584E-002
   1.5093322967536682E-002  -3.6899784487111065E-003   4.8759728982588624E-002
   1.3159916739071728E-002  -3.2496928100154421E-003   4.8896853124326178E-002
   1.1226510510606823E-002  -2.9225957308150544E-003   4.9290110622529942E-002
   9.2931042821418619E-003  -2.7086872111099503E-003   4.9939501477200055E-002
   1.8676985994215634E-002  -4.8038674632522316E-003   2.3612792369846924E-002
   1.5653996137945658E-002  -4.0758829454164425E-003   2.4399483399040856E-002
   1.2631006281675627E-002  -3.7261535816940639E-003   2.5660251447162719E-002
   9.6080164254056660E-003  -3.7546793720857133E-003   2.7395096514211736E-002
   6.5850265691356213E-003  -4.1614603165910369E-003   2.9604018600188575E-002
   1.5704791128363371E-002  -4.2800724002166612E-003   3.0479393842286207E-002
   1.3137352149011267E-002  -3.7707262918836304E-003   3.1258097588143408E-002
   1.0569913169659162E-002  -3.6970132292019620E-003   3.2473826068908557E-002
   8.0024741903070157E-003  -4.0589332121725302E-003   3.4126579284582251E-002
   5.4350352109549527E-003  -4.8564862407945997E-003   3.6216357235163477E-002
   1.3150079221067049E-002  -3.7562773371810909E-003   3.7156045850991498E-002
   1.1001138834613150E-002  -3.4655696383509016E-003   3.7869384421974212E-002
   8.8521984481593277E-003  -3.6678728767104013E-003   3.8982695443845014E-002
   6.7032580617054811E-003  -4.3631870522594547E-003   4.0495978916604496E-002
   4.5543176752516068E-003  -5.5515121649981070E-003   4.2409234840252580E-002
   1.1012850272326489E-002  -3.2324822741454651E-003   4.3642748395962473E-002
   9.2453561947513294E-003  -3.1604129848185197E-003   4.4233343900532685E-002
   7.4778621171761681E-003  -3.6387325242187921E-003   4.5186859571971508E-002
   5.7103680396009522E-003  -4.6674408923463254E-003   4.6503295410279519E-002
   3.9428739620258474E-003  -6.2465380892017530E-003   4.8182651415456031E-002
   9.2931042821418619E-003  -2.7086872111099503E-003   4.9939501477200055E-002
   7.8700042294257422E-003  -2.8552563312854717E-003   5.0349976023819520E-002
   6.4469041767096225E-003  -3.6095921717268220E-003   5.1086318453288371E-002
   5.0238041239935305E-003  -4.9716947324333835E-003   5.2148528765606744E-002
   3.6007040712773830E-003  -6.9415640134052881E-003   5.3536606960774225E-002
   6.5850265691356213E-003  -4.1614603165910369E-003   2.9604018600188575E-002
   6.0565481513086272E-003  -6.1424195503314571E-003   3.4079444598814290E-002
   5.5280697334815776E-003  -1.0893480208428147E-002   3.9240369185836010E-002
   4.9995913156545835E-003  -1.8414642290881460E-002   4.5086792361254818E-002
   4.4711128978275338E-003  -2.8705905797690612E-002   5.1618714125071019E-002
   5.4350352109549527E-003  -4.8564862407945997E-003   3.6216357235163477E-002
   5.4882292211025363E-003  -6.9900932296317886E-003   3.8353942746276792E-002
   5.5414232312501199E-003  -1.1360175093246300E-002   4.0969374524942925E-002
   5.5946172413977591E-003  -1.7966731831638973E-002   4.4062652571160932E-002
   5.6478112515453427E-003  -2.6809763444809454E-002   4.7633776884931978E-002
   4.5543176752516068E-003  -5.5515121649981070E-003   4.2409234840252580E-002
   4.9815317925294422E-003  -7.8377669089315649E-003   4.2742606413432499E-002
   5.4087459098072083E-003  -1.1826869978064244E-002   4.3346171933320285E-002
   5.8359600270850714E-003  -1.7518821372396545E-002   4.4219931399915820E-002
   6.2631741443627542E-003  -2.4913621091928295E-002   4.5363884813219957E-002
   3.9428739620258474E-003  -6.2465380892017530E-003   4.8182651415456031E-002
   4.5364558655893762E-003  -8.6854405882313968E-003   4.7245435600280543E-002
   5.1300377691529640E-003  -1.2293564862882182E-002   4.6370761410969186E-002
   5.7236196727166073E-003  -1.7070910913154311E-002   4.5558628847520807E-002
   6.3172015762800807E-003  -2.3017478739047137E-002   4.4809037909936955E-002
   3.6007040712773830E-003  -6.9415640134052881E-003   5.3536606960774225E-002
   4.1530014402823001E-003  -9.5331142675315617E-003   5.1862430306822138E-002
   4.7052988092872172E-003  -1.2760259747700370E-002   5.0043142957889419E-002
   5.2575961782921204E-003  -1.6623000453911692E-002   4.8078744913975152E-002
   5.8098935472971069E-003  -2.1121336386165979E-002   4.5969236175080752E-002
   5.1991679892993137E-002  -1.8695523974036343E-002   4.6397705972172465E-002
   4.9722320003330794E-002  -1.7150328767246564E-002   4.6340216367482867E-002
   4.7452960113668397E-002  -1.5846423177341654E-002   4.6502230365883163E-002
   4.5183600224005985E-002  -1.4783807204322003E-002   4.6883747967373532E-002
   4.2914240334343601E-002  -1.3962480848186909E-002   4.7484769171953822E-002
   4.5970479060722269E-002  -1.5011048722114562E-002   5.2194219286506305E-002
   4.3947015553674904E-002  -1.4169748432825452E-002   5.1637637408359360E-002
   4.1923552046627552E-002  -1.3398851643938559E-002   5.1353344692352643E-002
   3.9900088539580249E-002  -1.2698358355453479E-002   5.1341341138485888E-002
   3.7876625032532904E-002  -1.2068268567370560E-002   5.1601626746759444E-002
   3.9579639734112326E-002  -1.1326573470192697E-002   5.7201394625098143E-002
   3.7854858168730250E-002  -1.1189168098404409E-002   5.6316606589976614E-002
   3.6130076603348160E-002  -1.0951280110535207E-002   5.5756893276045584E-002
   3.4405295037966042E-002  -1.0612909506585147E-002   5.5522254683304934E-002
   3.2680513472583966E-002  -1.0174056286554184E-002   5.5612690811754462E-002
   3.2819161913163475E-002  -7.6420982182708458E-003   6.1419231987947756E-002
   3.1445847848496786E-002  -8.2085877639832480E-003   6.0377123912334754E-002
   3.0072533783830128E-002  -8.5037085771318723E-003   5.9712876116962348E-002
   2.8699219719163421E-002  -8.5274606577168295E-003   5.9426488601830439E-002
   2.7325905654496749E-002  -8.2798440057377659E-003   5.9517961366939078E-002
   2.5689045597875632E-002  -3.9576229663490503E-003   6.4847731375055062E-002
   2.4719984592974531E-002  -5.2280074295622536E-003   6.3819189375433572E-002
   2.3750923588073472E-002  -6.0561370437287043E-003   6.3221293215102725E-002
   2.2781862583172392E-002  -6.4420118088483885E-003   6.3054042894062495E-002
   2.1812801578271312E-002  -6.3856317249214589E-003   6.3317438412313021E-002
   4.2914240334343601E-002  -1.3962480848186909E-002   4.7484769171953822E-002
   4.1665478198452552E-002  -1.3282573873122039E-002   4.7655417624620472E-002
   4.0416716062561489E-002  -1.2644216043313589E-002   4.7909109235946712E-002
   3.9167953926670426E-002  -1.2047407358760261E-002   4.8245844005932972E-002
   3.7919191790779350E-002  -1.1492147819463117E-002   4.8665621934578795E-002
   3.7876625032532904E-002  -1.2068268567370560E-002   5.1601626746759444E-002
   3.6724679995553636E-002  -1.1490183495766804E-002   5.1589975342633654E-002
   3.5572734958574388E-002  -1.0945704356719564E-002   5.1688914977671668E-002
   3.4420789921595127E-002  -1.0434831150228826E-002   5.1898445651873570E-002
   3.3268844884615859E-002  -9.9575638762946506E-003   5.2218567365239166E-002
   3.2680513472583966E-002  -1.0174056286554184E-002   5.5612690811754462E-002
   3.1652933415020540E-002  -9.6977931184112909E-003   5.5426682763535552E-002
   3.0625353357457134E-002  -9.2471926701257617E-003   5.5378813634984661E-002
   2.9597773299893725E-002  -8.8222549416973363E-003   5.5469083426101497E-002
   2.8570193242330302E-002  -8.4229799331262123E-003   5.5697492136886337E-002
   2.7325905654496749E-002  -8.2798440057377659E-003   5.9517961366939078E-002
   2.6450238456853230E-002  -7.9054027410558336E-003   5.9165539887326458E-002
   2.5574571259209686E-002  -7.5486809835319038E-003   5.8978805207885579E-002
   2.4698904061566173E-002  -7.2096787331658464E-003   5.8957757328616772E-002
   2.3823236863922622E-002  -6.8883959899577601E-003   5.9102396249519823E-002
   2.1812801578271312E-002  -6.3856317249214589E-003   6.3317438412313021E-002
   2.1116595121051698E-002  -6.1130123637004874E-003   6.2806546714005818E-002
   2.0420388663832084E-002  -5.8501692969379349E-003   6.2488889696374617E-002
   1.9724182206612491E-002  -5.5971025246343564E-003   6.2364467359419390E-002
   1.9027975749392870E-002  -5.3538120467893080E-003   6.2433279703139943E-002
   3.7919191790779350E-002  -1.1492147819463117E-002   4.8665621934578795E-002
   3.6108154793135366E-002  -1.0951861033343613E-002   4.8449991879305820E-002
   3.4297117795491355E-002  -1.0399970608323386E-002   4.8420084366606914E-002
   3.2486080797847330E-002  -9.8364765444033560E-003   4.8575899396482283E-002
   3.0675043800203333E-002  -9.2613788415825127E-003   4.8917436968931804E-002
   3.3268844884615859E-002  -9.9575638762946506E-003   5.2218567365239166E-002
   3.1650509193574428E-002  -9.4908525959916945E-003   5.1973660129969568E-002
   3.0032173502532976E-002  -9.0116473703951150E-003   5.1928432965330923E-002
   2.8413837811491548E-002  -8.5199481995047593E-003   5.2082885871323176E-002
   2.6795502120450093E-002  -8.0157550833205304E-003   5.2437018847946382E-002
   2.8570193242330302E-002  -8.4229799331262123E-003   5.5697492136886337E-002
   2.7158516385948198E-002  -8.0298441586400260E-003   5.5424198028013377E-002
   2.5746839529566044E-002  -7.6233241324667259E-003   5.5364541517828068E-002
   2.4335162673183922E-002  -7.2034198546063275E-003   5.5518522606330542E-002
   2.2923485816801786E-002  -6.7701313250587702E-003   5.5886141293520514E-002
   2.3823236863922622E-002  -6.8883959899577601E-003   5.9102396249519823E-002
   2.2632176370256572E-002  -6.5688357212882881E-003   5.8801605573436985E-002
   2.1441115876590505E-002  -6.2350008945383124E-003   5.8728410024098725E-002
   2.0250055382924462E-002  -5.8868915097078133E-003   5.8882809601504556E-002
   1.9058994889258392E-002  -5.5245075667968435E-003   5.9264804305655290E-002
   1.9027975749392870E-002  -5.3538120467893080E-003   6.2433279703139943E-002
   1.8071489146499628E-002  -5.1078272839364391E-003   6.2105882766240683E-002
   1.7115002543606393E-002  -4.8466776566100378E-003   6.2020038484142559E-002
   1.6158515940713155E-002  -4.5703631648093476E-003   6.2175746856845709E-002
   1.5202029337819917E-002  -4.2788838085351388E-003   6.2573007884349940E-002
   3.0675043800203333E-002  -9.2613788415825127E-003   4.8917436968931804E-002
   2.9069518497947922E-002  -8.6707170660246247E-003   4.8644796664171597E-002
   2.7463993195692538E-002  -8.0605307838936546E-003   4.8549764370585724E-002
   2.5858467893437126E-002  -7.4308199951889572E-003   4.8632340088174492E-002
   2.4252942591181714E-002  -6.7815846999108587E-003   4.8892523816937761E-002
   2.6795502120450093E-002  -8.0157550833205304E-003   5.2437018847946382E-002
   2.5370945943751708E-002  -7.4976917781682806E-003   5.2192650503280980E-002
   2.3946389767053336E-002  -6.9643820403742229E-003   5.2132612398555461E-002
   2.2521833590354964E-002  -6.4158258699376428E-003   5.2256904533769105E-002
   2.1097277413656579E-002  -5.8520232668590744E-003   5.2565526908922522E-002
   2.2923485816801786E-002  -6.7701313250587702E-003   5.5886141293520514E-002
   2.1686620994425344E-002  -6.3246664903121030E-003   5.5665766835019503E-002
   2.0449756172048902E-002  -5.8682332968546941E-003   5.5636444845222510E-002
   1.9212891349672467E-002  -5.4008317446863317E-003   5.5798175324130055E-002
   1.7976026527295991E-002  -4.9224618338071791E-003   5.6150958271742074E-002
   1.9058994889258392E-002  -5.5245075667968435E-003   5.9264804305655290E-002
   1.8016543649968839E-002  -5.1516412024558422E-003   5.9064145659386579E-002
   1.6974092410679289E-002  -4.7720845533352138E-003   5.9061261710587259E-002
   1.5931641171389732E-002  -4.3858376194350745E-003   5.9256152459257305E-002
   1.4889189932100186E-002  -3.9929004007553393E-003   5.9648817905396410E-002
   1.5202029337819917E-002  -4.2788838085351388E-003   6.2573007884349940E-002
   1.4360713910382170E-002  -3.9786159145996924E-003   6.2387786976382531E-002
   1.3519398482944436E-002  -3.6759358098157613E-003   6.2407062994649320E-002
   1.2678083055506696E-002  -3.3708434941837687E-003   6.2630835939150642E-002
   1.1836767628068956E-002  -3.0633389677034994E-003   6.3059105809886051E-002
   2.4252942591181714E-002  -6.7815846999108587E-003   4.8892523816937761E-002
   2.2446389242386677E-002  -6.1287032851743417E-003   4.8650077017156790E-002
   2.0639835893591668E-002  -5.4880541380938619E-003   4.8566963813959807E-002
   1.8833282544796645E-002  -4.8596372586700368E-003   4.8643184207346674E-002
   1.7026729196001650E-002  -4.2434526469028455E-003   4.8878738197317584E-002
   2.1097277413656579E-002  -5.8520232668590744E-003   5.2565526908922522E-002
   1.9461331625854283E-002  -5.2863367502136160E-003   5.2356912928132604E-002
   1.7825385838052085E-002  -4.7321288390766991E-003   5.2330180472744403E-002
   1.6189440050249818E-002  -4.1893995334485734E-003   5.2485329542757780E-002
   1.4553494262447592E-002  -3.6581488333288226E-003   5.2822360138172875E-002
   1.7976026527295991E-002  -4.9224618338071791E-003   5.6150958271742074E-002
   1.6533236229304249E-002  -4.4439702152530569E-003   5.5976930772091121E-002
   1.5090445931312563E-002  -3.9762035400595225E-003   5.6007332726659184E-002
   1.3647655633320859E-002  -3.5191618082271066E-003   5.6242164135446741E-002
   1.2204865335329128E-002  -3.0728450197552437E-003   5.6681424998453939E-002
   1.4889189932100186E-002  -3.9929004007553393E-003   5.9648817905396410E-002
   1.3662103052736671E-002  -3.6016036802921925E-003   5.9510130549032231E-002
   1.2435016173373170E-002  -3.2202782410425193E-003   5.9598420575704678E-002
   1.1207929294009683E-002  -2.8489240830054195E-003   5.9913687985414403E-002
   9.9808424146461804E-003  -2.4875412061815538E-003   6.0455932778161380E-002
   1.1836767628068956E-002  -3.0633389677034994E-003   6.3059105809886051E-002
   1.0847932096151411E-002  -2.7592371453318831E-003   6.2956512258956043E-002
   9.8590965642338657E-003  -2.4643529420250720E-003   6.3103444019880661E-002
   8.8702610323163206E-003  -2.1786863577840931E-003   6.3499901092660127E-002
   7.8814255003987754E-003  -1.9022373926077529E-003   6.4145883477294441E-002
   1.7026729196001650E-002  -4.2434526469028455E-003   4.8878738197317584E-002
   1.5093322967536682E-002  -3.6899784487111065E-003   4.8759728982588624E-002
   1.3159916739071728E-002  -3.2496928100154421E-003   4.8896853124326178E-002
   1.1226510510606823E-002  -2.9225957308150544E-003   4.9290110622529942E-002
   9.2931042821418619E-003  -2.7086872111099503E-003   4.9939501477200055E-002
   1.4553494262447592E-002  -3.6581488333288226E-003   5.2822360138172875E-002
   1.2874904971761983E-002  -3.1890755977012075E-003   5.2713608069707152E-002
   1.1196315681076360E-002  -2.8328786855493504E-003   5.2858356520333660E-002
   9.5177263903907725E-003  -2.5895580968726059E-003   5.3256605490052789E-002
   7.8391370997051291E-003  -2.4591138316713002E-003   5.3908354978864259E-002
   1.2204865335329128E-002  -3.0728450197552437E-003   5.6681424998453939E-002
   1.0778460145048956E-002  -2.6881727466916971E-003   5.6583242312271548E-002
   9.3520549547687938E-003  -2.4160645610832449E-003   5.6735927307807396E-002
   7.9256497644886442E-003  -2.2565204629302650E-003   5.7139479985062060E-002
   6.4992445742084876E-003  -2.2095404522324280E-003   5.7793900344035115E-002
   9.9808424146461804E-003  -2.4875412061815538E-003   6.0455932778161380E-002
   8.8039884873975637E-003  -2.1872698956817149E-003   6.0368631710282179E-002
   7.6271345601489913E-003  -1.9992504366169797E-003   6.0529565486747650E-002
   6.4502806329004188E-003  -1.9234828289882034E-003   6.0938734107557416E-002
   5.2734267056518298E-003  -1.9599670727937224E-003   6.1596137572712352E-002
   7.8814255003987754E-003  -1.9022373926077529E-003   6.4145883477294441E-002
   6.9514899988079026E-003  -1.6863670446722878E-003   6.4069776263738887E-002
   6.0215544972169882E-003  -1.5824363121513252E-003   6.4239271057153990E-002
   5.0916189956260946E-003  -1.5904451950453785E-003   6.4654367857539696E-002
   4.1616834940352010E-003  -1.7103936933547947E-003   6.5315066664896171E-002
   9.2931042821418619E-003  -2.7086872111099503E-003   4.9939501477200055E-002
   7.8700042294257422E-003  -2.8552563312854717E-003   5.0349976023819520E-002
   6.4469041767096225E-003  -3.6095921717268220E-003   5.1086318453288371E-002
   5.0238041239935305E-003  -4.9716947324333835E-003   5.2148528765606744E-002
   3.6007040712773830E-003  -6.9415640134052881E-003   5.3536606960774225E-002
   7.8391370997051291E-003  -2.4591138316713002E-003   5.3908354978864259E-002
   6.7161577178467269E-003  -2.6420785051717854E-003   5.3846302833335746E-002
   5.5931783359882692E-003  -3.3389847326000810E-003   5.4058624146673229E-002
   4.4701989541298531E-003  -4.5498325139563811E-003   5.4545318918876429E-002
   3.3472195722714093E-003  -6.2746218492406580E-003   5.5306387149946290E-002
   6.4992445742084876E-003  -2.2095404522324280E-003   5.7793900344035115E-002
   5.6248914392245247E-003  -2.4289006790577106E-003   5.7353146672695893E-002
   4.7505383042405966E-003  -3.0683772934734649E-003   5.7135272036239124E-002
   3.8761851692566546E-003  -4.1279702954793822E-003   5.7140276434665467E-002
   3.0018320342727056E-003  -5.6076796850761945E-003   5.7368159867974916E-002
   5.2734267056518298E-003  -1.9599670727937224E-003   6.1596137572712352E-002
   4.5962053935592016E-003  -2.2157228529437745E-003   6.0870507541899502E-002
   3.9189840814665578E-003  -2.7977698543468973E-003   6.0316262121986819E-002
   3.2417627693739435E-003  -3.7061080770026036E-003   5.9933401312973304E-002
   2.5645414572812858E-003  -4.9407375209117588E-003   5.9721925114859888E-002
   4.1616834940352010E-003  -1.7103936933547947E-003   6.5315066664896171E-002
   3.6300995808506986E-003  -2.0025450268298384E-003   6.4398385440947670E-002
   3.0985156676661962E-003  -2.5271624152199690E-003   6.3601594403915773E-002
   2.5669317544817216E-003  -3.2842458585255682E-003   6.2924693553800065E-002
   2.0353478412972192E-003  -4.2737953567471010E-003   6.2367682890601017E-002
   3.6007040712773830E-003  -6.9415640134052881E-003   5.3536606960774225E-002
   4.1530014402823001E-003  -9.5331142675315617E-003   5.1862430306822138E-002
   4.7052988092872172E-003  -1.2760259747700370E-002   5.0043142957889419E-002
   5.2575961782921204E-003  -1.6623000453911692E-002   4.8078744913975152E-002
   5.8098935472971069E-003  -2.1121336386165979E-002   4.5969236175080752E-002
   3.3472195722714093E-003  -6.2746218492406580E-003   5.5306387149946290E-002
   3.7718003671510930E-003  -8.5438427497519509E-003   5.2952443176573050E-002
   4.1963811620307906E-003  -1.1387985226789271E-002   5.0488176749930114E-002
   4.6209619569104882E-003  -1.4807049280352418E-002   4.7913587870017982E-002
   5.0455427517901996E-003  -1.8801034910440828E-002   4.5228676536835932E-002
   3.0018320342727056E-003  -5.6076796850761945E-003   5.7368159867974916E-002
   3.3334844967385369E-003  -7.5545712319726177E-003   5.4395122224697057E-002
   3.6651369592043820E-003  -1.0015710705878048E-002   5.1346550369861230E-002
   3.9967894216702236E-003  -1.2991098106792474E-002   4.8222444303466928E-002
   4.3284418841360583E-003  -1.6480733434715900E-002   4.5022804025514729E-002
   2.5645414572812858E-003  -4.9407375209117588E-003   5.9721925114859888E-002
   2.8380538290446247E-003  -6.5652997141931457E-003   5.6190467451194458E-002
   3.1115662008080053E-003  -8.6434361849668864E-003   5.2618263817682268E-002
   3.3850785725713156E-003  -1.1175146933232865E-002   4.9005314214323553E-002
   3.6585909443346692E-003  -1.4160431958990971E-002   4.5351618641117170E-002
   2.0353478412972192E-003  -4.2737953567471010E-003   6.2367682890601017E-002
   2.2855083640693913E-003  -5.5760281964137848E-003   5.8338478856065357E-002
   2.5356688868415772E-003  -7.2711616640558363E-003   5.4303317093393422E-002
   2.7858294096137909E-003  -9.3591957596731723E-003   5.0262197602586267E-002
   3.0359899323859629E-003  -1.1840130483265821E-002   4.6215120383644059E-002
   2.5689045597875632E-002  -3.9576229663490503E-003   6.4847731375055062E-002
   2.4719984592974531E-002  -5.2280074295622536E-003   6.3819189375433572E-002
   2.3750923588073472E-002  -6.0561370437287043E-003   6.3221293215102725E-002
   2.2781862583172392E-002  -6.4420118088483885E-003   6.3054042894062495E-002
   2.1812801578271312E-002  -6.3856317249214589E-003   6.3317438412313021E-002
   1.8584555732790234E-002  -3.5773587734229118E-003   6.3450428526633518E-002
   1.8000082447397397E-002  -4.1912102913983784E-003   6.3127333168425143E-002
   1.7415609162004568E-002  -4.5860899255169701E-003   6.3142767409942430E-002
   1.6831135876611735E-002  -4.7619976757790096E-003   6.3496731251185559E-002
   1.6246662591218902E-002  -4.7189335421842227E-003   6.4189224692154545E-002
   1.1900957262448685E-002  -3.1970945804968010E-003   6.2821300106044586E-002
   1.1608955456999207E-002  -3.1544131532344200E-003   6.2980368424059366E-002
   1.1316953651549732E-002  -3.1160428073053470E-003   6.3385850102234895E-002
   1.1024951846100259E-002  -3.0819835427095474E-003   6.4037745140571367E-002
   1.0732950040650793E-002  -3.0522353594470419E-003   6.4936053539068783E-002
   5.6382501868510061E-003  -2.8168303875706902E-003   6.2960346113288643E-002
   5.5466036217799927E-003  -2.1176160150705031E-003   6.3378295142336297E-002
   5.4549570567090011E-003  -1.6459956890936128E-003   6.3950541291980162E-002
   5.3633104916380025E-003  -1.4019694096400991E-003   6.4677084562219975E-002
   5.2716639265669961E-003  -1.3855371767099445E-003   6.5557924953055832E-002
  -2.0356549400285529E-004  -2.4365661946445516E-003   6.3867566548365340E-002
  -1.8697305826026467E-004  -1.0808188769066140E-003   6.4321113323256129E-002
  -1.7038062251767405E-004  -1.7594857088201743E-004   6.4836840979178134E-002
  -1.5378818677507650E-004   2.7804472342928682E-004   6.5414749516131299E-002
  -1.3719575103248588E-004   2.8116100602731953E-004   6.6054838934115567E-002
   2.1812801578271312E-002  -6.3856317249214589E-003   6.3317438412313021E-002
   2.1116595121051698E-002  -6.1130123637004874E-003   6.2806546714005818E-002
   2.0420388663832084E-002  -5.8501692969379349E-003   6.2488889696374617E-002
   1.9724182206612491E-002  -5.5971025246343564E-003   6.2364467359419390E-002
   1.9027975749392870E-002  -5.3538120467893080E-003   6.2433279703139943E-002
   1.6246662591218902E-002  -4.7189335421842227E-003   6.4189224692154545E-002
   1.5740531755526671E-002  -4.5616410946471703E-003   6.3727454595967695E-002
   1.5234400919834440E-002  -4.3948639030825798E-003   6.3452601062159664E-002
   1.4728270084142212E-002  -4.2186019674898406E-003   6.3364664090730452E-002
   1.4222139248449998E-002  -4.0328552878695634E-003   6.3463643681680115E-002
   1.0732950040650793E-002  -3.0522353594470419E-003   6.4936053539068783E-002
   1.0410576708188825E-002  -3.0102698255941307E-003   6.4542666083488714E-002
   1.0088203375726856E-002  -2.9395585092268917E-003   6.4329877071990366E-002
   9.7658300432648896E-003  -2.8401014103454358E-003   6.4297686504573681E-002
   9.4434567108029228E-003  -2.7118985289497632E-003   6.4446094381238689E-002
   5.2716639265669961E-003  -1.3855371767099445E-003   6.5557924953055832E-002
   5.1267299790381657E-003  -1.4588985565410079E-003   6.5252181176568946E-002
   4.9817960315093456E-003  -1.4842531153714256E-003   6.5120717725866695E-002
   4.8368620839805204E-003  -1.4616008532010033E-003   6.5163534600949063E-002
   4.6919281364516960E-003  -1.3909417700299909E-003   6.5380631801815942E-002
  -1.3719575103248588E-004   2.8116100602731953E-004   6.6054838934115567E-002
  -1.1100843192529339E-004   9.2472712512198241E-005   6.5855999875208460E-002
  -8.4821112818097427E-005  -2.8947721515848457E-005   6.5825123023788706E-002
  -5.8633793710902334E-005  -8.3100296056543010E-005   6.5962208379856530E-002
  -3.2446474603708975E-005  -6.9985011110273998E-005   6.6267255943411763E-002
   1.9027975749392870E-002  -5.3538120467893080E-003   6.2433279703139943E-002
   1.8071489146499628E-002  -5.1078272839364391E-003   6.2105882766240683E-002
   1.7115002543606393E-002  -4.8466776566100378E-003   6.2020038484142559E-002
   1.6158515940713155E-002  -4.5703631648093476E-003   6.2175746856845709E-002
   1.5202029337819917E-002  -4.2788838085351388E-003   6.2573007884349940E-002
   1.4222139248449998E-002  -4.0328552878695634E-003   6.3463643681680115E-002
   1.3506922121681912E-002  -3.8381905643637415E-003   6.3174875633508987E-002
   1.2791704994913857E-002  -3.6351744971147293E-003   6.3127093882787200E-002
   1.2076487868145786E-002  -3.4238070861228112E-003   6.3320298429514435E-002
   1.1361270741377716E-002  -3.2040883313877444E-003   6.3754489273690984E-002
   9.4434567108029228E-003  -2.7118985289497632E-003   6.4446094381238689E-002
   8.9689427028079929E-003  -2.5685538447907663E-003   6.4189141701065239E-002
   8.4944286948130613E-003  -2.4236713376196012E-003   6.4172608960988767E-002
   8.0199146868181297E-003  -2.2772510074361672E-003   6.4396496161009537E-002
   7.5454006788231998E-003  -2.1292928542405165E-003   6.4860803301127395E-002
   4.6919281364516960E-003  -1.3909417700299909E-003   6.5380631801815942E-002
   4.4575508898778591E-003  -1.2989171252180132E-003   6.5148680968909023E-002
   4.2231736433040248E-003  -1.2121681781244384E-003   6.5156583718747135E-002
   3.9887963967301923E-003  -1.1306949287495770E-003   6.5404340051330528E-002
   3.7544191501563597E-003  -1.0544973770933164E-003   6.5891949966658786E-002
  -3.2446474603708975E-005  -6.9985011110273998E-005   6.6267255943411763E-002
  -2.7253317108483222E-005  -2.9280405645065732E-005   6.6053493437040645E-002
  -2.2060159613250530E-005  -6.6501862917844878E-007   6.6079018156062597E-002
  -1.6867002118014368E-005   1.5861149937065194E-005   6.6343830100477494E-002
  -1.1673844622792084E-005   2.0298100053994794E-005   6.6847929270285600E-002
   1.5202029337819917E-002  -4.2788838085351388E-003   6.2573007884349940E-002
   1.4360713910382170E-002  -3.9786159145996924E-003   6.2387786976382531E-002
   1.3519398482944436E-002  -3.6759358098157613E-003   6.2407062994649320E-002
   1.2678083055506696E-002  -3.3708434941837687E-003   6.2630835939150642E-002
   1.1836767628068956E-002  -3.0633389677034994E-003   6.3059105809886051E-002
   1.1361270741377716E-002  -3.2040883313877444E-003   6.3754489273690984E-002
   1.0725867547742511E-002  -2.9794950697558942E-003   6.3597477147628950E-002
   1.0090464354107292E-002  -2.7535041380730430E-003   6.3647792562937733E-002
   9.4550611604720669E-003  -2.5261155363396834E-003   6.3905435519617360E-002
   8.8196579668368552E-003  -2.2973292645555032E-003   6.4370406017667636E-002
   7.5454006788231998E-003  -2.1292928542405165E-003   6.4860803301127395E-002
   7.1187403341269884E-003  -1.9803742249122069E-003   6.4730985416173170E-002
   6.6920799894307735E-003  -1.8310724663304218E-003   6.4811325687726323E-002
   6.2654196447345569E-003  -1.6813875784955946E-003   6.5101824115786744E-002
   5.8387593000383473E-003  -1.5313195614075070E-003   6.5602480700354293E-002
   3.7544191501563597E-003  -1.0544973770933164E-003   6.5891949966658786E-002
   3.5393322695356135E-003  -9.8125338006857521E-004   6.5788311782015163E-002
   3.3242453889148708E-003  -9.0864079458786301E-004   6.5897662369015092E-002
   3.1091585082941259E-003  -8.3665962065145212E-004   6.6220001727658906E-002
   2.8940716276733818E-003  -7.6530985825962183E-004   6.6755329857946299E-002
  -1.1673844622792084E-005   2.0298100053994794E-005   6.6847929270285600E-002
  -1.2356646031597834E-005   1.7867464775167541E-005   6.6769456245154624E-002
  -1.3039447440400115E-005   1.3790877154917780E-005   6.6906802606804094E-002
  -1.3722248849209334E-005   8.0683371926904002E-006   6.7259968355233651E-002
  -1.4405050258008145E-005   6.9984488848540138E-007   6.7828953490443378E-002
   1.1836767628068956E-002  -3.0633389677034994E-003   6.3059105809886051E-002
   1.0847932096151411E-002  -2.7592371453318831E-003   6.2956512258956043E-002
   9.8590965642338657E-003  -2.4643529420250720E-003   6.3103444019880661E-002
   8.8702610323163206E-003  -2.1786863577840931E-003   6.3499901092660127E-002
   7.8814255003987754E-003  -1.9022373926077529E-003   6.4145883477294441E-002
   8.8196579668368552E-003  -2.2973292645555032E-003   6.4370406017667636E-002
   8.0800925264847070E-003  -2.0708916136338296E-003   6.4296111975460923E-002
   7.3405270861325381E-003  -1.8505488744886278E-003   6.4470832804530170E-002
   6.6009616457803830E-003  -1.6363010471195025E-003   6.4894568504875572E-002
   5.8613962054282209E-003  -1.4281481315261413E-003   6.5567319076496655E-002
   5.8387593000383473E-003  -1.5313195614075070E-003   6.5602480700354293E-002
   5.3479535106726941E-003  -1.3825460819362756E-003   6.5559608874160291E-002
   4.8571477213070341E-003  -1.2367448069520726E-003   6.5765241478663250E-002
   4.3663419319413810E-003  -1.0939157364548563E-003   6.6219378513863392E-002
   3.8755361425757209E-003  -9.5405887044447413E-004   6.6922019979760550E-002
   2.8940716276733818E-003  -7.6530985825962183E-004   6.6755329857946299E-002
   2.6515150487153687E-003  -6.9420055023847183E-004   6.6747002955053925E-002
   2.4089584697573555E-003  -6.2294073941540629E-004   6.6986670042279803E-002
   2.1664018907993346E-003  -5.5153042579045991E-004   6.7474331119623698E-002
   1.9238453118413153E-003  -4.7996960936277921E-004   6.8209986187085944E-002
  -1.4405050258008145E-005   6.9984488848540138E-007   6.7828953490443378E-002
  -9.2228593872589748E-006  -5.8550185407235666E-006   6.7858294218141824E-002
  -4.0406685165028655E-006  -9.1366718789898105E-006   6.8135118495379621E-002
   1.1415223542532438E-006  -9.1451151258206687E-006   6.8659426322156769E-002
   6.3237132250024142E-006  -5.8803482810843022E-006   6.9431217698473269E-002
   7.8814255003987754E-003  -1.9022373926077529E-003   6.4145883477294441E-002
   6.9514899988079026E-003  -1.6863670446722878E-003   6.4069776263738887E-002
   6.0215544972169882E-003  -1.5824363121513252E-003   6.4239271057153990E-002
   5.0916189956260946E-003  -1.5904451950453785E-003   6.4654367857539696E-002
   4.1616834940352010E-003  -1.7103936933547947E-003   6.5315066664896171E-002
   5.8613962054282209E-003  -1.4281481315261413E-003   6.5567319076496655E-002
   5.1736512572069168E-003  -1.2652057970715114E-003   6.5423836708499661E-002
   4.4859063089856266E-003  -1.1865897131188574E-003   6.5519133440271105E-002
   3.7981613607643398E-003  -1.1922998796673884E-003   6.5853209271810986E-002
   3.1104164125430322E-003  -1.2823362967172569E-003   6.6426064203119473E-002
   3.8755361425757209E-003  -9.5405887044447413E-004   6.6922019979760550E-002
   3.4231588405217277E-003  -8.4404454947162311E-004   6.6738775822235863E-002
   2.9707815384677379E-003  -7.9074311408658393E-004   6.6787487857277367E-002
   2.5184042364137533E-003  -7.9415456428928027E-004   6.7068156084884839E-002
   2.0660269343597548E-003  -8.5427890007977458E-004   6.7580780505058585E-002
   1.9238453118413153E-003  -4.7996960936277921E-004   6.8209986187085944E-002
   1.7000127487523421E-003  -4.2288330187162382E-004   6.8014593604947299E-002
   1.4761801856633628E-003  -3.9489651505421330E-004   6.8044334308172472E-002
   1.2523476225743753E-003  -3.9600924891123115E-004   6.8299208296761421E-002
   1.0285150594853965E-003  -4.2622150344226450E-004   6.8779215570714314E-002
   6.3237132250024142E-006  -5.8803482810843022E-006   6.9431217698473269E-002
   4.2129818987393652E-006  -1.7220542710139064E-006   6.9251290056634329E-002
   2.1022505724693774E-006   9.5008397807405665E-007   6.9289672792956614E-002
  -8.4807537919368015E-009   2.1360664671302154E-006   6.9546365907440760E-002
  -2.1192120800636594E-006   1.8358931953565971E-006   7.0021369400086408E-002
   4.1616834940352010E-003  -1.7103936933547947E-003   6.5315066664896171E-002
   3.6300995808506986E-003  -2.0025450268298384E-003   6.4398385440947670E-002
   3.0985156676661962E-003  -2.5271624152199690E-003   6.3601594403915773E-002
   2.5669317544817216E-003  -3.2842458585255682E-003   6.2924693553800065E-002
   2.0353478412972192E-003  -4.2737953567471010E-003   6.2367682890601017E-002
   3.1104164125430322E-003  -1.2823362967172569E-003   6.6426064203119473E-002
   2.7020186556207942E-003  -1.5016684171165751E-003   6.5316190946269004E-002
   2.2936208986985562E-003  -1.8952656937133439E-003   6.4332799815026598E-002
   1.8852231417763148E-003  -2.4631281265073135E-003   6.3475890809392005E-002
   1.4768253848540802E-003  -3.2052557154985672E-003   6.2745463929365863E-002
   2.0660269343597548E-003  -8.5427890007977458E-004   6.7580780505058585E-002
   1.7874072723912150E-003  -1.0007918074038114E-003   6.6335916114024507E-002
   1.5087876104226787E-003  -1.2633689722068436E-003   6.5224125787290074E-002
   1.2301679484541389E-003  -1.6420103944890622E-003   6.4245409524854802E-002
   9.5154828648560258E-004  -2.1367160742504776E-003   6.3399767326719036E-002
   1.0285150594853965E-003  -4.2622150344226450E-004   6.8779215570714314E-002
   8.8626543116198265E-004  -4.9991519769079784E-004   6.7457560944214928E-002
   7.4401580283856277E-004  -6.3147225070039198E-004   6.6275572320706300E-002
   6.0176617451514289E-004  -8.2089266247069824E-004   6.5233249700188581E-002
   4.5951654619172909E-004  -1.0681764330023880E-003   6.4330593082661730E-002
  -2.1192120800636594E-006   1.8358931953565971E-006   7.0021369400086408E-002
  -1.4068680669263034E-006   9.6141202210464627E-007   6.8681125436839574E-002
  -6.9452405379241688E-007   4.2447080617069588E-007   6.7487139415275121E-002
   1.7819959344939074E-008   2.2506954758250153E-007   6.6439411335392717E-002
   7.3016397247882558E-007   3.6320824603475188E-007   6.5537941197193139E-002
   2.0353478412972192E-003  -4.2737953567471010E-003   6.2367682890601017E-002
   2.2855083640693913E-003  -5.5760281964137848E-003   5.8338478856065357E-002
   2.5356688868415772E-003  -7.2711616640558363E-003   5.4303317093393422E-002
   2.7858294096137909E-003  -9.3591957596731723E-003   5.0262197602586267E-002
   3.0359899323859629E-003  -1.1840130483265821E-002   4.6215120383644059E-002
   1.4768253848540802E-003  -3.2052557154985672E-003   6.2745463929365863E-002
   1.7068558876957435E-003  -4.1818515899637032E-003   5.8391546939746630E-002
   1.9368863905373929E-003  -5.4531188791784035E-003   5.4003327638402043E-002
   2.1669168933790388E-003  -7.0190575831421340E-003   4.9580806025331686E-002
   2.3969473962207055E-003  -8.8796677018561088E-003   4.5123982100536253E-002
   9.5154828648560258E-004  -2.1367160742504776E-003   6.3399767326719036E-002
   1.1331041858065986E-003  -2.7876749835134551E-003   5.8819366595242922E-002
   1.3146600851276051E-003  -3.6350760943005267E-003   5.4176318968450737E-002
   1.4962159844486254E-003  -4.6789194066114287E-003   4.9470624446342995E-002
   1.6777718837695937E-003  -5.9192049204466191E-003   4.4702283028919876E-002
   4.5951654619172909E-004  -1.0681764330023880E-003   6.4330593082661730E-002
   5.6425325840197497E-004  -1.3934983770634013E-003   5.9621937822553712E-002
   6.6898997061222171E-004  -1.8170333094228719E-003   5.4822291083540087E-002
   7.7372668282245805E-004  -2.3387812300807789E-003   4.9931652865620006E-002
   8.7846339503272822E-004  -2.9587421390369073E-003   4.4950023168795178E-002
   7.3016397247882558E-007   3.6320824603475188E-007   6.5537941197193139E-002
   3.0310548184558916E-007   6.7822938676354028E-007   6.0799260621679063E-002
  -1.2395300877723892E-007   1.0094754545886264E-006   5.5941243983669453E-002
  -5.5101149939833227E-007   1.3569464502108386E-006   5.0963891283163837E-002
  -9.7806999002636452E-007   1.7206423725824038E-006   4.5867202520162298E-002
  -2.0356549400285529E-004  -2.4365661946445516E-003   6.3867566548365340E-002
  -1.8697305826026467E-004  -1.0808188769066140E-003   6.4321113323256129E-002
  -1.7038062251767405E-004  -1.7594857088201743E-004   6.4836840979178134E-002
  -1.5378818677507650E-004   2.7804472342928682E-004   6.5414749516131299E-002
  -1.3719575103248588E-004   2.8116100602731953E-004   6.6054838934115567E-002
  -6.0140150538885717E-003   4.1341354434765165E-004   6.4885037169786552E-002
  -5.8892627345144277E-003   1.1380511356543777E-003   6.4672812828558246E-002
  -5.7645104151403063E-003   1.6063838068506864E-003   6.4614727373562053E-002
  -5.6397580957661701E-003   1.8184115579365431E-003   6.4710780804797627E-002
  -5.5150057763920339E-003   1.7741343889119965E-003   6.4960973122265175E-002
  -1.2182623766581817E-002   3.2633932833399382E-003   6.5174112018974911E-002
  -1.1857753558375372E-002   3.3569211482154249E-003   6.4490688653230543E-002
  -1.1532883350168926E-002   3.3887161845833486E-003   6.4053362178918924E-002
  -1.1208013141962486E-002   3.3587783924438029E-003   6.3862132596040011E-002
  -1.0883142933756040E-002   3.2671077717967567E-003   6.3916999904593791E-002
  -1.8709391632082666E-002   6.1133730223321692E-003   6.4734791095930777E-002
  -1.8092445529843109E-002   5.5757911607764304E-003   6.3774740797273161E-002
  -1.7475499427603573E-002   5.1710485623160871E-003   6.3152745395249010E-002
  -1.6858553325364026E-002   4.8991452269510610E-003   6.2868804889858396E-002
  -1.6241607223124479E-002   4.7600811546815308E-003   6.2922919281101261E-002
  -2.5594318650391051E-002   8.9633527613244279E-003   6.3567074400653845E-002
  -2.4593338648917634E-002   7.7946611733374083E-003   6.2524969260685959E-002
  -2.3592358647444203E-002   6.9533809400486729E-003   6.1912877022552298E-002
  -2.2591378645970793E-002   6.4395120614583225E-003   6.1730797686252822E-002
  -2.1590398644497372E-002   6.2530545375662494E-003   6.1978731251787711E-002
  -1.3719575103248588E-004   2.8116100602731953E-004   6.6054838934115567E-002
  -1.1100843192529339E-004   9.2472712512198241E-005   6.5855999875208460E-002
  -8.4821112818097427E-005  -2.8947721515848457E-005   6.5825123023788706E-002
  -5.8633793710902334E-005  -8.3100296056543010E-005   6.5962208379856530E-002
  -3.2446474603708975E-005  -6.9985011110273998E-005   6.6267255943411763E-002
  -5.5150057763920339E-003   1.7741343889119965E-003   6.4960973122265175E-002
  -5.3234218275425502E-003   1.6176367272234815E-003   6.4818807250743293E-002
  -5.1318378786930473E-003   1.4930030003175998E-003   6.4839472431218584E-002
  -4.9402539298435558E-003   1.4002332081943306E-003   6.5022968663691005E-002
  -4.7486699809940608E-003   1.3393273508537917E-003   6.5369295948160461E-002
  -1.0883142933756040E-002   3.2671077717967567E-003   6.3916999904593791E-002
  -1.0531293510654561E-002   3.1428007419349452E-003   6.3796103295752624E-002
  -1.0179444087553084E-002   3.0149537221512146E-003   6.3832906583418350E-002
  -9.8275946644516051E-003   2.8835667124454817E-003   6.4027409767590804E-002
  -9.4757452413501420E-003   2.7486397128178852E-003   6.4379612848270193E-002
  -1.6241607223124479E-002   4.7600811546815308E-003   6.2922919281101261E-002
  -1.5734623481261346E-002   4.6679647566463464E-003   6.2787888010236298E-002
  -1.5227639739398209E-002   4.5369044439847461E-003   6.2805425480387811E-002
  -1.4720655997535073E-002   4.3669002166964663E-003   6.2975531691555814E-002
  -1.4213672255671939E-002   4.1579520747820203E-003   6.3298206643740418E-002
  -2.1590398644497372E-002   6.2530545375662494E-003   6.1978731251787711E-002
  -2.0933411739362900E-002   6.1931287713577476E-003   6.1794161394194358E-002
  -2.0276424834228417E-002   6.0588551658182915E-003   6.1757029122127161E-002
  -1.9619437929093937E-002   5.8502337209475376E-003   6.1867334435586216E-002
  -1.8962451023959465E-002   5.5672644367460444E-003   6.2125077334571344E-002
  -3.2446474603708975E-005  -6.9985011110273998E-005   6.6267255943411763E-002
  -2.7253317108483222E-005  -2.9280405645065732E-005   6.6053493437040645E-002
  -2.2060159613250530E-005  -6.6501862917844878E-007   6.6079018156062597E-002
  -1.6867002118014368E-005   1.5861149937065194E-005   6.6343830100477494E-002
  -1.1673844622792084E-005   2.0298100053994794E-005   6.6847929270285600E-002
  -4.7486699809940608E-003   1.3393273508537917E-003   6.5369295948160461E-002
  -4.5050976560194536E-003   1.2905487415593997E-003   6.5133924301340240E-002
  -4.2615253310448447E-003   1.2341606935747790E-003   6.5136023764085713E-002
  -4.0179530060702323E-003   1.1701632069000927E-003   6.5375594336396753E-002
  -3.7743806810956217E-003   1.0985562815351013E-003   6.5852636018273680E-002
  -9.4757452413501420E-003   2.7486397128178852E-003   6.4379612848270193E-002
  -8.9956098647234715E-003   2.6103778887637957E-003   6.4127111840759907E-002
  -8.5154744880968150E-003   2.4689864057788544E-003   6.4110265826987950E-002
  -8.0353391114701585E-003   2.3244652638630108E-003   6.4329074806954517E-002
  -7.5552037348434881E-003   2.1768144630161523E-003   6.4783538780659455E-002
  -1.4213672255671939E-002   4.1579520747820203E-003   6.3298206643740418E-002
  -1.3498789943220553E-002   3.9302070359681432E-003   6.3033056055299477E-002
  -1.2783907630769182E-002   3.7038121179828430E-003   6.3001744344769656E-002
  -1.2069025318317800E-002   3.4787673208259281E-003   6.3204271512150870E-002
  -1.1354143005866433E-002   3.2550726444973421E-003   6.3640637557443230E-002
  -1.8962451023959465E-002   5.5672644367460444E-003   6.2125077334571344E-002
  -1.8014637891510699E-002   5.2500361831726572E-003   6.1851756944959035E-002
  -1.7066824759061926E-002   4.9386378301868872E-003   6.1810459317430483E-002
  -1.6119011626613153E-002   4.6330693777888454E-003   6.2001184451985658E-002
  -1.5171198494164387E-002   4.3333308259783099E-003   6.2423932348624533E-002
  -1.1673844622792084E-005   2.0298100053994794E-005   6.6847929270285600E-002
  -1.2356646031597834E-005   1.7867464775167541E-005   6.6769456245154624E-002
  -1.3039447440400115E-005   1.3790877154917780E-005   6.6906802606804094E-002
  -1.3722248849209334E-005   8.0683371926904002E-006   6.7259968355233651E-002
  -1.4405050258008145E-005   6.9984488848540138E-007   6.7828953490443378E-002
  -3.7743806810956217E-003   1.0985562815351013E-003   6.5852636018273680E-002
  -3.5605959405537943E-003   1.0217047594906215E-003   6.5752432077532813E-002
  -3.3468112000119721E-003   9.4197348277691439E-004   6.5865343833913015E-002
  -3.1330264594701535E-003   8.5936245139420220E-004   6.6191371287414369E-002
  -2.9192417189283226E-003   7.7387166534248486E-004   6.6730514438036848E-002
  -7.5552037348434881E-003   2.1768144630161523E-003   6.4783538780659455E-002
  -7.1296551420101393E-003   2.0255420542057423E-003   6.4660370121981225E-002
  -6.7041065491767913E-003   1.8701560883990220E-003   6.4747613470765117E-002
  -6.2785579563434295E-003   1.7106565655958250E-003   6.5045268827011032E-002
  -5.8530093635100807E-003   1.5470434857962623E-003   6.5553336190718819E-002
  -1.1354143005866433E-002   3.2550726444973421E-003   6.3640637557443230E-002
  -1.0719534250400625E-002   3.0293793489210297E-003   6.3493270378500388E-002
  -1.0084925494934820E-002   2.7983386940210742E-003   6.3553611517360456E-002
  -9.4503167394690141E-003   2.5619506797973923E-003   6.3821660974023448E-002
  -8.8157079840032078E-003   2.3202153062500952E-003   6.4297418748489349E-002
  -1.5171198494164387E-002   4.3333308259783099E-003   6.2423932348624533E-002
  -1.4330233265725245E-002   4.0332166436362615E-003   6.2251132847089885E-002
  -1.3489268037286083E-002   3.7265212996432096E-003   6.2283337973698949E-002
  -1.2648302808846934E-002   3.4132447939989805E-003   6.2520547728451947E-002
  -1.1807337580407778E-002   3.0933871267040391E-003   6.2962762111348547E-002
  -1.4405050258008145E-005   6.9984488848540138E-007   6.7828953490443378E-002
  -9.2228593872589748E-006  -5.8550185407235666E-006   6.7858294218141824E-002
  -4.0406685165028655E-006  -9.1366718789898105E-006   6.8135118495379621E-002
   1.1415223542532438E-006  -9.1451151258206687E-006   6.8659426322156769E-002
   6.3237132250024142E-006  -5.8803482810843022E-006   6.9431217698473269E-002
  -2.9192417189283226E-003   7.7387166534248486E-004   6.6730514438036848E-002
  -2.6674860076734558E-003   6.8974158955631415E-004   6.6734451353314739E-002
  -2.4157302964185872E-003   6.1121268897162961E-004   6.6984051759821667E-002
  -2.1639745851637074E-003   5.3828496358800104E-004   6.7479315657557451E-002
  -1.9122188739088379E-003   4.7095841340516476E-004   6.8220243046522244E-002
  -5.8530093635100807E-003   1.5470434857962623E-003   6.5553336190718819E-002
  -5.3565001901814983E-003   1.3853381976538237E-003   6.5534197258686006E-002
  -4.8599910168529280E-003   1.2315620498222629E-003   6.5758901759571789E-002
  -4.3634818435243517E-003   1.0857150423014932E-003   6.6227449693375989E-002
  -3.8669726701957754E-003   9.4779717509135830E-004   6.6939841060098676E-002
  -8.8157079840032078E-003   2.3202153062500952E-003   6.4297418748489349E-002
  -8.0762654069113753E-003   2.0809348057510973E-003   6.4257531934255763E-002
  -7.3368228298195358E-003   1.8519114106727783E-003   6.4459668494630001E-002
  -6.5973802527276955E-003   1.6331451210148170E-003   6.4903828429612273E-002
  -5.8579376756358621E-003   1.4246359367776351E-003   6.5590011739202980E-002
  -1.1807337580407778E-002   3.0933871267040391E-003   6.2962762111348547E-002
  -1.0826781657863098E-002   2.7765314138484265E-003   6.2904455380023649E-002
  -9.8462257353184104E-003   2.4722607715233214E-003   6.3086351964996235E-002
  -8.8656698127737264E-003   2.1805751997285919E-003   6.3508451866266608E-002
  -7.8851138902290424E-003   1.9014746984639119E-003   6.4170755083834519E-002
   6.3237132250024142E-006  -5.8803482810843022E-006   6.9431217698473269E-002
   4.2129818987393652E-006  -1.7220542710139064E-006   6.9251290056634329E-002
   2.1022505724693774E-006   9.5008397807405665E-007   6.9289672792956614E-002
  -8.4807537919368015E-009   2.1360664671302154E-006   6.9546365907440760E-002
  -2.1192120800636594E-006   1.8358931953565971E-006   7.0021369400086408E-002
  -1.9122188739088379E-003   4.7095841340516476E-004   6.8220243046522244E-002
  -1.6922566454890577E-003   4.1992505032650840E-004   6.8020616298737790E-002
  -1.4722944170692757E-003   3.9587688625425388E-004   6.8046825092283575E-002
  -1.2523321886494980E-003   3.9881392118958081E-004   6.8298869427160139E-002
  -1.0323699602297134E-003   4.2873615513139285E-004   6.8776749303366969E-002
  -3.8669726701957754E-003   9.4779717509135830E-004   6.6939841060098676E-002
  -3.4174123188610069E-003   8.4157215492383641E-004   6.6748986561136148E-002
  -2.9678519675262194E-003   7.9080368853075289E-004   6.6791492766673163E-002
  -2.5182916161914522E-003   7.9549177591180589E-004   6.7067359676709515E-002
  -2.0687312648566634E-003   8.5563641706737359E-004   6.7576587291245382E-002
  -5.8579376756358621E-003   1.4246359367776351E-003   6.5590011739202980E-002
  -5.1712540382171223E-003   1.2632192595212616E-003   6.5436400843829789E-002
  -4.4845704007983826E-003   1.1857304908068703E-003   6.5523675816125004E-002
  -3.7978867633796467E-003   1.1921696306341437E-003   6.5851836656088764E-002
  -3.1112031259609035E-003   1.2825366790033821E-003   6.6420883363720901E-002
  -7.8851138902290424E-003   1.9014746984639119E-003   6.4170755083834519E-002
  -6.9537818035573934E-003   1.6848663641186867E-003   6.4082859146818216E-002
  -6.0224497168857444E-003   1.5806572930834595E-003   6.4243374240639306E-002
  -5.0911176302140919E-003   1.5888474853564330E-003   6.4652300365297871E-002
  -4.1597855435424463E-003   1.7094369409393906E-003   6.5309637520793773E-002
  -2.1192120800636594E-006   1.8358931953565971E-006   7.0021369400086408E-002
  -1.4068680669263034E-006   9.6141202210464627E-007   6.8681125436839574E-002
  -6.9452405379241688E-007   4.2447080617069588E-007   6.7487139415275121E-002
   1.7819959344939074E-008   2.2506954758250153E-007   6.6439411335392717E-002
   7.3016397247882558E-007   3.6320824603475188E-007   6.5537941197193139E-002
  -1.0323699602297134E-003   4.2873615513139285E-004   6.8776749303366969E-002
  -8.8883938231771459E-004   5.0132631432808772E-004   6.7456299171589740E-002
  -7.4530880440570706E-004   6.3226712502714721E-004   6.6275227565927519E-002
  -6.0177822649370473E-004   8.2155858722848113E-004   6.5233534486380834E-002
  -4.5824764858170067E-004   1.0692007009321935E-003   6.4331219932949879E-002
  -2.0687312648566634E-003   8.5563641706737359E-004   6.7576587291245382E-002
  -1.7892618686125832E-003   1.0016912166339043E-003   6.6333944102482112E-002
  -1.5097924723685100E-003   1.2641097792477907E-003   6.5223800024267420E-002
  -1.2303230761244359E-003   1.6428921049092687E-003   6.4246155056601431E-002
  -9.5085367988035664E-004   2.1380381936184079E-003   6.3401009199484021E-002
  -3.1112031259609035E-003   1.2825366790033821E-003   6.6420883363720901E-002
  -2.7026743269515565E-003   1.5020561189395820E-003   6.5314060229517107E-002
  -2.2941455279421948E-003   1.8959524334684896E-003   6.4332856790295004E-002
  -1.8856167289328471E-003   2.4642256225901119E-003   6.3477273046054855E-002
  -1.4770879299234861E-003   3.2068756863044834E-003   6.2747308996796786E-002
  -4.1597855435424463E-003   1.7094369409393906E-003   6.5309637520793773E-002
  -3.6290767573346067E-003   2.0024210212456484E-003   6.4396647552694364E-002
  -3.0983679711267705E-003   2.5277950876894106E-003   6.3602397864010174E-002
  -2.5676591849189342E-003   3.2855591402711215E-003   6.2926888454740870E-002
  -2.0369503987110946E-003   4.2757131789910030E-003   6.2370119324886897E-002
   7.3016397247882558E-007   3.6320824603475188E-007   6.5537941197193139E-002
   3.0310548184558916E-007   6.7822938676354028E-007   6.0799260621679063E-002
  -1.2395300877723892E-007   1.0094754545886264E-006   5.5941243983669453E-002
  -5.5101149939833227E-007   1.3569464502108386E-006   5.0963891283163837E-002
  -9.7806999002636452E-007   1.7206423725824038E-006   4.5867202520162298E-002
  -4.5824764858170067E-004   1.0692007009321935E-003   6.4331219932949879E-002
  -5.6376580573832408E-004   1.3951131760243096E-003   5.9622259250622256E-002
  -6.6928396289495963E-004   1.8192157223906602E-003   5.4822452433458346E-002
  -7.7480212005159171E-004   2.3415083400316686E-003   4.9931799481458289E-002
  -8.8032027720821859E-004   2.9619910289471196E-003   4.4950300394623000E-002
  -9.5085367988035664E-004   2.1380381936184079E-003   6.3401009199484021E-002
  -1.1329730080431293E-003   2.7895481226618002E-003   5.8819942256690266E-002
  -1.3150923362059046E-003   3.6374219693268289E-003   5.4176519106719875E-002
  -1.4972116643686933E-003   4.6816597336134004E-003   4.9470739749573119E-002
  -1.6793309925314664E-003   5.9222614155214348E-003   4.4702604185250738E-002
  -1.4770879299234861E-003   3.2068756863044834E-003   6.2747308996796786E-002
  -1.7073185014325543E-003   4.1839830692995406E-003   5.8392309639882962E-002
  -1.9375490729416367E-003   5.4556282162632821E-003   5.4003444003452888E-002
  -2.1677796444507401E-003   7.0218111271953283E-003   4.9580712087506293E-002
  -2.3980102159597873E-003   8.8825318020958610E-003   4.5124113892043266E-002
  -2.0369503987110946E-003   4.2757131789910030E-003   6.2370119324886897E-002
  -2.2868022859066292E-003   5.5784180159369479E-003   5.8339361400200462E-002
  -2.5366541731021534E-003   7.2738344631992913E-003   5.4303227123658093E-002
  -2.7865060602976673E-003   9.3619625207768120E-003   5.0261716495258513E-002
  -3.0363579474932123E-003   1.1842802188670287E-002   4.6214829515003331E-002
  -2.5594318650391051E-002   8.9633527613244279E-003   6.3567074400653845E-002
  -2.4593338648917634E-002   7.7946611733374083E-003   6.2524969260685959E-002
  -2.3592358647444203E-002   6.9533809400486729E-003   6.1912877022552298E-002
  -2.2591378645970793E-002   6.4395120614583225E-003   6.1730797686252822E-002
  -2.1590398644497372E-002   6.2530545375662494E-003   6.1978731251787711E-002
  -3.2534604502073558E-002   1.0117014575635241E-002   5.9177568722494384E-002
  -3.1135159595071453E-002   9.3280976632072465E-003   5.8602906671216426E-002
  -2.9735714688069390E-002   8.7148685939532483E-003   5.8395161529161368E-002
  -2.8336269781067350E-002   8.2773273678732086E-003   5.8554333296329315E-002
  -2.6936824874065280E-002   8.0154739849672141E-003   5.9080421972720371E-002
  -3.9227448867696746E-002   1.1270676389945972E-002   5.5243699475656285E-002
  -3.7492635047777237E-002   1.0861534153077071E-002   5.4984757001543830E-002
  -3.5757821227857728E-002   1.0476356247857789E-002   5.5029635444043053E-002
  -3.4023007407938247E-002   1.0115142674288093E-002   5.5378334803154086E-002
  -3.2288193588018717E-002   9.7778934323680955E-003   5.6030855078877062E-002
  -4.5672851747260532E-002   1.2424338204256744E-002   5.1765466660139245E-002
  -4.3665765007034806E-002   1.2394970642946902E-002   5.1670520251667976E-002
  -4.1658678266809170E-002   1.2237843901762264E-002   5.1816298767197080E-002
  -3.9651591526583485E-002   1.1952957980702950E-002   5.2202802206726961E-002
  -3.7644504786357780E-002   1.1540312879769046E-002   5.2830030570257439E-002
  -5.1870813140765054E-002   1.3578000018567515E-002   4.8742870275943484E-002
  -4.9654549472844423E-002   1.3928407132816623E-002   4.8660196421589030E-002
  -4.7438285804923708E-002   1.3999331555666863E-002   4.8755151498623889E-002
  -4.5222022137003048E-002   1.3790773287117825E-002   4.9027735507048184E-002
  -4.3005758469082375E-002   1.3302732327169942E-002   4.9477948446861764E-002
  -2.1590398644497372E-002   6.2530545375662494E-003   6.1978731251787711E-002
  -2.0933411739362900E-002   6.1931287713577476E-003   6.1794161394194358E-002
  -2.0276424834228417E-002   6.0588551658182915E-003   6.1757029122127161E-002
  -1.9619437929093937E-002   5.8502337209475376E-003   6.1867334435586216E-002
  -1.8962451023959465E-002   5.5672644367460444E-003   6.2125077334571344E-002
  -2.6936824874065280E-002   8.0154739849672141E-003   5.9080421972720371E-002
  -2.6131633272088065E-002   7.8186086812710581E-003   5.8831646980015403E-002
  -2.5326441670110875E-002   7.5760316928207699E-003   5.8731843795469613E-002
  -2.4521250068133660E-002   7.2877430196161518E-003   5.8781012419083123E-002
  -2.3716058466156473E-002   6.9537426616574916E-003   5.8979152850855920E-002
  -3.2288193588018717E-002   9.7778934323680955E-003   5.6030855078877062E-002
  -3.1333263066565718E-002   9.4440885911842576E-003   5.5746511105637248E-002
  -3.0378332545112696E-002   9.0932082198231304E-003   5.5612673163189776E-002
  -2.9423402023659676E-002   8.7252523182846532E-003   5.5629341251534653E-002
  -2.8468471502206646E-002   8.3402208865688832E-003   5.5796515370671984E-002
  -3.7644504786357780E-002   1.1540312879769046E-002   5.2830030570257439E-002
  -3.6538301122795838E-002   1.1069568501097540E-002   5.2538753771059793E-002
  -3.5432097459233931E-002   1.0610384746825411E-002   5.2399517225287476E-002
  -3.4325893795672018E-002   1.0162761616953099E-002   5.2412320932940792E-002
  -3.3219690132110083E-002   9.7266991114803025E-003   5.2577164894019340E-002
  -4.3005758469082375E-002   1.3302732327169942E-002   4.9477948446861764E-002
  -4.1746747440778470E-002   1.2695048411010740E-002   4.9208374976283054E-002
  -4.0487736412474544E-002   1.2127561273827969E-002   4.9092375981762887E-002
  -3.9228725384170646E-002   1.1600270915621630E-002   4.9129951463301305E-002
  -3.7969714355866713E-002   1.1113177336391777E-002   4.9321101420898183E-002
  -1.8962451023959465E-002   5.5672644367460444E-003   6.2125077334571344E-002
  -1.8014637891510699E-002   5.2500361831726572E-003   6.1851756944959035E-002
  -1.7066824759061926E-002   4.9386378301868872E-003   6.1810459317430483E-002
  -1.6119011626613153E-002   4.6330693777888454E-003   6.2001184451985658E-002
  -1.5171198494164387E-002   4.3333308259783099E-003   6.2423932348624533E-002
  -2.3716058466156473E-002   6.9537426616574916E-003   5.8979152850855920E-002
  -2.2539763766342650E-002   6.5955384596480260E-003   5.8705052621292053E-002
  -2.1363469066528834E-002   6.2346382542913803E-003   5.8655892764374440E-002
  -2.0187174366715011E-002   5.8710420455876655E-003   5.8831673280103261E-002
  -1.9010879666901199E-002   5.5047498335364375E-003   5.9232394168478364E-002
  -2.8468471502206646E-002   8.3402208865688832E-003   5.5796515370671984E-002
  -2.7070777624465164E-002   7.9410407361233948E-003   5.5513109397221594E-002
  -2.5673083746723675E-002   7.5306386783957624E-003   5.5447561406979984E-002
  -2.4275389868982214E-002   7.1090147133861525E-003   5.5599871399947459E-002
  -2.2877695991240704E-002   6.6761688410944542E-003   5.5970039376124048E-002
  -3.3219690132110083E-002   9.7266991114803025E-003   5.2577164894019340E-002
  -3.1607679465878266E-002   9.2865430125988191E-003   5.2275927272747463E-002
  -2.9995668799646449E-002   8.8266391025002555E-003   5.2185465245247226E-002
  -2.8383658133414636E-002   8.3469873811849726E-003   5.2305778811518586E-002
  -2.6771647467182823E-002   7.8475878486525819E-003   5.2636867971561592E-002
  -3.7969714355866713E-002   1.1113177336391777E-002   4.9321101420898183E-002
  -3.6150469290581952E-002   1.0632045289074160E-002   4.8993506247869911E-002
  -3.4331224225297177E-002   1.0122639526604721E-002   4.8869604279176138E-002
  -3.2511979160012430E-002   9.5849600489836470E-003   4.8949395514816557E-002
  -3.0692734094727642E-002   9.0190068562105430E-003   4.9232879954791142E-002
  -1.5171198494164387E-002   4.3333308259783099E-003   6.2423932348624533E-002
  -1.4330233265725245E-002   4.0332166436362615E-003   6.2251132847089885E-002
  -1.3489268037286083E-002   3.7265212996432096E-003   6.2283337973698949E-002
  -1.2648302808846934E-002   3.4132447939989805E-003   6.2520547728451947E-002
  -1.1807337580407778E-002   3.0933871267040391E-003   6.2962762111348547E-002
  -1.9010879666901199E-002   5.5047498335364375E-003   5.9232394168478364E-002
  -1.7968417356071419E-002   5.1343756651573424E-003   5.9022927434107808E-002
  -1.6925955045241650E-002   4.7585335874691936E-003   5.9011450236374802E-002
  -1.5883492734411885E-002   4.3772236004721438E-003   5.9197962575279109E-002
  -1.4841030423582102E-002   3.9904457041662900E-003   5.9582464450820882E-002
  -2.2877695991240704E-002   6.6761688410944542E-003   5.5970039376124048E-002
  -2.1640751689526647E-002   6.2355346866782291E-003   5.5725018661259812E-002
  -2.0403807387812604E-002   5.7905458752951916E-003   5.5670972391526588E-002
  -1.9166863086098569E-002   5.3412024069452550E-003   5.5807900566924550E-002
  -1.7929918784384512E-002   4.8875042816284298E-003   5.6135803187453620E-002
  -2.6771647467182823E-002   7.8475878486525819E-003   5.2636867971561592E-002
  -2.5347236266090867E-002   7.3366937081993239E-003   5.2357406528545550E-002
  -2.3922825064998925E-002   6.8225581631211826E-003   5.2261904439154447E-002
  -2.2498413863906958E-002   6.3051812134183368E-003   5.2350361703387874E-002
  -2.1074002662815030E-002   5.7845628590908471E-003   5.2622778321246254E-002
  -3.0692734094727642E-002   9.0190068562105430E-003   4.9232879954791142E-002
  -2.9087871085764119E-002   8.4378527297203076E-003   4.8920091035965674E-002
  -2.7483008076800625E-002   7.8545704509471598E-003   4.8784246379258350E-002
  -2.5878145067837123E-002   7.2691600198914429E-003   4.8825345984669630E-002
  -2.4273282058873608E-002   6.6816214365529314E-003   4.9043389852199137E-002
  -1.1807337580407778E-002   3.0933871267040391E-003   6.2962762111348547E-002
  -1.0826781657863098E-002   2.7765314138484265E-003   6.2904455380023649E-002
  -9.8462257353184104E-003   2.4722607715233214E-003   6.3086351964996235E-002
  -8.8656698127737264E-003   2.1805751997285919E-003   6.3508451866266608E-002
  -7.8851138902290424E-003   1.9014746984639119E-003   6.4170755083834519E-002
  -1.4841030423582102E-002   3.9904457041662900E-003   5.9582464450820882E-002
  -1.3628546391058961E-002   3.6046129122274118E-003   5.9470658589835301E-002
  -1.2416062358535847E-002   3.2261382383316495E-003   5.9582505632509053E-002
  -1.1203578326012723E-002   2.8550216824788713E-003   5.9918005578842040E-002
  -9.9910942934895927E-003   2.4912632446690841E-003   6.0477158428834166E-002
  -1.7929918784384512E-002   4.8875042816284298E-003   5.6135803187453620E-002
  -1.6502057054521291E-002   4.4326944106061472E-003   5.5965271244320158E-002
  -1.5074195324658092E-002   3.9800157051398527E-003   5.6001841792207727E-002
  -1.3646333594794894E-002   3.5294681652292582E-003   5.6245514831115999E-002
  -1.2218471864931701E-002   3.0810517908745338E-003   5.6696290361045343E-002
  -2.1074002662815030E-002   5.7845628590908471E-003   5.2622778321246254E-002
  -1.9447313648250128E-002   5.2607759089848966E-003   5.2388293343477908E-002
  -1.7820624633685209E-002   4.7338931719480629E-003   5.2344360444091950E-002
  -1.6193935619120307E-002   4.2039146479796469E-003   5.2490979623088699E-002
  -1.4567246604555387E-002   3.6708403370800669E-003   5.2828150880467904E-002
  -2.4273282058873608E-002   6.6816214365529314E-003   4.9043389852199137E-002
  -2.2464316172245369E-002   6.0888574073638124E-003   4.8739724887308544E-002
  -2.0655350285617130E-002   5.4877706387563285E-003   4.8610061588162168E-002
  -1.8846384398988891E-002   4.8783611307299662E-003   4.8654399954759925E-002
  -1.7037418512360653E-002   4.2606288832852668E-003   4.8872739987101732E-002
  -7.8851138902290424E-003   1.9014746984639119E-003   6.4170755083834519E-002
  -6.9537818035573934E-003   1.6848663641186867E-003   6.4082859146818216E-002
  -6.0224497168857444E-003   1.5806572930834595E-003   6.4243374240639306E-002
  -5.0911176302140919E-003   1.5888474853564330E-003   6.4652300365297871E-002
  -4.1597855435424463E-003   1.7094369409393906E-003   6.5309637520793773E-002
  -9.9910942934895927E-003   2.4912632446690841E-003   6.0477158428834166E-002
  -8.8106765450347950E-003   2.1879509933208086E-003   6.0381506713676480E-002
  -7.6302587965800146E-003   1.9981729968516493E-003   6.0535615291247513E-002
  -6.4498410481252065E-003   1.9219292552623210E-003   6.0939484161547292E-002
  -5.2694232996704331E-003   1.9592197685518453E-003   6.1593113324576454E-002
  -1.2218471864931701E-002   3.0810517908745338E-003   5.6696290361045343E-002
  -1.0787619192802265E-002   2.6910356225224863E-003   5.6594017859316281E-002
  -9.3567665206728719E-003   2.4156887006203803E-003   5.6742854912207472E-002
  -7.9259138485434713E-003   2.2550110251675394E-003   5.7142801519719018E-002
  -6.4950611764140707E-003   2.2090025961647441E-003   5.7793857681851024E-002
  -1.4567246604555387E-002   3.6708403370800669E-003   5.2828150880467904E-002
  -1.2884609746859867E-002   3.1941202517246081E-003   5.2720392583737653E-002
  -1.1201972889164339E-002   2.8332044043888407E-003   5.2865093103519320E-002
  -9.5193360314688134E-003   2.5880927950734257E-003   5.3262252439812849E-002
  -7.8366991737732900E-003   2.4587854237777540E-003   5.3911870592618399E-002
  -1.7037418512360653E-002   4.2606288832852668E-003   4.8872739987101732E-002
  -1.5101648207207510E-002   3.6972048809263414E-003   4.8760630886940604E-002
  -1.3165877902054410E-002   3.2507201081573844E-003   4.8902329865183114E-002
  -1.1230107596901309E-002   2.9211745649787776E-003   4.9297836921828792E-002
  -9.2943372917481670E-003   2.7085682513902087E-003   4.9947152056877719E-002
  -4.1597855435424463E-003   1.7094369409393906E-003   6.5309637520793773E-002
  -3.6290767573346067E-003   2.0024210212456484E-003   6.4396647552694364E-002
  -3.0983679711267705E-003   2.5277950876894106E-003   6.3602397864010174E-002
  -2.5676591849189342E-003   3.2855591402711215E-003   6.2926888454740870E-002
  -2.0369503987110946E-003   4.2757131789910030E-003   6.2370119324886897E-002
  -5.2694232996704331E-003   1.9592197685518453E-003   6.1593113324576454E-002
  -4.5938961511278395E-003   2.2162501396306711E-003   6.0869369042199029E-002
  -3.9183690025852268E-003   2.7992259714076373E-003   6.0316521205076218E-002
  -3.2428418540426324E-003   3.7081472638822582E-003   5.9934569813207703E-002
  -2.5673147055000275E-003   4.9430140170556580E-003   5.9723514866593996E-002
  -6.4950611764140707E-003   2.2090025961647441E-003   5.7793857681851024E-002
  -5.6225594996973174E-003   2.4300792580159436E-003   5.7352914559756246E-002
  -4.7500578229805919E-003   3.0706568551256419E-003   5.7135024048755007E-002
  -3.8775561462638681E-003   4.1307353874936170E-003   5.7140186148847888E-002
  -3.0050544695471408E-003   5.6103148551204240E-003   5.7368400860034308E-002
  -7.8366991737732900E-003   2.4587854237777540E-003   5.3911870592618399E-002
  -6.7150668030430778E-003   2.6439083764014798E-003   5.3847284105366183E-002
  -5.5934344323128509E-003   3.3420877388437575E-003   5.4057906395047275E-002
  -4.4718020615826465E-003   4.5533235111050868E-003   5.4543737461661371E-002
  -3.3501696908524127E-003   6.2776156931854676E-003   5.5304777305208760E-002
  -9.2943372917481670E-003   2.7085682513902087E-003   4.9947152056877719E-002
  -7.8714180611651058E-003   2.8577374947863499E-003   5.0352477679028729E-002
  -6.4484988305820168E-003   3.6135186225618177E-003   5.1085168243952261E-002
  -5.0255795999989555E-003   4.9759116347160987E-003   5.2145223751648373E-002
  -3.6026603694158665E-003   6.9449165312499561E-003   5.3532644202117008E-002
  -2.0369503987110946E-003   4.2757131789910030E-003   6.2370119324886897E-002
  -2.2868022859066292E-003   5.5784180159369479E-003   5.8339361400200462E-002
  -2.5366541731021534E-003   7.2738344631992913E-003   5.4303227123658093E-002
  -2.7865060602976673E-003   9.3619625207768120E-003   5.0261716495258513E-002
  -3.0363579474932123E-003   1.1842802188670287E-002   4.6214829515003331E-002
  -2.5673147055000275E-003   4.9430140170556580E-003   5.9723514866593996E-002
  -2.8400725263609400E-003   6.5676530917495590E-003   5.6191007299170037E-002
  -3.1128303472218680E-003   8.6458913487855726E-003   5.2618064216271854E-002
  -3.3855881680828004E-003   1.1177728788164670E-002   4.9004685617898974E-002
  -3.6583459889436704E-003   1.4163165409886380E-002   4.5350871504052925E-002
  -3.0050544695471408E-003   5.6103148551204240E-003   5.7368400860034308E-002
  -3.3357773876911082E-003   7.5568881675614485E-003   5.4395031221899787E-002
  -3.6665003058350878E-003   1.0017948234371965E-002   5.1346166904673168E-002
  -3.9972232239790352E-003   1.2993495055552473E-002   4.8221807908354411E-002
  -4.3279461421230278E-003   1.6483528631102695E-002   4.5021954232943973E-002
  -3.3501696908524127E-003   6.2776156931854676E-003   5.5304777305208760E-002
  -3.7739168698971695E-003   8.5461232433734768E-003   5.2951433168390696E-002
  -4.1976640489419671E-003   1.1390005119958080E-002   5.0487535188862231E-002
  -4.6214112279867698E-003   1.4809261322940082E-002   4.7913083366624865E-002
  -5.0451584070314920E-003   1.8803891852318899E-002   4.5228077701677444E-002
  -3.6026603694158665E-003   6.9449165312499561E-003   5.3532644202117008E-002
  -4.1544909729790830E-003   9.5353583191857272E-003   5.1860213138641864E-002
  -4.7063215765423549E-003   1.2762062005544500E-002   5.0042169068839459E-002
  -5.2581521801056130E-003   1.6625027590328155E-002   4.8078511992709544E-002
  -5.8099827836688434E-003   2.1124255073535103E-002   4.5969241910252645E-002
  -5.1870813140765054E-002   1.3578000018567515E-002   4.8742870275943484E-002
  -4.9654549472844423E-002   1.3928407132816623E-002   4.8660196421589030E-002
  -4.7438285804923708E-002   1.3999331555666863E-002   4.8755151498623889E-002
  -4.5222022137003048E-002   1.3790773287117825E-002   4.9027735507048184E-002
  -4.3005758469082375E-002   1.3302732327169942E-002   4.9477948446861764E-002
  -5.8019368627178422E-002   1.6154603204083795E-002   4.4777218178582101E-002
  -5.5605614730584327E-002   1.6064161544310174E-002   4.4349702267864277E-002
  -5.3191860833990252E-002   1.5821055212394741E-002   4.4139537883103791E-002
  -5.0778106937396164E-002   1.5425284208337275E-002   4.4146725024300837E-002
  -4.8364353040802083E-002   1.4876848532137943E-002   4.4371263691455221E-002
  -6.4316553785468675E-002   1.8731206389600047E-002   4.0307308297569608E-002
  -6.1665587065633187E-002   1.8199915955803836E-002   3.9661768349745302E-002
  -5.9014620345797623E-002   1.7642778869122723E-002   3.9273302522446631E-002
  -5.6363653625962032E-002   1.7059795129556778E-002   3.9141910815673392E-002
  -5.3712686906126503E-002   1.6450964737106055E-002   3.9267593229425746E-002
  -7.0762368615636118E-002   2.1307809575116313E-002   3.5333140632905768E-002
  -6.7834466477990990E-002   2.0335670367297359E-002   3.4596394667232327E-002
  -6.4906564340345849E-002   1.9464502525850708E-002   3.4156445416652477E-002
  -6.1978662202700700E-002   1.8694306050776283E-002   3.4013292881166099E-002
  -5.9050760065055503E-002   1.8025080942074029E-002   3.4166937060773478E-002
  -7.7356813117680445E-002   2.3884412760632578E-002   2.9854715184590763E-002
  -7.4112252967657638E-002   2.2471424778790883E-002   2.9153581220325187E-002
  -7.0867692817634886E-002   2.1286226182578638E-002   2.8788966565721164E-002
  -6.7623132667612079E-002   2.0328816971995733E-002   2.8760871220778778E-002
  -6.4378572517589300E-002   1.9599197147042169E-002   2.9069295185498278E-002
  -4.3005758469082375E-002   1.3302732327169942E-002   4.9477948446861764E-002
  -4.1746747440778470E-002   1.2695048411010740E-002   4.9208374976283054E-002
  -4.0487736412474544E-002   1.2127561273827969E-002   4.9092375981762887E-002
  -3.9228725384170646E-002   1.1600270915621630E-002   4.9129951463301305E-002
  -3.7969714355866713E-002   1.1113177336391777E-002   4.9321101420898183E-002
  -4.8364353040802083E-002   1.4876848532137943E-002   4.4371263691455221E-002
  -4.6954086686116281E-002   1.4263303421345602E-002   4.4140953068561223E-002
  -4.5543820331430479E-002   1.3672204113508585E-002   4.4059578622372406E-002
  -4.4133553976744705E-002   1.3103550608627258E-002   4.4127140352888915E-002
  -4.2723287622058861E-002   1.2557342906701352E-002   4.4343638260110535E-002
  -5.3712686906126503E-002   1.6450964737106055E-002   3.9267593229425746E-002
  -5.2155803524412098E-002   1.5831558431680257E-002   3.9058794478195560E-002
  -5.0598920142697713E-002   1.5216846953189145E-002   3.8994293604317304E-002
  -4.9042036760983267E-002   1.4606830301632831E-002   3.9074090607790997E-002
  -4.7485153379268924E-002   1.4001508477011121E-002   3.9298185488616660E-002
  -5.9050760065055503E-002   1.8025080942074029E-002   3.4166937060773478E-002
  -5.7351897955665823E-002   1.7399813442015015E-002   3.3961899205186226E-002
  -5.5653035846276143E-002   1.6761489792869788E-002   3.3896520927597679E-002
  -5.3954173736886456E-002   1.6110109994638321E-002   3.3970802228007690E-002
  -5.2255311627496727E-002   1.5445674047320848E-002   3.4184743106416469E-002
  -6.4378572517589300E-002   1.9599197147042169E-002   2.9069295185498278E-002
  -6.2542369979877582E-002   1.8968068452349773E-002   2.8850267249533212E-002
  -6.0706167442165851E-002   1.8306132632550348E-002   2.8766260592213405E-002
  -5.8869964904454140E-002   1.7613389687644095E-002   2.8817275213539065E-002
  -5.7033762366742430E-002   1.6889839617630520E-002   2.9003311113510066E-002
  -3.7969714355866713E-002   1.1113177336391777E-002   4.9321101420898183E-002
  -3.6150469290581952E-002   1.0632045289074160E-002   4.8993506247869911E-002
  -3.4331224225297177E-002   1.0122639526604721E-002   4.8869604279176138E-002
  -3.2511979160012430E-002   9.5849600489836470E-003   4.8949395514816557E-002
  -3.0692734094727642E-002   9.0190068562105430E-003   4.9232879954791142E-002
  -4.2723287622058861E-002   1.2557342906701352E-002   4.4343638260110535E-002
  -4.0700347530511806E-002   1.2012635225290585E-002   4.3983892679453740E-002
  -3.8677407438964778E-002   1.1448481781953790E-002   4.3827843946987174E-002
  -3.6654467347417785E-002   1.0864882576691215E-002   4.3875492062710943E-002
  -3.4631527255870695E-002   1.0261837609502833E-002   4.4126837026624899E-002
  -4.7485153379268924E-002   1.4001508477011121E-002   3.9298185488616660E-002
  -4.5258514617603551E-002   1.3393225161506941E-002   3.8915117453557205E-002
  -4.3031875855938248E-002   1.2774324037302817E-002   3.8735749910543904E-002
  -4.0805237094272903E-002   1.2144805104398953E-002   3.8760082859576883E-002
  -3.8578598332607635E-002   1.1504668362795151E-002   3.8988116300656281E-002
  -5.2255311627496727E-002   1.5445674047320848E-002   3.4184743106416469E-002
  -4.9824970551857112E-002   1.4773815097723304E-002   3.3787180570180188E-002
  -4.7394629476217559E-002   1.4100166292651921E-002   3.3593322169846299E-002
  -4.4964288400577986E-002   1.3424727632106606E-002   3.3603167905414552E-002
  -4.2533947324938384E-002   1.2747499116087233E-002   3.3816717776885191E-002
  -5.7033762366742430E-002   1.6889839617630520E-002   2.9003311113510066E-002
  -5.4399715333272564E-002   1.6154405033939778E-002   2.8600082029323126E-002
  -5.1765668299802711E-002   1.5426008548000969E-002   2.8400560724894275E-002
  -4.9131621266332824E-002   1.4704650159814300E-002   2.8404747200223859E-002
  -4.6497574232862993E-002   1.3990329869379703E-002   2.8612641455311671E-002
  -3.0692734094727642E-002   9.0190068562105430E-003   4.9232879954791142E-002
  -2.9087871085764119E-002   8.4378527297203076E-003   4.8920091035965674E-002
  -2.7483008076800625E-002   7.8545704509471598E-003   4.8784246379258350E-002
  -2.5878145067837123E-002   7.2691600198914429E-003   4.8825345984669630E-002
  -2.4273282058873608E-002   6.6816214365529314E-003   4.9043389852199137E-002
  -3.4631527255870695E-002   1.0261837609502833E-002   4.4126837026624899E-002
  -3.2856708199365293E-002   9.6457014970583732E-003   4.3794349637194474E-002
  -3.1081889142859913E-002   9.0228288560277453E-003   4.3624830080729649E-002
  -2.9307070086354515E-002   8.3932196864109250E-003   4.3618278357229964E-002
  -2.7532251029849131E-002   7.7568739882077353E-003   4.3774694466695852E-002
  -3.8578598332607635E-002   1.1504668362795151E-002   3.8988116300656281E-002
  -3.6647799657713281E-002   1.0853550264396550E-002   3.8631322064317616E-002
  -3.4717000982818921E-002   1.0191087261108171E-002   3.8423519231791430E-002
  -3.2786202307924582E-002   9.5172793529301868E-003   3.8364707803077630E-002
  -3.0855403633030257E-002   8.8321265398623727E-003   3.8454887778176294E-002
  -4.2533947324938384E-002   1.2747499116087233E-002   3.3816717776885191E-002
  -4.0461145460808021E-002   1.2061399031734671E-002   3.3431008317334698E-002
  -3.8388343596677754E-002   1.1359345666188733E-002   3.3180313832443707E-002
  -3.6315541732547460E-002   1.0641339019449560E-002   3.3064634322212065E-002
  -3.4242739868417173E-002   9.9073790915171489E-003   3.3083969786640174E-002
  -4.6497574232862993E-002   1.3990329869379703E-002   2.8612641455311671E-002
  -4.4296745608649629E-002   1.3269247799072736E-002   2.8193408396245845E-002
  -4.2095916984436293E-002   1.2527604071269197E-002   2.7895213882686704E-002
  -3.9895088360222999E-002   1.1765398685968934E-002   2.7718057914634039E-002
  -3.7694259736009650E-002   1.0982631643171703E-002   2.7661940492087811E-002
  -2.4273282058873608E-002   6.6816214365529314E-003   4.9043389852199137E-002
  -2.2464316172245369E-002   6.0888574073638124E-003   4.8739724887308544E-002
  -2.0655350285617130E-002   5.4877706387563285E-003   4.8610061588162168E-002
  -1.8846384398988891E-002   4.8783611307299662E-003   4.8654399954759925E-002
  -1.7037418512360653E-002   4.2606288832852668E-003   4.8872739987101732E-002
  -2.7532251029849131E-002   7.7568739882077353E-003   4.3774694466695852E-002
  -2.5554830372004692E-002   7.1174078664173468E-003   4.3397385446068248E-002
  -2.3577409714160329E-002   6.4784374260389438E-003   4.3182984302128719E-002
  -2.1599989056315945E-002   5.8399626670721828E-003   4.3131491034877498E-002
  -1.9622568398471527E-002   5.2019835895169564E-003   4.3242905644314267E-002
  -3.0855403633030257E-002   8.8321265398623727E-003   3.8454887778176294E-002
  -2.8720621993025774E-002   8.1459583254709089E-003   3.8012753122641948E-002
  -2.6585840353021181E-002   7.4691042133214480E-003   3.7722432554739754E-002
  -2.4451058713016643E-002   6.8015642034140664E-003   3.7583926074469823E-002
  -2.2316277073012106E-002   6.1433382957490346E-003   3.7597233681831765E-002
  -3.4242739868417173E-002   9.9073790915171489E-003   3.3083969786640174E-002
  -3.1961691035308396E-002   9.1745087845244017E-003   3.2585827917029603E-002
  -2.9680642202199733E-002   8.4597710006040078E-003   3.2228406345994928E-002
  -2.7399593369091042E-002   7.7631657397562275E-003   3.2011705073536567E-002
  -2.5118544535982296E-002   7.0846930019809184E-003   3.1935724099654138E-002
  -3.7694259736009650E-002   1.0982631643171703E-002   2.7661940492087811E-002
  -3.5278037498852832E-002   1.0203059243577894E-002   2.7116609829231142E-002
  -3.2861815261695959E-002   9.4504377878867063E-003   2.6700905675894449E-002
  -3.0445593024539142E-002   8.7247672760982012E-003   2.6414828032078175E-002
  -2.8029370787382296E-002   8.0260477082128023E-003   2.6258376897781655E-002
  -1.7037418512360653E-002   4.2606288832852668E-003   4.8872739987101732E-002
  -1.5101648207207510E-002   3.6972048809263414E-003   4.8760630886940604E-002
  -1.3165877902054410E-002   3.2507201081573844E-003   4.8902329865183114E-002
  -1.1230107596901309E-002   2.9211745649787776E-003   4.9297836921828792E-002
  -9.2943372917481670E-003   2.7085682513902087E-003   4.9947152056877719E-002
  -1.9622568398471527E-002   5.2019835895169564E-003   4.3242905644314267E-002
  -1.7471357133531380E-002   4.6006988640483470E-003   4.3078786763282639E-002
  -1.5320145868591227E-002   4.0723071613403827E-003   4.3091741723421784E-002
  -1.3168934603651108E-002   3.6168084813931051E-003   4.3281770524731741E-002
  -1.1017723338710927E-002   3.2342028242062781E-003   4.3648873167212221E-002
  -2.2316277073012106E-002   6.1433382957490346E-003   3.7597233681831765E-002
  -2.0026359085517583E-002   5.5041928471704360E-003   3.7337058813100177E-002
  -1.7736441098023033E-002   4.8938942145232839E-003   3.7177223548306673E-002
  -1.5446523110528496E-002   4.3124423978073249E-003   3.7117727887451067E-002
  -1.3156605123033960E-002   3.7598373970226251E-003   3.7158571830533893E-002
  -2.5118544535982296E-002   7.0846930019809184E-003   3.1935724099654138E-002
  -2.2766654063166039E-002   6.4076868302925388E-003   3.1535447036393160E-002
  -2.0414763590349723E-002   5.7154812677061781E-003   3.1158775339837613E-002
  -1.8062873117533438E-002   5.0080763142216541E-003   3.0805709009987539E-002
  -1.5710982644717097E-002   4.2854719698388888E-003   3.0476248046842860E-002
  -2.8029370787382296E-002   8.0260477082128023E-003   2.6258376897781655E-002
  -2.5692242066476828E-002   7.3111808134146417E-003   2.5673951433161646E-002
  -2.3355113345571402E-002   6.5370683208891278E-003   2.5036397098014640E-002
  -2.1017984624665968E-002   5.7037102306358584E-003   2.4345713892340165E-002
  -1.8680855903760507E-002   4.8111065426549304E-003   2.3601901816138970E-002
  -9.2943372917481670E-003   2.7085682513902087E-003   4.9947152056877719E-002
  -7.8714180611651058E-003   2.8577374947863499E-003   5.0352477679028729E-002
  -6.4484988305820168E-003   3.6135186225618177E-003   5.1085168243952261E-002
  -5.0255795999989555E-003   4.9759116347160987E-003   5.2145223751648373E-002
  -3.6026603694158665E-003   6.9449165312499561E-003   5.3532644202117008E-002
  -1.1017723338710927E-002   3.2342028242062781E-003   4.3648873167212221E-002
  -9.2491914528706198E-003   3.1630060725724718E-003   4.4235219100849377E-002
  -7.4806595670303677E-003   3.6417341092826461E-003   4.5185425402228641E-002
  -5.7121276811901329E-003   4.6703869343372867E-003   4.6499492071349596E-002
  -3.9435957953498080E-003   6.2489645477361577E-003   4.8177419108212494E-002
  -1.3156605123033960E-002   3.7598373970226251E-003   3.7158571830533893E-002
  -1.1005965156967085E-002   3.4682746503583162E-003   3.7869250979622487E-002
  -8.8553251909002581E-003   3.6699495960033912E-003   3.8980285921422331E-002
  -6.7046852248333622E-003   4.3648622339580376E-003   4.0491676655933354E-002
  -4.5540452587665564E-003   5.5530125642223038E-003   4.2403423183155792E-002
  -1.5710982644717097E-002   4.2854719698388888E-003   3.0476248046842860E-002
  -1.3141739173454355E-002   3.7735432281440773E-003   3.1254573315347894E-002
  -1.0572495702191638E-002   3.6981650827242890E-003   3.2469749801533734E-002
  -8.0032522309289346E-003   4.0593375335788960E-003   3.4121777505400019E-002
  -5.4340087596661223E-003   4.8570605807084777E-003   3.6210656426946868E-002
  -1.8680855903760507E-002   4.8111065426549304E-003   2.3601901816138970E-002
  -1.5656513502332520E-002   4.0788118059300604E-003   2.4391186108025598E-002
  -1.2632171100904532E-002   3.7263805694450758E-003   2.5653817042562421E-002
  -9.6078286994765172E-003   3.7538128331995602E-003   2.7389794619749164E-002
  -6.5834862980485576E-003   4.1611085971945405E-003   2.9599118839585548E-002
  -3.6026603694158665E-003   6.9449165312499561E-003   5.3532644202117008E-002
  -4.1544909729790830E-003   9.5353583191857272E-003   5.1860213138641864E-002
  -4.7063215765423549E-003   1.2762062005544500E-002   5.0042169068839459E-002
  -5.2581521801056130E-003   1.6625027590328155E-002   4.8078511992709544E-002
  -5.8099827836688434E-003   2.1124255073535103E-002   4.5969241910252645E-002
  -3.9435957953498080E-003   6.2489645477361577E-003   4.8177419108212494E-002
  -4.5371596564165451E-003   8.6872999382365257E-003   4.7242280088219346E-002
  -5.1307235174834348E-003   1.2295226094595046E-002   4.6369287559546557E-002
  -5.7242873785501962E-003   1.7072743016811623E-002   4.5558441522194293E-002
  -6.3178512396169506E-003   2.3019850704886435E-002   4.4809741976161943E-002
  -4.5540452587665564E-003   5.5530125642223038E-003   4.2403423183155792E-002
  -4.9815828796893197E-003   7.8392415572875462E-003   4.2738905074079098E-002
  -5.4091205006120205E-003   1.1828390183645052E-002   4.3344292953970229E-002
  -5.8366581215347491E-003   1.7520458443295316E-002   4.4219586822829386E-002
  -6.2641957424574846E-003   2.4915446336237768E-002   4.5364786680656133E-002
  -5.4340087596661223E-003   4.8570605807084777E-003   3.6210656426946868E-002
  -5.4877606427972576E-003   6.9911831763384558E-003   3.8350088096220841E-002
  -5.5415125259284190E-003   1.1361554272694994E-002   4.0967185252109864E-002
  -5.5952644090594833E-003   1.7968173869779121E-002   4.4061947894615129E-002
  -5.6490162921906048E-003   2.6811041967589100E-002   4.7634376023734742E-002
  -6.5834862980485576E-003   4.1611085971945405E-003   2.9599118839585548E-002
  -6.0556929457403763E-003   6.1431247953894763E-003   3.4075829154644466E-002
  -5.5278995934323061E-003   1.0894718361745465E-002   3.9237964453966157E-002
  -5.0001062411241665E-003   1.8415889296262498E-002   4.5085524737550925E-002
  -4.4723128888161101E-003   2.8706637598940432E-002   5.1618510005398743E-002
  -7.7356813117680445E-002   2.3884412760632578E-002   2.9854715184590763E-002
  -7.4112252967657638E-002   2.2471424778790883E-002   2.9153581220325187E-002
  -7.0867692817634886E-002   2.1286226182578638E-002   2.8788966565721164E-002
  -6.7623132667612079E-002   2.0328816971995733E-002   2.8760871220778778E-002
  -6.4378572517589300E-002   1.9599197147042169E-002   2.9069295185498278E-002
  -8.3859902450061752E-002   2.4801109620135153E-002   2.1742568573059617E-002
  -8.0323702697291360E-002   2.3861019000764261E-002   2.1465786619405236E-002
  -7.6787502944520913E-002   2.2968922408408421E-002   2.1435764561584303E-002
  -7.3251303191750522E-002   2.2124819843067536E-002   2.1652502399596929E-002
  -6.9715103438980103E-002   2.1328711304741704E-002   2.2116000133443059E-002
  -9.0031651771239868E-002   2.5717806479637728E-002   1.4193217003306446E-002
  -8.6293571829549998E-002   2.5250613222737556E-002   1.4160991701648959E-002
  -8.2555491887860169E-002   2.4651618634238204E-002   1.4285766881996606E-002
  -7.8817411946170340E-002   2.3920822714139367E-002   1.4567542544349929E-002
  -7.5079332004480470E-002   2.3058225462441073E-002   1.5006318688708414E-002
  -9.5872061081214960E-002   2.6634503339140303E-002   7.2066604753311531E-003
  -9.2021860364433800E-002   2.6640207444710892E-002   7.2391964670561054E-003
  -8.8171659647652570E-002   2.6334314860067903E-002   7.3389735269582985E-003
  -8.4321458930871424E-002   2.5716825585210934E-002   7.5059916550378886E-003
  -8.0471258214090235E-002   2.4787739620140609E-002   7.7402508512942267E-003
 -0.10138113037998675        2.7551200198642878E-002   7.8289898913375122E-004
  -9.7508568301942544E-002   2.8029801666684229E-002   7.0040091562695306E-004
  -9.3636006223898116E-002   2.8017011085897603E-002   5.9538449646892588E-004
  -8.9763444145853855E-002   2.7512828456283001E-002   4.6784973166050930E-004
  -8.5890882067809593E-002   2.6517253777839978E-002   3.1779662120073882E-004
  -6.4378572517589300E-002   1.9599197147042169E-002   2.9069295185498278E-002
  -6.2542369979877582E-002   1.8968068452349773E-002   2.8850267249533212E-002
  -6.0706167442165851E-002   1.8306132632550348E-002   2.8766260592213405E-002
  -5.8869964904454140E-002   1.7613389687644095E-002   2.8817275213539065E-002
  -5.7033762366742430E-002   1.6889839617630520E-002   2.9003311113510066E-002
  -6.9715103438980103E-002   2.1328711304741704E-002   2.2116000133443059E-002
  -6.7736450150326422E-002   2.0558962129276964E-002   2.1863662812465295E-002
  -6.5757796861672727E-002   1.9793937652519765E-002   2.1761205714726145E-002
  -6.3779143573019031E-002   1.9033637874469926E-002   2.1808628840225483E-002
  -6.1800490284365406E-002   1.8278062795127670E-002   2.2005932188963601E-002
  -7.5079332004480470E-002   2.3058225462441073E-002   1.5006318688708414E-002
  -7.2943369020291554E-002   2.2149855806204044E-002   1.4756203806532427E-002
  -7.0807406036102666E-002   2.1281742672489237E-002   1.4670828092188296E-002
  -6.8671443051913805E-002   2.0453886061295865E-002   1.4750191545675931E-002
  -6.6535480067724917E-002   1.9666285972624625E-002   1.4994294166995242E-002
  -8.0471258214090235E-002   2.4787739620140609E-002   7.7402508512942267E-003
  -7.8163126589772980E-002   2.3740749483131623E-002   7.5278902317345488E-003
  -7.5854994965455613E-002   2.2769547692458737E-002   7.4951277245998461E-003
  -7.3546863341138288E-002   2.1874134248122026E-002   7.6419633298899971E-003
  -7.1238731716820977E-002   2.1054509150121595E-002   7.9683970476053800E-003
  -8.5890882067809593E-002   2.6517253777839978E-002   3.1779662120073882E-004
  -8.3395722858770671E-002   2.5331643160058426E-002   1.7872208807145906E-004
  -8.0900563649731638E-002   2.4257352712428015E-002   2.3410461196081422E-004
  -7.8405404440692661E-002   2.3294382434947719E-002   4.8394419286803755E-004
  -7.5910245231653684E-002   2.2442732327618731E-002   9.2824083079356967E-004
  -5.7033762366742430E-002   1.6889839617630520E-002   2.9003311113510066E-002
  -5.4399715333272564E-002   1.6154405033939778E-002   2.8600082029323126E-002
  -5.1765668299802711E-002   1.5426008548000969E-002   2.8400560724894275E-002
  -4.9131621266332824E-002   1.4704650159814300E-002   2.8404747200223859E-002
  -4.6497574232862993E-002   1.3990329869379703E-002   2.8612641455311671E-002
  -6.1800490284365406E-002   1.8278062795127670E-002   2.2005932188963601E-002
  -5.8963950193298920E-002   1.7521692399052741E-002   2.1633587899668127E-002
  -5.6127410102232433E-002   1.6759006670805224E-002   2.1462521945807611E-002
  -5.3290870011165919E-002   1.5990005610385164E-002   2.1492734327381802E-002
  -5.0454329920099461E-002   1.5214689217792510E-002   2.1724225044391254E-002
  -6.6535480067724917E-002   1.9666285972624625E-002   1.4994294166995242E-002
  -6.3498876363385082E-002   1.8888979764165509E-002   1.4639481242666827E-002
  -6.0462272659045413E-002   1.8092004793609257E-002   1.4483517209449612E-002
  -5.7425668954705703E-002   1.7275361060956083E-002   1.4526402067344360E-002
  -5.4389065250365909E-002   1.6439048566205233E-002   1.4768135816350433E-002
  -7.1238731716820977E-002   2.1054509150121595E-002   7.9683970476053800E-003
  -6.8004493843531300E-002   2.0256267129278541E-002   7.6177620583190060E-003
  -6.4770255970241594E-002   1.9425002916413345E-002   7.4635465158208805E-003
  -6.1536018096951917E-002   1.8560716511526864E-002   7.5057504201108630E-003
  -5.8301780223662225E-002   1.7663407914618220E-002   7.7443737711893022E-003
  -7.5910245231653684E-002   2.2442732327618731E-002   9.2824083079356967E-004
  -7.2480802633737351E-002   2.1623554494391573E-002   5.6843034662495961E-004
  -6.9051360035821074E-002   2.0758001039217711E-002   4.0260986492060558E-004
  -6.5621917437904825E-002   1.9846071962097658E-002   4.3077938568193003E-004
  -6.2192474839988465E-002   1.8887767263030875E-002   6.5293890890771866E-004
  -4.6497574232862993E-002   1.3990329869379703E-002   2.8612641455311671E-002
  -4.4296745608649629E-002   1.3269247799072736E-002   2.8193408396245845E-002
  -4.2095916984436293E-002   1.2527604071269197E-002   2.7895213882686704E-002
  -3.9895088360222999E-002   1.1765398685968934E-002   2.7718057914634039E-002
  -3.7694259736009650E-002   1.0982631643171703E-002   2.7661940492087811E-002
  -5.0454329920099461E-002   1.5214689217792510E-002   2.1724225044391254E-002
  -4.8125079011640357E-002   1.4434901734155653E-002   2.1322801827328458E-002
  -4.5795828103181224E-002   1.3652487400602556E-002   2.1057184633250653E-002
  -4.3466577194722092E-002   1.2867446217133652E-002   2.0927373462157908E-002
  -4.1137326286262987E-002   1.2079778183748724E-002   2.0933368314050349E-002
  -5.4389065250365909E-002   1.6439048566205233E-002   1.4768135816350433E-002
  -5.1916624580182466E-002   1.5600555669238542E-002   1.4402457248871209E-002
  -4.9444183909999016E-002   1.4777370729936352E-002   1.4187352181855607E-002
  -4.6971743239815636E-002   1.3969493748298480E-002   1.4122820615303681E-002
  -4.4499302569632179E-002   1.3176924724325578E-002   1.4208862549214940E-002
  -5.8301780223662225E-002   1.7663407914618220E-002   7.7443737711893022E-003
  -5.5671382314276013E-002   1.6766209604321278E-002   7.4323746608744995E-003
  -5.3040984404889802E-002   1.5902254059269930E-002   7.2857165285016619E-003
  -5.0410586495503576E-002   1.5071541279463252E-002   7.3043993740707610E-003
  -4.7780188586117378E-002   1.4274071264902849E-002   7.4884231975819310E-003
  -6.2192474839988465E-002   1.8887767263030875E-002   6.5293890890771866E-004
  -5.9389352213920943E-002   1.7931863539404347E-002   4.1255406333812195E-004
  -5.6586229587853476E-002   1.7027137388603092E-002   3.5227767318854464E-004
  -5.3783106961786009E-002   1.6173588810628199E-002   4.7210973845989573E-004
  -5.0979984335718487E-002   1.5371217805479231E-002   7.7205025915183523E-004
  -3.7694259736009650E-002   1.0982631643171703E-002   2.7661940492087811E-002
  -3.5278037498852832E-002   1.0203059243577894E-002   2.7116609829231142E-002
  -3.2861815261695959E-002   9.4504377878867063E-003   2.6700905675894449E-002
  -3.0445593024539142E-002   8.7247672760982012E-003   2.6414828032078175E-002
  -2.8029370787382296E-002   8.0260477082128023E-003   2.6258376897781655E-002
  -4.1137326286262987E-002   1.2079778183748724E-002   2.0933368314050349E-002
  -3.8600816586203568E-002   1.1296343214948434E-002   2.0478810832954109E-002
  -3.6064306886144093E-002   1.0524001225234003E-002   2.0135201768143263E-002
  -3.3527797186084646E-002   9.7627522146050971E-003   1.9902541119617242E-002
  -3.0991287486025199E-002   9.0125961830612722E-003   1.9780828887376256E-002
  -4.4499302569632179E-002   1.3176924724325578E-002   1.4208862549214940E-002
  -4.1861183499905211E-002   1.2389627186319252E-002   1.3829220285062505E-002
  -3.9223064430178346E-002   1.1597564662581064E-002   1.3541848343959814E-002
  -3.6584945360451426E-002   1.0800737153111490E-002   1.3346746725906959E-002
  -3.3946826290724506E-002   9.9991446579100751E-003   1.3243915430904196E-002
  -4.7780188586117378E-002   1.4274071264902849E-002   7.4884231975819310E-003
  -4.5059138239958052E-002   1.3482911157690042E-002   7.1678381855557541E-003
  -4.2338087893798768E-002   1.2671128099928021E-002   6.9208454033445541E-003
  -3.9617037547639497E-002   1.1838722091617801E-002   6.7474448509476804E-003
  -3.6895987201480150E-002   1.0985693132758600E-002   6.6476365283659120E-003
  -5.0979984335718487E-002   1.5371217805479231E-002   7.7205025915183523E-004
  -4.8194680806361800E-002   1.4576195129060499E-002   4.9466453443430813E-004
  -4.5409377277005281E-002   1.3744691537275422E-002   2.7219294629671209E-004
  -4.2624073747648650E-002   1.2876707030125112E-002   1.0463549473897771E-004
  -3.9838770218292074E-002   1.1972241607607126E-002  -8.0078202391309361E-006
  -2.8029370787382296E-002   8.0260477082128023E-003   2.6258376897781655E-002
  -2.5692242066476828E-002   7.3111808134146417E-003   2.5673951433161646E-002
  -2.3355113345571402E-002   6.5370683208891278E-003   2.5036397098014640E-002
  -2.1017984624665968E-002   5.7037102306358584E-003   2.4345713892340165E-002
  -1.8680855903760507E-002   4.8111065426549304E-003   2.3601901816138970E-002
  -3.0991287486025199E-002   9.0125961830612722E-003   1.9780828887376256E-002
  -2.8689854021259703E-002   8.2663891382219745E-003   1.9188994629384726E-002
  -2.6388420556494221E-002   7.5169870877049294E-003   1.8578898729640442E-002
  -2.4086987091728754E-002   6.7643900315109556E-003   1.7950541188143432E-002
  -2.1785553626963244E-002   6.0085979696392622E-003   1.7303922004893724E-002
  -3.3946826290724506E-002   9.9991446579100751E-003   1.3243915430904196E-002
  -3.1646220853324421E-002   9.2215974630290298E-003   1.2700722971591277E-002
  -2.9345615415924457E-002   8.4969058545209808E-003   1.2174136099300195E-002
  -2.7045009978524492E-002   7.8250698323859488E-003   1.1664154814030908E-002
  -2.4744404541124462E-002   7.2060893966237605E-003   1.1170779115783125E-002
  -3.6895987201480150E-002   1.0985693132758600E-002   6.6476365283659120E-003
  -3.4561342562671120E-002   1.0176805787835891E-002   6.2091364597818277E-003
  -3.2226697923862138E-002   9.4768246213373514E-003   5.8221092069937683E-003
  -2.9892053285053087E-002   8.8857496332609941E-003   5.4865547700024171E-003
  -2.7557408646244126E-002   8.4035808236082310E-003   5.2024731488067230E-003
  -3.9838770218292074E-002   1.1972241607607126E-002  -8.0078202391309361E-006
  -3.7435219149299592E-002   1.1132014112643640E-002  -2.8576490604392824E-004
  -3.5031668080307166E-002   1.0456743388153000E-002  -4.7718194727827679E-004
  -3.2628117011314767E-002   9.9464294341364140E-003  -5.8225894394222516E-004
  -3.0224565942322257E-002   9.6010722505925905E-003  -6.0099589603512804E-004
  -1.8680855903760507E-002   4.8111065426549304E-003   2.3601901816138970E-002
  -1.5656513502332520E-002   4.0788118059300604E-003   2.4391186108025598E-002
  -1.2632171100904532E-002   3.7263805694450758E-003   2.5653817042562421E-002
  -9.6078286994765172E-003   3.7538128331995602E-003   2.7389794619749164E-002
  -6.5834862980485576E-003   4.1611085971945405E-003   2.9599118839585548E-002
  -2.1785553626963244E-002   6.0085979696392622E-003   1.7303922004893724E-002
  -1.8556981589701330E-002   5.3426826394868954E-003   1.8251342083684008E-002
  -1.5328409552439387E-002   4.8597157784505407E-003   1.9133874791492089E-002
  -1.2099837515177458E-002   4.5596973865301357E-003   1.9951520128318273E-002
  -8.8712654779156408E-003   4.4426274637252572E-003   2.0704278094162309E-002
  -2.4744404541124462E-002   7.2060893966237605E-003   1.1170779115783125E-002
  -2.1849836881660527E-002   6.6065534730438413E-003   1.2079419950352915E-002
  -1.8955269222196751E-002   5.9930509874555615E-003   1.2384939400308423E-002
  -1.6060701562732899E-002   5.3655819398599341E-003   1.2087337465650036E-002
  -1.3166133903269039E-002   4.7241463302560294E-003   1.1186614146377477E-002
  -2.7557408646244126E-002   8.4035808236082310E-003   5.2024731488067230E-003
  -2.5535079378210257E-002   7.8704243066005097E-003   5.8754197080321605E-003
  -2.3512750110176440E-002   7.1263861964610264E-003   5.4070108690113597E-003
  -2.1490420842142574E-002   6.1714664931901211E-003   3.7972466317442999E-003
  -1.9468091574108750E-002   5.0056651967865518E-003   1.0461269962316819E-003
  -3.0224565942322257E-002   9.6010722505925905E-003  -6.0099589603512804E-004
  -2.9612709079350430E-002   9.1342951401571781E-003  -3.6065864327833319E-004
  -2.9000852216378603E-002   8.2597214054661583E-003  -1.7999108023991350E-003
  -2.8388995353406804E-002   6.9773510465200583E-003  -4.9187523733981095E-003
  -2.7777138490434949E-002   5.2871840633175182E-003  -9.7171833562753607E-003
  -6.5834862980485576E-003   4.1611085971945405E-003   2.9599118839585548E-002
  -6.0556929457403763E-003   6.1431247953894763E-003   3.4075829154644466E-002
  -5.5278995934323061E-003   1.0894718361745465E-002   3.9237964453966157E-002
  -5.0001062411241665E-003   1.8415889296262498E-002   4.5085524737550925E-002
  -4.4723128888161101E-003   2.8706637598940432E-002   5.1618510005398743E-002
  -8.8712654779156408E-003   4.4426274637252572E-003   2.0704278094162309E-002
  -7.5858149467585290E-003   5.6589428413392207E-003   2.5872831108261718E-002
  -6.3003644156014310E-003   9.3590803506748421E-003   3.1871273495796049E-002
  -5.0149138844444233E-003   1.5543039991731497E-002   3.8699605256765329E-002
  -3.7294633532874433E-003   2.4210821764509838E-002   4.6357826391169477E-002
  -1.3166133903269039E-002   4.7241463302560294E-003   1.1186614146377477E-002
  -1.0978561804091153E-002   5.1747608872887985E-003   1.6761254623078314E-002
  -8.7909897049133906E-003   7.8234423396034564E-003   2.3310248862385849E-002
  -6.6034176057355419E-003   1.2670190687200666E-002   3.0833596864299866E-002
  -4.4158455065577418E-003   1.9715005930079244E-002   3.9331298628820455E-002
  -1.9468091574108750E-002   5.0056651967865518E-003   1.0461269962316819E-003
  -1.6233933517738434E-002   4.6905789332382375E-003   6.7410996990940955E-003
  -1.2999775461367982E-002   6.2878043285326743E-003   1.3554890553734916E-002
  -9.7656174049975848E-003   9.7973413826697494E-003   2.1487499560154159E-002
  -6.5314593486272068E-003   1.5219190095648427E-002   3.0538926718352011E-002
  -2.7777138490434949E-002   5.2871840633175182E-003  -9.7171833562753607E-003
  -2.3351930087700090E-002   4.2063969791885647E-003  -4.1876336636909040E-003
  -1.8926721684965397E-002   4.7521663174618922E-003   2.6051985698437863E-003
  -1.4501513282230538E-002   6.9244920781388331E-003   1.0661313344329106E-002
  -1.0076304879495845E-002   1.0723374261218055E-002   1.9980710659764256E-002
 </DataArray>
 </PointData>
 </Piece>
 </UnstructuredGrid>
 </VTKFile>
