 <VTKFile type="UnstructuredGrid"  version="0.1"   >
 <UnstructuredGrid>
 <Piece  NumberOfPoints="          1600 "  NumberOfCells="         1024 ">
 <Points>
 <DataArray  type="Float64" NumberOfComponents="3"  format="ascii" >
   0.0000000000000000        0.0000000000000000        0.0000000000000000     
   3.1250000000000000E-002   0.0000000000000000        0.0000000000000000     
   6.2500000000000000E-002   0.0000000000000000        0.0000000000000000     
   9.3750000000000000E-002   0.0000000000000000        0.0000000000000000     
  0.12500000000000000        0.0000000000000000        0.0000000000000000     
   0.0000000000000000        3.1250000000000000E-002   0.0000000000000000     
   3.1250000000000000E-002   3.1250000000000000E-002   0.0000000000000000     
   6.2500000000000000E-002   3.1250000000000000E-002   0.0000000000000000     
   9.3750000000000000E-002   3.1250000000000000E-002   0.0000000000000000     
  0.12500000000000000        3.1250000000000000E-002   0.0000000000000000     
   0.0000000000000000        6.2500000000000000E-002   0.0000000000000000     
   3.1250000000000000E-002   6.2500000000000000E-002   0.0000000000000000     
   6.2500000000000000E-002   6.2500000000000000E-002   0.0000000000000000     
   9.3750000000000000E-002   6.2500000000000000E-002   0.0000000000000000     
  0.12500000000000000        6.2500000000000000E-002   0.0000000000000000     
   0.0000000000000000        9.3750000000000000E-002   0.0000000000000000     
   3.1250000000000000E-002   9.3750000000000000E-002   0.0000000000000000     
   6.2500000000000000E-002   9.3750000000000000E-002   0.0000000000000000     
   9.3750000000000000E-002   9.3750000000000000E-002   0.0000000000000000     
  0.12500000000000000        9.3750000000000000E-002   0.0000000000000000     
   0.0000000000000000       0.12500000000000000        0.0000000000000000     
   3.1250000000000000E-002  0.12500000000000000        0.0000000000000000     
   6.2500000000000000E-002  0.12500000000000000        0.0000000000000000     
   9.3750000000000000E-002  0.12500000000000000        0.0000000000000000     
  0.12500000000000000       0.12500000000000000        0.0000000000000000     
  0.12500000000000000        0.0000000000000000        0.0000000000000000     
  0.15625000000000000        0.0000000000000000        0.0000000000000000     
  0.18750000000000000        0.0000000000000000        0.0000000000000000     
  0.21875000000000000        0.0000000000000000        0.0000000000000000     
  0.25000000000000000        0.0000000000000000        0.0000000000000000     
  0.12500000000000000        3.1250000000000000E-002   0.0000000000000000     
  0.15625000000000000        3.1250000000000000E-002   0.0000000000000000     
  0.18750000000000000        3.1250000000000000E-002   0.0000000000000000     
  0.21875000000000000        3.1250000000000000E-002   0.0000000000000000     
  0.25000000000000000        3.1250000000000000E-002   0.0000000000000000     
  0.12500000000000000        6.2500000000000000E-002   0.0000000000000000     
  0.15625000000000000        6.2500000000000000E-002   0.0000000000000000     
  0.18750000000000000        6.2500000000000000E-002   0.0000000000000000     
  0.21875000000000000        6.2500000000000000E-002   0.0000000000000000     
  0.25000000000000000        6.2500000000000000E-002   0.0000000000000000     
  0.12500000000000000        9.3750000000000000E-002   0.0000000000000000     
  0.15625000000000000        9.3750000000000000E-002   0.0000000000000000     
  0.18750000000000000        9.3750000000000000E-002   0.0000000000000000     
  0.21875000000000000        9.3750000000000000E-002   0.0000000000000000     
  0.25000000000000000        9.3750000000000000E-002   0.0000000000000000     
  0.12500000000000000       0.12500000000000000        0.0000000000000000     
  0.15625000000000000       0.12500000000000000        0.0000000000000000     
  0.18750000000000000       0.12500000000000000        0.0000000000000000     
  0.21875000000000000       0.12500000000000000        0.0000000000000000     
  0.25000000000000000       0.12500000000000000        0.0000000000000000     
  0.25000000000000000        0.0000000000000000        0.0000000000000000     
  0.28125000000000000        0.0000000000000000        0.0000000000000000     
  0.31250000000000000        0.0000000000000000        0.0000000000000000     
  0.34375000000000000        0.0000000000000000        0.0000000000000000     
  0.37500000000000000        0.0000000000000000        0.0000000000000000     
  0.25000000000000000        3.1250000000000000E-002   0.0000000000000000     
  0.28125000000000000        3.1250000000000000E-002   0.0000000000000000     
  0.31250000000000000        3.1250000000000000E-002   0.0000000000000000     
  0.34375000000000000        3.1250000000000000E-002   0.0000000000000000     
  0.37500000000000000        3.1250000000000000E-002   0.0000000000000000     
  0.25000000000000000        6.2500000000000000E-002   0.0000000000000000     
  0.28125000000000000        6.2500000000000000E-002   0.0000000000000000     
  0.31250000000000000        6.2500000000000000E-002   0.0000000000000000     
  0.34375000000000000        6.2500000000000000E-002   0.0000000000000000     
  0.37500000000000000        6.2500000000000000E-002   0.0000000000000000     
  0.25000000000000000        9.3750000000000000E-002   0.0000000000000000     
  0.28125000000000000        9.3750000000000000E-002   0.0000000000000000     
  0.31250000000000000        9.3750000000000000E-002   0.0000000000000000     
  0.34375000000000000        9.3750000000000000E-002   0.0000000000000000     
  0.37500000000000000        9.3750000000000000E-002   0.0000000000000000     
  0.25000000000000000       0.12500000000000000        0.0000000000000000     
  0.28125000000000000       0.12500000000000000        0.0000000000000000     
  0.31250000000000000       0.12500000000000000        0.0000000000000000     
  0.34375000000000000       0.12500000000000000        0.0000000000000000     
  0.37500000000000000       0.12500000000000000        0.0000000000000000     
  0.37500000000000000        0.0000000000000000        0.0000000000000000     
  0.40625000000000000        0.0000000000000000        0.0000000000000000     
  0.43750000000000000        0.0000000000000000        0.0000000000000000     
  0.46875000000000000        0.0000000000000000        0.0000000000000000     
  0.50000000000000000        0.0000000000000000        0.0000000000000000     
  0.37500000000000000        3.1250000000000000E-002   0.0000000000000000     
  0.40625000000000000        3.1250000000000000E-002   0.0000000000000000     
  0.43750000000000000        3.1250000000000000E-002   0.0000000000000000     
  0.46875000000000000        3.1250000000000000E-002   0.0000000000000000     
  0.50000000000000000        3.1250000000000000E-002   0.0000000000000000     
  0.37500000000000000        6.2500000000000000E-002   0.0000000000000000     
  0.40625000000000000        6.2500000000000000E-002   0.0000000000000000     
  0.43750000000000000        6.2500000000000000E-002   0.0000000000000000     
  0.46875000000000000        6.2500000000000000E-002   0.0000000000000000     
  0.50000000000000000        6.2500000000000000E-002   0.0000000000000000     
  0.37500000000000000        9.3750000000000000E-002   0.0000000000000000     
  0.40625000000000000        9.3750000000000000E-002   0.0000000000000000     
  0.43750000000000000        9.3750000000000000E-002   0.0000000000000000     
  0.46875000000000000        9.3750000000000000E-002   0.0000000000000000     
  0.50000000000000000        9.3750000000000000E-002   0.0000000000000000     
  0.37500000000000000       0.12500000000000000        0.0000000000000000     
  0.40625000000000000       0.12500000000000000        0.0000000000000000     
  0.43750000000000000       0.12500000000000000        0.0000000000000000     
  0.46875000000000000       0.12500000000000000        0.0000000000000000     
  0.50000000000000000       0.12500000000000000        0.0000000000000000     
  0.50000000000000000        0.0000000000000000        0.0000000000000000     
  0.53125000000000000        0.0000000000000000        0.0000000000000000     
  0.56250000000000000        0.0000000000000000        0.0000000000000000     
  0.59375000000000000        0.0000000000000000        0.0000000000000000     
  0.62500000000000000        0.0000000000000000        0.0000000000000000     
  0.50000000000000000        3.1250000000000000E-002   0.0000000000000000     
  0.53125000000000000        3.1250000000000000E-002   0.0000000000000000     
  0.56250000000000000        3.1250000000000000E-002   0.0000000000000000     
  0.59375000000000000        3.1250000000000000E-002   0.0000000000000000     
  0.62500000000000000        3.1250000000000000E-002   0.0000000000000000     
  0.50000000000000000        6.2500000000000000E-002   0.0000000000000000     
  0.53125000000000000        6.2500000000000000E-002   0.0000000000000000     
  0.56250000000000000        6.2500000000000000E-002   0.0000000000000000     
  0.59375000000000000        6.2500000000000000E-002   0.0000000000000000     
  0.62500000000000000        6.2500000000000000E-002   0.0000000000000000     
  0.50000000000000000        9.3750000000000000E-002   0.0000000000000000     
  0.53125000000000000        9.3750000000000000E-002   0.0000000000000000     
  0.56250000000000000        9.3750000000000000E-002   0.0000000000000000     
  0.59375000000000000        9.3750000000000000E-002   0.0000000000000000     
  0.62500000000000000        9.3750000000000000E-002   0.0000000000000000     
  0.50000000000000000       0.12500000000000000        0.0000000000000000     
  0.53125000000000000       0.12500000000000000        0.0000000000000000     
  0.56250000000000000       0.12500000000000000        0.0000000000000000     
  0.59375000000000000       0.12500000000000000        0.0000000000000000     
  0.62500000000000000       0.12500000000000000        0.0000000000000000     
  0.62500000000000000        0.0000000000000000        0.0000000000000000     
  0.65625000000000000        0.0000000000000000        0.0000000000000000     
  0.68750000000000000        0.0000000000000000        0.0000000000000000     
  0.71875000000000000        0.0000000000000000        0.0000000000000000     
  0.75000000000000000        0.0000000000000000        0.0000000000000000     
  0.62500000000000000        3.1250000000000000E-002   0.0000000000000000     
  0.65625000000000000        3.1250000000000000E-002   0.0000000000000000     
  0.68750000000000000        3.1250000000000000E-002   0.0000000000000000     
  0.71875000000000000        3.1250000000000000E-002   0.0000000000000000     
  0.75000000000000000        3.1250000000000000E-002   0.0000000000000000     
  0.62500000000000000        6.2500000000000000E-002   0.0000000000000000     
  0.65625000000000000        6.2500000000000000E-002   0.0000000000000000     
  0.68750000000000000        6.2500000000000000E-002   0.0000000000000000     
  0.71875000000000000        6.2500000000000000E-002   0.0000000000000000     
  0.75000000000000000        6.2500000000000000E-002   0.0000000000000000     
  0.62500000000000000        9.3750000000000000E-002   0.0000000000000000     
  0.65625000000000000        9.3750000000000000E-002   0.0000000000000000     
  0.68750000000000000        9.3750000000000000E-002   0.0000000000000000     
  0.71875000000000000        9.3750000000000000E-002   0.0000000000000000     
  0.75000000000000000        9.3750000000000000E-002   0.0000000000000000     
  0.62500000000000000       0.12500000000000000        0.0000000000000000     
  0.65625000000000000       0.12500000000000000        0.0000000000000000     
  0.68750000000000000       0.12500000000000000        0.0000000000000000     
  0.71875000000000000       0.12500000000000000        0.0000000000000000     
  0.75000000000000000       0.12500000000000000        0.0000000000000000     
  0.75000000000000000        0.0000000000000000        0.0000000000000000     
  0.78125000000000000        0.0000000000000000        0.0000000000000000     
  0.81250000000000000        0.0000000000000000        0.0000000000000000     
  0.84375000000000000        0.0000000000000000        0.0000000000000000     
  0.87500000000000000        0.0000000000000000        0.0000000000000000     
  0.75000000000000000        3.1250000000000000E-002   0.0000000000000000     
  0.78125000000000000        3.1250000000000000E-002   0.0000000000000000     
  0.81250000000000000        3.1250000000000000E-002   0.0000000000000000     
  0.84375000000000000        3.1250000000000000E-002   0.0000000000000000     
  0.87500000000000000        3.1250000000000000E-002   0.0000000000000000     
  0.75000000000000000        6.2500000000000000E-002   0.0000000000000000     
  0.78125000000000000        6.2500000000000000E-002   0.0000000000000000     
  0.81250000000000000        6.2500000000000000E-002   0.0000000000000000     
  0.84375000000000000        6.2500000000000000E-002   0.0000000000000000     
  0.87500000000000000        6.2500000000000000E-002   0.0000000000000000     
  0.75000000000000000        9.3750000000000000E-002   0.0000000000000000     
  0.78125000000000000        9.3750000000000000E-002   0.0000000000000000     
  0.81250000000000000        9.3750000000000000E-002   0.0000000000000000     
  0.84375000000000000        9.3750000000000000E-002   0.0000000000000000     
  0.87500000000000000        9.3750000000000000E-002   0.0000000000000000     
  0.75000000000000000       0.12500000000000000        0.0000000000000000     
  0.78125000000000000       0.12500000000000000        0.0000000000000000     
  0.81250000000000000       0.12500000000000000        0.0000000000000000     
  0.84375000000000000       0.12500000000000000        0.0000000000000000     
  0.87500000000000000       0.12500000000000000        0.0000000000000000     
  0.87500000000000000        0.0000000000000000        0.0000000000000000     
  0.90625000000000000        0.0000000000000000        0.0000000000000000     
  0.93750000000000000        0.0000000000000000        0.0000000000000000     
  0.96875000000000000        0.0000000000000000        0.0000000000000000     
   1.0000000000000000        0.0000000000000000        0.0000000000000000     
  0.87500000000000000        3.1250000000000000E-002   0.0000000000000000     
  0.90625000000000000        3.1250000000000000E-002   0.0000000000000000     
  0.93750000000000000        3.1250000000000000E-002   0.0000000000000000     
  0.96875000000000000        3.1250000000000000E-002   0.0000000000000000     
   1.0000000000000000        3.1250000000000000E-002   0.0000000000000000     
  0.87500000000000000        6.2500000000000000E-002   0.0000000000000000     
  0.90625000000000000        6.2500000000000000E-002   0.0000000000000000     
  0.93750000000000000        6.2500000000000000E-002   0.0000000000000000     
  0.96875000000000000        6.2500000000000000E-002   0.0000000000000000     
   1.0000000000000000        6.2500000000000000E-002   0.0000000000000000     
  0.87500000000000000        9.3750000000000000E-002   0.0000000000000000     
  0.90625000000000000        9.3750000000000000E-002   0.0000000000000000     
  0.93750000000000000        9.3750000000000000E-002   0.0000000000000000     
  0.96875000000000000        9.3750000000000000E-002   0.0000000000000000     
   1.0000000000000000        9.3750000000000000E-002   0.0000000000000000     
  0.87500000000000000       0.12500000000000000        0.0000000000000000     
  0.90625000000000000       0.12500000000000000        0.0000000000000000     
  0.93750000000000000       0.12500000000000000        0.0000000000000000     
  0.96875000000000000       0.12500000000000000        0.0000000000000000     
   1.0000000000000000       0.12500000000000000        0.0000000000000000     
   0.0000000000000000       0.12500000000000000        0.0000000000000000     
   3.1250000000000000E-002  0.12500000000000000        0.0000000000000000     
   6.2500000000000000E-002  0.12500000000000000        0.0000000000000000     
   9.3750000000000000E-002  0.12500000000000000        0.0000000000000000     
  0.12500000000000000       0.12500000000000000        0.0000000000000000     
   0.0000000000000000       0.15625000000000000        0.0000000000000000     
   3.1250000000000000E-002  0.15625000000000000        0.0000000000000000     
   6.2500000000000000E-002  0.15625000000000000        0.0000000000000000     
   9.3750000000000000E-002  0.15625000000000000        0.0000000000000000     
  0.12500000000000000       0.15625000000000000        0.0000000000000000     
   0.0000000000000000       0.18750000000000000        0.0000000000000000     
   3.1250000000000000E-002  0.18750000000000000        0.0000000000000000     
   6.2500000000000000E-002  0.18750000000000000        0.0000000000000000     
   9.3750000000000000E-002  0.18750000000000000        0.0000000000000000     
  0.12500000000000000       0.18750000000000000        0.0000000000000000     
   0.0000000000000000       0.21875000000000000        0.0000000000000000     
   3.1250000000000000E-002  0.21875000000000000        0.0000000000000000     
   6.2500000000000000E-002  0.21875000000000000        0.0000000000000000     
   9.3750000000000000E-002  0.21875000000000000        0.0000000000000000     
  0.12500000000000000       0.21875000000000000        0.0000000000000000     
   0.0000000000000000       0.25000000000000000        0.0000000000000000     
   3.1250000000000000E-002  0.25000000000000000        0.0000000000000000     
   6.2500000000000000E-002  0.25000000000000000        0.0000000000000000     
   9.3750000000000000E-002  0.25000000000000000        0.0000000000000000     
  0.12500000000000000       0.25000000000000000        0.0000000000000000     
  0.12500000000000000       0.12500000000000000        0.0000000000000000     
  0.15625000000000000       0.12500000000000000        0.0000000000000000     
  0.18750000000000000       0.12500000000000000        0.0000000000000000     
  0.21875000000000000       0.12500000000000000        0.0000000000000000     
  0.25000000000000000       0.12500000000000000        0.0000000000000000     
  0.12500000000000000       0.15625000000000000        0.0000000000000000     
  0.15625000000000000       0.15625000000000000        0.0000000000000000     
  0.18750000000000000       0.15625000000000000        0.0000000000000000     
  0.21875000000000000       0.15625000000000000        0.0000000000000000     
  0.25000000000000000       0.15625000000000000        0.0000000000000000     
  0.12500000000000000       0.18750000000000000        0.0000000000000000     
  0.15625000000000000       0.18750000000000000        0.0000000000000000     
  0.18750000000000000       0.18750000000000000        0.0000000000000000     
  0.21875000000000000       0.18750000000000000        0.0000000000000000     
  0.25000000000000000       0.18750000000000000        0.0000000000000000     
  0.12500000000000000       0.21875000000000000        0.0000000000000000     
  0.15625000000000000       0.21875000000000000        0.0000000000000000     
  0.18750000000000000       0.21875000000000000        0.0000000000000000     
  0.21875000000000000       0.21875000000000000        0.0000000000000000     
  0.25000000000000000       0.21875000000000000        0.0000000000000000     
  0.12500000000000000       0.25000000000000000        0.0000000000000000     
  0.15625000000000000       0.25000000000000000        0.0000000000000000     
  0.18750000000000000       0.25000000000000000        0.0000000000000000     
  0.21875000000000000       0.25000000000000000        0.0000000000000000     
  0.25000000000000000       0.25000000000000000        0.0000000000000000     
  0.25000000000000000       0.12500000000000000        0.0000000000000000     
  0.28125000000000000       0.12500000000000000        0.0000000000000000     
  0.31250000000000000       0.12500000000000000        0.0000000000000000     
  0.34375000000000000       0.12500000000000000        0.0000000000000000     
  0.37500000000000000       0.12500000000000000        0.0000000000000000     
  0.25000000000000000       0.15625000000000000        0.0000000000000000     
  0.28125000000000000       0.15625000000000000        0.0000000000000000     
  0.31250000000000000       0.15625000000000000        0.0000000000000000     
  0.34375000000000000       0.15625000000000000        0.0000000000000000     
  0.37500000000000000       0.15625000000000000        0.0000000000000000     
  0.25000000000000000       0.18750000000000000        0.0000000000000000     
  0.28125000000000000       0.18750000000000000        0.0000000000000000     
  0.31250000000000000       0.18750000000000000        0.0000000000000000     
  0.34375000000000000       0.18750000000000000        0.0000000000000000     
  0.37500000000000000       0.18750000000000000        0.0000000000000000     
  0.25000000000000000       0.21875000000000000        0.0000000000000000     
  0.28125000000000000       0.21875000000000000        0.0000000000000000     
  0.31250000000000000       0.21875000000000000        0.0000000000000000     
  0.34375000000000000       0.21875000000000000        0.0000000000000000     
  0.37500000000000000       0.21875000000000000        0.0000000000000000     
  0.25000000000000000       0.25000000000000000        0.0000000000000000     
  0.28125000000000000       0.25000000000000000        0.0000000000000000     
  0.31250000000000000       0.25000000000000000        0.0000000000000000     
  0.34375000000000000       0.25000000000000000        0.0000000000000000     
  0.37500000000000000       0.25000000000000000        0.0000000000000000     
  0.37500000000000000       0.12500000000000000        0.0000000000000000     
  0.40625000000000000       0.12500000000000000        0.0000000000000000     
  0.43750000000000000       0.12500000000000000        0.0000000000000000     
  0.46875000000000000       0.12500000000000000        0.0000000000000000     
  0.50000000000000000       0.12500000000000000        0.0000000000000000     
  0.37500000000000000       0.15625000000000000        0.0000000000000000     
  0.40625000000000000       0.15625000000000000        0.0000000000000000     
  0.43750000000000000       0.15625000000000000        0.0000000000000000     
  0.46875000000000000       0.15625000000000000        0.0000000000000000     
  0.50000000000000000       0.15625000000000000        0.0000000000000000     
  0.37500000000000000       0.18750000000000000        0.0000000000000000     
  0.40625000000000000       0.18750000000000000        0.0000000000000000     
  0.43750000000000000       0.18750000000000000        0.0000000000000000     
  0.46875000000000000       0.18750000000000000        0.0000000000000000     
  0.50000000000000000       0.18750000000000000        0.0000000000000000     
  0.37500000000000000       0.21875000000000000        0.0000000000000000     
  0.40625000000000000       0.21875000000000000        0.0000000000000000     
  0.43750000000000000       0.21875000000000000        0.0000000000000000     
  0.46875000000000000       0.21875000000000000        0.0000000000000000     
  0.50000000000000000       0.21875000000000000        0.0000000000000000     
  0.37500000000000000       0.25000000000000000        0.0000000000000000     
  0.40625000000000000       0.25000000000000000        0.0000000000000000     
  0.43750000000000000       0.25000000000000000        0.0000000000000000     
  0.46875000000000000       0.25000000000000000        0.0000000000000000     
  0.50000000000000000       0.25000000000000000        0.0000000000000000     
  0.50000000000000000       0.12500000000000000        0.0000000000000000     
  0.53125000000000000       0.12500000000000000        0.0000000000000000     
  0.56250000000000000       0.12500000000000000        0.0000000000000000     
  0.59375000000000000       0.12500000000000000        0.0000000000000000     
  0.62500000000000000       0.12500000000000000        0.0000000000000000     
  0.50000000000000000       0.15625000000000000        0.0000000000000000     
  0.53125000000000000       0.15625000000000000        0.0000000000000000     
  0.56250000000000000       0.15625000000000000        0.0000000000000000     
  0.59375000000000000       0.15625000000000000        0.0000000000000000     
  0.62500000000000000       0.15625000000000000        0.0000000000000000     
  0.50000000000000000       0.18750000000000000        0.0000000000000000     
  0.53125000000000000       0.18750000000000000        0.0000000000000000     
  0.56250000000000000       0.18750000000000000        0.0000000000000000     
  0.59375000000000000       0.18750000000000000        0.0000000000000000     
  0.62500000000000000       0.18750000000000000        0.0000000000000000     
  0.50000000000000000       0.21875000000000000        0.0000000000000000     
  0.53125000000000000       0.21875000000000000        0.0000000000000000     
  0.56250000000000000       0.21875000000000000        0.0000000000000000     
  0.59375000000000000       0.21875000000000000        0.0000000000000000     
  0.62500000000000000       0.21875000000000000        0.0000000000000000     
  0.50000000000000000       0.25000000000000000        0.0000000000000000     
  0.53125000000000000       0.25000000000000000        0.0000000000000000     
  0.56250000000000000       0.25000000000000000        0.0000000000000000     
  0.59375000000000000       0.25000000000000000        0.0000000000000000     
  0.62500000000000000       0.25000000000000000        0.0000000000000000     
  0.62500000000000000       0.12500000000000000        0.0000000000000000     
  0.65625000000000000       0.12500000000000000        0.0000000000000000     
  0.68750000000000000       0.12500000000000000        0.0000000000000000     
  0.71875000000000000       0.12500000000000000        0.0000000000000000     
  0.75000000000000000       0.12500000000000000        0.0000000000000000     
  0.62500000000000000       0.15625000000000000        0.0000000000000000     
  0.65625000000000000       0.15625000000000000        0.0000000000000000     
  0.68750000000000000       0.15625000000000000        0.0000000000000000     
  0.71875000000000000       0.15625000000000000        0.0000000000000000     
  0.75000000000000000       0.15625000000000000        0.0000000000000000     
  0.62500000000000000       0.18750000000000000        0.0000000000000000     
  0.65625000000000000       0.18750000000000000        0.0000000000000000     
  0.68750000000000000       0.18750000000000000        0.0000000000000000     
  0.71875000000000000       0.18750000000000000        0.0000000000000000     
  0.75000000000000000       0.18750000000000000        0.0000000000000000     
  0.62500000000000000       0.21875000000000000        0.0000000000000000     
  0.65625000000000000       0.21875000000000000        0.0000000000000000     
  0.68750000000000000       0.21875000000000000        0.0000000000000000     
  0.71875000000000000       0.21875000000000000        0.0000000000000000     
  0.75000000000000000       0.21875000000000000        0.0000000000000000     
  0.62500000000000000       0.25000000000000000        0.0000000000000000     
  0.65625000000000000       0.25000000000000000        0.0000000000000000     
  0.68750000000000000       0.25000000000000000        0.0000000000000000     
  0.71875000000000000       0.25000000000000000        0.0000000000000000     
  0.75000000000000000       0.25000000000000000        0.0000000000000000     
  0.75000000000000000       0.12500000000000000        0.0000000000000000     
  0.78125000000000000       0.12500000000000000        0.0000000000000000     
  0.81250000000000000       0.12500000000000000        0.0000000000000000     
  0.84375000000000000       0.12500000000000000        0.0000000000000000     
  0.87500000000000000       0.12500000000000000        0.0000000000000000     
  0.75000000000000000       0.15625000000000000        0.0000000000000000     
  0.78125000000000000       0.15625000000000000        0.0000000000000000     
  0.81250000000000000       0.15625000000000000        0.0000000000000000     
  0.84375000000000000       0.15625000000000000        0.0000000000000000     
  0.87500000000000000       0.15625000000000000        0.0000000000000000     
  0.75000000000000000       0.18750000000000000        0.0000000000000000     
  0.78125000000000000       0.18750000000000000        0.0000000000000000     
  0.81250000000000000       0.18750000000000000        0.0000000000000000     
  0.84375000000000000       0.18750000000000000        0.0000000000000000     
  0.87500000000000000       0.18750000000000000        0.0000000000000000     
  0.75000000000000000       0.21875000000000000        0.0000000000000000     
  0.78125000000000000       0.21875000000000000        0.0000000000000000     
  0.81250000000000000       0.21875000000000000        0.0000000000000000     
  0.84375000000000000       0.21875000000000000        0.0000000000000000     
  0.87500000000000000       0.21875000000000000        0.0000000000000000     
  0.75000000000000000       0.25000000000000000        0.0000000000000000     
  0.78125000000000000       0.25000000000000000        0.0000000000000000     
  0.81250000000000000       0.25000000000000000        0.0000000000000000     
  0.84375000000000000       0.25000000000000000        0.0000000000000000     
  0.87500000000000000       0.25000000000000000        0.0000000000000000     
  0.87500000000000000       0.12500000000000000        0.0000000000000000     
  0.90625000000000000       0.12500000000000000        0.0000000000000000     
  0.93750000000000000       0.12500000000000000        0.0000000000000000     
  0.96875000000000000       0.12500000000000000        0.0000000000000000     
   1.0000000000000000       0.12500000000000000        0.0000000000000000     
  0.87500000000000000       0.15625000000000000        0.0000000000000000     
  0.90625000000000000       0.15625000000000000        0.0000000000000000     
  0.93750000000000000       0.15625000000000000        0.0000000000000000     
  0.96875000000000000       0.15625000000000000        0.0000000000000000     
   1.0000000000000000       0.15625000000000000        0.0000000000000000     
  0.87500000000000000       0.18750000000000000        0.0000000000000000     
  0.90625000000000000       0.18750000000000000        0.0000000000000000     
  0.93750000000000000       0.18750000000000000        0.0000000000000000     
  0.96875000000000000       0.18750000000000000        0.0000000000000000     
   1.0000000000000000       0.18750000000000000        0.0000000000000000     
  0.87500000000000000       0.21875000000000000        0.0000000000000000     
  0.90625000000000000       0.21875000000000000        0.0000000000000000     
  0.93750000000000000       0.21875000000000000        0.0000000000000000     
  0.96875000000000000       0.21875000000000000        0.0000000000000000     
   1.0000000000000000       0.21875000000000000        0.0000000000000000     
  0.87500000000000000       0.25000000000000000        0.0000000000000000     
  0.90625000000000000       0.25000000000000000        0.0000000000000000     
  0.93750000000000000       0.25000000000000000        0.0000000000000000     
  0.96875000000000000       0.25000000000000000        0.0000000000000000     
   1.0000000000000000       0.25000000000000000        0.0000000000000000     
   0.0000000000000000       0.25000000000000000        0.0000000000000000     
   3.1250000000000000E-002  0.25000000000000000        0.0000000000000000     
   6.2500000000000000E-002  0.25000000000000000        0.0000000000000000     
   9.3750000000000000E-002  0.25000000000000000        0.0000000000000000     
  0.12500000000000000       0.25000000000000000        0.0000000000000000     
   0.0000000000000000       0.28125000000000000        0.0000000000000000     
   3.1250000000000000E-002  0.28125000000000000        0.0000000000000000     
   6.2500000000000000E-002  0.28125000000000000        0.0000000000000000     
   9.3750000000000000E-002  0.28125000000000000        0.0000000000000000     
  0.12500000000000000       0.28125000000000000        0.0000000000000000     
   0.0000000000000000       0.31250000000000000        0.0000000000000000     
   3.1250000000000000E-002  0.31250000000000000        0.0000000000000000     
   6.2500000000000000E-002  0.31250000000000000        0.0000000000000000     
   9.3750000000000000E-002  0.31250000000000000        0.0000000000000000     
  0.12500000000000000       0.31250000000000000        0.0000000000000000     
   0.0000000000000000       0.34375000000000000        0.0000000000000000     
   3.1250000000000000E-002  0.34375000000000000        0.0000000000000000     
   6.2500000000000000E-002  0.34375000000000000        0.0000000000000000     
   9.3750000000000000E-002  0.34375000000000000        0.0000000000000000     
  0.12500000000000000       0.34375000000000000        0.0000000000000000     
   0.0000000000000000       0.37500000000000000        0.0000000000000000     
   3.1250000000000000E-002  0.37500000000000000        0.0000000000000000     
   6.2500000000000000E-002  0.37500000000000000        0.0000000000000000     
   9.3750000000000000E-002  0.37500000000000000        0.0000000000000000     
  0.12500000000000000       0.37500000000000000        0.0000000000000000     
  0.12500000000000000       0.25000000000000000        0.0000000000000000     
  0.15625000000000000       0.25000000000000000        0.0000000000000000     
  0.18750000000000000       0.25000000000000000        0.0000000000000000     
  0.21875000000000000       0.25000000000000000        0.0000000000000000     
  0.25000000000000000       0.25000000000000000        0.0000000000000000     
  0.12500000000000000       0.28125000000000000        0.0000000000000000     
  0.15625000000000000       0.28125000000000000        0.0000000000000000     
  0.18750000000000000       0.28125000000000000        0.0000000000000000     
  0.21875000000000000       0.28125000000000000        0.0000000000000000     
  0.25000000000000000       0.28125000000000000        0.0000000000000000     
  0.12500000000000000       0.31250000000000000        0.0000000000000000     
  0.15625000000000000       0.31250000000000000        0.0000000000000000     
  0.18750000000000000       0.31250000000000000        0.0000000000000000     
  0.21875000000000000       0.31250000000000000        0.0000000000000000     
  0.25000000000000000       0.31250000000000000        0.0000000000000000     
  0.12500000000000000       0.34375000000000000        0.0000000000000000     
  0.15625000000000000       0.34375000000000000        0.0000000000000000     
  0.18750000000000000       0.34375000000000000        0.0000000000000000     
  0.21875000000000000       0.34375000000000000        0.0000000000000000     
  0.25000000000000000       0.34375000000000000        0.0000000000000000     
  0.12500000000000000       0.37500000000000000        0.0000000000000000     
  0.15625000000000000       0.37500000000000000        0.0000000000000000     
  0.18750000000000000       0.37500000000000000        0.0000000000000000     
  0.21875000000000000       0.37500000000000000        0.0000000000000000     
  0.25000000000000000       0.37500000000000000        0.0000000000000000     
  0.25000000000000000       0.25000000000000000        0.0000000000000000     
  0.28125000000000000       0.25000000000000000        0.0000000000000000     
  0.31250000000000000       0.25000000000000000        0.0000000000000000     
  0.34375000000000000       0.25000000000000000        0.0000000000000000     
  0.37500000000000000       0.25000000000000000        0.0000000000000000     
  0.25000000000000000       0.28125000000000000        0.0000000000000000     
  0.28125000000000000       0.28125000000000000        0.0000000000000000     
  0.31250000000000000       0.28125000000000000        0.0000000000000000     
  0.34375000000000000       0.28125000000000000        0.0000000000000000     
  0.37500000000000000       0.28125000000000000        0.0000000000000000     
  0.25000000000000000       0.31250000000000000        0.0000000000000000     
  0.28125000000000000       0.31250000000000000        0.0000000000000000     
  0.31250000000000000       0.31250000000000000        0.0000000000000000     
  0.34375000000000000       0.31250000000000000        0.0000000000000000     
  0.37500000000000000       0.31250000000000000        0.0000000000000000     
  0.25000000000000000       0.34375000000000000        0.0000000000000000     
  0.28125000000000000       0.34375000000000000        0.0000000000000000     
  0.31250000000000000       0.34375000000000000        0.0000000000000000     
  0.34375000000000000       0.34375000000000000        0.0000000000000000     
  0.37500000000000000       0.34375000000000000        0.0000000000000000     
  0.25000000000000000       0.37500000000000000        0.0000000000000000     
  0.28125000000000000       0.37500000000000000        0.0000000000000000     
  0.31250000000000000       0.37500000000000000        0.0000000000000000     
  0.34375000000000000       0.37500000000000000        0.0000000000000000     
  0.37500000000000000       0.37500000000000000        0.0000000000000000     
  0.37500000000000000       0.25000000000000000        0.0000000000000000     
  0.40625000000000000       0.25000000000000000        0.0000000000000000     
  0.43750000000000000       0.25000000000000000        0.0000000000000000     
  0.46875000000000000       0.25000000000000000        0.0000000000000000     
  0.50000000000000000       0.25000000000000000        0.0000000000000000     
  0.37500000000000000       0.28125000000000000        0.0000000000000000     
  0.40625000000000000       0.28125000000000000        0.0000000000000000     
  0.43750000000000000       0.28125000000000000        0.0000000000000000     
  0.46875000000000000       0.28125000000000000        0.0000000000000000     
  0.50000000000000000       0.28125000000000000        0.0000000000000000     
  0.37500000000000000       0.31250000000000000        0.0000000000000000     
  0.40625000000000000       0.31250000000000000        0.0000000000000000     
  0.43750000000000000       0.31250000000000000        0.0000000000000000     
  0.46875000000000000       0.31250000000000000        0.0000000000000000     
  0.50000000000000000       0.31250000000000000        0.0000000000000000     
  0.37500000000000000       0.34375000000000000        0.0000000000000000     
  0.40625000000000000       0.34375000000000000        0.0000000000000000     
  0.43750000000000000       0.34375000000000000        0.0000000000000000     
  0.46875000000000000       0.34375000000000000        0.0000000000000000     
  0.50000000000000000       0.34375000000000000        0.0000000000000000     
  0.37500000000000000       0.37500000000000000        0.0000000000000000     
  0.40625000000000000       0.37500000000000000        0.0000000000000000     
  0.43750000000000000       0.37500000000000000        0.0000000000000000     
  0.46875000000000000       0.37500000000000000        0.0000000000000000     
  0.50000000000000000       0.37500000000000000        0.0000000000000000     
  0.50000000000000000       0.25000000000000000        0.0000000000000000     
  0.53125000000000000       0.25000000000000000        0.0000000000000000     
  0.56250000000000000       0.25000000000000000        0.0000000000000000     
  0.59375000000000000       0.25000000000000000        0.0000000000000000     
  0.62500000000000000       0.25000000000000000        0.0000000000000000     
  0.50000000000000000       0.28125000000000000        0.0000000000000000     
  0.53125000000000000       0.28125000000000000        0.0000000000000000     
  0.56250000000000000       0.28125000000000000        0.0000000000000000     
  0.59375000000000000       0.28125000000000000        0.0000000000000000     
  0.62500000000000000       0.28125000000000000        0.0000000000000000     
  0.50000000000000000       0.31250000000000000        0.0000000000000000     
  0.53125000000000000       0.31250000000000000        0.0000000000000000     
  0.56250000000000000       0.31250000000000000        0.0000000000000000     
  0.59375000000000000       0.31250000000000000        0.0000000000000000     
  0.62500000000000000       0.31250000000000000        0.0000000000000000     
  0.50000000000000000       0.34375000000000000        0.0000000000000000     
  0.53125000000000000       0.34375000000000000        0.0000000000000000     
  0.56250000000000000       0.34375000000000000        0.0000000000000000     
  0.59375000000000000       0.34375000000000000        0.0000000000000000     
  0.62500000000000000       0.34375000000000000        0.0000000000000000     
  0.50000000000000000       0.37500000000000000        0.0000000000000000     
  0.53125000000000000       0.37500000000000000        0.0000000000000000     
  0.56250000000000000       0.37500000000000000        0.0000000000000000     
  0.59375000000000000       0.37500000000000000        0.0000000000000000     
  0.62500000000000000       0.37500000000000000        0.0000000000000000     
  0.62500000000000000       0.25000000000000000        0.0000000000000000     
  0.65625000000000000       0.25000000000000000        0.0000000000000000     
  0.68750000000000000       0.25000000000000000        0.0000000000000000     
  0.71875000000000000       0.25000000000000000        0.0000000000000000     
  0.75000000000000000       0.25000000000000000        0.0000000000000000     
  0.62500000000000000       0.28125000000000000        0.0000000000000000     
  0.65625000000000000       0.28125000000000000        0.0000000000000000     
  0.68750000000000000       0.28125000000000000        0.0000000000000000     
  0.71875000000000000       0.28125000000000000        0.0000000000000000     
  0.75000000000000000       0.28125000000000000        0.0000000000000000     
  0.62500000000000000       0.31250000000000000        0.0000000000000000     
  0.65625000000000000       0.31250000000000000        0.0000000000000000     
  0.68750000000000000       0.31250000000000000        0.0000000000000000     
  0.71875000000000000       0.31250000000000000        0.0000000000000000     
  0.75000000000000000       0.31250000000000000        0.0000000000000000     
  0.62500000000000000       0.34375000000000000        0.0000000000000000     
  0.65625000000000000       0.34375000000000000        0.0000000000000000     
  0.68750000000000000       0.34375000000000000        0.0000000000000000     
  0.71875000000000000       0.34375000000000000        0.0000000000000000     
  0.75000000000000000       0.34375000000000000        0.0000000000000000     
  0.62500000000000000       0.37500000000000000        0.0000000000000000     
  0.65625000000000000       0.37500000000000000        0.0000000000000000     
  0.68750000000000000       0.37500000000000000        0.0000000000000000     
  0.71875000000000000       0.37500000000000000        0.0000000000000000     
  0.75000000000000000       0.37500000000000000        0.0000000000000000     
  0.75000000000000000       0.25000000000000000        0.0000000000000000     
  0.78125000000000000       0.25000000000000000        0.0000000000000000     
  0.81250000000000000       0.25000000000000000        0.0000000000000000     
  0.84375000000000000       0.25000000000000000        0.0000000000000000     
  0.87500000000000000       0.25000000000000000        0.0000000000000000     
  0.75000000000000000       0.28125000000000000        0.0000000000000000     
  0.78125000000000000       0.28125000000000000        0.0000000000000000     
  0.81250000000000000       0.28125000000000000        0.0000000000000000     
  0.84375000000000000       0.28125000000000000        0.0000000000000000     
  0.87500000000000000       0.28125000000000000        0.0000000000000000     
  0.75000000000000000       0.31250000000000000        0.0000000000000000     
  0.78125000000000000       0.31250000000000000        0.0000000000000000     
  0.81250000000000000       0.31250000000000000        0.0000000000000000     
  0.84375000000000000       0.31250000000000000        0.0000000000000000     
  0.87500000000000000       0.31250000000000000        0.0000000000000000     
  0.75000000000000000       0.34375000000000000        0.0000000000000000     
  0.78125000000000000       0.34375000000000000        0.0000000000000000     
  0.81250000000000000       0.34375000000000000        0.0000000000000000     
  0.84375000000000000       0.34375000000000000        0.0000000000000000     
  0.87500000000000000       0.34375000000000000        0.0000000000000000     
  0.75000000000000000       0.37500000000000000        0.0000000000000000     
  0.78125000000000000       0.37500000000000000        0.0000000000000000     
  0.81250000000000000       0.37500000000000000        0.0000000000000000     
  0.84375000000000000       0.37500000000000000        0.0000000000000000     
  0.87500000000000000       0.37500000000000000        0.0000000000000000     
  0.87500000000000000       0.25000000000000000        0.0000000000000000     
  0.90625000000000000       0.25000000000000000        0.0000000000000000     
  0.93750000000000000       0.25000000000000000        0.0000000000000000     
  0.96875000000000000       0.25000000000000000        0.0000000000000000     
   1.0000000000000000       0.25000000000000000        0.0000000000000000     
  0.87500000000000000       0.28125000000000000        0.0000000000000000     
  0.90625000000000000       0.28125000000000000        0.0000000000000000     
  0.93750000000000000       0.28125000000000000        0.0000000000000000     
  0.96875000000000000       0.28125000000000000        0.0000000000000000     
   1.0000000000000000       0.28125000000000000        0.0000000000000000     
  0.87500000000000000       0.31250000000000000        0.0000000000000000     
  0.90625000000000000       0.31250000000000000        0.0000000000000000     
  0.93750000000000000       0.31250000000000000        0.0000000000000000     
  0.96875000000000000       0.31250000000000000        0.0000000000000000     
   1.0000000000000000       0.31250000000000000        0.0000000000000000     
  0.87500000000000000       0.34375000000000000        0.0000000000000000     
  0.90625000000000000       0.34375000000000000        0.0000000000000000     
  0.93750000000000000       0.34375000000000000        0.0000000000000000     
  0.96875000000000000       0.34375000000000000        0.0000000000000000     
   1.0000000000000000       0.34375000000000000        0.0000000000000000     
  0.87500000000000000       0.37500000000000000        0.0000000000000000     
  0.90625000000000000       0.37500000000000000        0.0000000000000000     
  0.93750000000000000       0.37500000000000000        0.0000000000000000     
  0.96875000000000000       0.37500000000000000        0.0000000000000000     
   1.0000000000000000       0.37500000000000000        0.0000000000000000     
   0.0000000000000000       0.37500000000000000        0.0000000000000000     
   3.1250000000000000E-002  0.37500000000000000        0.0000000000000000     
   6.2500000000000000E-002  0.37500000000000000        0.0000000000000000     
   9.3750000000000000E-002  0.37500000000000000        0.0000000000000000     
  0.12500000000000000       0.37500000000000000        0.0000000000000000     
   0.0000000000000000       0.40625000000000000        0.0000000000000000     
   3.1250000000000000E-002  0.40625000000000000        0.0000000000000000     
   6.2500000000000000E-002  0.40625000000000000        0.0000000000000000     
   9.3750000000000000E-002  0.40625000000000000        0.0000000000000000     
  0.12500000000000000       0.40625000000000000        0.0000000000000000     
   0.0000000000000000       0.43750000000000000        0.0000000000000000     
   3.1250000000000000E-002  0.43750000000000000        0.0000000000000000     
   6.2500000000000000E-002  0.43750000000000000        0.0000000000000000     
   9.3750000000000000E-002  0.43750000000000000        0.0000000000000000     
  0.12500000000000000       0.43750000000000000        0.0000000000000000     
   0.0000000000000000       0.46875000000000000        0.0000000000000000     
   3.1250000000000000E-002  0.46875000000000000        0.0000000000000000     
   6.2500000000000000E-002  0.46875000000000000        0.0000000000000000     
   9.3750000000000000E-002  0.46875000000000000        0.0000000000000000     
  0.12500000000000000       0.46875000000000000        0.0000000000000000     
   0.0000000000000000       0.50000000000000000        0.0000000000000000     
   3.1250000000000000E-002  0.50000000000000000        0.0000000000000000     
   6.2500000000000000E-002  0.50000000000000000        0.0000000000000000     
   9.3750000000000000E-002  0.50000000000000000        0.0000000000000000     
  0.12500000000000000       0.50000000000000000        0.0000000000000000     
  0.12500000000000000       0.37500000000000000        0.0000000000000000     
  0.15625000000000000       0.37500000000000000        0.0000000000000000     
  0.18750000000000000       0.37500000000000000        0.0000000000000000     
  0.21875000000000000       0.37500000000000000        0.0000000000000000     
  0.25000000000000000       0.37500000000000000        0.0000000000000000     
  0.12500000000000000       0.40625000000000000        0.0000000000000000     
  0.15625000000000000       0.40625000000000000        0.0000000000000000     
  0.18750000000000000       0.40625000000000000        0.0000000000000000     
  0.21875000000000000       0.40625000000000000        0.0000000000000000     
  0.25000000000000000       0.40625000000000000        0.0000000000000000     
  0.12500000000000000       0.43750000000000000        0.0000000000000000     
  0.15625000000000000       0.43750000000000000        0.0000000000000000     
  0.18750000000000000       0.43750000000000000        0.0000000000000000     
  0.21875000000000000       0.43750000000000000        0.0000000000000000     
  0.25000000000000000       0.43750000000000000        0.0000000000000000     
  0.12500000000000000       0.46875000000000000        0.0000000000000000     
  0.15625000000000000       0.46875000000000000        0.0000000000000000     
  0.18750000000000000       0.46875000000000000        0.0000000000000000     
  0.21875000000000000       0.46875000000000000        0.0000000000000000     
  0.25000000000000000       0.46875000000000000        0.0000000000000000     
  0.12500000000000000       0.50000000000000000        0.0000000000000000     
  0.15625000000000000       0.50000000000000000        0.0000000000000000     
  0.18750000000000000       0.50000000000000000        0.0000000000000000     
  0.21875000000000000       0.50000000000000000        0.0000000000000000     
  0.25000000000000000       0.50000000000000000        0.0000000000000000     
  0.25000000000000000       0.37500000000000000        0.0000000000000000     
  0.28125000000000000       0.37500000000000000        0.0000000000000000     
  0.31250000000000000       0.37500000000000000        0.0000000000000000     
  0.34375000000000000       0.37500000000000000        0.0000000000000000     
  0.37500000000000000       0.37500000000000000        0.0000000000000000     
  0.25000000000000000       0.40625000000000000        0.0000000000000000     
  0.28125000000000000       0.40625000000000000        0.0000000000000000     
  0.31250000000000000       0.40625000000000000        0.0000000000000000     
  0.34375000000000000       0.40625000000000000        0.0000000000000000     
  0.37500000000000000       0.40625000000000000        0.0000000000000000     
  0.25000000000000000       0.43750000000000000        0.0000000000000000     
  0.28125000000000000       0.43750000000000000        0.0000000000000000     
  0.31250000000000000       0.43750000000000000        0.0000000000000000     
  0.34375000000000000       0.43750000000000000        0.0000000000000000     
  0.37500000000000000       0.43750000000000000        0.0000000000000000     
  0.25000000000000000       0.46875000000000000        0.0000000000000000     
  0.28125000000000000       0.46875000000000000        0.0000000000000000     
  0.31250000000000000       0.46875000000000000        0.0000000000000000     
  0.34375000000000000       0.46875000000000000        0.0000000000000000     
  0.37500000000000000       0.46875000000000000        0.0000000000000000     
  0.25000000000000000       0.50000000000000000        0.0000000000000000     
  0.28125000000000000       0.50000000000000000        0.0000000000000000     
  0.31250000000000000       0.50000000000000000        0.0000000000000000     
  0.34375000000000000       0.50000000000000000        0.0000000000000000     
  0.37500000000000000       0.50000000000000000        0.0000000000000000     
  0.37500000000000000       0.37500000000000000        0.0000000000000000     
  0.40625000000000000       0.37500000000000000        0.0000000000000000     
  0.43750000000000000       0.37500000000000000        0.0000000000000000     
  0.46875000000000000       0.37500000000000000        0.0000000000000000     
  0.50000000000000000       0.37500000000000000        0.0000000000000000     
  0.37500000000000000       0.40625000000000000        0.0000000000000000     
  0.40625000000000000       0.40625000000000000        0.0000000000000000     
  0.43750000000000000       0.40625000000000000        0.0000000000000000     
  0.46875000000000000       0.40625000000000000        0.0000000000000000     
  0.50000000000000000       0.40625000000000000        0.0000000000000000     
  0.37500000000000000       0.43750000000000000        0.0000000000000000     
  0.40625000000000000       0.43750000000000000        0.0000000000000000     
  0.43750000000000000       0.43750000000000000        0.0000000000000000     
  0.46875000000000000       0.43750000000000000        0.0000000000000000     
  0.50000000000000000       0.43750000000000000        0.0000000000000000     
  0.37500000000000000       0.46875000000000000        0.0000000000000000     
  0.40625000000000000       0.46875000000000000        0.0000000000000000     
  0.43750000000000000       0.46875000000000000        0.0000000000000000     
  0.46875000000000000       0.46875000000000000        0.0000000000000000     
  0.50000000000000000       0.46875000000000000        0.0000000000000000     
  0.37500000000000000       0.50000000000000000        0.0000000000000000     
  0.40625000000000000       0.50000000000000000        0.0000000000000000     
  0.43750000000000000       0.50000000000000000        0.0000000000000000     
  0.46875000000000000       0.50000000000000000        0.0000000000000000     
  0.50000000000000000       0.50000000000000000        0.0000000000000000     
  0.50000000000000000       0.37500000000000000        0.0000000000000000     
  0.53125000000000000       0.37500000000000000        0.0000000000000000     
  0.56250000000000000       0.37500000000000000        0.0000000000000000     
  0.59375000000000000       0.37500000000000000        0.0000000000000000     
  0.62500000000000000       0.37500000000000000        0.0000000000000000     
  0.50000000000000000       0.40625000000000000        0.0000000000000000     
  0.53125000000000000       0.40625000000000000        0.0000000000000000     
  0.56250000000000000       0.40625000000000000        0.0000000000000000     
  0.59375000000000000       0.40625000000000000        0.0000000000000000     
  0.62500000000000000       0.40625000000000000        0.0000000000000000     
  0.50000000000000000       0.43750000000000000        0.0000000000000000     
  0.53125000000000000       0.43750000000000000        0.0000000000000000     
  0.56250000000000000       0.43750000000000000        0.0000000000000000     
  0.59375000000000000       0.43750000000000000        0.0000000000000000     
  0.62500000000000000       0.43750000000000000        0.0000000000000000     
  0.50000000000000000       0.46875000000000000        0.0000000000000000     
  0.53125000000000000       0.46875000000000000        0.0000000000000000     
  0.56250000000000000       0.46875000000000000        0.0000000000000000     
  0.59375000000000000       0.46875000000000000        0.0000000000000000     
  0.62500000000000000       0.46875000000000000        0.0000000000000000     
  0.50000000000000000       0.50000000000000000        0.0000000000000000     
  0.53125000000000000       0.50000000000000000        0.0000000000000000     
  0.56250000000000000       0.50000000000000000        0.0000000000000000     
  0.59375000000000000       0.50000000000000000        0.0000000000000000     
  0.62500000000000000       0.50000000000000000        0.0000000000000000     
  0.62500000000000000       0.37500000000000000        0.0000000000000000     
  0.65625000000000000       0.37500000000000000        0.0000000000000000     
  0.68750000000000000       0.37500000000000000        0.0000000000000000     
  0.71875000000000000       0.37500000000000000        0.0000000000000000     
  0.75000000000000000       0.37500000000000000        0.0000000000000000     
  0.62500000000000000       0.40625000000000000        0.0000000000000000     
  0.65625000000000000       0.40625000000000000        0.0000000000000000     
  0.68750000000000000       0.40625000000000000        0.0000000000000000     
  0.71875000000000000       0.40625000000000000        0.0000000000000000     
  0.75000000000000000       0.40625000000000000        0.0000000000000000     
  0.62500000000000000       0.43750000000000000        0.0000000000000000     
  0.65625000000000000       0.43750000000000000        0.0000000000000000     
  0.68750000000000000       0.43750000000000000        0.0000000000000000     
  0.71875000000000000       0.43750000000000000        0.0000000000000000     
  0.75000000000000000       0.43750000000000000        0.0000000000000000     
  0.62500000000000000       0.46875000000000000        0.0000000000000000     
  0.65625000000000000       0.46875000000000000        0.0000000000000000     
  0.68750000000000000       0.46875000000000000        0.0000000000000000     
  0.71875000000000000       0.46875000000000000        0.0000000000000000     
  0.75000000000000000       0.46875000000000000        0.0000000000000000     
  0.62500000000000000       0.50000000000000000        0.0000000000000000     
  0.65625000000000000       0.50000000000000000        0.0000000000000000     
  0.68750000000000000       0.50000000000000000        0.0000000000000000     
  0.71875000000000000       0.50000000000000000        0.0000000000000000     
  0.75000000000000000       0.50000000000000000        0.0000000000000000     
  0.75000000000000000       0.37500000000000000        0.0000000000000000     
  0.78125000000000000       0.37500000000000000        0.0000000000000000     
  0.81250000000000000       0.37500000000000000        0.0000000000000000     
  0.84375000000000000       0.37500000000000000        0.0000000000000000     
  0.87500000000000000       0.37500000000000000        0.0000000000000000     
  0.75000000000000000       0.40625000000000000        0.0000000000000000     
  0.78125000000000000       0.40625000000000000        0.0000000000000000     
  0.81250000000000000       0.40625000000000000        0.0000000000000000     
  0.84375000000000000       0.40625000000000000        0.0000000000000000     
  0.87500000000000000       0.40625000000000000        0.0000000000000000     
  0.75000000000000000       0.43750000000000000        0.0000000000000000     
  0.78125000000000000       0.43750000000000000        0.0000000000000000     
  0.81250000000000000       0.43750000000000000        0.0000000000000000     
  0.84375000000000000       0.43750000000000000        0.0000000000000000     
  0.87500000000000000       0.43750000000000000        0.0000000000000000     
  0.75000000000000000       0.46875000000000000        0.0000000000000000     
  0.78125000000000000       0.46875000000000000        0.0000000000000000     
  0.81250000000000000       0.46875000000000000        0.0000000000000000     
  0.84375000000000000       0.46875000000000000        0.0000000000000000     
  0.87500000000000000       0.46875000000000000        0.0000000000000000     
  0.75000000000000000       0.50000000000000000        0.0000000000000000     
  0.78125000000000000       0.50000000000000000        0.0000000000000000     
  0.81250000000000000       0.50000000000000000        0.0000000000000000     
  0.84375000000000000       0.50000000000000000        0.0000000000000000     
  0.87500000000000000       0.50000000000000000        0.0000000000000000     
  0.87500000000000000       0.37500000000000000        0.0000000000000000     
  0.90625000000000000       0.37500000000000000        0.0000000000000000     
  0.93750000000000000       0.37500000000000000        0.0000000000000000     
  0.96875000000000000       0.37500000000000000        0.0000000000000000     
   1.0000000000000000       0.37500000000000000        0.0000000000000000     
  0.87500000000000000       0.40625000000000000        0.0000000000000000     
  0.90625000000000000       0.40625000000000000        0.0000000000000000     
  0.93750000000000000       0.40625000000000000        0.0000000000000000     
  0.96875000000000000       0.40625000000000000        0.0000000000000000     
   1.0000000000000000       0.40625000000000000        0.0000000000000000     
  0.87500000000000000       0.43750000000000000        0.0000000000000000     
  0.90625000000000000       0.43750000000000000        0.0000000000000000     
  0.93750000000000000       0.43750000000000000        0.0000000000000000     
  0.96875000000000000       0.43750000000000000        0.0000000000000000     
   1.0000000000000000       0.43750000000000000        0.0000000000000000     
  0.87500000000000000       0.46875000000000000        0.0000000000000000     
  0.90625000000000000       0.46875000000000000        0.0000000000000000     
  0.93750000000000000       0.46875000000000000        0.0000000000000000     
  0.96875000000000000       0.46875000000000000        0.0000000000000000     
   1.0000000000000000       0.46875000000000000        0.0000000000000000     
  0.87500000000000000       0.50000000000000000        0.0000000000000000     
  0.90625000000000000       0.50000000000000000        0.0000000000000000     
  0.93750000000000000       0.50000000000000000        0.0000000000000000     
  0.96875000000000000       0.50000000000000000        0.0000000000000000     
   1.0000000000000000       0.50000000000000000        0.0000000000000000     
   0.0000000000000000       0.50000000000000000        0.0000000000000000     
   3.1250000000000000E-002  0.50000000000000000        0.0000000000000000     
   6.2500000000000000E-002  0.50000000000000000        0.0000000000000000     
   9.3750000000000000E-002  0.50000000000000000        0.0000000000000000     
  0.12500000000000000       0.50000000000000000        0.0000000000000000     
   0.0000000000000000       0.53125000000000000        0.0000000000000000     
   3.1250000000000000E-002  0.53125000000000000        0.0000000000000000     
   6.2500000000000000E-002  0.53125000000000000        0.0000000000000000     
   9.3750000000000000E-002  0.53125000000000000        0.0000000000000000     
  0.12500000000000000       0.53125000000000000        0.0000000000000000     
   0.0000000000000000       0.56250000000000000        0.0000000000000000     
   3.1250000000000000E-002  0.56250000000000000        0.0000000000000000     
   6.2500000000000000E-002  0.56250000000000000        0.0000000000000000     
   9.3750000000000000E-002  0.56250000000000000        0.0000000000000000     
  0.12500000000000000       0.56250000000000000        0.0000000000000000     
   0.0000000000000000       0.59375000000000000        0.0000000000000000     
   3.1250000000000000E-002  0.59375000000000000        0.0000000000000000     
   6.2500000000000000E-002  0.59375000000000000        0.0000000000000000     
   9.3750000000000000E-002  0.59375000000000000        0.0000000000000000     
  0.12500000000000000       0.59375000000000000        0.0000000000000000     
   0.0000000000000000       0.62500000000000000        0.0000000000000000     
   3.1250000000000000E-002  0.62500000000000000        0.0000000000000000     
   6.2500000000000000E-002  0.62500000000000000        0.0000000000000000     
   9.3750000000000000E-002  0.62500000000000000        0.0000000000000000     
  0.12500000000000000       0.62500000000000000        0.0000000000000000     
  0.12500000000000000       0.50000000000000000        0.0000000000000000     
  0.15625000000000000       0.50000000000000000        0.0000000000000000     
  0.18750000000000000       0.50000000000000000        0.0000000000000000     
  0.21875000000000000       0.50000000000000000        0.0000000000000000     
  0.25000000000000000       0.50000000000000000        0.0000000000000000     
  0.12500000000000000       0.53125000000000000        0.0000000000000000     
  0.15625000000000000       0.53125000000000000        0.0000000000000000     
  0.18750000000000000       0.53125000000000000        0.0000000000000000     
  0.21875000000000000       0.53125000000000000        0.0000000000000000     
  0.25000000000000000       0.53125000000000000        0.0000000000000000     
  0.12500000000000000       0.56250000000000000        0.0000000000000000     
  0.15625000000000000       0.56250000000000000        0.0000000000000000     
  0.18750000000000000       0.56250000000000000        0.0000000000000000     
  0.21875000000000000       0.56250000000000000        0.0000000000000000     
  0.25000000000000000       0.56250000000000000        0.0000000000000000     
  0.12500000000000000       0.59375000000000000        0.0000000000000000     
  0.15625000000000000       0.59375000000000000        0.0000000000000000     
  0.18750000000000000       0.59375000000000000        0.0000000000000000     
  0.21875000000000000       0.59375000000000000        0.0000000000000000     
  0.25000000000000000       0.59375000000000000        0.0000000000000000     
  0.12500000000000000       0.62500000000000000        0.0000000000000000     
  0.15625000000000000       0.62500000000000000        0.0000000000000000     
  0.18750000000000000       0.62500000000000000        0.0000000000000000     
  0.21875000000000000       0.62500000000000000        0.0000000000000000     
  0.25000000000000000       0.62500000000000000        0.0000000000000000     
  0.25000000000000000       0.50000000000000000        0.0000000000000000     
  0.28125000000000000       0.50000000000000000        0.0000000000000000     
  0.31250000000000000       0.50000000000000000        0.0000000000000000     
  0.34375000000000000       0.50000000000000000        0.0000000000000000     
  0.37500000000000000       0.50000000000000000        0.0000000000000000     
  0.25000000000000000       0.53125000000000000        0.0000000000000000     
  0.28125000000000000       0.53125000000000000        0.0000000000000000     
  0.31250000000000000       0.53125000000000000        0.0000000000000000     
  0.34375000000000000       0.53125000000000000        0.0000000000000000     
  0.37500000000000000       0.53125000000000000        0.0000000000000000     
  0.25000000000000000       0.56250000000000000        0.0000000000000000     
  0.28125000000000000       0.56250000000000000        0.0000000000000000     
  0.31250000000000000       0.56250000000000000        0.0000000000000000     
  0.34375000000000000       0.56250000000000000        0.0000000000000000     
  0.37500000000000000       0.56250000000000000        0.0000000000000000     
  0.25000000000000000       0.59375000000000000        0.0000000000000000     
  0.28125000000000000       0.59375000000000000        0.0000000000000000     
  0.31250000000000000       0.59375000000000000        0.0000000000000000     
  0.34375000000000000       0.59375000000000000        0.0000000000000000     
  0.37500000000000000       0.59375000000000000        0.0000000000000000     
  0.25000000000000000       0.62500000000000000        0.0000000000000000     
  0.28125000000000000       0.62500000000000000        0.0000000000000000     
  0.31250000000000000       0.62500000000000000        0.0000000000000000     
  0.34375000000000000       0.62500000000000000        0.0000000000000000     
  0.37500000000000000       0.62500000000000000        0.0000000000000000     
  0.37500000000000000       0.50000000000000000        0.0000000000000000     
  0.40625000000000000       0.50000000000000000        0.0000000000000000     
  0.43750000000000000       0.50000000000000000        0.0000000000000000     
  0.46875000000000000       0.50000000000000000        0.0000000000000000     
  0.50000000000000000       0.50000000000000000        0.0000000000000000     
  0.37500000000000000       0.53125000000000000        0.0000000000000000     
  0.40625000000000000       0.53125000000000000        0.0000000000000000     
  0.43750000000000000       0.53125000000000000        0.0000000000000000     
  0.46875000000000000       0.53125000000000000        0.0000000000000000     
  0.50000000000000000       0.53125000000000000        0.0000000000000000     
  0.37500000000000000       0.56250000000000000        0.0000000000000000     
  0.40625000000000000       0.56250000000000000        0.0000000000000000     
  0.43750000000000000       0.56250000000000000        0.0000000000000000     
  0.46875000000000000       0.56250000000000000        0.0000000000000000     
  0.50000000000000000       0.56250000000000000        0.0000000000000000     
  0.37500000000000000       0.59375000000000000        0.0000000000000000     
  0.40625000000000000       0.59375000000000000        0.0000000000000000     
  0.43750000000000000       0.59375000000000000        0.0000000000000000     
  0.46875000000000000       0.59375000000000000        0.0000000000000000     
  0.50000000000000000       0.59375000000000000        0.0000000000000000     
  0.37500000000000000       0.62500000000000000        0.0000000000000000     
  0.40625000000000000       0.62500000000000000        0.0000000000000000     
  0.43750000000000000       0.62500000000000000        0.0000000000000000     
  0.46875000000000000       0.62500000000000000        0.0000000000000000     
  0.50000000000000000       0.62500000000000000        0.0000000000000000     
  0.50000000000000000       0.50000000000000000        0.0000000000000000     
  0.53125000000000000       0.50000000000000000        0.0000000000000000     
  0.56250000000000000       0.50000000000000000        0.0000000000000000     
  0.59375000000000000       0.50000000000000000        0.0000000000000000     
  0.62500000000000000       0.50000000000000000        0.0000000000000000     
  0.50000000000000000       0.53125000000000000        0.0000000000000000     
  0.53125000000000000       0.53125000000000000        0.0000000000000000     
  0.56250000000000000       0.53125000000000000        0.0000000000000000     
  0.59375000000000000       0.53125000000000000        0.0000000000000000     
  0.62500000000000000       0.53125000000000000        0.0000000000000000     
  0.50000000000000000       0.56250000000000000        0.0000000000000000     
  0.53125000000000000       0.56250000000000000        0.0000000000000000     
  0.56250000000000000       0.56250000000000000        0.0000000000000000     
  0.59375000000000000       0.56250000000000000        0.0000000000000000     
  0.62500000000000000       0.56250000000000000        0.0000000000000000     
  0.50000000000000000       0.59375000000000000        0.0000000000000000     
  0.53125000000000000       0.59375000000000000        0.0000000000000000     
  0.56250000000000000       0.59375000000000000        0.0000000000000000     
  0.59375000000000000       0.59375000000000000        0.0000000000000000     
  0.62500000000000000       0.59375000000000000        0.0000000000000000     
  0.50000000000000000       0.62500000000000000        0.0000000000000000     
  0.53125000000000000       0.62500000000000000        0.0000000000000000     
  0.56250000000000000       0.62500000000000000        0.0000000000000000     
  0.59375000000000000       0.62500000000000000        0.0000000000000000     
  0.62500000000000000       0.62500000000000000        0.0000000000000000     
  0.62500000000000000       0.50000000000000000        0.0000000000000000     
  0.65625000000000000       0.50000000000000000        0.0000000000000000     
  0.68750000000000000       0.50000000000000000        0.0000000000000000     
  0.71875000000000000       0.50000000000000000        0.0000000000000000     
  0.75000000000000000       0.50000000000000000        0.0000000000000000     
  0.62500000000000000       0.53125000000000000        0.0000000000000000     
  0.65625000000000000       0.53125000000000000        0.0000000000000000     
  0.68750000000000000       0.53125000000000000        0.0000000000000000     
  0.71875000000000000       0.53125000000000000        0.0000000000000000     
  0.75000000000000000       0.53125000000000000        0.0000000000000000     
  0.62500000000000000       0.56250000000000000        0.0000000000000000     
  0.65625000000000000       0.56250000000000000        0.0000000000000000     
  0.68750000000000000       0.56250000000000000        0.0000000000000000     
  0.71875000000000000       0.56250000000000000        0.0000000000000000     
  0.75000000000000000       0.56250000000000000        0.0000000000000000     
  0.62500000000000000       0.59375000000000000        0.0000000000000000     
  0.65625000000000000       0.59375000000000000        0.0000000000000000     
  0.68750000000000000       0.59375000000000000        0.0000000000000000     
  0.71875000000000000       0.59375000000000000        0.0000000000000000     
  0.75000000000000000       0.59375000000000000        0.0000000000000000     
  0.62500000000000000       0.62500000000000000        0.0000000000000000     
  0.65625000000000000       0.62500000000000000        0.0000000000000000     
  0.68750000000000000       0.62500000000000000        0.0000000000000000     
  0.71875000000000000       0.62500000000000000        0.0000000000000000     
  0.75000000000000000       0.62500000000000000        0.0000000000000000     
  0.75000000000000000       0.50000000000000000        0.0000000000000000     
  0.78125000000000000       0.50000000000000000        0.0000000000000000     
  0.81250000000000000       0.50000000000000000        0.0000000000000000     
  0.84375000000000000       0.50000000000000000        0.0000000000000000     
  0.87500000000000000       0.50000000000000000        0.0000000000000000     
  0.75000000000000000       0.53125000000000000        0.0000000000000000     
  0.78125000000000000       0.53125000000000000        0.0000000000000000     
  0.81250000000000000       0.53125000000000000        0.0000000000000000     
  0.84375000000000000       0.53125000000000000        0.0000000000000000     
  0.87500000000000000       0.53125000000000000        0.0000000000000000     
  0.75000000000000000       0.56250000000000000        0.0000000000000000     
  0.78125000000000000       0.56250000000000000        0.0000000000000000     
  0.81250000000000000       0.56250000000000000        0.0000000000000000     
  0.84375000000000000       0.56250000000000000        0.0000000000000000     
  0.87500000000000000       0.56250000000000000        0.0000000000000000     
  0.75000000000000000       0.59375000000000000        0.0000000000000000     
  0.78125000000000000       0.59375000000000000        0.0000000000000000     
  0.81250000000000000       0.59375000000000000        0.0000000000000000     
  0.84375000000000000       0.59375000000000000        0.0000000000000000     
  0.87500000000000000       0.59375000000000000        0.0000000000000000     
  0.75000000000000000       0.62500000000000000        0.0000000000000000     
  0.78125000000000000       0.62500000000000000        0.0000000000000000     
  0.81250000000000000       0.62500000000000000        0.0000000000000000     
  0.84375000000000000       0.62500000000000000        0.0000000000000000     
  0.87500000000000000       0.62500000000000000        0.0000000000000000     
  0.87500000000000000       0.50000000000000000        0.0000000000000000     
  0.90625000000000000       0.50000000000000000        0.0000000000000000     
  0.93750000000000000       0.50000000000000000        0.0000000000000000     
  0.96875000000000000       0.50000000000000000        0.0000000000000000     
   1.0000000000000000       0.50000000000000000        0.0000000000000000     
  0.87500000000000000       0.53125000000000000        0.0000000000000000     
  0.90625000000000000       0.53125000000000000        0.0000000000000000     
  0.93750000000000000       0.53125000000000000        0.0000000000000000     
  0.96875000000000000       0.53125000000000000        0.0000000000000000     
   1.0000000000000000       0.53125000000000000        0.0000000000000000     
  0.87500000000000000       0.56250000000000000        0.0000000000000000     
  0.90625000000000000       0.56250000000000000        0.0000000000000000     
  0.93750000000000000       0.56250000000000000        0.0000000000000000     
  0.96875000000000000       0.56250000000000000        0.0000000000000000     
   1.0000000000000000       0.56250000000000000        0.0000000000000000     
  0.87500000000000000       0.59375000000000000        0.0000000000000000     
  0.90625000000000000       0.59375000000000000        0.0000000000000000     
  0.93750000000000000       0.59375000000000000        0.0000000000000000     
  0.96875000000000000       0.59375000000000000        0.0000000000000000     
   1.0000000000000000       0.59375000000000000        0.0000000000000000     
  0.87500000000000000       0.62500000000000000        0.0000000000000000     
  0.90625000000000000       0.62500000000000000        0.0000000000000000     
  0.93750000000000000       0.62500000000000000        0.0000000000000000     
  0.96875000000000000       0.62500000000000000        0.0000000000000000     
   1.0000000000000000       0.62500000000000000        0.0000000000000000     
   0.0000000000000000       0.62500000000000000        0.0000000000000000     
   3.1250000000000000E-002  0.62500000000000000        0.0000000000000000     
   6.2500000000000000E-002  0.62500000000000000        0.0000000000000000     
   9.3750000000000000E-002  0.62500000000000000        0.0000000000000000     
  0.12500000000000000       0.62500000000000000        0.0000000000000000     
   0.0000000000000000       0.65625000000000000        0.0000000000000000     
   3.1250000000000000E-002  0.65625000000000000        0.0000000000000000     
   6.2500000000000000E-002  0.65625000000000000        0.0000000000000000     
   9.3750000000000000E-002  0.65625000000000000        0.0000000000000000     
  0.12500000000000000       0.65625000000000000        0.0000000000000000     
   0.0000000000000000       0.68750000000000000        0.0000000000000000     
   3.1250000000000000E-002  0.68750000000000000        0.0000000000000000     
   6.2500000000000000E-002  0.68750000000000000        0.0000000000000000     
   9.3750000000000000E-002  0.68750000000000000        0.0000000000000000     
  0.12500000000000000       0.68750000000000000        0.0000000000000000     
   0.0000000000000000       0.71875000000000000        0.0000000000000000     
   3.1250000000000000E-002  0.71875000000000000        0.0000000000000000     
   6.2500000000000000E-002  0.71875000000000000        0.0000000000000000     
   9.3750000000000000E-002  0.71875000000000000        0.0000000000000000     
  0.12500000000000000       0.71875000000000000        0.0000000000000000     
   0.0000000000000000       0.75000000000000000        0.0000000000000000     
   3.1250000000000000E-002  0.75000000000000000        0.0000000000000000     
   6.2500000000000000E-002  0.75000000000000000        0.0000000000000000     
   9.3750000000000000E-002  0.75000000000000000        0.0000000000000000     
  0.12500000000000000       0.75000000000000000        0.0000000000000000     
  0.12500000000000000       0.62500000000000000        0.0000000000000000     
  0.15625000000000000       0.62500000000000000        0.0000000000000000     
  0.18750000000000000       0.62500000000000000        0.0000000000000000     
  0.21875000000000000       0.62500000000000000        0.0000000000000000     
  0.25000000000000000       0.62500000000000000        0.0000000000000000     
  0.12500000000000000       0.65625000000000000        0.0000000000000000     
  0.15625000000000000       0.65625000000000000        0.0000000000000000     
  0.18750000000000000       0.65625000000000000        0.0000000000000000     
  0.21875000000000000       0.65625000000000000        0.0000000000000000     
  0.25000000000000000       0.65625000000000000        0.0000000000000000     
  0.12500000000000000       0.68750000000000000        0.0000000000000000     
  0.15625000000000000       0.68750000000000000        0.0000000000000000     
  0.18750000000000000       0.68750000000000000        0.0000000000000000     
  0.21875000000000000       0.68750000000000000        0.0000000000000000     
  0.25000000000000000       0.68750000000000000        0.0000000000000000     
  0.12500000000000000       0.71875000000000000        0.0000000000000000     
  0.15625000000000000       0.71875000000000000        0.0000000000000000     
  0.18750000000000000       0.71875000000000000        0.0000000000000000     
  0.21875000000000000       0.71875000000000000        0.0000000000000000     
  0.25000000000000000       0.71875000000000000        0.0000000000000000     
  0.12500000000000000       0.75000000000000000        0.0000000000000000     
  0.15625000000000000       0.75000000000000000        0.0000000000000000     
  0.18750000000000000       0.75000000000000000        0.0000000000000000     
  0.21875000000000000       0.75000000000000000        0.0000000000000000     
  0.25000000000000000       0.75000000000000000        0.0000000000000000     
  0.25000000000000000       0.62500000000000000        0.0000000000000000     
  0.28125000000000000       0.62500000000000000        0.0000000000000000     
  0.31250000000000000       0.62500000000000000        0.0000000000000000     
  0.34375000000000000       0.62500000000000000        0.0000000000000000     
  0.37500000000000000       0.62500000000000000        0.0000000000000000     
  0.25000000000000000       0.65625000000000000        0.0000000000000000     
  0.28125000000000000       0.65625000000000000        0.0000000000000000     
  0.31250000000000000       0.65625000000000000        0.0000000000000000     
  0.34375000000000000       0.65625000000000000        0.0000000000000000     
  0.37500000000000000       0.65625000000000000        0.0000000000000000     
  0.25000000000000000       0.68750000000000000        0.0000000000000000     
  0.28125000000000000       0.68750000000000000        0.0000000000000000     
  0.31250000000000000       0.68750000000000000        0.0000000000000000     
  0.34375000000000000       0.68750000000000000        0.0000000000000000     
  0.37500000000000000       0.68750000000000000        0.0000000000000000     
  0.25000000000000000       0.71875000000000000        0.0000000000000000     
  0.28125000000000000       0.71875000000000000        0.0000000000000000     
  0.31250000000000000       0.71875000000000000        0.0000000000000000     
  0.34375000000000000       0.71875000000000000        0.0000000000000000     
  0.37500000000000000       0.71875000000000000        0.0000000000000000     
  0.25000000000000000       0.75000000000000000        0.0000000000000000     
  0.28125000000000000       0.75000000000000000        0.0000000000000000     
  0.31250000000000000       0.75000000000000000        0.0000000000000000     
  0.34375000000000000       0.75000000000000000        0.0000000000000000     
  0.37500000000000000       0.75000000000000000        0.0000000000000000     
  0.37500000000000000       0.62500000000000000        0.0000000000000000     
  0.40625000000000000       0.62500000000000000        0.0000000000000000     
  0.43750000000000000       0.62500000000000000        0.0000000000000000     
  0.46875000000000000       0.62500000000000000        0.0000000000000000     
  0.50000000000000000       0.62500000000000000        0.0000000000000000     
  0.37500000000000000       0.65625000000000000        0.0000000000000000     
  0.40625000000000000       0.65625000000000000        0.0000000000000000     
  0.43750000000000000       0.65625000000000000        0.0000000000000000     
  0.46875000000000000       0.65625000000000000        0.0000000000000000     
  0.50000000000000000       0.65625000000000000        0.0000000000000000     
  0.37500000000000000       0.68750000000000000        0.0000000000000000     
  0.40625000000000000       0.68750000000000000        0.0000000000000000     
  0.43750000000000000       0.68750000000000000        0.0000000000000000     
  0.46875000000000000       0.68750000000000000        0.0000000000000000     
  0.50000000000000000       0.68750000000000000        0.0000000000000000     
  0.37500000000000000       0.71875000000000000        0.0000000000000000     
  0.40625000000000000       0.71875000000000000        0.0000000000000000     
  0.43750000000000000       0.71875000000000000        0.0000000000000000     
  0.46875000000000000       0.71875000000000000        0.0000000000000000     
  0.50000000000000000       0.71875000000000000        0.0000000000000000     
  0.37500000000000000       0.75000000000000000        0.0000000000000000     
  0.40625000000000000       0.75000000000000000        0.0000000000000000     
  0.43750000000000000       0.75000000000000000        0.0000000000000000     
  0.46875000000000000       0.75000000000000000        0.0000000000000000     
  0.50000000000000000       0.75000000000000000        0.0000000000000000     
  0.50000000000000000       0.62500000000000000        0.0000000000000000     
  0.53125000000000000       0.62500000000000000        0.0000000000000000     
  0.56250000000000000       0.62500000000000000        0.0000000000000000     
  0.59375000000000000       0.62500000000000000        0.0000000000000000     
  0.62500000000000000       0.62500000000000000        0.0000000000000000     
  0.50000000000000000       0.65625000000000000        0.0000000000000000     
  0.53125000000000000       0.65625000000000000        0.0000000000000000     
  0.56250000000000000       0.65625000000000000        0.0000000000000000     
  0.59375000000000000       0.65625000000000000        0.0000000000000000     
  0.62500000000000000       0.65625000000000000        0.0000000000000000     
  0.50000000000000000       0.68750000000000000        0.0000000000000000     
  0.53125000000000000       0.68750000000000000        0.0000000000000000     
  0.56250000000000000       0.68750000000000000        0.0000000000000000     
  0.59375000000000000       0.68750000000000000        0.0000000000000000     
  0.62500000000000000       0.68750000000000000        0.0000000000000000     
  0.50000000000000000       0.71875000000000000        0.0000000000000000     
  0.53125000000000000       0.71875000000000000        0.0000000000000000     
  0.56250000000000000       0.71875000000000000        0.0000000000000000     
  0.59375000000000000       0.71875000000000000        0.0000000000000000     
  0.62500000000000000       0.71875000000000000        0.0000000000000000     
  0.50000000000000000       0.75000000000000000        0.0000000000000000     
  0.53125000000000000       0.75000000000000000        0.0000000000000000     
  0.56250000000000000       0.75000000000000000        0.0000000000000000     
  0.59375000000000000       0.75000000000000000        0.0000000000000000     
  0.62500000000000000       0.75000000000000000        0.0000000000000000     
  0.62500000000000000       0.62500000000000000        0.0000000000000000     
  0.65625000000000000       0.62500000000000000        0.0000000000000000     
  0.68750000000000000       0.62500000000000000        0.0000000000000000     
  0.71875000000000000       0.62500000000000000        0.0000000000000000     
  0.75000000000000000       0.62500000000000000        0.0000000000000000     
  0.62500000000000000       0.65625000000000000        0.0000000000000000     
  0.65625000000000000       0.65625000000000000        0.0000000000000000     
  0.68750000000000000       0.65625000000000000        0.0000000000000000     
  0.71875000000000000       0.65625000000000000        0.0000000000000000     
  0.75000000000000000       0.65625000000000000        0.0000000000000000     
  0.62500000000000000       0.68750000000000000        0.0000000000000000     
  0.65625000000000000       0.68750000000000000        0.0000000000000000     
  0.68750000000000000       0.68750000000000000        0.0000000000000000     
  0.71875000000000000       0.68750000000000000        0.0000000000000000     
  0.75000000000000000       0.68750000000000000        0.0000000000000000     
  0.62500000000000000       0.71875000000000000        0.0000000000000000     
  0.65625000000000000       0.71875000000000000        0.0000000000000000     
  0.68750000000000000       0.71875000000000000        0.0000000000000000     
  0.71875000000000000       0.71875000000000000        0.0000000000000000     
  0.75000000000000000       0.71875000000000000        0.0000000000000000     
  0.62500000000000000       0.75000000000000000        0.0000000000000000     
  0.65625000000000000       0.75000000000000000        0.0000000000000000     
  0.68750000000000000       0.75000000000000000        0.0000000000000000     
  0.71875000000000000       0.75000000000000000        0.0000000000000000     
  0.75000000000000000       0.75000000000000000        0.0000000000000000     
  0.75000000000000000       0.62500000000000000        0.0000000000000000     
  0.78125000000000000       0.62500000000000000        0.0000000000000000     
  0.81250000000000000       0.62500000000000000        0.0000000000000000     
  0.84375000000000000       0.62500000000000000        0.0000000000000000     
  0.87500000000000000       0.62500000000000000        0.0000000000000000     
  0.75000000000000000       0.65625000000000000        0.0000000000000000     
  0.78125000000000000       0.65625000000000000        0.0000000000000000     
  0.81250000000000000       0.65625000000000000        0.0000000000000000     
  0.84375000000000000       0.65625000000000000        0.0000000000000000     
  0.87500000000000000       0.65625000000000000        0.0000000000000000     
  0.75000000000000000       0.68750000000000000        0.0000000000000000     
  0.78125000000000000       0.68750000000000000        0.0000000000000000     
  0.81250000000000000       0.68750000000000000        0.0000000000000000     
  0.84375000000000000       0.68750000000000000        0.0000000000000000     
  0.87500000000000000       0.68750000000000000        0.0000000000000000     
  0.75000000000000000       0.71875000000000000        0.0000000000000000     
  0.78125000000000000       0.71875000000000000        0.0000000000000000     
  0.81250000000000000       0.71875000000000000        0.0000000000000000     
  0.84375000000000000       0.71875000000000000        0.0000000000000000     
  0.87500000000000000       0.71875000000000000        0.0000000000000000     
  0.75000000000000000       0.75000000000000000        0.0000000000000000     
  0.78125000000000000       0.75000000000000000        0.0000000000000000     
  0.81250000000000000       0.75000000000000000        0.0000000000000000     
  0.84375000000000000       0.75000000000000000        0.0000000000000000     
  0.87500000000000000       0.75000000000000000        0.0000000000000000     
  0.87500000000000000       0.62500000000000000        0.0000000000000000     
  0.90625000000000000       0.62500000000000000        0.0000000000000000     
  0.93750000000000000       0.62500000000000000        0.0000000000000000     
  0.96875000000000000       0.62500000000000000        0.0000000000000000     
   1.0000000000000000       0.62500000000000000        0.0000000000000000     
  0.87500000000000000       0.65625000000000000        0.0000000000000000     
  0.90625000000000000       0.65625000000000000        0.0000000000000000     
  0.93750000000000000       0.65625000000000000        0.0000000000000000     
  0.96875000000000000       0.65625000000000000        0.0000000000000000     
   1.0000000000000000       0.65625000000000000        0.0000000000000000     
  0.87500000000000000       0.68750000000000000        0.0000000000000000     
  0.90625000000000000       0.68750000000000000        0.0000000000000000     
  0.93750000000000000       0.68750000000000000        0.0000000000000000     
  0.96875000000000000       0.68750000000000000        0.0000000000000000     
   1.0000000000000000       0.68750000000000000        0.0000000000000000     
  0.87500000000000000       0.71875000000000000        0.0000000000000000     
  0.90625000000000000       0.71875000000000000        0.0000000000000000     
  0.93750000000000000       0.71875000000000000        0.0000000000000000     
  0.96875000000000000       0.71875000000000000        0.0000000000000000     
   1.0000000000000000       0.71875000000000000        0.0000000000000000     
  0.87500000000000000       0.75000000000000000        0.0000000000000000     
  0.90625000000000000       0.75000000000000000        0.0000000000000000     
  0.93750000000000000       0.75000000000000000        0.0000000000000000     
  0.96875000000000000       0.75000000000000000        0.0000000000000000     
   1.0000000000000000       0.75000000000000000        0.0000000000000000     
   0.0000000000000000       0.75000000000000000        0.0000000000000000     
   3.1250000000000000E-002  0.75000000000000000        0.0000000000000000     
   6.2500000000000000E-002  0.75000000000000000        0.0000000000000000     
   9.3750000000000000E-002  0.75000000000000000        0.0000000000000000     
  0.12500000000000000       0.75000000000000000        0.0000000000000000     
   0.0000000000000000       0.78125000000000000        0.0000000000000000     
   3.1250000000000000E-002  0.78125000000000000        0.0000000000000000     
   6.2500000000000000E-002  0.78125000000000000        0.0000000000000000     
   9.3750000000000000E-002  0.78125000000000000        0.0000000000000000     
  0.12500000000000000       0.78125000000000000        0.0000000000000000     
   0.0000000000000000       0.81250000000000000        0.0000000000000000     
   3.1250000000000000E-002  0.81250000000000000        0.0000000000000000     
   6.2500000000000000E-002  0.81250000000000000        0.0000000000000000     
   9.3750000000000000E-002  0.81250000000000000        0.0000000000000000     
  0.12500000000000000       0.81250000000000000        0.0000000000000000     
   0.0000000000000000       0.84375000000000000        0.0000000000000000     
   3.1250000000000000E-002  0.84375000000000000        0.0000000000000000     
   6.2500000000000000E-002  0.84375000000000000        0.0000000000000000     
   9.3750000000000000E-002  0.84375000000000000        0.0000000000000000     
  0.12500000000000000       0.84375000000000000        0.0000000000000000     
   0.0000000000000000       0.87500000000000000        0.0000000000000000     
   3.1250000000000000E-002  0.87500000000000000        0.0000000000000000     
   6.2500000000000000E-002  0.87500000000000000        0.0000000000000000     
   9.3750000000000000E-002  0.87500000000000000        0.0000000000000000     
  0.12500000000000000       0.87500000000000000        0.0000000000000000     
  0.12500000000000000       0.75000000000000000        0.0000000000000000     
  0.15625000000000000       0.75000000000000000        0.0000000000000000     
  0.18750000000000000       0.75000000000000000        0.0000000000000000     
  0.21875000000000000       0.75000000000000000        0.0000000000000000     
  0.25000000000000000       0.75000000000000000        0.0000000000000000     
  0.12500000000000000       0.78125000000000000        0.0000000000000000     
  0.15625000000000000       0.78125000000000000        0.0000000000000000     
  0.18750000000000000       0.78125000000000000        0.0000000000000000     
  0.21875000000000000       0.78125000000000000        0.0000000000000000     
  0.25000000000000000       0.78125000000000000        0.0000000000000000     
  0.12500000000000000       0.81250000000000000        0.0000000000000000     
  0.15625000000000000       0.81250000000000000        0.0000000000000000     
  0.18750000000000000       0.81250000000000000        0.0000000000000000     
  0.21875000000000000       0.81250000000000000        0.0000000000000000     
  0.25000000000000000       0.81250000000000000        0.0000000000000000     
  0.12500000000000000       0.84375000000000000        0.0000000000000000     
  0.15625000000000000       0.84375000000000000        0.0000000000000000     
  0.18750000000000000       0.84375000000000000        0.0000000000000000     
  0.21875000000000000       0.84375000000000000        0.0000000000000000     
  0.25000000000000000       0.84375000000000000        0.0000000000000000     
  0.12500000000000000       0.87500000000000000        0.0000000000000000     
  0.15625000000000000       0.87500000000000000        0.0000000000000000     
  0.18750000000000000       0.87500000000000000        0.0000000000000000     
  0.21875000000000000       0.87500000000000000        0.0000000000000000     
  0.25000000000000000       0.87500000000000000        0.0000000000000000     
  0.25000000000000000       0.75000000000000000        0.0000000000000000     
  0.28125000000000000       0.75000000000000000        0.0000000000000000     
  0.31250000000000000       0.75000000000000000        0.0000000000000000     
  0.34375000000000000       0.75000000000000000        0.0000000000000000     
  0.37500000000000000       0.75000000000000000        0.0000000000000000     
  0.25000000000000000       0.78125000000000000        0.0000000000000000     
  0.28125000000000000       0.78125000000000000        0.0000000000000000     
  0.31250000000000000       0.78125000000000000        0.0000000000000000     
  0.34375000000000000       0.78125000000000000        0.0000000000000000     
  0.37500000000000000       0.78125000000000000        0.0000000000000000     
  0.25000000000000000       0.81250000000000000        0.0000000000000000     
  0.28125000000000000       0.81250000000000000        0.0000000000000000     
  0.31250000000000000       0.81250000000000000        0.0000000000000000     
  0.34375000000000000       0.81250000000000000        0.0000000000000000     
  0.37500000000000000       0.81250000000000000        0.0000000000000000     
  0.25000000000000000       0.84375000000000000        0.0000000000000000     
  0.28125000000000000       0.84375000000000000        0.0000000000000000     
  0.31250000000000000       0.84375000000000000        0.0000000000000000     
  0.34375000000000000       0.84375000000000000        0.0000000000000000     
  0.37500000000000000       0.84375000000000000        0.0000000000000000     
  0.25000000000000000       0.87500000000000000        0.0000000000000000     
  0.28125000000000000       0.87500000000000000        0.0000000000000000     
  0.31250000000000000       0.87500000000000000        0.0000000000000000     
  0.34375000000000000       0.87500000000000000        0.0000000000000000     
  0.37500000000000000       0.87500000000000000        0.0000000000000000     
  0.37500000000000000       0.75000000000000000        0.0000000000000000     
  0.40625000000000000       0.75000000000000000        0.0000000000000000     
  0.43750000000000000       0.75000000000000000        0.0000000000000000     
  0.46875000000000000       0.75000000000000000        0.0000000000000000     
  0.50000000000000000       0.75000000000000000        0.0000000000000000     
  0.37500000000000000       0.78125000000000000        0.0000000000000000     
  0.40625000000000000       0.78125000000000000        0.0000000000000000     
  0.43750000000000000       0.78125000000000000        0.0000000000000000     
  0.46875000000000000       0.78125000000000000        0.0000000000000000     
  0.50000000000000000       0.78125000000000000        0.0000000000000000     
  0.37500000000000000       0.81250000000000000        0.0000000000000000     
  0.40625000000000000       0.81250000000000000        0.0000000000000000     
  0.43750000000000000       0.81250000000000000        0.0000000000000000     
  0.46875000000000000       0.81250000000000000        0.0000000000000000     
  0.50000000000000000       0.81250000000000000        0.0000000000000000     
  0.37500000000000000       0.84375000000000000        0.0000000000000000     
  0.40625000000000000       0.84375000000000000        0.0000000000000000     
  0.43750000000000000       0.84375000000000000        0.0000000000000000     
  0.46875000000000000       0.84375000000000000        0.0000000000000000     
  0.50000000000000000       0.84375000000000000        0.0000000000000000     
  0.37500000000000000       0.87500000000000000        0.0000000000000000     
  0.40625000000000000       0.87500000000000000        0.0000000000000000     
  0.43750000000000000       0.87500000000000000        0.0000000000000000     
  0.46875000000000000       0.87500000000000000        0.0000000000000000     
  0.50000000000000000       0.87500000000000000        0.0000000000000000     
  0.50000000000000000       0.75000000000000000        0.0000000000000000     
  0.53125000000000000       0.75000000000000000        0.0000000000000000     
  0.56250000000000000       0.75000000000000000        0.0000000000000000     
  0.59375000000000000       0.75000000000000000        0.0000000000000000     
  0.62500000000000000       0.75000000000000000        0.0000000000000000     
  0.50000000000000000       0.78125000000000000        0.0000000000000000     
  0.53125000000000000       0.78125000000000000        0.0000000000000000     
  0.56250000000000000       0.78125000000000000        0.0000000000000000     
  0.59375000000000000       0.78125000000000000        0.0000000000000000     
  0.62500000000000000       0.78125000000000000        0.0000000000000000     
  0.50000000000000000       0.81250000000000000        0.0000000000000000     
  0.53125000000000000       0.81250000000000000        0.0000000000000000     
  0.56250000000000000       0.81250000000000000        0.0000000000000000     
  0.59375000000000000       0.81250000000000000        0.0000000000000000     
  0.62500000000000000       0.81250000000000000        0.0000000000000000     
  0.50000000000000000       0.84375000000000000        0.0000000000000000     
  0.53125000000000000       0.84375000000000000        0.0000000000000000     
  0.56250000000000000       0.84375000000000000        0.0000000000000000     
  0.59375000000000000       0.84375000000000000        0.0000000000000000     
  0.62500000000000000       0.84375000000000000        0.0000000000000000     
  0.50000000000000000       0.87500000000000000        0.0000000000000000     
  0.53125000000000000       0.87500000000000000        0.0000000000000000     
  0.56250000000000000       0.87500000000000000        0.0000000000000000     
  0.59375000000000000       0.87500000000000000        0.0000000000000000     
  0.62500000000000000       0.87500000000000000        0.0000000000000000     
  0.62500000000000000       0.75000000000000000        0.0000000000000000     
  0.65625000000000000       0.75000000000000000        0.0000000000000000     
  0.68750000000000000       0.75000000000000000        0.0000000000000000     
  0.71875000000000000       0.75000000000000000        0.0000000000000000     
  0.75000000000000000       0.75000000000000000        0.0000000000000000     
  0.62500000000000000       0.78125000000000000        0.0000000000000000     
  0.65625000000000000       0.78125000000000000        0.0000000000000000     
  0.68750000000000000       0.78125000000000000        0.0000000000000000     
  0.71875000000000000       0.78125000000000000        0.0000000000000000     
  0.75000000000000000       0.78125000000000000        0.0000000000000000     
  0.62500000000000000       0.81250000000000000        0.0000000000000000     
  0.65625000000000000       0.81250000000000000        0.0000000000000000     
  0.68750000000000000       0.81250000000000000        0.0000000000000000     
  0.71875000000000000       0.81250000000000000        0.0000000000000000     
  0.75000000000000000       0.81250000000000000        0.0000000000000000     
  0.62500000000000000       0.84375000000000000        0.0000000000000000     
  0.65625000000000000       0.84375000000000000        0.0000000000000000     
  0.68750000000000000       0.84375000000000000        0.0000000000000000     
  0.71875000000000000       0.84375000000000000        0.0000000000000000     
  0.75000000000000000       0.84375000000000000        0.0000000000000000     
  0.62500000000000000       0.87500000000000000        0.0000000000000000     
  0.65625000000000000       0.87500000000000000        0.0000000000000000     
  0.68750000000000000       0.87500000000000000        0.0000000000000000     
  0.71875000000000000       0.87500000000000000        0.0000000000000000     
  0.75000000000000000       0.87500000000000000        0.0000000000000000     
  0.75000000000000000       0.75000000000000000        0.0000000000000000     
  0.78125000000000000       0.75000000000000000        0.0000000000000000     
  0.81250000000000000       0.75000000000000000        0.0000000000000000     
  0.84375000000000000       0.75000000000000000        0.0000000000000000     
  0.87500000000000000       0.75000000000000000        0.0000000000000000     
  0.75000000000000000       0.78125000000000000        0.0000000000000000     
  0.78125000000000000       0.78125000000000000        0.0000000000000000     
  0.81250000000000000       0.78125000000000000        0.0000000000000000     
  0.84375000000000000       0.78125000000000000        0.0000000000000000     
  0.87500000000000000       0.78125000000000000        0.0000000000000000     
  0.75000000000000000       0.81250000000000000        0.0000000000000000     
  0.78125000000000000       0.81250000000000000        0.0000000000000000     
  0.81250000000000000       0.81250000000000000        0.0000000000000000     
  0.84375000000000000       0.81250000000000000        0.0000000000000000     
  0.87500000000000000       0.81250000000000000        0.0000000000000000     
  0.75000000000000000       0.84375000000000000        0.0000000000000000     
  0.78125000000000000       0.84375000000000000        0.0000000000000000     
  0.81250000000000000       0.84375000000000000        0.0000000000000000     
  0.84375000000000000       0.84375000000000000        0.0000000000000000     
  0.87500000000000000       0.84375000000000000        0.0000000000000000     
  0.75000000000000000       0.87500000000000000        0.0000000000000000     
  0.78125000000000000       0.87500000000000000        0.0000000000000000     
  0.81250000000000000       0.87500000000000000        0.0000000000000000     
  0.84375000000000000       0.87500000000000000        0.0000000000000000     
  0.87500000000000000       0.87500000000000000        0.0000000000000000     
  0.87500000000000000       0.75000000000000000        0.0000000000000000     
  0.90625000000000000       0.75000000000000000        0.0000000000000000     
  0.93750000000000000       0.75000000000000000        0.0000000000000000     
  0.96875000000000000       0.75000000000000000        0.0000000000000000     
   1.0000000000000000       0.75000000000000000        0.0000000000000000     
  0.87500000000000000       0.78125000000000000        0.0000000000000000     
  0.90625000000000000       0.78125000000000000        0.0000000000000000     
  0.93750000000000000       0.78125000000000000        0.0000000000000000     
  0.96875000000000000       0.78125000000000000        0.0000000000000000     
   1.0000000000000000       0.78125000000000000        0.0000000000000000     
  0.87500000000000000       0.81250000000000000        0.0000000000000000     
  0.90625000000000000       0.81250000000000000        0.0000000000000000     
  0.93750000000000000       0.81250000000000000        0.0000000000000000     
  0.96875000000000000       0.81250000000000000        0.0000000000000000     
   1.0000000000000000       0.81250000000000000        0.0000000000000000     
  0.87500000000000000       0.84375000000000000        0.0000000000000000     
  0.90625000000000000       0.84375000000000000        0.0000000000000000     
  0.93750000000000000       0.84375000000000000        0.0000000000000000     
  0.96875000000000000       0.84375000000000000        0.0000000000000000     
   1.0000000000000000       0.84375000000000000        0.0000000000000000     
  0.87500000000000000       0.87500000000000000        0.0000000000000000     
  0.90625000000000000       0.87500000000000000        0.0000000000000000     
  0.93750000000000000       0.87500000000000000        0.0000000000000000     
  0.96875000000000000       0.87500000000000000        0.0000000000000000     
   1.0000000000000000       0.87500000000000000        0.0000000000000000     
   0.0000000000000000       0.87500000000000000        0.0000000000000000     
   3.1250000000000000E-002  0.87500000000000000        0.0000000000000000     
   6.2500000000000000E-002  0.87500000000000000        0.0000000000000000     
   9.3750000000000000E-002  0.87500000000000000        0.0000000000000000     
  0.12500000000000000       0.87500000000000000        0.0000000000000000     
   0.0000000000000000       0.90625000000000000        0.0000000000000000     
   3.1250000000000000E-002  0.90625000000000000        0.0000000000000000     
   6.2500000000000000E-002  0.90625000000000000        0.0000000000000000     
   9.3750000000000000E-002  0.90625000000000000        0.0000000000000000     
  0.12500000000000000       0.90625000000000000        0.0000000000000000     
   0.0000000000000000       0.93750000000000000        0.0000000000000000     
   3.1250000000000000E-002  0.93750000000000000        0.0000000000000000     
   6.2500000000000000E-002  0.93750000000000000        0.0000000000000000     
   9.3750000000000000E-002  0.93750000000000000        0.0000000000000000     
  0.12500000000000000       0.93750000000000000        0.0000000000000000     
   0.0000000000000000       0.96875000000000000        0.0000000000000000     
   3.1250000000000000E-002  0.96875000000000000        0.0000000000000000     
   6.2500000000000000E-002  0.96875000000000000        0.0000000000000000     
   9.3750000000000000E-002  0.96875000000000000        0.0000000000000000     
  0.12500000000000000       0.96875000000000000        0.0000000000000000     
   0.0000000000000000        1.0000000000000000        0.0000000000000000     
   3.1250000000000000E-002   1.0000000000000000        0.0000000000000000     
   6.2500000000000000E-002   1.0000000000000000        0.0000000000000000     
   9.3750000000000000E-002   1.0000000000000000        0.0000000000000000     
  0.12500000000000000        1.0000000000000000        0.0000000000000000     
  0.12500000000000000       0.87500000000000000        0.0000000000000000     
  0.15625000000000000       0.87500000000000000        0.0000000000000000     
  0.18750000000000000       0.87500000000000000        0.0000000000000000     
  0.21875000000000000       0.87500000000000000        0.0000000000000000     
  0.25000000000000000       0.87500000000000000        0.0000000000000000     
  0.12500000000000000       0.90625000000000000        0.0000000000000000     
  0.15625000000000000       0.90625000000000000        0.0000000000000000     
  0.18750000000000000       0.90625000000000000        0.0000000000000000     
  0.21875000000000000       0.90625000000000000        0.0000000000000000     
  0.25000000000000000       0.90625000000000000        0.0000000000000000     
  0.12500000000000000       0.93750000000000000        0.0000000000000000     
  0.15625000000000000       0.93750000000000000        0.0000000000000000     
  0.18750000000000000       0.93750000000000000        0.0000000000000000     
  0.21875000000000000       0.93750000000000000        0.0000000000000000     
  0.25000000000000000       0.93750000000000000        0.0000000000000000     
  0.12500000000000000       0.96875000000000000        0.0000000000000000     
  0.15625000000000000       0.96875000000000000        0.0000000000000000     
  0.18750000000000000       0.96875000000000000        0.0000000000000000     
  0.21875000000000000       0.96875000000000000        0.0000000000000000     
  0.25000000000000000       0.96875000000000000        0.0000000000000000     
  0.12500000000000000        1.0000000000000000        0.0000000000000000     
  0.15625000000000000        1.0000000000000000        0.0000000000000000     
  0.18750000000000000        1.0000000000000000        0.0000000000000000     
  0.21875000000000000        1.0000000000000000        0.0000000000000000     
  0.25000000000000000        1.0000000000000000        0.0000000000000000     
  0.25000000000000000       0.87500000000000000        0.0000000000000000     
  0.28125000000000000       0.87500000000000000        0.0000000000000000     
  0.31250000000000000       0.87500000000000000        0.0000000000000000     
  0.34375000000000000       0.87500000000000000        0.0000000000000000     
  0.37500000000000000       0.87500000000000000        0.0000000000000000     
  0.25000000000000000       0.90625000000000000        0.0000000000000000     
  0.28125000000000000       0.90625000000000000        0.0000000000000000     
  0.31250000000000000       0.90625000000000000        0.0000000000000000     
  0.34375000000000000       0.90625000000000000        0.0000000000000000     
  0.37500000000000000       0.90625000000000000        0.0000000000000000     
  0.25000000000000000       0.93750000000000000        0.0000000000000000     
  0.28125000000000000       0.93750000000000000        0.0000000000000000     
  0.31250000000000000       0.93750000000000000        0.0000000000000000     
  0.34375000000000000       0.93750000000000000        0.0000000000000000     
  0.37500000000000000       0.93750000000000000        0.0000000000000000     
  0.25000000000000000       0.96875000000000000        0.0000000000000000     
  0.28125000000000000       0.96875000000000000        0.0000000000000000     
  0.31250000000000000       0.96875000000000000        0.0000000000000000     
  0.34375000000000000       0.96875000000000000        0.0000000000000000     
  0.37500000000000000       0.96875000000000000        0.0000000000000000     
  0.25000000000000000        1.0000000000000000        0.0000000000000000     
  0.28125000000000000        1.0000000000000000        0.0000000000000000     
  0.31250000000000000        1.0000000000000000        0.0000000000000000     
  0.34375000000000000        1.0000000000000000        0.0000000000000000     
  0.37500000000000000        1.0000000000000000        0.0000000000000000     
  0.37500000000000000       0.87500000000000000        0.0000000000000000     
  0.40625000000000000       0.87500000000000000        0.0000000000000000     
  0.43750000000000000       0.87500000000000000        0.0000000000000000     
  0.46875000000000000       0.87500000000000000        0.0000000000000000     
  0.50000000000000000       0.87500000000000000        0.0000000000000000     
  0.37500000000000000       0.90625000000000000        0.0000000000000000     
  0.40625000000000000       0.90625000000000000        0.0000000000000000     
  0.43750000000000000       0.90625000000000000        0.0000000000000000     
  0.46875000000000000       0.90625000000000000        0.0000000000000000     
  0.50000000000000000       0.90625000000000000        0.0000000000000000     
  0.37500000000000000       0.93750000000000000        0.0000000000000000     
  0.40625000000000000       0.93750000000000000        0.0000000000000000     
  0.43750000000000000       0.93750000000000000        0.0000000000000000     
  0.46875000000000000       0.93750000000000000        0.0000000000000000     
  0.50000000000000000       0.93750000000000000        0.0000000000000000     
  0.37500000000000000       0.96875000000000000        0.0000000000000000     
  0.40625000000000000       0.96875000000000000        0.0000000000000000     
  0.43750000000000000       0.96875000000000000        0.0000000000000000     
  0.46875000000000000       0.96875000000000000        0.0000000000000000     
  0.50000000000000000       0.96875000000000000        0.0000000000000000     
  0.37500000000000000        1.0000000000000000        0.0000000000000000     
  0.40625000000000000        1.0000000000000000        0.0000000000000000     
  0.43750000000000000        1.0000000000000000        0.0000000000000000     
  0.46875000000000000        1.0000000000000000        0.0000000000000000     
  0.50000000000000000        1.0000000000000000        0.0000000000000000     
  0.50000000000000000       0.87500000000000000        0.0000000000000000     
  0.53125000000000000       0.87500000000000000        0.0000000000000000     
  0.56250000000000000       0.87500000000000000        0.0000000000000000     
  0.59375000000000000       0.87500000000000000        0.0000000000000000     
  0.62500000000000000       0.87500000000000000        0.0000000000000000     
  0.50000000000000000       0.90625000000000000        0.0000000000000000     
  0.53125000000000000       0.90625000000000000        0.0000000000000000     
  0.56250000000000000       0.90625000000000000        0.0000000000000000     
  0.59375000000000000       0.90625000000000000        0.0000000000000000     
  0.62500000000000000       0.90625000000000000        0.0000000000000000     
  0.50000000000000000       0.93750000000000000        0.0000000000000000     
  0.53125000000000000       0.93750000000000000        0.0000000000000000     
  0.56250000000000000       0.93750000000000000        0.0000000000000000     
  0.59375000000000000       0.93750000000000000        0.0000000000000000     
  0.62500000000000000       0.93750000000000000        0.0000000000000000     
  0.50000000000000000       0.96875000000000000        0.0000000000000000     
  0.53125000000000000       0.96875000000000000        0.0000000000000000     
  0.56250000000000000       0.96875000000000000        0.0000000000000000     
  0.59375000000000000       0.96875000000000000        0.0000000000000000     
  0.62500000000000000       0.96875000000000000        0.0000000000000000     
  0.50000000000000000        1.0000000000000000        0.0000000000000000     
  0.53125000000000000        1.0000000000000000        0.0000000000000000     
  0.56250000000000000        1.0000000000000000        0.0000000000000000     
  0.59375000000000000        1.0000000000000000        0.0000000000000000     
  0.62500000000000000        1.0000000000000000        0.0000000000000000     
  0.62500000000000000       0.87500000000000000        0.0000000000000000     
  0.65625000000000000       0.87500000000000000        0.0000000000000000     
  0.68750000000000000       0.87500000000000000        0.0000000000000000     
  0.71875000000000000       0.87500000000000000        0.0000000000000000     
  0.75000000000000000       0.87500000000000000        0.0000000000000000     
  0.62500000000000000       0.90625000000000000        0.0000000000000000     
  0.65625000000000000       0.90625000000000000        0.0000000000000000     
  0.68750000000000000       0.90625000000000000        0.0000000000000000     
  0.71875000000000000       0.90625000000000000        0.0000000000000000     
  0.75000000000000000       0.90625000000000000        0.0000000000000000     
  0.62500000000000000       0.93750000000000000        0.0000000000000000     
  0.65625000000000000       0.93750000000000000        0.0000000000000000     
  0.68750000000000000       0.93750000000000000        0.0000000000000000     
  0.71875000000000000       0.93750000000000000        0.0000000000000000     
  0.75000000000000000       0.93750000000000000        0.0000000000000000     
  0.62500000000000000       0.96875000000000000        0.0000000000000000     
  0.65625000000000000       0.96875000000000000        0.0000000000000000     
  0.68750000000000000       0.96875000000000000        0.0000000000000000     
  0.71875000000000000       0.96875000000000000        0.0000000000000000     
  0.75000000000000000       0.96875000000000000        0.0000000000000000     
  0.62500000000000000        1.0000000000000000        0.0000000000000000     
  0.65625000000000000        1.0000000000000000        0.0000000000000000     
  0.68750000000000000        1.0000000000000000        0.0000000000000000     
  0.71875000000000000        1.0000000000000000        0.0000000000000000     
  0.75000000000000000        1.0000000000000000        0.0000000000000000     
  0.75000000000000000       0.87500000000000000        0.0000000000000000     
  0.78125000000000000       0.87500000000000000        0.0000000000000000     
  0.81250000000000000       0.87500000000000000        0.0000000000000000     
  0.84375000000000000       0.87500000000000000        0.0000000000000000     
  0.87500000000000000       0.87500000000000000        0.0000000000000000     
  0.75000000000000000       0.90625000000000000        0.0000000000000000     
  0.78125000000000000       0.90625000000000000        0.0000000000000000     
  0.81250000000000000       0.90625000000000000        0.0000000000000000     
  0.84375000000000000       0.90625000000000000        0.0000000000000000     
  0.87500000000000000       0.90625000000000000        0.0000000000000000     
  0.75000000000000000       0.93750000000000000        0.0000000000000000     
  0.78125000000000000       0.93750000000000000        0.0000000000000000     
  0.81250000000000000       0.93750000000000000        0.0000000000000000     
  0.84375000000000000       0.93750000000000000        0.0000000000000000     
  0.87500000000000000       0.93750000000000000        0.0000000000000000     
  0.75000000000000000       0.96875000000000000        0.0000000000000000     
  0.78125000000000000       0.96875000000000000        0.0000000000000000     
  0.81250000000000000       0.96875000000000000        0.0000000000000000     
  0.84375000000000000       0.96875000000000000        0.0000000000000000     
  0.87500000000000000       0.96875000000000000        0.0000000000000000     
  0.75000000000000000        1.0000000000000000        0.0000000000000000     
  0.78125000000000000        1.0000000000000000        0.0000000000000000     
  0.81250000000000000        1.0000000000000000        0.0000000000000000     
  0.84375000000000000        1.0000000000000000        0.0000000000000000     
  0.87500000000000000        1.0000000000000000        0.0000000000000000     
  0.87500000000000000       0.87500000000000000        0.0000000000000000     
  0.90625000000000000       0.87500000000000000        0.0000000000000000     
  0.93750000000000000       0.87500000000000000        0.0000000000000000     
  0.96875000000000000       0.87500000000000000        0.0000000000000000     
   1.0000000000000000       0.87500000000000000        0.0000000000000000     
  0.87500000000000000       0.90625000000000000        0.0000000000000000     
  0.90625000000000000       0.90625000000000000        0.0000000000000000     
  0.93750000000000000       0.90625000000000000        0.0000000000000000     
  0.96875000000000000       0.90625000000000000        0.0000000000000000     
   1.0000000000000000       0.90625000000000000        0.0000000000000000     
  0.87500000000000000       0.93750000000000000        0.0000000000000000     
  0.90625000000000000       0.93750000000000000        0.0000000000000000     
  0.93750000000000000       0.93750000000000000        0.0000000000000000     
  0.96875000000000000       0.93750000000000000        0.0000000000000000     
   1.0000000000000000       0.93750000000000000        0.0000000000000000     
  0.87500000000000000       0.96875000000000000        0.0000000000000000     
  0.90625000000000000       0.96875000000000000        0.0000000000000000     
  0.93750000000000000       0.96875000000000000        0.0000000000000000     
  0.96875000000000000       0.96875000000000000        0.0000000000000000     
   1.0000000000000000       0.96875000000000000        0.0000000000000000     
  0.87500000000000000        1.0000000000000000        0.0000000000000000     
  0.90625000000000000        1.0000000000000000        0.0000000000000000     
  0.93750000000000000        1.0000000000000000        0.0000000000000000     
  0.96875000000000000        1.0000000000000000        0.0000000000000000     
   1.0000000000000000        1.0000000000000000        0.0000000000000000     
 </DataArray>
 </Points>
 <Cells>
 <DataArray  type="Int32"  Name="connectivity"  format="ascii">
           0           1           6           5
           1           2           7           6
           2           3           8           7
           3           4           9           8
           5           6          11          10
           6           7          12          11
           7           8          13          12
           8           9          14          13
          10          11          16          15
          11          12          17          16
          12          13          18          17
          13          14          19          18
          15          16          21          20
          16          17          22          21
          17          18          23          22
          18          19          24          23
          25          26          31          30
          26          27          32          31
          27          28          33          32
          28          29          34          33
          30          31          36          35
          31          32          37          36
          32          33          38          37
          33          34          39          38
          35          36          41          40
          36          37          42          41
          37          38          43          42
          38          39          44          43
          40          41          46          45
          41          42          47          46
          42          43          48          47
          43          44          49          48
          50          51          56          55
          51          52          57          56
          52          53          58          57
          53          54          59          58
          55          56          61          60
          56          57          62          61
          57          58          63          62
          58          59          64          63
          60          61          66          65
          61          62          67          66
          62          63          68          67
          63          64          69          68
          65          66          71          70
          66          67          72          71
          67          68          73          72
          68          69          74          73
          75          76          81          80
          76          77          82          81
          77          78          83          82
          78          79          84          83
          80          81          86          85
          81          82          87          86
          82          83          88          87
          83          84          89          88
          85          86          91          90
          86          87          92          91
          87          88          93          92
          88          89          94          93
          90          91          96          95
          91          92          97          96
          92          93          98          97
          93          94          99          98
         100         101         106         105
         101         102         107         106
         102         103         108         107
         103         104         109         108
         105         106         111         110
         106         107         112         111
         107         108         113         112
         108         109         114         113
         110         111         116         115
         111         112         117         116
         112         113         118         117
         113         114         119         118
         115         116         121         120
         116         117         122         121
         117         118         123         122
         118         119         124         123
         125         126         131         130
         126         127         132         131
         127         128         133         132
         128         129         134         133
         130         131         136         135
         131         132         137         136
         132         133         138         137
         133         134         139         138
         135         136         141         140
         136         137         142         141
         137         138         143         142
         138         139         144         143
         140         141         146         145
         141         142         147         146
         142         143         148         147
         143         144         149         148
         150         151         156         155
         151         152         157         156
         152         153         158         157
         153         154         159         158
         155         156         161         160
         156         157         162         161
         157         158         163         162
         158         159         164         163
         160         161         166         165
         161         162         167         166
         162         163         168         167
         163         164         169         168
         165         166         171         170
         166         167         172         171
         167         168         173         172
         168         169         174         173
         175         176         181         180
         176         177         182         181
         177         178         183         182
         178         179         184         183
         180         181         186         185
         181         182         187         186
         182         183         188         187
         183         184         189         188
         185         186         191         190
         186         187         192         191
         187         188         193         192
         188         189         194         193
         190         191         196         195
         191         192         197         196
         192         193         198         197
         193         194         199         198
         200         201         206         205
         201         202         207         206
         202         203         208         207
         203         204         209         208
         205         206         211         210
         206         207         212         211
         207         208         213         212
         208         209         214         213
         210         211         216         215
         211         212         217         216
         212         213         218         217
         213         214         219         218
         215         216         221         220
         216         217         222         221
         217         218         223         222
         218         219         224         223
         225         226         231         230
         226         227         232         231
         227         228         233         232
         228         229         234         233
         230         231         236         235
         231         232         237         236
         232         233         238         237
         233         234         239         238
         235         236         241         240
         236         237         242         241
         237         238         243         242
         238         239         244         243
         240         241         246         245
         241         242         247         246
         242         243         248         247
         243         244         249         248
         250         251         256         255
         251         252         257         256
         252         253         258         257
         253         254         259         258
         255         256         261         260
         256         257         262         261
         257         258         263         262
         258         259         264         263
         260         261         266         265
         261         262         267         266
         262         263         268         267
         263         264         269         268
         265         266         271         270
         266         267         272         271
         267         268         273         272
         268         269         274         273
         275         276         281         280
         276         277         282         281
         277         278         283         282
         278         279         284         283
         280         281         286         285
         281         282         287         286
         282         283         288         287
         283         284         289         288
         285         286         291         290
         286         287         292         291
         287         288         293         292
         288         289         294         293
         290         291         296         295
         291         292         297         296
         292         293         298         297
         293         294         299         298
         300         301         306         305
         301         302         307         306
         302         303         308         307
         303         304         309         308
         305         306         311         310
         306         307         312         311
         307         308         313         312
         308         309         314         313
         310         311         316         315
         311         312         317         316
         312         313         318         317
         313         314         319         318
         315         316         321         320
         316         317         322         321
         317         318         323         322
         318         319         324         323
         325         326         331         330
         326         327         332         331
         327         328         333         332
         328         329         334         333
         330         331         336         335
         331         332         337         336
         332         333         338         337
         333         334         339         338
         335         336         341         340
         336         337         342         341
         337         338         343         342
         338         339         344         343
         340         341         346         345
         341         342         347         346
         342         343         348         347
         343         344         349         348
         350         351         356         355
         351         352         357         356
         352         353         358         357
         353         354         359         358
         355         356         361         360
         356         357         362         361
         357         358         363         362
         358         359         364         363
         360         361         366         365
         361         362         367         366
         362         363         368         367
         363         364         369         368
         365         366         371         370
         366         367         372         371
         367         368         373         372
         368         369         374         373
         375         376         381         380
         376         377         382         381
         377         378         383         382
         378         379         384         383
         380         381         386         385
         381         382         387         386
         382         383         388         387
         383         384         389         388
         385         386         391         390
         386         387         392         391
         387         388         393         392
         388         389         394         393
         390         391         396         395
         391         392         397         396
         392         393         398         397
         393         394         399         398
         400         401         406         405
         401         402         407         406
         402         403         408         407
         403         404         409         408
         405         406         411         410
         406         407         412         411
         407         408         413         412
         408         409         414         413
         410         411         416         415
         411         412         417         416
         412         413         418         417
         413         414         419         418
         415         416         421         420
         416         417         422         421
         417         418         423         422
         418         419         424         423
         425         426         431         430
         426         427         432         431
         427         428         433         432
         428         429         434         433
         430         431         436         435
         431         432         437         436
         432         433         438         437
         433         434         439         438
         435         436         441         440
         436         437         442         441
         437         438         443         442
         438         439         444         443
         440         441         446         445
         441         442         447         446
         442         443         448         447
         443         444         449         448
         450         451         456         455
         451         452         457         456
         452         453         458         457
         453         454         459         458
         455         456         461         460
         456         457         462         461
         457         458         463         462
         458         459         464         463
         460         461         466         465
         461         462         467         466
         462         463         468         467
         463         464         469         468
         465         466         471         470
         466         467         472         471
         467         468         473         472
         468         469         474         473
         475         476         481         480
         476         477         482         481
         477         478         483         482
         478         479         484         483
         480         481         486         485
         481         482         487         486
         482         483         488         487
         483         484         489         488
         485         486         491         490
         486         487         492         491
         487         488         493         492
         488         489         494         493
         490         491         496         495
         491         492         497         496
         492         493         498         497
         493         494         499         498
         500         501         506         505
         501         502         507         506
         502         503         508         507
         503         504         509         508
         505         506         511         510
         506         507         512         511
         507         508         513         512
         508         509         514         513
         510         511         516         515
         511         512         517         516
         512         513         518         517
         513         514         519         518
         515         516         521         520
         516         517         522         521
         517         518         523         522
         518         519         524         523
         525         526         531         530
         526         527         532         531
         527         528         533         532
         528         529         534         533
         530         531         536         535
         531         532         537         536
         532         533         538         537
         533         534         539         538
         535         536         541         540
         536         537         542         541
         537         538         543         542
         538         539         544         543
         540         541         546         545
         541         542         547         546
         542         543         548         547
         543         544         549         548
         550         551         556         555
         551         552         557         556
         552         553         558         557
         553         554         559         558
         555         556         561         560
         556         557         562         561
         557         558         563         562
         558         559         564         563
         560         561         566         565
         561         562         567         566
         562         563         568         567
         563         564         569         568
         565         566         571         570
         566         567         572         571
         567         568         573         572
         568         569         574         573
         575         576         581         580
         576         577         582         581
         577         578         583         582
         578         579         584         583
         580         581         586         585
         581         582         587         586
         582         583         588         587
         583         584         589         588
         585         586         591         590
         586         587         592         591
         587         588         593         592
         588         589         594         593
         590         591         596         595
         591         592         597         596
         592         593         598         597
         593         594         599         598
         600         601         606         605
         601         602         607         606
         602         603         608         607
         603         604         609         608
         605         606         611         610
         606         607         612         611
         607         608         613         612
         608         609         614         613
         610         611         616         615
         611         612         617         616
         612         613         618         617
         613         614         619         618
         615         616         621         620
         616         617         622         621
         617         618         623         622
         618         619         624         623
         625         626         631         630
         626         627         632         631
         627         628         633         632
         628         629         634         633
         630         631         636         635
         631         632         637         636
         632         633         638         637
         633         634         639         638
         635         636         641         640
         636         637         642         641
         637         638         643         642
         638         639         644         643
         640         641         646         645
         641         642         647         646
         642         643         648         647
         643         644         649         648
         650         651         656         655
         651         652         657         656
         652         653         658         657
         653         654         659         658
         655         656         661         660
         656         657         662         661
         657         658         663         662
         658         659         664         663
         660         661         666         665
         661         662         667         666
         662         663         668         667
         663         664         669         668
         665         666         671         670
         666         667         672         671
         667         668         673         672
         668         669         674         673
         675         676         681         680
         676         677         682         681
         677         678         683         682
         678         679         684         683
         680         681         686         685
         681         682         687         686
         682         683         688         687
         683         684         689         688
         685         686         691         690
         686         687         692         691
         687         688         693         692
         688         689         694         693
         690         691         696         695
         691         692         697         696
         692         693         698         697
         693         694         699         698
         700         701         706         705
         701         702         707         706
         702         703         708         707
         703         704         709         708
         705         706         711         710
         706         707         712         711
         707         708         713         712
         708         709         714         713
         710         711         716         715
         711         712         717         716
         712         713         718         717
         713         714         719         718
         715         716         721         720
         716         717         722         721
         717         718         723         722
         718         719         724         723
         725         726         731         730
         726         727         732         731
         727         728         733         732
         728         729         734         733
         730         731         736         735
         731         732         737         736
         732         733         738         737
         733         734         739         738
         735         736         741         740
         736         737         742         741
         737         738         743         742
         738         739         744         743
         740         741         746         745
         741         742         747         746
         742         743         748         747
         743         744         749         748
         750         751         756         755
         751         752         757         756
         752         753         758         757
         753         754         759         758
         755         756         761         760
         756         757         762         761
         757         758         763         762
         758         759         764         763
         760         761         766         765
         761         762         767         766
         762         763         768         767
         763         764         769         768
         765         766         771         770
         766         767         772         771
         767         768         773         772
         768         769         774         773
         775         776         781         780
         776         777         782         781
         777         778         783         782
         778         779         784         783
         780         781         786         785
         781         782         787         786
         782         783         788         787
         783         784         789         788
         785         786         791         790
         786         787         792         791
         787         788         793         792
         788         789         794         793
         790         791         796         795
         791         792         797         796
         792         793         798         797
         793         794         799         798
         800         801         806         805
         801         802         807         806
         802         803         808         807
         803         804         809         808
         805         806         811         810
         806         807         812         811
         807         808         813         812
         808         809         814         813
         810         811         816         815
         811         812         817         816
         812         813         818         817
         813         814         819         818
         815         816         821         820
         816         817         822         821
         817         818         823         822
         818         819         824         823
         825         826         831         830
         826         827         832         831
         827         828         833         832
         828         829         834         833
         830         831         836         835
         831         832         837         836
         832         833         838         837
         833         834         839         838
         835         836         841         840
         836         837         842         841
         837         838         843         842
         838         839         844         843
         840         841         846         845
         841         842         847         846
         842         843         848         847
         843         844         849         848
         850         851         856         855
         851         852         857         856
         852         853         858         857
         853         854         859         858
         855         856         861         860
         856         857         862         861
         857         858         863         862
         858         859         864         863
         860         861         866         865
         861         862         867         866
         862         863         868         867
         863         864         869         868
         865         866         871         870
         866         867         872         871
         867         868         873         872
         868         869         874         873
         875         876         881         880
         876         877         882         881
         877         878         883         882
         878         879         884         883
         880         881         886         885
         881         882         887         886
         882         883         888         887
         883         884         889         888
         885         886         891         890
         886         887         892         891
         887         888         893         892
         888         889         894         893
         890         891         896         895
         891         892         897         896
         892         893         898         897
         893         894         899         898
         900         901         906         905
         901         902         907         906
         902         903         908         907
         903         904         909         908
         905         906         911         910
         906         907         912         911
         907         908         913         912
         908         909         914         913
         910         911         916         915
         911         912         917         916
         912         913         918         917
         913         914         919         918
         915         916         921         920
         916         917         922         921
         917         918         923         922
         918         919         924         923
         925         926         931         930
         926         927         932         931
         927         928         933         932
         928         929         934         933
         930         931         936         935
         931         932         937         936
         932         933         938         937
         933         934         939         938
         935         936         941         940
         936         937         942         941
         937         938         943         942
         938         939         944         943
         940         941         946         945
         941         942         947         946
         942         943         948         947
         943         944         949         948
         950         951         956         955
         951         952         957         956
         952         953         958         957
         953         954         959         958
         955         956         961         960
         956         957         962         961
         957         958         963         962
         958         959         964         963
         960         961         966         965
         961         962         967         966
         962         963         968         967
         963         964         969         968
         965         966         971         970
         966         967         972         971
         967         968         973         972
         968         969         974         973
         975         976         981         980
         976         977         982         981
         977         978         983         982
         978         979         984         983
         980         981         986         985
         981         982         987         986
         982         983         988         987
         983         984         989         988
         985         986         991         990
         986         987         992         991
         987         988         993         992
         988         989         994         993
         990         991         996         995
         991         992         997         996
         992         993         998         997
         993         994         999         998
        1000        1001        1006        1005
        1001        1002        1007        1006
        1002        1003        1008        1007
        1003        1004        1009        1008
        1005        1006        1011        1010
        1006        1007        1012        1011
        1007        1008        1013        1012
        1008        1009        1014        1013
        1010        1011        1016        1015
        1011        1012        1017        1016
        1012        1013        1018        1017
        1013        1014        1019        1018
        1015        1016        1021        1020
        1016        1017        1022        1021
        1017        1018        1023        1022
        1018        1019        1024        1023
        1025        1026        1031        1030
        1026        1027        1032        1031
        1027        1028        1033        1032
        1028        1029        1034        1033
        1030        1031        1036        1035
        1031        1032        1037        1036
        1032        1033        1038        1037
        1033        1034        1039        1038
        1035        1036        1041        1040
        1036        1037        1042        1041
        1037        1038        1043        1042
        1038        1039        1044        1043
        1040        1041        1046        1045
        1041        1042        1047        1046
        1042        1043        1048        1047
        1043        1044        1049        1048
        1050        1051        1056        1055
        1051        1052        1057        1056
        1052        1053        1058        1057
        1053        1054        1059        1058
        1055        1056        1061        1060
        1056        1057        1062        1061
        1057        1058        1063        1062
        1058        1059        1064        1063
        1060        1061        1066        1065
        1061        1062        1067        1066
        1062        1063        1068        1067
        1063        1064        1069        1068
        1065        1066        1071        1070
        1066        1067        1072        1071
        1067        1068        1073        1072
        1068        1069        1074        1073
        1075        1076        1081        1080
        1076        1077        1082        1081
        1077        1078        1083        1082
        1078        1079        1084        1083
        1080        1081        1086        1085
        1081        1082        1087        1086
        1082        1083        1088        1087
        1083        1084        1089        1088
        1085        1086        1091        1090
        1086        1087        1092        1091
        1087        1088        1093        1092
        1088        1089        1094        1093
        1090        1091        1096        1095
        1091        1092        1097        1096
        1092        1093        1098        1097
        1093        1094        1099        1098
        1100        1101        1106        1105
        1101        1102        1107        1106
        1102        1103        1108        1107
        1103        1104        1109        1108
        1105        1106        1111        1110
        1106        1107        1112        1111
        1107        1108        1113        1112
        1108        1109        1114        1113
        1110        1111        1116        1115
        1111        1112        1117        1116
        1112        1113        1118        1117
        1113        1114        1119        1118
        1115        1116        1121        1120
        1116        1117        1122        1121
        1117        1118        1123        1122
        1118        1119        1124        1123
        1125        1126        1131        1130
        1126        1127        1132        1131
        1127        1128        1133        1132
        1128        1129        1134        1133
        1130        1131        1136        1135
        1131        1132        1137        1136
        1132        1133        1138        1137
        1133        1134        1139        1138
        1135        1136        1141        1140
        1136        1137        1142        1141
        1137        1138        1143        1142
        1138        1139        1144        1143
        1140        1141        1146        1145
        1141        1142        1147        1146
        1142        1143        1148        1147
        1143        1144        1149        1148
        1150        1151        1156        1155
        1151        1152        1157        1156
        1152        1153        1158        1157
        1153        1154        1159        1158
        1155        1156        1161        1160
        1156        1157        1162        1161
        1157        1158        1163        1162
        1158        1159        1164        1163
        1160        1161        1166        1165
        1161        1162        1167        1166
        1162        1163        1168        1167
        1163        1164        1169        1168
        1165        1166        1171        1170
        1166        1167        1172        1171
        1167        1168        1173        1172
        1168        1169        1174        1173
        1175        1176        1181        1180
        1176        1177        1182        1181
        1177        1178        1183        1182
        1178        1179        1184        1183
        1180        1181        1186        1185
        1181        1182        1187        1186
        1182        1183        1188        1187
        1183        1184        1189        1188
        1185        1186        1191        1190
        1186        1187        1192        1191
        1187        1188        1193        1192
        1188        1189        1194        1193
        1190        1191        1196        1195
        1191        1192        1197        1196
        1192        1193        1198        1197
        1193        1194        1199        1198
        1200        1201        1206        1205
        1201        1202        1207        1206
        1202        1203        1208        1207
        1203        1204        1209        1208
        1205        1206        1211        1210
        1206        1207        1212        1211
        1207        1208        1213        1212
        1208        1209        1214        1213
        1210        1211        1216        1215
        1211        1212        1217        1216
        1212        1213        1218        1217
        1213        1214        1219        1218
        1215        1216        1221        1220
        1216        1217        1222        1221
        1217        1218        1223        1222
        1218        1219        1224        1223
        1225        1226        1231        1230
        1226        1227        1232        1231
        1227        1228        1233        1232
        1228        1229        1234        1233
        1230        1231        1236        1235
        1231        1232        1237        1236
        1232        1233        1238        1237
        1233        1234        1239        1238
        1235        1236        1241        1240
        1236        1237        1242        1241
        1237        1238        1243        1242
        1238        1239        1244        1243
        1240        1241        1246        1245
        1241        1242        1247        1246
        1242        1243        1248        1247
        1243        1244        1249        1248
        1250        1251        1256        1255
        1251        1252        1257        1256
        1252        1253        1258        1257
        1253        1254        1259        1258
        1255        1256        1261        1260
        1256        1257        1262        1261
        1257        1258        1263        1262
        1258        1259        1264        1263
        1260        1261        1266        1265
        1261        1262        1267        1266
        1262        1263        1268        1267
        1263        1264        1269        1268
        1265        1266        1271        1270
        1266        1267        1272        1271
        1267        1268        1273        1272
        1268        1269        1274        1273
        1275        1276        1281        1280
        1276        1277        1282        1281
        1277        1278        1283        1282
        1278        1279        1284        1283
        1280        1281        1286        1285
        1281        1282        1287        1286
        1282        1283        1288        1287
        1283        1284        1289        1288
        1285        1286        1291        1290
        1286        1287        1292        1291
        1287        1288        1293        1292
        1288        1289        1294        1293
        1290        1291        1296        1295
        1291        1292        1297        1296
        1292        1293        1298        1297
        1293        1294        1299        1298
        1300        1301        1306        1305
        1301        1302        1307        1306
        1302        1303        1308        1307
        1303        1304        1309        1308
        1305        1306        1311        1310
        1306        1307        1312        1311
        1307        1308        1313        1312
        1308        1309        1314        1313
        1310        1311        1316        1315
        1311        1312        1317        1316
        1312        1313        1318        1317
        1313        1314        1319        1318
        1315        1316        1321        1320
        1316        1317        1322        1321
        1317        1318        1323        1322
        1318        1319        1324        1323
        1325        1326        1331        1330
        1326        1327        1332        1331
        1327        1328        1333        1332
        1328        1329        1334        1333
        1330        1331        1336        1335
        1331        1332        1337        1336
        1332        1333        1338        1337
        1333        1334        1339        1338
        1335        1336        1341        1340
        1336        1337        1342        1341
        1337        1338        1343        1342
        1338        1339        1344        1343
        1340        1341        1346        1345
        1341        1342        1347        1346
        1342        1343        1348        1347
        1343        1344        1349        1348
        1350        1351        1356        1355
        1351        1352        1357        1356
        1352        1353        1358        1357
        1353        1354        1359        1358
        1355        1356        1361        1360
        1356        1357        1362        1361
        1357        1358        1363        1362
        1358        1359        1364        1363
        1360        1361        1366        1365
        1361        1362        1367        1366
        1362        1363        1368        1367
        1363        1364        1369        1368
        1365        1366        1371        1370
        1366        1367        1372        1371
        1367        1368        1373        1372
        1368        1369        1374        1373
        1375        1376        1381        1380
        1376        1377        1382        1381
        1377        1378        1383        1382
        1378        1379        1384        1383
        1380        1381        1386        1385
        1381        1382        1387        1386
        1382        1383        1388        1387
        1383        1384        1389        1388
        1385        1386        1391        1390
        1386        1387        1392        1391
        1387        1388        1393        1392
        1388        1389        1394        1393
        1390        1391        1396        1395
        1391        1392        1397        1396
        1392        1393        1398        1397
        1393        1394        1399        1398
        1400        1401        1406        1405
        1401        1402        1407        1406
        1402        1403        1408        1407
        1403        1404        1409        1408
        1405        1406        1411        1410
        1406        1407        1412        1411
        1407        1408        1413        1412
        1408        1409        1414        1413
        1410        1411        1416        1415
        1411        1412        1417        1416
        1412        1413        1418        1417
        1413        1414        1419        1418
        1415        1416        1421        1420
        1416        1417        1422        1421
        1417        1418        1423        1422
        1418        1419        1424        1423
        1425        1426        1431        1430
        1426        1427        1432        1431
        1427        1428        1433        1432
        1428        1429        1434        1433
        1430        1431        1436        1435
        1431        1432        1437        1436
        1432        1433        1438        1437
        1433        1434        1439        1438
        1435        1436        1441        1440
        1436        1437        1442        1441
        1437        1438        1443        1442
        1438        1439        1444        1443
        1440        1441        1446        1445
        1441        1442        1447        1446
        1442        1443        1448        1447
        1443        1444        1449        1448
        1450        1451        1456        1455
        1451        1452        1457        1456
        1452        1453        1458        1457
        1453        1454        1459        1458
        1455        1456        1461        1460
        1456        1457        1462        1461
        1457        1458        1463        1462
        1458        1459        1464        1463
        1460        1461        1466        1465
        1461        1462        1467        1466
        1462        1463        1468        1467
        1463        1464        1469        1468
        1465        1466        1471        1470
        1466        1467        1472        1471
        1467        1468        1473        1472
        1468        1469        1474        1473
        1475        1476        1481        1480
        1476        1477        1482        1481
        1477        1478        1483        1482
        1478        1479        1484        1483
        1480        1481        1486        1485
        1481        1482        1487        1486
        1482        1483        1488        1487
        1483        1484        1489        1488
        1485        1486        1491        1490
        1486        1487        1492        1491
        1487        1488        1493        1492
        1488        1489        1494        1493
        1490        1491        1496        1495
        1491        1492        1497        1496
        1492        1493        1498        1497
        1493        1494        1499        1498
        1500        1501        1506        1505
        1501        1502        1507        1506
        1502        1503        1508        1507
        1503        1504        1509        1508
        1505        1506        1511        1510
        1506        1507        1512        1511
        1507        1508        1513        1512
        1508        1509        1514        1513
        1510        1511        1516        1515
        1511        1512        1517        1516
        1512        1513        1518        1517
        1513        1514        1519        1518
        1515        1516        1521        1520
        1516        1517        1522        1521
        1517        1518        1523        1522
        1518        1519        1524        1523
        1525        1526        1531        1530
        1526        1527        1532        1531
        1527        1528        1533        1532
        1528        1529        1534        1533
        1530        1531        1536        1535
        1531        1532        1537        1536
        1532        1533        1538        1537
        1533        1534        1539        1538
        1535        1536        1541        1540
        1536        1537        1542        1541
        1537        1538        1543        1542
        1538        1539        1544        1543
        1540        1541        1546        1545
        1541        1542        1547        1546
        1542        1543        1548        1547
        1543        1544        1549        1548
        1550        1551        1556        1555
        1551        1552        1557        1556
        1552        1553        1558        1557
        1553        1554        1559        1558
        1555        1556        1561        1560
        1556        1557        1562        1561
        1557        1558        1563        1562
        1558        1559        1564        1563
        1560        1561        1566        1565
        1561        1562        1567        1566
        1562        1563        1568        1567
        1563        1564        1569        1568
        1565        1566        1571        1570
        1566        1567        1572        1571
        1567        1568        1573        1572
        1568        1569        1574        1573
        1575        1576        1581        1580
        1576        1577        1582        1581
        1577        1578        1583        1582
        1578        1579        1584        1583
        1580        1581        1586        1585
        1581        1582        1587        1586
        1582        1583        1588        1587
        1583        1584        1589        1588
        1585        1586        1591        1590
        1586        1587        1592        1591
        1587        1588        1593        1592
        1588        1589        1594        1593
        1590        1591        1596        1595
        1591        1592        1597        1596
        1592        1593        1598        1597
        1593        1594        1599        1598
 </DataArray>
 <DataArray  type="Int32"  Name="offsets"  format="ascii"> 
           4
           8
          12
          16
          20
          24
          28
          32
          36
          40
          44
          48
          52
          56
          60
          64
          68
          72
          76
          80
          84
          88
          92
          96
         100
         104
         108
         112
         116
         120
         124
         128
         132
         136
         140
         144
         148
         152
         156
         160
         164
         168
         172
         176
         180
         184
         188
         192
         196
         200
         204
         208
         212
         216
         220
         224
         228
         232
         236
         240
         244
         248
         252
         256
         260
         264
         268
         272
         276
         280
         284
         288
         292
         296
         300
         304
         308
         312
         316
         320
         324
         328
         332
         336
         340
         344
         348
         352
         356
         360
         364
         368
         372
         376
         380
         384
         388
         392
         396
         400
         404
         408
         412
         416
         420
         424
         428
         432
         436
         440
         444
         448
         452
         456
         460
         464
         468
         472
         476
         480
         484
         488
         492
         496
         500
         504
         508
         512
         516
         520
         524
         528
         532
         536
         540
         544
         548
         552
         556
         560
         564
         568
         572
         576
         580
         584
         588
         592
         596
         600
         604
         608
         612
         616
         620
         624
         628
         632
         636
         640
         644
         648
         652
         656
         660
         664
         668
         672
         676
         680
         684
         688
         692
         696
         700
         704
         708
         712
         716
         720
         724
         728
         732
         736
         740
         744
         748
         752
         756
         760
         764
         768
         772
         776
         780
         784
         788
         792
         796
         800
         804
         808
         812
         816
         820
         824
         828
         832
         836
         840
         844
         848
         852
         856
         860
         864
         868
         872
         876
         880
         884
         888
         892
         896
         900
         904
         908
         912
         916
         920
         924
         928
         932
         936
         940
         944
         948
         952
         956
         960
         964
         968
         972
         976
         980
         984
         988
         992
         996
        1000
        1004
        1008
        1012
        1016
        1020
        1024
        1028
        1032
        1036
        1040
        1044
        1048
        1052
        1056
        1060
        1064
        1068
        1072
        1076
        1080
        1084
        1088
        1092
        1096
        1100
        1104
        1108
        1112
        1116
        1120
        1124
        1128
        1132
        1136
        1140
        1144
        1148
        1152
        1156
        1160
        1164
        1168
        1172
        1176
        1180
        1184
        1188
        1192
        1196
        1200
        1204
        1208
        1212
        1216
        1220
        1224
        1228
        1232
        1236
        1240
        1244
        1248
        1252
        1256
        1260
        1264
        1268
        1272
        1276
        1280
        1284
        1288
        1292
        1296
        1300
        1304
        1308
        1312
        1316
        1320
        1324
        1328
        1332
        1336
        1340
        1344
        1348
        1352
        1356
        1360
        1364
        1368
        1372
        1376
        1380
        1384
        1388
        1392
        1396
        1400
        1404
        1408
        1412
        1416
        1420
        1424
        1428
        1432
        1436
        1440
        1444
        1448
        1452
        1456
        1460
        1464
        1468
        1472
        1476
        1480
        1484
        1488
        1492
        1496
        1500
        1504
        1508
        1512
        1516
        1520
        1524
        1528
        1532
        1536
        1540
        1544
        1548
        1552
        1556
        1560
        1564
        1568
        1572
        1576
        1580
        1584
        1588
        1592
        1596
        1600
        1604
        1608
        1612
        1616
        1620
        1624
        1628
        1632
        1636
        1640
        1644
        1648
        1652
        1656
        1660
        1664
        1668
        1672
        1676
        1680
        1684
        1688
        1692
        1696
        1700
        1704
        1708
        1712
        1716
        1720
        1724
        1728
        1732
        1736
        1740
        1744
        1748
        1752
        1756
        1760
        1764
        1768
        1772
        1776
        1780
        1784
        1788
        1792
        1796
        1800
        1804
        1808
        1812
        1816
        1820
        1824
        1828
        1832
        1836
        1840
        1844
        1848
        1852
        1856
        1860
        1864
        1868
        1872
        1876
        1880
        1884
        1888
        1892
        1896
        1900
        1904
        1908
        1912
        1916
        1920
        1924
        1928
        1932
        1936
        1940
        1944
        1948
        1952
        1956
        1960
        1964
        1968
        1972
        1976
        1980
        1984
        1988
        1992
        1996
        2000
        2004
        2008
        2012
        2016
        2020
        2024
        2028
        2032
        2036
        2040
        2044
        2048
        2052
        2056
        2060
        2064
        2068
        2072
        2076
        2080
        2084
        2088
        2092
        2096
        2100
        2104
        2108
        2112
        2116
        2120
        2124
        2128
        2132
        2136
        2140
        2144
        2148
        2152
        2156
        2160
        2164
        2168
        2172
        2176
        2180
        2184
        2188
        2192
        2196
        2200
        2204
        2208
        2212
        2216
        2220
        2224
        2228
        2232
        2236
        2240
        2244
        2248
        2252
        2256
        2260
        2264
        2268
        2272
        2276
        2280
        2284
        2288
        2292
        2296
        2300
        2304
        2308
        2312
        2316
        2320
        2324
        2328
        2332
        2336
        2340
        2344
        2348
        2352
        2356
        2360
        2364
        2368
        2372
        2376
        2380
        2384
        2388
        2392
        2396
        2400
        2404
        2408
        2412
        2416
        2420
        2424
        2428
        2432
        2436
        2440
        2444
        2448
        2452
        2456
        2460
        2464
        2468
        2472
        2476
        2480
        2484
        2488
        2492
        2496
        2500
        2504
        2508
        2512
        2516
        2520
        2524
        2528
        2532
        2536
        2540
        2544
        2548
        2552
        2556
        2560
        2564
        2568
        2572
        2576
        2580
        2584
        2588
        2592
        2596
        2600
        2604
        2608
        2612
        2616
        2620
        2624
        2628
        2632
        2636
        2640
        2644
        2648
        2652
        2656
        2660
        2664
        2668
        2672
        2676
        2680
        2684
        2688
        2692
        2696
        2700
        2704
        2708
        2712
        2716
        2720
        2724
        2728
        2732
        2736
        2740
        2744
        2748
        2752
        2756
        2760
        2764
        2768
        2772
        2776
        2780
        2784
        2788
        2792
        2796
        2800
        2804
        2808
        2812
        2816
        2820
        2824
        2828
        2832
        2836
        2840
        2844
        2848
        2852
        2856
        2860
        2864
        2868
        2872
        2876
        2880
        2884
        2888
        2892
        2896
        2900
        2904
        2908
        2912
        2916
        2920
        2924
        2928
        2932
        2936
        2940
        2944
        2948
        2952
        2956
        2960
        2964
        2968
        2972
        2976
        2980
        2984
        2988
        2992
        2996
        3000
        3004
        3008
        3012
        3016
        3020
        3024
        3028
        3032
        3036
        3040
        3044
        3048
        3052
        3056
        3060
        3064
        3068
        3072
        3076
        3080
        3084
        3088
        3092
        3096
        3100
        3104
        3108
        3112
        3116
        3120
        3124
        3128
        3132
        3136
        3140
        3144
        3148
        3152
        3156
        3160
        3164
        3168
        3172
        3176
        3180
        3184
        3188
        3192
        3196
        3200
        3204
        3208
        3212
        3216
        3220
        3224
        3228
        3232
        3236
        3240
        3244
        3248
        3252
        3256
        3260
        3264
        3268
        3272
        3276
        3280
        3284
        3288
        3292
        3296
        3300
        3304
        3308
        3312
        3316
        3320
        3324
        3328
        3332
        3336
        3340
        3344
        3348
        3352
        3356
        3360
        3364
        3368
        3372
        3376
        3380
        3384
        3388
        3392
        3396
        3400
        3404
        3408
        3412
        3416
        3420
        3424
        3428
        3432
        3436
        3440
        3444
        3448
        3452
        3456
        3460
        3464
        3468
        3472
        3476
        3480
        3484
        3488
        3492
        3496
        3500
        3504
        3508
        3512
        3516
        3520
        3524
        3528
        3532
        3536
        3540
        3544
        3548
        3552
        3556
        3560
        3564
        3568
        3572
        3576
        3580
        3584
        3588
        3592
        3596
        3600
        3604
        3608
        3612
        3616
        3620
        3624
        3628
        3632
        3636
        3640
        3644
        3648
        3652
        3656
        3660
        3664
        3668
        3672
        3676
        3680
        3684
        3688
        3692
        3696
        3700
        3704
        3708
        3712
        3716
        3720
        3724
        3728
        3732
        3736
        3740
        3744
        3748
        3752
        3756
        3760
        3764
        3768
        3772
        3776
        3780
        3784
        3788
        3792
        3796
        3800
        3804
        3808
        3812
        3816
        3820
        3824
        3828
        3832
        3836
        3840
        3844
        3848
        3852
        3856
        3860
        3864
        3868
        3872
        3876
        3880
        3884
        3888
        3892
        3896
        3900
        3904
        3908
        3912
        3916
        3920
        3924
        3928
        3932
        3936
        3940
        3944
        3948
        3952
        3956
        3960
        3964
        3968
        3972
        3976
        3980
        3984
        3988
        3992
        3996
        4000
        4004
        4008
        4012
        4016
        4020
        4024
        4028
        4032
        4036
        4040
        4044
        4048
        4052
        4056
        4060
        4064
        4068
        4072
        4076
        4080
        4084
        4088
        4092
        4096
 </DataArray>
 <DataArray  type="UInt8"  Name="types"  format="ascii">
 9
 9
 9
 9
 9
 9
 9
 9
 9
 9
 9
 9
 9
 9
 9
 9
 9
 9
 9
 9
 9
 9
 9
 9
 9
 9
 9
 9
 9
 9
 9
 9
 9
 9
 9
 9
 9
 9
 9
 9
 9
 9
 9
 9
 9
 9
 9
 9
 9
 9
 9
 9
 9
 9
 9
 9
 9
 9
 9
 9
 9
 9
 9
 9
 9
 9
 9
 9
 9
 9
 9
 9
 9
 9
 9
 9
 9
 9
 9
 9
 9
 9
 9
 9
 9
 9
 9
 9
 9
 9
 9
 9
 9
 9
 9
 9
 9
 9
 9
 9
 9
 9
 9
 9
 9
 9
 9
 9
 9
 9
 9
 9
 9
 9
 9
 9
 9
 9
 9
 9
 9
 9
 9
 9
 9
 9
 9
 9
 9
 9
 9
 9
 9
 9
 9
 9
 9
 9
 9
 9
 9
 9
 9
 9
 9
 9
 9
 9
 9
 9
 9
 9
 9
 9
 9
 9
 9
 9
 9
 9
 9
 9
 9
 9
 9
 9
 9
 9
 9
 9
 9
 9
 9
 9
 9
 9
 9
 9
 9
 9
 9
 9
 9
 9
 9
 9
 9
 9
 9
 9
 9
 9
 9
 9
 9
 9
 9
 9
 9
 9
 9
 9
 9
 9
 9
 9
 9
 9
 9
 9
 9
 9
 9
 9
 9
 9
 9
 9
 9
 9
 9
 9
 9
 9
 9
 9
 9
 9
 9
 9
 9
 9
 9
 9
 9
 9
 9
 9
 9
 9
 9
 9
 9
 9
 9
 9
 9
 9
 9
 9
 9
 9
 9
 9
 9
 9
 9
 9
 9
 9
 9
 9
 9
 9
 9
 9
 9
 9
 9
 9
 9
 9
 9
 9
 9
 9
 9
 9
 9
 9
 9
 9
 9
 9
 9
 9
 9
 9
 9
 9
 9
 9
 9
 9
 9
 9
 9
 9
 9
 9
 9
 9
 9
 9
 9
 9
 9
 9
 9
 9
 9
 9
 9
 9
 9
 9
 9
 9
 9
 9
 9
 9
 9
 9
 9
 9
 9
 9
 9
 9
 9
 9
 9
 9
 9
 9
 9
 9
 9
 9
 9
 9
 9
 9
 9
 9
 9
 9
 9
 9
 9
 9
 9
 9
 9
 9
 9
 9
 9
 9
 9
 9
 9
 9
 9
 9
 9
 9
 9
 9
 9
 9
 9
 9
 9
 9
 9
 9
 9
 9
 9
 9
 9
 9
 9
 9
 9
 9
 9
 9
 9
 9
 9
 9
 9
 9
 9
 9
 9
 9
 9
 9
 9
 9
 9
 9
 9
 9
 9
 9
 9
 9
 9
 9
 9
 9
 9
 9
 9
 9
 9
 9
 9
 9
 9
 9
 9
 9
 9
 9
 9
 9
 9
 9
 9
 9
 9
 9
 9
 9
 9
 9
 9
 9
 9
 9
 9
 9
 9
 9
 9
 9
 9
 9
 9
 9
 9
 9
 9
 9
 9
 9
 9
 9
 9
 9
 9
 9
 9
 9
 9
 9
 9
 9
 9
 9
 9
 9
 9
 9
 9
 9
 9
 9
 9
 9
 9
 9
 9
 9
 9
 9
 9
 9
 9
 9
 9
 9
 9
 9
 9
 9
 9
 9
 9
 9
 9
 9
 9
 9
 9
 9
 9
 9
 9
 9
 9
 9
 9
 9
 9
 9
 9
 9
 9
 9
 9
 9
 9
 9
 9
 9
 9
 9
 9
 9
 9
 9
 9
 9
 9
 9
 9
 9
 9
 9
 9
 9
 9
 9
 9
 9
 9
 9
 9
 9
 9
 9
 9
 9
 9
 9
 9
 9
 9
 9
 9
 9
 9
 9
 9
 9
 9
 9
 9
 9
 9
 9
 9
 9
 9
 9
 9
 9
 9
 9
 9
 9
 9
 9
 9
 9
 9
 9
 9
 9
 9
 9
 9
 9
 9
 9
 9
 9
 9
 9
 9
 9
 9
 9
 9
 9
 9
 9
 9
 9
 9
 9
 9
 9
 9
 9
 9
 9
 9
 9
 9
 9
 9
 9
 9
 9
 9
 9
 9
 9
 9
 9
 9
 9
 9
 9
 9
 9
 9
 9
 9
 9
 9
 9
 9
 9
 9
 9
 9
 9
 9
 9
 9
 9
 9
 9
 9
 9
 9
 9
 9
 9
 9
 9
 9
 9
 9
 9
 9
 9
 9
 9
 9
 9
 9
 9
 9
 9
 9
 9
 9
 9
 9
 9
 9
 9
 9
 9
 9
 9
 9
 9
 9
 9
 9
 9
 9
 9
 9
 9
 9
 9
 9
 9
 9
 9
 9
 9
 9
 9
 9
 9
 9
 9
 9
 9
 9
 9
 9
 9
 9
 9
 9
 9
 9
 9
 9
 9
 9
 9
 9
 9
 9
 9
 9
 9
 9
 9
 9
 9
 9
 9
 9
 9
 9
 9
 9
 9
 9
 9
 9
 9
 9
 9
 9
 9
 9
 9
 9
 9
 9
 9
 9
 9
 9
 9
 9
 9
 9
 9
 9
 9
 9
 9
 9
 9
 9
 9
 9
 9
 9
 9
 9
 9
 9
 9
 9
 9
 9
 9
 9
 9
 9
 9
 9
 9
 9
 9
 9
 9
 9
 9
 9
 9
 9
 9
 9
 9
 9
 9
 9
 9
 9
 9
 9
 9
 9
 9
 9
 9
 9
 9
 9
 9
 9
 9
 9
 9
 9
 9
 9
 9
 9
 9
 9
 9
 9
 9
 9
 9
 9
 9
 9
 9
 9
 9
 9
 9
 9
 9
 9
 9
 9
 9
 9
 9
 9
 9
 9
 9
 9
 9
 9
 9
 9
 9
 9
 9
 9
 9
 9
 9
 9
 9
 9
 9
 9
 9
 9
 9
 9
 9
 9
 9
 9
 9
 9
 9
 9
 9
 9
 9
 9
 9
 9
 9
 9
 9
 9
 9
 9
 9
 9
 9
 9
 9
 9
 9
 9
 9
 9
 9
 9
 9
 9
 9
 9
 9
 9
 9
 9
 9
 9
 9
 9
 9
 9
 9
 9
 9
 9
 9
 9
 9
 9
 9
 9
 9
 9
 9
 9
 9
 9
 9
 9
 9
 9
 9
 9
 9
 9
 9
 9
 9
 9
 9
 9
 9
 9
 9
 9
 9
 9
 9
 9
 9
 9
 9
 9
 9
 9
 9
 9
 9
 9
 9
 9
 9
 9
 9
 9
 9
 9
 9
 9
 9
 9
 9
 9
 9
 9
 9
 9
 9
 9
 9
 9
 9
 9
 9
 9
 9
 9
 9
 9
 9
 9
 9
 9
 9
 9
 9
 9
 9
 9
 9
 9
 9
 </DataArray>
 </Cells> 
 <PointData>
 <DataArray  type="Float64" Name="disp" NumberOfComponents="3" format="ascii">
   0.0000000000000000        0.0000000000000000        0.0000000000000000     
   6.0961948018992936E-003   3.7903634217250947E-003   0.0000000000000000     
   1.1666471099050614E-002   7.3234545874694135E-003   0.0000000000000000     
   1.6710828891453963E-002   1.0599273497232959E-002   0.0000000000000000     
   2.1229268179109338E-002   1.3617820151015727E-002   0.0000000000000000     
   0.0000000000000000        0.0000000000000000        0.0000000000000000     
   4.8914189158080403E-003   3.0218350899234190E-003   0.0000000000000000     
   9.5742147165952703E-003   6.0598196187963502E-003   0.0000000000000000     
   1.4048387402361695E-002   9.1139535866187928E-003   0.0000000000000000     
   1.8313936973107306E-002   1.2184236993390746E-002   0.0000000000000000     
   0.0000000000000000        0.0000000000000000        0.0000000000000000     
   3.9538272819508464E-003   2.4246519696262858E-003   0.0000000000000000     
   7.9112005088719413E-003   5.0619720241458941E-003   0.0000000000000000     
   1.1872119680763286E-002   7.9119601635588253E-003   0.0000000000000000     
   1.5836584797624880E-002   1.0974616387865076E-002   0.0000000000000000     
   0.0000000000000000        0.0000000000000000        0.0000000000000000     
   3.2834199003277144E-003   1.9988140608336942E-003   0.0000000000000000     
   6.6774284758806274E-003   4.3299118035180452E-003   0.0000000000000000     
   1.0182025726658741E-002   6.9932932280530533E-003   0.0000000000000000     
   1.3797211652662050E-002   9.9889583344387155E-003   0.0000000000000000     
   0.0000000000000000        0.0000000000000000        0.0000000000000000     
   2.8801967709386426E-003   1.7443213635456446E-003   0.0000000000000000     
   5.8728986176213270E-003   3.8636389569128042E-003   0.0000000000000000     
   8.9781055400480533E-003   6.3579527801014774E-003   0.0000000000000000     
   1.2195817538218825E-002   9.2272628331116647E-003   0.0000000000000000     
   2.1229268179109338E-002   1.3617820151015727E-002   0.0000000000000000     
   2.5434939304990620E-002   1.6610040161619113E-002   0.0000000000000000     
   2.9540992612071708E-002   1.9806879141844508E-002   0.0000000000000000     
   3.3547428100352578E-002   2.3208337091691910E-002   0.0000000000000000     
   3.7454245769833257E-002   2.6814414011161317E-002   0.0000000000000000     
   1.8313936973107306E-002   1.2184236993390746E-002   0.0000000000000000     
   2.2409199768575219E-002   1.5339135957706416E-002   0.0000000000000000     
   2.6372512128508545E-002   1.8647116598160006E-002   0.0000000000000000     
   3.0203874052907267E-002   2.2108178914751513E-002   0.0000000000000000     
   3.3903285541771411E-002   2.5722322907480936E-002   0.0000000000000000     
   1.5836584797624880E-002   1.0974616387865076E-002   0.0000000000000000     
   1.9732842229395947E-002   1.4208740575116337E-002   0.0000000000000000     
   2.3489138346015726E-002   1.7573132603364294E-002   0.0000000000000000     
   2.7105473147484214E-002   2.1067792472608943E-002   0.0000000000000000     
   3.0581846633801407E-002   2.4692720182850285E-002   0.0000000000000000     
   1.3797211652662050E-002   9.9889583344387155E-003   0.0000000000000000     
   1.7405866687452809E-002   1.3218854013848876E-002   0.0000000000000000     
   2.0890871264593266E-002   1.6584927157457366E-002   0.0000000000000000     
   2.4252225384083406E-002   2.0087177765264193E-002   0.0000000000000000     
   2.7489929045923255E-002   2.3725605837269358E-002   0.0000000000000000     
   1.2195817538218825E-002   9.2272628331116647E-003   0.0000000000000000     
   1.5428273142745801E-002   1.2369476273904029E-002   0.0000000000000000     
   1.8577710884241146E-002   1.5682500260439235E-002   0.0000000000000000     
   2.1644130762704866E-002   1.9166334792717274E-002   0.0000000000000000     
   2.4627532778136955E-002   2.2820979870738160E-002   0.0000000000000000     
   3.7454245769833257E-002   2.6814414011161317E-002   0.0000000000000000     
   4.1265521477790071E-002   3.0620158796231544E-002   0.0000000000000000     
   4.4985331081499366E-002   3.4620620342881395E-002   0.0000000000000000     
   4.8613674580961150E-002   3.8815798651110872E-002   0.0000000000000000     
   5.2150551976175408E-002   4.3205693720919980E-002   0.0000000000000000     
   3.3903285541771411E-002   2.5722322907480936E-002   0.0000000000000000     
   3.7493871446263836E-002   2.9518565299516620E-002   0.0000000000000000     
   4.0998756617547455E-002   3.3525922814026908E-002   0.0000000000000000     
   4.4417941055622252E-002   3.7744395451011790E-002   0.0000000000000000     
   4.7751424760488242E-002   4.2173983210471278E-002   0.0000000000000000     
   3.0581846633801407E-002   2.4692720182850285E-002   0.0000000000000000     
   3.3947758395306483E-002   2.8492906880136195E-002   0.0000000000000000     
   3.7232708022338613E-002   3.2513343710514543E-002   0.0000000000000000     
   4.0436695514897800E-002   3.6754030673985340E-002   0.0000000000000000     
   4.3559720872984049E-002   4.1214967770548568E-002   0.0000000000000000     
   2.7489929045923255E-002   2.3725605837269358E-002   0.0000000000000000     
   3.0627182324917995E-002   2.7543183538090259E-002   0.0000000000000000     
   3.3687185295872835E-002   3.1582883032344314E-002   0.0000000000000000     
   3.6669937958787771E-002   3.5844704320031506E-002   0.0000000000000000     
   3.9575440313662807E-002   4.0328647401151843E-002   0.0000000000000000     
   2.4627532778136955E-002   2.2820979870738160E-002   0.0000000000000000     
   2.7532143235098384E-002   2.6669395273378825E-002   0.0000000000000000     
   3.0362188438150126E-002   3.0734540779516199E-002   0.0000000000000000     
   3.3117668387292180E-002   3.5016416389150304E-002   0.0000000000000000     
   3.5798583082524545E-002   3.9515022102281125E-002   0.0000000000000000     
   5.2150551976175408E-002   4.3205693720919980E-002   0.0000000000000000     
   5.5595477500896377E-002   4.7796798004692220E-002   0.0000000000000000     
   5.8947965388878289E-002   5.2595603954811110E-002   0.0000000000000000     
   6.2208015640121128E-002   5.7602111571276648E-002   0.0000000000000000     
   6.5375628254624910E-002   6.2816320854088836E-002   0.0000000000000000     
   4.7751424760488242E-002   4.2173983210471278E-002   0.0000000000000000     
   5.0995558381374033E-002   4.6808773034800605E-002   0.0000000000000000     
   5.4146692567508245E-002   5.1642851866395008E-002   0.0000000000000000     
   5.7204827318890872E-002   5.6676219705254487E-002   0.0000000000000000     
   6.0169962635521920E-002   6.1908876551379041E-002   0.0000000000000000     
   4.3559720872984049E-002   4.1214967770548568E-002   0.0000000000000000     
   4.6597127565977663E-002   4.5883578513595924E-002   0.0000000000000000     
   4.9544259063258954E-002   5.0747286416519106E-002   0.0000000000000000     
   5.2401115364827937E-002   5.5806091479318108E-002   0.0000000000000000     
   5.5167696470684598E-002   6.1059993701992929E-002   0.0000000000000000     
   3.9575440313662807E-002   4.0328647401151843E-002   0.0000000000000000     
   4.2400185054707260E-002   4.5021214441078206E-002   0.0000000000000000     
   4.5140664876130436E-002   4.9908907605183427E-002   0.0000000000000000     
   4.7796879777932316E-002   5.4991726893467527E-002   0.0000000000000000     
   5.0368829760112928E-002   6.0269672305930500E-002   0.0000000000000000     
   3.5798583082524545E-002   3.9515022102281125E-002   0.0000000000000000     
   3.8404730847562837E-002   4.4221680817247415E-002   0.0000000000000000     
   4.0935910006122650E-002   4.9127715432387961E-002   0.0000000000000000     
   4.3392120558204024E-002   5.4233125947702736E-002   0.0000000000000000     
   4.5773362503806918E-002   5.9537912363191767E-002   0.0000000000000000     
   6.5375628254624910E-002   6.2816320854088836E-002   0.0000000000000000     
   6.8448963727621923E-002   6.8220751092569643E-002   0.0000000000000000     
   7.1426182554344492E-002   7.3797921576041037E-002   0.0000000000000000     
   7.4307284734792589E-002   7.9547832304503033E-002   0.0000000000000000     
   7.7092270268966229E-002   8.5470483277955603E-002   0.0000000000000000     
   6.0169962635521920E-002   6.1908876551379041E-002   0.0000000000000000     
   6.3044164146975140E-002   6.7329661553758663E-002   0.0000000000000000     
   6.5829497482824281E-002   7.2927413861383322E-002   0.0000000000000000     
   6.8525962643069330E-002   7.8702133474253033E-002   0.0000000000000000     
   7.1133559627710286E-002   8.4653820392367782E-002   0.0000000000000000     
   5.5167696470684598E-002   6.1059993701992929E-002   0.0000000000000000     
   5.7847893560506319E-002   6.6501122414593397E-002   0.0000000000000000     
   6.0445597813970485E-002   7.2121606947169375E-002   0.0000000000000000     
   6.2960809231077081E-002   7.7921447299720809E-002   0.0000000000000000     
   6.5393527811826113E-002   8.3900643472247752E-002   0.0000000000000000     
   5.0368829760112928E-002   6.0269672305930500E-002   0.0000000000000000     
   5.2860151968215460E-002   6.5735133675073887E-002   0.0000000000000000     
   5.5274483547783103E-002   7.1380500833399155E-002   0.0000000000000000     
   5.7611824498815849E-002   7.7205773780906373E-002   0.0000000000000000     
   5.9872174821313698E-002   8.3210952517595499E-002   0.0000000000000000     
   4.5773362503806918E-002   5.9537912363191767E-002   0.0000000000000000     
   4.8080939370102549E-002   6.5031695335200063E-002   0.0000000000000000     
   5.0316154684262121E-002   7.0704095520072716E-002   0.0000000000000000     
   5.2479008446285627E-002   7.6555112917809684E-002   0.0000000000000000     
   5.4569500656173060E-002   8.2584747528411023E-002   0.0000000000000000     
   7.7092270268966229E-002   8.5470483277955603E-002   0.0000000000000000     
   7.9780314729427343E-002   9.1561886230819969E-002   0.0000000000000000     
   8.2370593688737920E-002   9.7818052897517327E-002   0.0000000000000000     
   8.4863107146897918E-002  0.10423898327804765        0.0000000000000000     
   8.7257855103907350E-002  0.11082467737241097        0.0000000000000000     
   7.1133559627710286E-002   8.4653820392367782E-002   0.0000000000000000     
   7.3650429755386077E-002   9.0774689470040790E-002   0.0000000000000000     
   7.6074714344735631E-002   9.7056955561585279E-002   0.0000000000000000     
   7.8406413395758920E-002  0.10350061866700119        0.0000000000000000     
   8.0645526908455986E-002  0.11010567878628862        0.0000000000000000     
   6.5393527811826113E-002   8.3900643472247752E-002   0.0000000000000000     
   6.7741412949947205E-002   9.0049151845736780E-002   0.0000000000000000     
   7.0002124039169999E-002   9.6356928801174468E-002   0.0000000000000000     
   7.2175661079494496E-002  0.10282397433856084        0.0000000000000000     
   7.4262024070920696E-002  0.10945028845789594        0.0000000000000000     
   5.9872174821313698E-002   8.3210952517595499E-002   0.0000000000000000     
   6.2053264313110743E-002   8.9385273357907899E-002   0.0000000000000000     
   6.4152822772041054E-002   9.5717972616284924E-002   0.0000000000000000     
   6.6170850198104619E-002  0.10220905029272663        0.0000000000000000     
   6.8107346591301465E-002  0.10885850638723293        0.0000000000000000     
   5.4569500656173060E-002   8.2584747528411023E-002   0.0000000000000000     
   5.6585983844876696E-002   8.8783054006554160E-002   0.0000000000000000     
   5.8526810543348774E-002   9.5140087006916646E-002   0.0000000000000000     
   6.0391980751589303E-002  0.10165584652949847        0.0000000000000000     
   6.2181494469598281E-002  0.10833033257429962        0.0000000000000000     
   8.7257855103907350E-002  0.11082467737241097        0.0000000000000000     
   8.9561787137339699E-002  0.11755632215833081        0.0000000000000000     
   9.1781852824768487E-002  0.12441510461353074        0.0000000000000000     
   9.3918052166193686E-002  0.13140102473801074        0.0000000000000000     
   9.5970385161615324E-002  0.13851408253177083        0.0000000000000000     
   8.0645526908455986E-002  0.11010567878628862        0.0000000000000000     
   8.2796838929784664E-002  0.11685644363974403        0.0000000000000000     
   8.4865133506702842E-002  0.12373722094766404        0.0000000000000000     
   8.6850410639210521E-002  0.13074801071004860        0.0000000000000000     
   8.8752670327307659E-002  0.13788881292689772        0.0000000000000000     
   7.4262024070920696E-002  0.10945028845789594        0.0000000000000000     
   7.6264562319932380E-002  0.11622243023041341        0.0000000000000000     
   7.8186625133013374E-002  0.12312695872734698        0.0000000000000000     
   8.0028212510163621E-002  0.13016387394869666        0.0000000000000000     
   8.1789324451383191E-002  0.13733317589446239        0.0000000000000000     
   6.8107346591301465E-002  0.10885850638723293        0.0000000000000000     
   6.9964957307782835E-002  0.11565428193033891        0.0000000000000000     
   7.1746327703700041E-002  0.12258431795257957        0.0000000000000000     
   7.3451457779053042E-002  0.12964861445395490        0.0000000000000000     
   7.5080347533841879E-002  0.13684717143446490        0.0000000000000000     
   6.2181494469598281E-002  0.10833033257429962        0.0000000000000000     
   6.3898023893336042E-002  0.11515199873952056        0.0000000000000000     
   6.5544241218762858E-002  0.12210929862336183        0.0000000000000000     
   6.7120146445878770E-002  0.12920223222582339        0.0000000000000000     
   6.8625739574683736E-002  0.13643079954690523        0.0000000000000000     
   9.5970385161615324E-002  0.13851408253177083        0.0000000000000000     
   9.7966358172289658E-002  0.14580655791684638        0.0000000000000000     
   9.9933477559472919E-002  0.15333073081527274        0.0000000000000000     
  0.10187174332316512       0.16108660122704993        0.0000000000000000     
  0.10378115546336628       0.16907416915217799        0.0000000000000000     
   8.8752670327307659E-002  0.13788881292689772        0.0000000000000000     
   9.0575921499027309E-002  0.14516770937994333        0.0000000000000000     
   9.2324173082402400E-002  0.15259278185091729        0.0000000000000000     
   9.3997425077432931E-002  0.16016403033981960        0.0000000000000000     
   9.5595677484118916E-002  0.16788145484665029        0.0000000000000000     
   8.1789324451383191E-002  0.13733317589446239        0.0000000000000000     
   8.3459052836539940E-002  0.14461687483204039        0.0000000000000000     
   8.5026489545501793E-002  0.15199698102882658        0.0000000000000000     
   8.6491634578268722E-002  0.15947349448482109        0.0000000000000000     
   8.7854487934840783E-002  0.16704641520002383        0.0000000000000000     
   7.5080347533841879E-002  0.13684717143446490        0.0000000000000000     
   7.6615752184827565E-002  0.14415405427313749        0.0000000000000000     
   7.8040426948771113E-002  0.15154332834900069        0.0000000000000000     
   7.9354371825672565E-002  0.15901499366205438        0.0000000000000000     
   8.0557586815531892E-002  0.16656905021229856        0.0000000000000000     
   6.8625739574683736E-002  0.13643079954690523        0.0000000000000000     
   7.0046019543890170E-002  0.14377924770323480        0.0000000000000000     
   7.1365985292210388E-002  0.15123182381143954        0.0000000000000000     
   7.2585636819644403E-002  0.15878852787151942        0.0000000000000000     
   7.3704974126192230E-002  0.16644935988347448        0.0000000000000000     
   0.0000000000000000        0.0000000000000000        0.0000000000000000     
   2.8801967709386426E-003   1.7443213635456446E-003   0.0000000000000000     
   5.8728986176213270E-003   3.8636389569128042E-003   0.0000000000000000     
   8.9781055400480533E-003   6.3579527801014774E-003   0.0000000000000000     
   1.2195817538218825E-002   9.2272628331116647E-003   0.0000000000000000     
   0.0000000000000000        0.0000000000000000        0.0000000000000000     
   2.6103432575413730E-003   1.5884813054064990E-003   0.0000000000000000     
   5.2897082131385855E-003   3.5558119302226371E-003   0.0000000000000000     
   8.0380948667916376E-003   5.9019918744484135E-003   0.0000000000000000     
   1.0855503218500529E-002   8.6270211380838294E-003   0.0000000000000000     
   0.0000000000000000        0.0000000000000000        0.0000000000000000     
   2.3400447238936498E-003   1.4586013140606192E-003   0.0000000000000000     
   4.7199545414769511E-003   3.2990891693400110E-003   0.0000000000000000     
   7.1397294527499010E-003   5.5214635658381757E-003   0.0000000000000000     
   9.5993694577125033E-003   8.1257245035551134E-003   0.0000000000000000     
   0.0000000000000000        0.0000000000000000        0.0000000000000000     
   2.0693011699954729E-003   1.3546813895080052E-003   0.0000000000000000     
   4.1636376026364212E-003   3.0934706742649265E-003   0.0000000000000000     
   6.2830092979228461E-003   5.2163678542707639E-003   0.0000000000000000     
   8.4274162558547454E-003   7.7233729295255174E-003   0.0000000000000000     
   0.0000000000000000        0.0000000000000000        0.0000000000000000     
   1.7981125958468412E-003   1.2767215317486570E-003   0.0000000000000000     
   3.6207573966169975E-003   2.9389564449973835E-003   0.0000000000000000     
   5.4679344023104686E-003   4.9867047397461782E-003   0.0000000000000000     
   7.3396436129272557E-003   7.4199664159950414E-003   0.0000000000000000     
   1.2195817538218825E-002   9.2272628331116647E-003   0.0000000000000000     
   1.5428273142745801E-002   1.2369476273904029E-002   0.0000000000000000     
   1.8577710884241146E-002   1.5682500260439235E-002   0.0000000000000000     
   2.1644130762704866E-002   1.9166334792717274E-002   0.0000000000000000     
   2.4627532778136955E-002   2.2820979870738160E-002   0.0000000000000000     
   1.0855503218500529E-002   8.6270211380838294E-003   0.0000000000000000     
   1.3688593801226525E-002   1.1648690357320819E-002   0.0000000000000000     
   1.6484027147930885E-002   1.4884790168351314E-002   0.0000000000000000     
   1.9241803258613611E-002   1.8335320571175321E-002   0.0000000000000000     
   2.1961922133274706E-002   2.2000281565792833E-002   0.0000000000000000     
   9.5993694577125033E-003   8.1257245035551134E-003   0.0000000000000000     
   1.2075360868846585E-002   1.1044579266138256E-002   0.0000000000000000     
   1.4544189998633982E-002   1.4210735137235038E-002   0.0000000000000000     
   1.7005856847074691E-002   1.7624192116845457E-002   0.0000000000000000     
   1.9460361414168716E-002   2.1284950204969517E-002   0.0000000000000000     
   8.4274162558547454E-003   7.7233729295255174E-003   0.0000000000000000     
   1.0588574345605986E-002   1.0557143000356345E-002   0.0000000000000000     
   1.2758199436350440E-002   1.3660335167090405E-002   0.0000000000000000     
   1.4936291528088102E-002   1.7032949429727700E-002   0.0000000000000000     
   1.7122850620818971E-002   2.0674985788268225E-002   0.0000000000000000     
   7.3396436129272557E-003   7.4199664159950414E-003   0.0000000000000000     
   9.2282342315047287E-003   1.0186381559975083E-002   0.0000000000000000     
   1.1126055461080257E-002   1.3233590257917417E-002   0.0000000000000000     
   1.3033107301653843E-002   1.6561592509822035E-002   0.0000000000000000     
   1.4949389753225486E-002   2.0170388315688941E-002   0.0000000000000000     
   2.4627532778136955E-002   2.2820979870738160E-002   0.0000000000000000     
   2.7532143235098384E-002   2.6669395273378825E-002   0.0000000000000000     
   3.0362188438150126E-002   3.0734540779516199E-002   0.0000000000000000     
   3.3117668387292180E-002   3.5016416389150304E-002   0.0000000000000000     
   3.5798583082524545E-002   3.9515022102281125E-002   0.0000000000000000     
   2.1961922133274706E-002   2.2000281565792833E-002   0.0000000000000000     
   2.4627759383477596E-002   2.5877651978529918E-002   0.0000000000000000     
   2.7222690620785705E-002   2.9965410635712626E-002   0.0000000000000000     
   2.9746715845199039E-002   3.4263557537340977E-002   0.0000000000000000     
   3.2199835056717585E-002   3.8772092683414944E-002   0.0000000000000000     
   1.9460361414168716E-002   2.1284950204969517E-002   0.0000000000000000     
   2.1879149027685570E-002   2.5174063546071577E-002   0.0000000000000000     
   2.4233665015394777E-002   2.9272586284615994E-002   0.0000000000000000     
   2.6523909377296352E-002   3.3580518420602758E-002   0.0000000000000000     
   2.8749882113390281E-002   3.8097859954031879E-002   0.0000000000000000     
   1.7122850620818971E-002   2.0674985788268225E-002   0.0000000000000000     
   1.9286312167722308E-002   2.4558629976003814E-002   0.0000000000000000     
   2.1395111621977360E-002   2.8656067726226284E-002   0.0000000000000000     
   2.3449248983584137E-002   3.2967299038935659E-002   0.0000000000000000     
   2.5448724252542625E-002   3.7492323914131903E-002   0.0000000000000000     
   1.4949389753225486E-002   2.0170388315688941E-002   0.0000000000000000     
   1.6849248803587812E-002   2.4031351268326614E-002   0.0000000000000000     
   1.8707030440533443E-002   2.8115854960543522E-002   0.0000000000000000     
   2.0522734664062379E-002   3.2423899392339674E-002   0.0000000000000000     
   2.2296361474174620E-002   3.6955484563715058E-002   0.0000000000000000     
   3.5798583082524545E-002   3.9515022102281125E-002   0.0000000000000000     
   3.8404730847562837E-002   4.4221680817247415E-002   0.0000000000000000     
   4.0935910006122650E-002   4.9127715432387961E-002   0.0000000000000000     
   4.3392120558204024E-002   5.4233125947702736E-002   0.0000000000000000     
   4.5773362503806918E-002   5.9537912363191767E-002   0.0000000000000000     
   3.2199835056717585E-002   3.8772092683414944E-002   0.0000000000000000     
   3.4585011402359499E-002   4.3488102980945353E-002   0.0000000000000000     
   3.6905208029142919E-002   4.8408675336943006E-002   0.0000000000000000     
   3.9160424937067832E-002   5.3533809751407882E-002   0.0000000000000000     
   4.1350662126134259E-002   5.8863506224340015E-002   0.0000000000000000     
   2.8749882113390281E-002   3.8097859954031879E-002   0.0000000000000000     
   3.0915273176912384E-002   4.2823606271013760E-002   0.0000000000000000     
   3.3023772521098477E-002   4.7756752757658859E-002   0.0000000000000000     
   3.5075380145948562E-002   5.2897299413967133E-002   0.0000000000000000     
   3.7070096051462637E-002   5.8245246239938604E-002   0.0000000000000000     
   2.5448724252542625E-002   3.7492323914131903E-002   0.0000000000000000     
   2.7395516171221480E-002   4.2228190687452656E-002   0.0000000000000000     
   2.9291603481989337E-002   4.7171947694535504E-002   0.0000000000000000     
   3.1136986184846203E-002   5.2323594935380462E-002   0.0000000000000000     
   3.2931664279792064E-002   5.7683132409987514E-002   0.0000000000000000     
   2.2296361474174620E-002   3.6955484563715058E-002   0.0000000000000000     
   2.4025740385286789E-002   4.1701856230262041E-002   0.0000000000000000     
   2.5708700911815492E-002   4.6654260147572985E-002   0.0000000000000000     
   2.7345243053760744E-002   5.1812696315647881E-002   0.0000000000000000     
   2.8935366811122534E-002   5.7177164734486745E-002   0.0000000000000000     
   4.5773362503806918E-002   5.9537912363191767E-002   0.0000000000000000     
   4.8080939370102549E-002   6.5031695335200063E-002   0.0000000000000000     
   5.0316154684262121E-002   7.0704095520072716E-002   0.0000000000000000     
   5.2479008446285627E-002   7.6555112917809684E-002   0.0000000000000000     
   5.4569500656173060E-002   8.2584747528411023E-002   0.0000000000000000     
   4.1350662126134259E-002   5.8863506224340015E-002   0.0000000000000000     
   4.3474558576385838E-002   6.4384050582101768E-002   0.0000000000000000     
   4.5530753267866222E-002   7.0081728651055511E-002   0.0000000000000000     
   4.7519246200575412E-002   7.5956540431201230E-002   0.0000000000000000     
   4.9440037374513406E-002   8.2008485922538940E-002   0.0000000000000000     
   3.7070096051462637E-002   5.8245246239938604E-002   0.0000000000000000     
   3.9005312397283519E-002   6.3785442602908748E-002   0.0000000000000000     
   4.0878421343054035E-002   6.9502737870212994E-002   0.0000000000000000     
   4.2689422888774170E-002   7.5397132041851403E-002   0.0000000000000000     
   4.4438317034443925E-002   8.1468625117823934E-002   0.0000000000000000     
   3.2931664279792064E-002   5.7683132409987514E-002   0.0000000000000000     
   3.4673200832795632E-002   6.3235871397620991E-002   0.0000000000000000     
   3.6359158909825579E-002   6.8967123177545220E-002   0.0000000000000000     
   3.7989538510881903E-002   7.4876887749760215E-002   0.0000000000000000     
   3.9564339635964618E-002   8.0965165114265936E-002   0.0000000000000000     
   2.8935366811122534E-002   5.7177164734486745E-002   0.0000000000000000     
   3.0478223882922137E-002   6.2735336966238522E-002   0.0000000000000000     
   3.1972965968180833E-002   6.8474884573052161E-002   0.0000000000000000     
   3.3419593066898616E-002   7.4395807554927654E-002   0.0000000000000000     
   3.4818105179075493E-002   8.0498105911865014E-002   0.0000000000000000     
   5.4569500656173060E-002   8.2584747528411023E-002   0.0000000000000000     
   5.6585983844876696E-002   8.8783054006554160E-002   0.0000000000000000     
   5.8526810543348774E-002   9.5140087006916646E-002   0.0000000000000000     
   6.0391980751589303E-002  0.10165584652949847        0.0000000000000000     
   6.2181494469598281E-002  0.10833033257429962        0.0000000000000000     
   4.9440037374513406E-002   8.2008485922538940E-002   0.0000000000000000     
   5.1292130120102163E-002   8.8228690058904699E-002   0.0000000000000000     
   5.3074527767763634E-002   9.4608277774134469E-002   0.0000000000000000     
   5.4787230317497833E-002  0.10114724906822831        0.0000000000000000     
   5.6430237769304760E-002  0.10784560394118617        0.0000000000000000     
   4.4438317034443925E-002   8.1468625117823934E-002   0.0000000000000000     
   4.6124261713644255E-002   8.7708377782188540E-002   0.0000000000000000     
   4.7746414859956107E-002   9.4107550719003230E-002   0.0000000000000000     
   4.9304776473379490E-002  0.10066614392826798        0.0000000000000000     
   5.0799346553914423E-002  0.10738415740998279        0.0000000000000000     
   3.9564339635964618E-002   8.0965165114265936E-002   0.0000000000000000     
   4.1082378625502972E-002   8.7222117176405753E-002   0.0000000000000000     
   4.2542471819926188E-002   9.3637905841522942E-002   0.0000000000000000     
   4.3944619219234302E-002  0.10021253110961753        0.0000000000000000     
   4.5288820823427278E-002  0.10694599298068946        0.0000000000000000     
   3.4818105179075493E-002   8.0498105911865014E-002   0.0000000000000000     
   3.6166480855678293E-002   8.6769908241556296E-002   0.0000000000000000     
   3.7462698647673869E-002   9.3199343141693605E-002   0.0000000000000000     
   3.8706758555062219E-002   9.9786410612276902E-002   0.0000000000000000     
   3.9898660577843345E-002  0.10653111065330621        0.0000000000000000     
   6.2181494469598281E-002  0.10833033257429962        0.0000000000000000     
   6.3898023893336042E-002  0.11515199873952056        0.0000000000000000     
   6.5544241218762858E-002  0.12210929862336183        0.0000000000000000     
   6.7120146445878770E-002  0.12920223222582339        0.0000000000000000     
   6.8625739574683736E-002  0.13643079954690523        0.0000000000000000     
   5.6430237769304760E-002  0.10784560394118617        0.0000000000000000     
   5.8006432509112152E-002  0.11469180212906611        0.0000000000000000     
   5.9518696922847780E-002  0.12167430336792617        0.0000000000000000     
   6.0967031010511638E-002  0.12879310765776630        0.0000000000000000     
   6.2351434772103753E-002  0.13604821499858655        0.0000000000000000     
   5.0799346553914423E-002  0.10738415740998279        0.0000000000000000     
   5.2232853587631328E-002  0.11424991357008325        0.0000000000000000     
   5.3608026060600715E-002  0.12125173481450495        0.0000000000000000     
   5.4924863972822542E-002  0.12838962114324790        0.0000000000000000     
   5.6183367324296858E-002  0.13566357255631209        0.0000000000000000     
   4.5288820823427278E-002  0.10694599298068946        0.0000000000000000     
   4.6577287128893585E-002  0.11382633306257198        0.0000000000000000     
   4.7812228632021649E-002  0.12084159296309822        0.0000000000000000     
   4.8993645332811489E-002  0.12799177268226816        0.0000000000000000     
   5.0121537231263086E-002  0.13527687222008186        0.0000000000000000     
   3.9898660577843345E-002  0.10653111065330621        0.0000000000000000     
   4.1039733132898909E-002  0.11342106060653230        0.0000000000000000     
   4.2131304637110623E-002  0.12044387781370593        0.0000000000000000     
   4.3173375090478437E-002  0.12759956227482713        0.0000000000000000     
   4.4165944493002415E-002  0.13488811398989584        0.0000000000000000     
   6.8625739574683736E-002  0.13643079954690523        0.0000000000000000     
   7.0046019543890170E-002  0.14377924770323480        0.0000000000000000     
   7.1365985292210388E-002  0.15123182381143954        0.0000000000000000     
   7.2585636819644403E-002  0.15878852787151942        0.0000000000000000     
   7.3704974126192230E-002  0.16644935988347448        0.0000000000000000     
   6.2351434772103753E-002  0.13604821499858655        0.0000000000000000     
   6.3662475612479758E-002  0.14343774663259043        0.0000000000000000     
   6.4890720936495339E-002  0.15095982380198145        0.0000000000000000     
   6.6036170744150455E-002  0.15861444650675960        0.0000000000000000     
   6.7098825035445175E-002  0.16640161474692494        0.0000000000000000     
   5.6183367324296858E-002  0.13566357255631209        0.0000000000000000     
   5.7377741089348337E-002  0.14307484257146266        0.0000000000000000     
   5.8502190242301716E-002  0.15062468470646467        0.0000000000000000     
   5.9556714783156960E-002  0.15831309896131823        0.0000000000000000     
   6.0541314711914096E-002  0.16614008533602323        0.0000000000000000     
   5.0121537231263086E-002  0.13527687222008186        0.0000000000000000     
   5.1191815974495930E-002  0.14269053551985147        0.0000000000000000     
   5.2200393209629541E-002  0.15022640652488931        0.0000000000000000     
   5.3147268936663897E-002  0.15788448523519524        0.0000000000000000     
   5.4032443155598991E-002  0.16566477165076934        0.0000000000000000     
   4.4165944493002415E-002  0.13488811398989584        0.0000000000000000     
   4.5104700267922522E-002  0.14228482547775689        0.0000000000000000     
   4.5985329838478806E-002  0.14976498925725520        0.0000000000000000     
   4.6807833204671252E-002  0.15732860532839063        0.0000000000000000     
   4.7572210366499862E-002  0.16497567369116334        0.0000000000000000     
   0.0000000000000000        0.0000000000000000        0.0000000000000000     
   1.7981125958468412E-003   1.2767215317486570E-003   0.0000000000000000     
   3.6207573966169975E-003   2.9389564449973835E-003   0.0000000000000000     
   5.4679344023104686E-003   4.9867047397461782E-003   0.0000000000000000     
   7.3396436129272557E-003   7.4199664159950414E-003   0.0000000000000000     
   0.0000000000000000        0.0000000000000000        0.0000000000000000     
   1.5347584834369953E-003   1.2175962066128579E-003   0.0000000000000000     
   3.0986809017175009E-003   2.8209952190481774E-003   0.0000000000000000     
   4.6917672548415154E-003   4.8101970373059582E-003   0.0000000000000000     
   6.3140175428090407E-003   7.1852016613861997E-003   0.0000000000000000     
   0.0000000000000000        0.0000000000000000        0.0000000000000000     
   1.2875183147551753E-003   1.1701798799308907E-003   0.0000000000000000     
   2.6047750962367518E-003   2.7250357339281060E-003   0.0000000000000000     
   3.9517703444447308E-003   4.6645675619916439E-003   0.0000000000000000     
   5.3285040593791097E-003   6.9887753641215073E-003   0.0000000000000000     
   0.0000000000000000        0.0000000000000000        0.0000000000000000     
   1.0563920898013809E-003   1.1344725517027556E-003   0.0000000000000000     
   2.1390399801747514E-003   2.6510779896371677E-003   0.0000000000000000     
   3.2479436711201131E-003   4.5498163138032368E-003   0.0000000000000000     
   4.3831031626374636E-003   6.8306875242009624E-003   0.0000000000000000     
   0.0000000000000000        0.0000000000000000        0.0000000000000000     
   8.4137980857561224E-004   1.1104742219284524E-003   0.0000000000000000     
   1.7014755535314998E-003   2.5991219861753638E-003   0.0000000000000000     
   2.5802872348676628E-003   4.4659432927407362E-003   0.0000000000000000     
   3.4778148525841006E-003   6.7109381416245667E-003   0.0000000000000000     
   7.3396436129272557E-003   7.4199664159950414E-003   0.0000000000000000     
   9.2282342315047287E-003   1.0186381559975083E-002   0.0000000000000000     
   1.1126055461080257E-002   1.3233590257917417E-002   0.0000000000000000     
   1.3033107301653843E-002   1.6561592509822035E-002   0.0000000000000000     
   1.4949389753225486E-002   2.0170388315688941E-002   0.0000000000000000     
   6.3140175428090407E-003   7.1852016613861997E-003   0.0000000000000000     
   7.9527425397376388E-003   9.8964651103241475E-003   0.0000000000000000     
   9.5952530197448704E-003   1.2894443403155041E-002   0.0000000000000000     
   1.1241548982830737E-002   1.6179136539878881E-002   0.0000000000000000     
   1.2891630428995240E-002   1.9750544520495673E-002   0.0000000000000000     
   5.3285040593791097E-003   6.9887753641215073E-003   0.0000000000000000     
   6.7205012834995522E-003   9.6515638167332073E-003   0.0000000000000000     
   8.1132870592657176E-003   1.2606837596242260E-002   0.0000000000000000     
   9.5068613866776102E-003   1.5854596702648657E-002   0.0000000000000000     
   1.0901224265735223E-002   1.9394841135952405E-002   0.0000000000000000     
   4.3831031626374636E-003   6.8306875242009624E-003   0.0000000000000000     
   5.5315104627904708E-003   9.4516776792022642E-003   0.0000000000000000     
   6.6801575796428007E-003   1.2370772837179061E-002   0.0000000000000000     
   7.8290445131944560E-003   1.5587972998131357E-002   0.0000000000000000     
   8.9781712634454322E-003   1.9103278162059145E-002   0.0000000000000000     
   3.4778148525841006E-003   6.7109381416245667E-003   0.0000000000000000     
   4.3857700776103936E-003   9.2968066977313184E-003   0.0000000000000000     
   5.2958645808761189E-003   1.2186249125965458E-002   0.0000000000000000     
   6.2080983623812773E-003   1.5379265426326985E-002   0.0000000000000000     
   7.1224714221258690E-003   1.8875855598815897E-002   0.0000000000000000     
   1.4949389753225486E-002   2.0170388315688941E-002   0.0000000000000000     
   1.6849248803587812E-002   2.4031351268326614E-002   0.0000000000000000     
   1.8707030440533443E-002   2.8115854960543522E-002   0.0000000000000000     
   2.0522734664062379E-002   3.2423899392339674E-002   0.0000000000000000     
   2.2296361474174620E-002   3.6955484563715058E-002   0.0000000000000000     
   1.2891630428995240E-002   1.9750544520495673E-002   0.0000000000000000     
   1.4528821083712094E-002   2.3582624818284666E-002   0.0000000000000000     
   1.6136444672455008E-002   2.7649334906525141E-002   0.0000000000000000     
   1.7714501195223987E-002   3.1950674785217091E-002   0.0000000000000000     
   1.9262990652019030E-002   3.6486644454360520E-002   0.0000000000000000     
   1.0901224265735223E-002   1.9394841135952405E-002   0.0000000000000000     
   1.2285891156525168E-002   2.3202848021122668E-002   0.0000000000000000     
   1.3650377519134047E-002   2.7253894483128604E-002   0.0000000000000000     
   1.4994683353561862E-002   3.1547980521970220E-002   0.0000000000000000     
   1.6318808659808615E-002   3.6085106137647517E-002   0.0000000000000000     
   8.9781712634454322E-003   1.9103278162059145E-002   0.0000000000000000     
   1.0120459022027031E-002   2.2892020876840606E-002   0.0000000000000000     
   1.1248828980570558E-002   2.6929533690353908E-002   0.0000000000000000     
   1.2363281139076001E-002   3.1215816602599054E-002   0.0000000000000000     
   1.3463815497543370E-002   3.5750869613576035E-002   0.0000000000000000     
   7.1224714221258690E-003   1.8875855598815897E-002   0.0000000000000000     
   8.0325246802176887E-003   2.2650143385438491E-002   0.0000000000000000     
   8.9317990567645347E-003   2.6676252528201050E-002   0.0000000000000000     
   9.8202945517664054E-003   3.0954183027103597E-002   0.0000000000000000     
   1.0698011165223299E-002   3.5483934882146108E-002   0.0000000000000000     
   2.2296361474174620E-002   3.6955484563715058E-002   0.0000000000000000     
   2.4025740385286789E-002   4.1701856230262041E-002   0.0000000000000000     
   2.5708700911815492E-002   4.6654260147572985E-002   0.0000000000000000     
   2.7345243053760744E-002   5.1812696315647881E-002   0.0000000000000000     
   2.8935366811122534E-002   5.7177164734486745E-002   0.0000000000000000     
   1.9262990652019030E-002   3.6486644454360520E-002   0.0000000000000000     
   2.0775482913396540E-002   4.1241923429612429E-002   0.0000000000000000     
   2.2245547849912922E-002   4.6201191226629856E-002   0.0000000000000000     
   2.3673185461568168E-002   5.1364447845412803E-002   0.0000000000000000     
   2.5058395748362293E-002   5.6731693285961241E-002   0.0000000000000000     
   1.6318808659808615E-002   3.6085106137647517E-002   0.0000000000000000     
   1.7614280849838963E-002   4.0845712815674382E-002   0.0000000000000000     
   1.8872627335617575E-002   4.5810242041564746E-002   0.0000000000000000     
   2.0093848117144451E-002   5.0978693815318575E-002   0.0000000000000000     
   2.1277943194419585E-002   5.6351068136935918E-002   0.0000000000000000     
   1.3463815497543370E-002   3.5750869613576035E-002   0.0000000000000000     
   1.4542134194614056E-002   4.0513224388447906E-002   0.0000000000000000     
   1.5589939368929464E-002   4.5481412592377646E-002   0.0000000000000000     
   1.6607231020489579E-002   5.0655434225365267E-002   0.0000000000000000     
   1.7594009149294414E-002   5.6035289287410764E-002   0.0000000000000000     
   1.0698011165223299E-002   3.5483934882146108E-002   0.0000000000000000     
   1.1559042947721823E-002   4.0244458147932968E-002   0.0000000000000000     
   1.2397483949848576E-002   4.5214702879068550E-002   0.0000000000000000     
   1.3213334171603563E-002   5.0394669075552824E-002   0.0000000000000000     
   1.4006593612986779E-002   5.5784356737385812E-002   0.0000000000000000     
   2.8935366811122534E-002   5.7177164734486745E-002   0.0000000000000000     
   3.0478223882922137E-002   6.2735336966238522E-002   0.0000000000000000     
   3.1972965968180833E-002   6.8474884573052161E-002   0.0000000000000000     
   3.3419593066898616E-002   7.4395807554927654E-002   0.0000000000000000     
   3.4818105179075493E-002   8.0498105911865014E-002   0.0000000000000000     
   2.5058395748362293E-002   5.6731693285961241E-002   0.0000000000000000     
   2.6402084732495643E-002   6.2293128749155283E-002   0.0000000000000000     
   2.7705158436168581E-002   6.8038955435875015E-002   0.0000000000000000     
   2.8967616859381110E-002   7.3969173346120423E-002   0.0000000000000000     
   3.0189460002133229E-002   8.0083782479891508E-002   0.0000000000000000     
   2.1277943194419585E-002   5.6351068136935918E-002   0.0000000000000000     
   2.2426486566348724E-002   6.1918536186765218E-002   0.0000000000000000     
   2.3541052231837584E-002   6.7672269145154965E-002   0.0000000000000000     
   2.4621640190886175E-002   7.3612267012105187E-002   0.0000000000000000     
   2.5668250443494498E-002   7.9738529787615850E-002   0.0000000000000000     
   1.7594009149294414E-002   5.6035289287410764E-002   0.0000000000000000     
   1.8551429384481361E-002   6.1611559279068320E-002   0.0000000000000000     
   1.9480647355187831E-002   6.7374825700892038E-002   0.0000000000000000     
   2.0381663061413813E-002   7.3325088552881931E-002   0.0000000000000000     
   2.1254476503159311E-002   7.9462347835038000E-002   0.0000000000000000     
   1.4006593612986779E-002   5.5784356737385812E-002   0.0000000000000000     
   1.4776913186893583E-002   6.1372198026064591E-002   0.0000000000000000     
   1.5523943806219333E-002   6.7146625103086208E-002   0.0000000000000000     
   1.6247685470964026E-002   7.3107637968450684E-002   0.0000000000000000     
   1.6948138181127663E-002   7.9255236622157998E-002   0.0000000000000000     
   3.4818105179075493E-002   8.0498105911865014E-002   0.0000000000000000     
   3.6166480855678293E-002   8.6769908241556296E-002   0.0000000000000000     
   3.7462698647673869E-002   9.3199343141693605E-002   0.0000000000000000     
   3.8706758555062219E-002   9.9786410612276902E-002   0.0000000000000000     
   3.9898660577843345E-002  0.10653111065330621        0.0000000000000000     
   3.0189460002133229E-002   8.0083782479891508E-002   0.0000000000000000     
   3.1367825421098318E-002   8.6368824469082436E-002   0.0000000000000000     
   3.2499850672949762E-002   9.2810340945587350E-002   0.0000000000000000     
   3.3585535757687565E-002   9.9408331909406206E-002   0.0000000000000000     
   3.4624880675311727E-002  0.10616279736053906        0.0000000000000000     
   2.5668250443494498E-002   7.9738529787615850E-002   0.0000000000000000     
   2.6677669338691083E-002   8.6035939350426416E-002   0.0000000000000000     
   2.7646683225504450E-002   9.2489377579276277E-002   0.0000000000000000     
   2.8575292103934610E-002   9.9098844474165504E-002   0.0000000000000000     
   2.9463495973981547E-002  0.10586434003509404        0.0000000000000000     
   2.1254476503159311E-002   7.9462347835038000E-002   0.0000000000000000     
   2.2096012608456599E-002   8.5771252885588206E-002   0.0000000000000000     
   2.2903196305337943E-002   9.2236453042760458E-002   0.0000000000000000     
   2.3676027593803349E-002   9.8857948306554783E-002   0.0000000000000000     
   2.4414506473852814E-002  0.10563573867697115        0.0000000000000000     
   1.6948138181127663E-002   7.9255236622157998E-002   0.0000000000000000     
   1.7622855230394863E-002   8.5574765074567821E-002   0.0000000000000000     
   1.8269389912450237E-002   9.2051567336039836E-002   0.0000000000000000     
   1.8887742227293787E-002   9.8685643406574028E-002   0.0000000000000000     
   1.9477912174925519E-002  0.10547699328617037        0.0000000000000000     
   3.9898660577843345E-002  0.10653111065330621        0.0000000000000000     
   4.1039733132898909E-002  0.11342106060653230        0.0000000000000000     
   4.2131304637110623E-002  0.12044387781370593        0.0000000000000000     
   4.3173375090478437E-002  0.12759956227482713        0.0000000000000000     
   4.4165944493002415E-002  0.13488811398989584        0.0000000000000000     
   3.4624880675311727E-002  0.10616279736053906        0.0000000000000000     
   3.5618472248785518E-002  0.11306101284577835        0.0000000000000000     
   3.6566897301072217E-002  0.12009025391191655        0.0000000000000000     
   3.7470155832171823E-002  0.12725052055895367        0.0000000000000000     
   3.8328247842084343E-002  0.13454181278688970        0.0000000000000000     
   2.9463495973981547E-002  0.10586434003509404        0.0000000000000000     
   3.0311785125691600E-002  0.11277310642412426        0.0000000000000000     
   3.1120649849111094E-002  0.11981238580331852        0.0000000000000000     
   3.1890090144240012E-002  0.12698217817267685        0.0000000000000000     
   3.2620106011078363E-002  0.13428248353219918        0.0000000000000000     
   2.4414506473852814E-002  0.10563573867697115        0.0000000000000000     
   2.5119671763617169E-002  0.11255734134157000        0.0000000000000000     
   2.5792562281227231E-002  0.11961027348791180        0.0000000000000000     
   2.6433178026682998E-002  0.12679453511599656        0.0000000000000000     
   2.7041518999984481E-002  0.13411012622582416        0.0000000000000000     
   1.9477912174925519E-002  0.10547699328617037        0.0000000000000000     
   2.0042132162562204E-002  0.11241371759811561        0.0000000000000000     
   2.0582634597420629E-002  0.11948391696569642        0.0000000000000000     
   2.1099419479500794E-002  0.12668759138891286        0.0000000000000000     
   2.1592486808802692E-002  0.13402474086776484        0.0000000000000000     
   4.4165944493002415E-002  0.13488811398989584        0.0000000000000000     
   4.5104700267922522E-002  0.14228482547775689        0.0000000000000000     
   4.5985329838478806E-002  0.14976498925725520        0.0000000000000000     
   4.6807833204671252E-002  0.15732860532839063        0.0000000000000000     
   4.7572210366499862E-002  0.16497567369116334        0.0000000000000000     
   3.8328247842084343E-002  0.13454181278688970        0.0000000000000000     
   3.9135760074362751E-002  0.14192120499532718        0.0000000000000000     
   3.9887279272560028E-002  0.14934577158386861        0.0000000000000000     
   4.0582805436676195E-002  0.15681551255251400        0.0000000000000000     
   4.1222338566711231E-002  0.16433042790126340        0.0000000000000000     
   3.2620106011078363E-002  0.13428248353219918        0.0000000000000000     
   3.3304361498551247E-002  0.14166316662271047        0.0000000000000000     
   3.3936520655583752E-002  0.14907409218503567        0.0000000000000000     
   3.4516583482175872E-002  0.15651526021917483        0.0000000000000000     
   3.5044549978327608E-002  0.16398667072512788        0.0000000000000000     
   2.7041518999984481E-002  0.13411012622582416        0.0000000000000000     
   2.7610504540488020E-002  0.14151071035990681        0.0000000000000000     
   2.8133053987549950E-002  0.14894995106075642        0.0000000000000000     
   2.8609167341170274E-002  0.15642784832837311        0.0000000000000000     
   2.9038844601348989E-002  0.16394440216275671        0.0000000000000000     
   2.1592486808802692E-002  0.13402474086776484        0.0000000000000000     
   2.2054189200173061E-002  0.14146383620691624        0.0000000000000000     
   2.2476879268458635E-002  0.14897334821103089        0.0000000000000000     
   2.2860557013659407E-002  0.15655327688010881        0.0000000000000000     
   2.3205222435775386E-002  0.16420362221414991        0.0000000000000000     
   0.0000000000000000        0.0000000000000000        0.0000000000000000     
   8.4137980857561224E-004   1.1104742219284524E-003   0.0000000000000000     
   1.7014755535314998E-003   2.5991219861753638E-003   0.0000000000000000     
   2.5802872348676628E-003   4.4659432927407362E-003   0.0000000000000000     
   3.4778148525841006E-003   6.7109381416245667E-003   0.0000000000000000     
   0.0000000000000000        0.0000000000000000        0.0000000000000000     
   6.3357708851897922E-004   1.0945983701992036E-003   0.0000000000000000     
   1.2775240199867713E-003   2.5632862447585157E-003   0.0000000000000000     
   1.9318407944033762E-003   4.4060636236779374E-003   0.0000000000000000     
   2.5965274117687935E-003   6.6229305069574656E-003   0.0000000000000000     
   0.0000000000000000        0.0000000000000000        0.0000000000000000     
   4.2407954707259209E-004   1.0832584761062314E-003   0.0000000000000000     
   8.5262758322034171E-004   2.5376892866024433E-003   0.0000000000000000     
   1.2856441084432488E-003   4.3632924314886369E-003   0.0000000000000000     
   1.7231291227413138E-003   6.5600679107648101E-003   0.0000000000000000     
   0.0000000000000000        0.0000000000000000        0.0000000000000000     
   2.1288718423645065E-004   1.0764545396495355E-003   0.0000000000000000     
   4.2678624323221081E-004   2.5223311117071475E-003   0.0000000000000000     
   6.4169717698728073E-004   4.3376297161728354E-003   0.0000000000000000     
   8.5761998550166053E-004   6.5223503530465994E-003   0.0000000000000000     
   0.0000000000000000        0.0000000000000000        0.0000000000000000     
   1.0554924989580883E-014   1.0741865608291164E-003   0.0000000000000000     
   2.2378962832164673E-014   2.5172117200726275E-003   0.0000000000000000     
   3.5472005107534121E-014   4.3290754777305330E-003   0.0000000000000000     
   4.9833997605580604E-014   6.5097778338028328E-003   0.0000000000000000     
   3.4778148525841006E-003   6.7109381416245667E-003   0.0000000000000000     
   4.3857700776103936E-003   9.2968066977313184E-003   0.0000000000000000     
   5.2958645808761189E-003   1.2186249125965458E-002   0.0000000000000000     
   6.2080983623812773E-003   1.5379265426326985E-002   0.0000000000000000     
   7.1224714221258690E-003   1.8875855598815897E-002   0.0000000000000000     
   2.5965274117687935E-003   6.6229305069574656E-003   0.0000000000000000     
   3.2685730722021487E-003   9.1809887197195905E-003   0.0000000000000000     
   3.9449669758225663E-003   1.2047340087086795E-002   0.0000000000000000     
   4.6257091226300454E-003   1.5221984609059078E-002   0.0000000000000000     
   5.3107995126245866E-003   1.8704922285636447E-002   0.0000000000000000     
   1.7231291227413138E-003   6.5600679107648101E-003   0.0000000000000000     
   2.1652123908085666E-003   9.0982615925662945E-003   0.0000000000000000     
   2.6120236773390384E-003   1.1948119345028421E-002   0.0000000000000000     
   3.0635629823327288E-003   1.5109641168151189E-002   0.0000000000000000     
   3.5198303057896378E-003   1.8582827061934596E-002   0.0000000000000000     
   8.5761998550166053E-004   6.5223503530465994E-003   0.0000000000000000     
   1.0756880334296464E-003   9.0486253162714338E-003   0.0000000000000000     
   1.2970346854255359E-003   1.1888586899790339E-002   0.0000000000000000     
   1.5216599414893284E-003   1.5042235103603309E-002   0.0000000000000000     
   1.7495638016210243E-003   1.8509569927710350E-002   0.0000000000000000     
   4.9833997605580604E-014   6.5097778338028328E-003   0.0000000000000000     
   6.5388422757980957E-014   9.0320798908350083E-003   0.0000000000000000     
   8.2058695233776235E-014   1.1868742751372546E-002   0.0000000000000000     
   9.9844066255841066E-014   1.5019766415415442E-002   0.0000000000000000     
   1.1874518295734715E-013   1.8485150882963697E-002   0.0000000000000000     
   7.1224714221258690E-003   1.8875855598815897E-002   0.0000000000000000     
   8.0325246802176887E-003   2.2650143385438491E-002   0.0000000000000000     
   8.9317990567645347E-003   2.6676252528201050E-002   0.0000000000000000     
   9.8202945517664054E-003   3.0954183027103597E-002   0.0000000000000000     
   1.0698011165223299E-002   3.5483934882146108E-002   0.0000000000000000     
   5.3107995126245866E-003   1.8704922285636447E-002   0.0000000000000000     
   5.9936028036140839E-003   2.2468666053595664E-002   0.0000000000000000     
   6.6674836534064289E-003   2.6485728849713494E-002   0.0000000000000000     
   7.3324420620016241E-003   3.0756110673989957E-002   0.0000000000000000     
   7.9884780293996670E-003   3.5279811526425030E-002   0.0000000000000000     
   3.5198303057896378E-003   1.8582827061934596E-002   0.0000000000000000     
   3.9752080647331590E-003   2.2339039387991488E-002   0.0000000000000000     
   4.4240786761866810E-003   2.6349640507934709E-002   0.0000000000000000     
   4.8664421401502077E-003   3.0614630421764249E-002   0.0000000000000000     
   5.3022984566237366E-003   3.5134009129480129E-002   0.0000000000000000     
   1.7495638016210243E-003   1.8509569927710350E-002   0.0000000000000000     
   1.9773404635749156E-003   2.2261263388625965E-002   0.0000000000000000     
   2.2015841251052932E-003   2.6267987502864677E-002   0.0000000000000000     
   2.4222947862121572E-003   3.0529742270426489E-002   0.0000000000000000     
   2.6394724468955084E-003   3.5046527691311391E-002   0.0000000000000000     
   1.1874518295734715E-013   1.8485150882963697E-002   0.0000000000000000     
   1.3935413153282061E-013   2.2235338055499092E-002   0.0000000000000000     
   1.6226313370205914E-013   2.6240769834503411E-002   0.0000000000000000     
   1.8747311781317291E-013   3.0501446219976660E-002   0.0000000000000000     
   2.1498276249476422E-013   3.5017367211918830E-002   0.0000000000000000     
   1.0698011165223299E-002   3.5483934882146108E-002   0.0000000000000000     
   1.1559042947721823E-002   4.0244458147932968E-002   0.0000000000000000     
   1.2397483949848576E-002   4.5214702879068550E-002   0.0000000000000000     
   1.3213334171603563E-002   5.0394669075552824E-002   0.0000000000000000     
   1.4006593612986779E-002   5.5784356737385812E-002   0.0000000000000000     
   7.9884780293996670E-003   3.5279811526425030E-002   0.0000000000000000     
   8.6326801064600250E-003   4.0037166144168509E-002   0.0000000000000000     
   9.2621368440421632E-003   4.5008509264370181E-002   0.0000000000000000     
   9.8768482421460815E-003   5.0193840887030043E-002   0.0000000000000000     
   1.0476814300771780E-002   5.5593161012148097E-002   0.0000000000000000     
   5.3022984566237366E-003   3.5134009129480129E-002   0.0000000000000000     
   5.7307186681264345E-003   3.9889100427193437E-002   0.0000000000000000     
   6.1507738171774629E-003   4.4861228111015297E-002   0.0000000000000000     
   6.5624639037768226E-003   5.0050392180945709E-002   0.0000000000000000     
   6.9657889279245155E-003   5.5456592636984679E-002   0.0000000000000000     
   2.6394724468955084E-003   3.5046527691311391E-002   0.0000000000000000     
   2.8531586327210472E-003   3.9800260997007737E-002   0.0000000000000000     
   3.0633948692544736E-003   4.4772859419003871E-002   0.0000000000000000     
   3.2701811564957882E-003   4.9964322957299814E-002   0.0000000000000000     
   3.4735174944449899E-003   5.5374651611895552E-002   0.0000000000000000     
   2.1498276249476422E-013   3.5017367211918830E-002   0.0000000000000000     
   2.4386623363042981E-013   3.9770647853611424E-002   0.0000000000000000     
   2.7319742605322328E-013   4.4743403188335938E-002   0.0000000000000000     
   3.0297491674779325E-013   4.9935633216092359E-002   0.0000000000000000     
   3.3319961373345919E-013   5.5347337936880708E-002   0.0000000000000000     
   1.4006593612986779E-002   5.5784356737385812E-002   0.0000000000000000     
   1.4776913186893583E-002   6.1372198026064591E-002   0.0000000000000000     
   1.5523943806219333E-002   6.7146625103086208E-002   0.0000000000000000     
   1.6247685470964026E-002   7.3107637968450684E-002   0.0000000000000000     
   1.6948138181127663E-002   7.9255236622157998E-002   0.0000000000000000     
   1.0476814300771780E-002   5.5593161012148097E-002   0.0000000000000000     
   1.1060171833649768E-002   6.1192338778619064E-002   0.0000000000000000     
   1.1625057654510555E-002   6.6977243325337651E-002   0.0000000000000000     
   1.2171471763354142E-002   7.2947874652303860E-002   0.0000000000000000     
   1.2699414160180528E-002   7.9104232759517695E-002   0.0000000000000000     
   6.9657889279245155E-003   5.5456592636984679E-002   0.0000000000000000     
   7.3584391848143084E-003   6.1063867887596754E-002   0.0000000000000000     
   7.7381049696399638E-003   6.6856256341246492E-002   0.0000000000000000     
   8.1047862824014851E-003   7.2833757997933873E-002   0.0000000000000000     
   8.4584831230988707E-003   7.8996372857658939E-002   0.0000000000000000     
   3.4735174944449899E-003   5.5374651611895552E-002   0.0000000000000000     
   3.6717152403872057E-003   6.0986785352997668E-002   0.0000000000000000     
   3.8630857516075627E-003   6.6783664150812716E-002   0.0000000000000000     
   4.0476290281060597E-003   7.2765288005340753E-002   0.0000000000000000     
   4.2253450698826979E-003   7.8931656916581772E-002   0.0000000000000000     
   3.3319961373345919E-013   5.5347337936880708E-002   0.0000000000000000     
   3.6846133782963975E-013   6.0961091174821777E-002   0.0000000000000000     
   4.1334958459510185E-013   6.6759466754036378E-002   0.0000000000000000     
   4.6786427271468256E-013   7.2742464674524512E-002   0.0000000000000000     
   5.3200499561256720E-013   7.8910084936286137E-002   0.0000000000000000     
   1.6948138181127663E-002   7.9255236622157998E-002   0.0000000000000000     
   1.7622855230394863E-002   8.5574765074567821E-002   0.0000000000000000     
   1.8269389912450237E-002   9.2051567336039836E-002   0.0000000000000000     
   1.8887742227293787E-002   9.8685643406574028E-002   0.0000000000000000     
   1.9477912174925519E-002  0.10547699328617037        0.0000000000000000     
   1.2699414160180528E-002   7.9104232759517695E-002   0.0000000000000000     
   1.3207246002051438E-002   8.5432675150984919E-002   0.0000000000000000     
   1.3693328446028599E-002   9.1919559330711345E-002   0.0000000000000000     
   1.4157661492112004E-002   9.8564885298696919E-002   0.0000000000000000     
   1.4600245140301662E-002  0.10536865305494168        0.0000000000000000     
   8.4584831230988707E-003   7.8996372857658939E-002   0.0000000000000000     
   8.7982337209718854E-003   8.5331182348459114E-002   0.0000000000000000     
   9.1230763052602849E-003   9.1825267898371865E-002   0.0000000000000000     
   9.4330108759640690E-003   9.8478629507397164E-002   0.0000000000000000     
   9.7280374330832413E-003  0.10529126717553504        0.0000000000000000     
   4.2253450698826979E-003   7.8931656916581772E-002   0.0000000000000000     
   4.3958183871562004E-003   8.5270286666990394E-002   0.0000000000000000     
   4.5586334901452962E-003   9.1768693039021396E-002   0.0000000000000000     
   4.7137903788499825E-003   9.8426876032674734E-002   0.0000000000000000     
   4.8612890532702601E-003  0.10524483564795044        0.0000000000000000     
   5.3200499561256720E-013   7.8910084936286137E-002   0.0000000000000000     
   6.0439045261595492E-013   8.5249988106578786E-002   0.0000000000000000     
   6.8363619886574467E-013   9.1749834752659978E-002   0.0000000000000000     
   7.6974405040057536E-013   9.8409624874529658E-002   0.0000000000000000     
   8.6271224539191671E-013  0.10522935847218785        0.0000000000000000     
   1.9477912174925519E-002  0.10547699328617037        0.0000000000000000     
   2.0042132162562204E-002  0.11241371759811561        0.0000000000000000     
   2.0582634597420629E-002  0.11948391696569642        0.0000000000000000     
   2.1099419479500794E-002  0.12668759138891286        0.0000000000000000     
   2.1592486808802692E-002  0.13402474086776484        0.0000000000000000     
   1.4600245140301662E-002  0.10536865305494168        0.0000000000000000     
   1.5024309362053102E-002  0.11231960865846664        0.0000000000000000     
   1.5433084128821863E-002  0.11940649816829287        0.0000000000000000     
   1.5826569440607938E-002  0.12662932158442028        0.0000000000000000     
   1.6204765297411331E-002  0.13398807890684900        0.0000000000000000     
   9.7280374330832413E-003  0.10529126717553504        0.0000000000000000     
   1.0011346401616234E-002  0.11225238798732876        0.0000000000000000     
   1.0286128206561482E-002  0.11935119902732158        0.0000000000000000     
   1.0552382847918979E-002  0.12658770029551350        0.0000000000000000     
   1.0810110325688732E-002  0.13396189179190454        0.0000000000000000     
   4.8612890532702601E-003  0.10524483564795044        0.0000000000000000     
   5.0032432812516028E-003  0.11221205558470190        0.0000000000000000     
   5.1417668306394911E-003  0.11931801954278255        0.0000000000000000     
   5.2768597014339206E-003  0.12656272752219244        0.0000000000000000     
   5.4085218936348965E-003  0.13394617952293156        0.0000000000000000     
   8.6271224539191671E-013  0.10522935847218785        0.0000000000000000     
   9.5920623874312660E-013  0.11219861145058607        0.0000000000000000     
   1.0558896422138697E-012  0.11930695971467582        0.0000000000000000     
   1.1527612360767020E-012  0.12655440326445710        0.0000000000000000     
   1.2498231616309141E-012  0.13394094209992993        0.0000000000000000     
   2.1592486808802692E-002  0.13402474086776484        0.0000000000000000     
   2.2054189200173061E-002  0.14146383620691624        0.0000000000000000     
   2.2476879268458635E-002  0.14897334821103089        0.0000000000000000     
   2.2860557013659407E-002  0.15655327688010881        0.0000000000000000     
   2.3205222435775386E-002  0.16420362221414991        0.0000000000000000     
   1.6204765297411331E-002  0.13398807890684900        0.0000000000000000     
   1.6560143976667885E-002  0.14146901349607188        0.0000000000000000     
   1.6885177755813448E-002  0.14905836871258202        0.0000000000000000     
   1.7179866634848016E-002  0.15675614455637940        0.0000000000000000     
   1.7444210613771594E-002  0.16456234102746398        0.0000000000000000     
   1.0810110325688732E-002  0.13396189179190454        0.0000000000000000     
   1.1053097369033996E-002  0.14147271155970692        0.0000000000000000     
   1.1275130707118034E-002  0.14911909764213285        0.0000000000000000     
   1.1476210339940840E-002  0.15690105003918228        0.0000000000000000     
   1.1656336267502425E-002  0.16481856875085527        0.0000000000000000     
   5.4085218936348965E-003  0.13394617952293156        0.0000000000000000     
   5.5330493772713903E-003  0.14147493039782130        0.0000000000000000     
   5.6467381223723875E-003  0.14915553499968331        0.0000000000000000     
   5.7495881289378803E-003  0.15698799332851746        0.0000000000000000     
   5.8415993969678738E-003  0.16497230538432378        0.0000000000000000     
   1.2498231616309141E-012  0.13394094209992993        0.0000000000000000     
   1.3800722717394187E-012  0.14147567001041511        0.0000000000000000     
   1.5765101897546874E-012  0.14916768078523343        0.0000000000000000     
   1.8391326872882474E-012  0.15701697442438492        0.0000000000000000     
   2.1679446432498750E-012  0.16502355092786955        0.0000000000000000     
   0.0000000000000000        0.0000000000000000        0.0000000000000000     
   1.0554924989580883E-014   1.0741865608291164E-003   0.0000000000000000     
   2.2378962832164673E-014   2.5172117200726275E-003   0.0000000000000000     
   3.5472005107534121E-014   4.3290754777305330E-003   0.0000000000000000     
   4.9833997605580604E-014   6.5097778338028328E-003   0.0000000000000000     
   0.0000000000000000        0.0000000000000000        0.0000000000000000     
  -2.1288718421570512E-004   1.0764545396451605E-003   0.0000000000000000     
  -4.2678624318823123E-004   2.5223311116992263E-003   0.0000000000000000     
  -6.4169717691757856E-004   4.3376297161621981E-003   0.0000000000000000     
  -8.5761998540374678E-004   6.5223503530340765E-003   0.0000000000000000     
   0.0000000000000000        0.0000000000000000        0.0000000000000000     
  -4.2407954705293963E-004   1.0832584760978536E-003   0.0000000000000000     
  -8.5262758317869664E-004   2.5376892865872878E-003   0.0000000000000000     
  -1.2856441083772714E-003   4.3632924314683024E-003   0.0000000000000000     
  -1.7231291226486633E-003   6.5600679107408969E-003   0.0000000000000000     
   0.0000000000000000        0.0000000000000000        0.0000000000000000     
  -6.3357708850114854E-004   1.0945983701871962E-003   0.0000000000000000     
  -1.2775240199490172E-003   2.5632862447368108E-003   0.0000000000000000     
  -1.9318407943436067E-003   4.4060636236488435E-003   0.0000000000000000     
  -2.5965274116849157E-003   6.6229305069232941E-003   0.0000000000000000     
   0.0000000000000000        0.0000000000000000        0.0000000000000000     
  -8.4137980856033192E-004   1.1104742219131885E-003   0.0000000000000000     
  -1.7014755534991931E-003   2.5991219861477956E-003   0.0000000000000000     
  -2.5802872348165843E-003   4.4659432927038221E-003   0.0000000000000000     
  -3.4778148525125047E-003   6.7109381415812672E-003   0.0000000000000000     
   4.9833997605580604E-014   6.5097778338028328E-003   0.0000000000000000     
   6.5388422757980957E-014   9.0320798908350083E-003   0.0000000000000000     
   8.2058695233776235E-014   1.1868742751372546E-002   0.0000000000000000     
   9.9844066255841066E-014   1.5019766415415442E-002   0.0000000000000000     
   1.1874518295734715E-013   1.8485150882963697E-002   0.0000000000000000     
  -8.5761998540374678E-004   6.5223503530340765E-003   0.0000000000000000     
  -1.0756880333011990E-003   9.0486253162576774E-003   0.0000000000000000     
  -1.2970346852643978E-003   1.1888586899775816E-002   0.0000000000000000     
  -1.5216599412933441E-003   1.5042235103588495E-002   0.0000000000000000     
  -1.7495638013880371E-003   1.8509569927695705E-002   0.0000000000000000     
  -1.7231291226486633E-003   6.5600679107408969E-003   0.0000000000000000     
  -2.1652123906871078E-003   9.0982615925400967E-003   0.0000000000000000     
  -2.6120236771868381E-003   1.1948119345000920E-002   0.0000000000000000     
  -3.0635629821478549E-003   1.5109641168123375E-002   0.0000000000000000     
  -3.5198303055701593E-003   1.8582827061907451E-002   0.0000000000000000     
  -2.5965274116849157E-003   6.6229305069232941E-003   0.0000000000000000     
  -3.2685730720923368E-003   9.1809887196822662E-003   0.0000000000000000     
  -3.9449669756852620E-003   1.2047340087047862E-002   0.0000000000000000     
  -4.6257091224636906E-003   1.5221984609020087E-002   0.0000000000000000     
  -5.3107995124276209E-003   1.8704922285598929E-002   0.0000000000000000     
  -3.4778148525125047E-003   6.7109381415812672E-003   0.0000000000000000     
  -4.3857700775168885E-003   9.2968066976841894E-003   0.0000000000000000     
  -5.2958645807596695E-003   1.2186249125916640E-002   0.0000000000000000     
  -6.2080983622408471E-003   1.5379265426278625E-002   0.0000000000000000     
  -7.1224714219604215E-003   1.8875855598770142E-002   0.0000000000000000     
   1.1874518295734715E-013   1.8485150882963697E-002   0.0000000000000000     
   1.3935413153282061E-013   2.2235338055499092E-002   0.0000000000000000     
   1.6226313370205914E-013   2.6240769834503411E-002   0.0000000000000000     
   1.8747311781317291E-013   3.0501446219976660E-002   0.0000000000000000     
   2.1498276249476422E-013   3.5017367211918830E-002   0.0000000000000000     
  -1.7495638013880371E-003   1.8509569927695705E-002   0.0000000000000000     
  -1.9773404633016355E-003   2.2261263388612066E-002   0.0000000000000000     
  -2.2015841247872998E-003   2.6267987502852166E-002   0.0000000000000000     
  -2.4222947858450281E-003   3.0529742270416008E-002   0.0000000000000000     
  -2.6394724464748223E-003   3.5046527691303599E-002   0.0000000000000000     
  -3.5198303055701593E-003   1.8582827061907451E-002   0.0000000000000000     
  -3.9752080644761640E-003   2.2339039387966084E-002   0.0000000000000000     
  -4.4240786758882860E-003   2.6349640507912196E-002   0.0000000000000000     
  -4.8664421398065278E-003   3.0614630421745778E-002   0.0000000000000000     
  -5.3022984562308851E-003   3.5134009129466841E-002   0.0000000000000000     
  -5.3107995124276209E-003   1.8704922285598929E-002   0.0000000000000000     
  -5.9936028033842331E-003   2.2468666053561154E-002   0.0000000000000000     
  -6.6674836531407005E-003   2.6485728849683497E-002   0.0000000000000000     
  -7.3324420616970240E-003   3.0756110673965970E-002   0.0000000000000000     
  -7.9884780290532063E-003   3.5279811526408571E-002   0.0000000000000000     
  -7.1224714219604215E-003   1.8875855598770142E-002   0.0000000000000000     
  -8.0325246800258387E-003   2.2650143385397264E-002   0.0000000000000000     
  -8.9317990565445354E-003   2.6676252528166085E-002   0.0000000000000000     
  -9.8202945515165202E-003   3.0954183027076577E-002   0.0000000000000000     
  -1.0698011164941785E-002   3.5483934882128768E-002   0.0000000000000000     
   2.1498276249476422E-013   3.5017367211918830E-002   0.0000000000000000     
   2.4386623363042981E-013   3.9770647853611424E-002   0.0000000000000000     
   2.7319742605322328E-013   4.4743403188335938E-002   0.0000000000000000     
   3.0297491674779325E-013   4.9935633216092359E-002   0.0000000000000000     
   3.3319961373345919E-013   5.5347337936880708E-002   0.0000000000000000     
  -2.6394724464748223E-003   3.5046527691303599E-002   0.0000000000000000     
  -2.8531586322441461E-003   3.9800260997005447E-002   0.0000000000000000     
  -3.0633948687204655E-003   4.4772859419012066E-002   0.0000000000000000     
  -3.2701811559037834E-003   4.9964322957323448E-002   0.0000000000000000     
  -3.4735174937940948E-003   5.5374651611939614E-002   0.0000000000000000     
  -5.3022984562308851E-003   3.5134009129466841E-002   0.0000000000000000     
  -5.7307186676820235E-003   3.9889100427190752E-002   0.0000000000000000     
  -6.1507738166806129E-003   4.4861228111032860E-002   0.0000000000000000     
  -6.5624639032266499E-003   5.0050392180993178E-002   0.0000000000000000     
  -6.9657889273201353E-003   5.5456592637071700E-002   0.0000000000000000     
  -7.9884780290532063E-003   3.5279811526408571E-002   0.0000000000000000     
  -8.6326801060697695E-003   4.0037166144167337E-002   0.0000000000000000     
  -9.2621368436072455E-003   4.5008509264398332E-002   0.0000000000000000     
  -9.8768482416656291E-003   5.0193840887101535E-002   0.0000000000000000     
  -1.0476814300244925E-002   5.5593161012276959E-002   0.0000000000000000     
  -1.0698011164941785E-002   3.5483934882128768E-002   0.0000000000000000     
  -1.1559042947407384E-002   4.0244458147935210E-002   0.0000000000000000     
  -1.2397483949500361E-002   4.5214702879108455E-002   0.0000000000000000     
  -1.3213334171220722E-002   5.0394669075648525E-002   0.0000000000000000     
  -1.4006593612568454E-002   5.5784356737555399E-002   0.0000000000000000     
   3.3319961373345919E-013   5.5347337936880708E-002   0.0000000000000000     
   3.6846133782963975E-013   6.0961091174821777E-002   0.0000000000000000     
   4.1334958459510185E-013   6.6759466754036378E-002   0.0000000000000000     
   4.6786427271468256E-013   7.2742464674524512E-002   0.0000000000000000     
   5.3200499561256720E-013   7.8910084936286137E-002   0.0000000000000000     
  -3.4735174937940948E-003   5.5374651611939614E-002   0.0000000000000000     
  -3.6717152396664034E-003   6.0986785353067230E-002   0.0000000000000000     
  -3.8630857507957095E-003   6.6783664150912983E-002   0.0000000000000000     
  -4.0476290271820106E-003   7.2765288005476839E-002   0.0000000000000000     
  -4.2253450688253041E-003   7.8931656916758838E-002   0.0000000000000000     
  -6.9657889273201353E-003   5.5456592637071700E-002   0.0000000000000000     
  -7.3584391841418698E-003   6.1063867887732104E-002   0.0000000000000000     
  -7.7381049688726444E-003   6.6856256341438075E-002   0.0000000000000000     
  -8.1047862815124671E-003   7.2833757998189586E-002   0.0000000000000000     
  -8.4584831220613343E-003   7.8996372857986663E-002   0.0000000000000000     
  -1.0476814300244925E-002   5.5593161012276959E-002   0.0000000000000000     
  -1.1060171833057932E-002   6.1192338778816406E-002   0.0000000000000000     
  -1.1625057653817461E-002   6.6977243325611655E-002   0.0000000000000000     
  -1.2171471762523508E-002   7.2947874652662684E-002   0.0000000000000000     
  -1.2699414159176079E-002   7.9104232759969542E-002   0.0000000000000000     
  -1.4006593612568454E-002   5.5784356737555399E-002   0.0000000000000000     
  -1.4776913186414593E-002   6.1372198026320129E-002   0.0000000000000000     
  -1.5523943805630153E-002   6.7146625103433721E-002   0.0000000000000000     
  -1.6247685470215135E-002   7.3107637968896189E-002   0.0000000000000000     
  -1.6948138180169540E-002   7.9255236622707559E-002   0.0000000000000000     
   5.3200499561256720E-013   7.8910084936286137E-002   0.0000000000000000     
   6.0439045261595492E-013   8.5249988106578786E-002   0.0000000000000000     
   6.8363619886574467E-013   9.1749834752659978E-002   0.0000000000000000     
   7.6974405040057536E-013   9.8409624874529658E-002   0.0000000000000000     
   8.6271224539191671E-013  0.10522935847218785        0.0000000000000000     
  -4.2253450688253041E-003   7.8931656916758838E-002   0.0000000000000000     
  -4.3958183859465197E-003   8.5270286667206152E-002   0.0000000000000000     
  -4.5586334887665735E-003   9.1768693039265950E-002   0.0000000000000000     
  -4.7137903772854648E-003   9.8426876032938204E-002   0.0000000000000000     
  -4.8612890515031953E-003  0.10524483564822296        0.0000000000000000     
  -8.4584831220613343E-003   7.8996372857986663E-002   0.0000000000000000     
  -8.7982337197594958E-003   8.5331182348854354E-002   0.0000000000000000     
  -9.1230763038472069E-003   9.1825267898817675E-002   0.0000000000000000     
  -9.4330108743244656E-003   9.8478629507876697E-002   0.0000000000000000     
  -9.7280374311912686E-003  0.10529126717603134        0.0000000000000000     
  -1.2699414159176079E-002   7.9104232759969542E-002   0.0000000000000000     
  -1.3207246000834540E-002   8.5432675151523349E-002   0.0000000000000000     
  -1.3693328444558261E-002   9.1919559331315195E-002   0.0000000000000000     
  -1.4157661490347251E-002   9.8564885299345081E-002   0.0000000000000000     
  -1.4600245138201500E-002  0.10536865305561303        0.0000000000000000     
  -1.6948138180169540E-002   7.9255236622707559E-002   0.0000000000000000     
  -1.7622855229171647E-002   8.5574765075213194E-002   0.0000000000000000     
  -1.8269389910899742E-002   9.2051567336758483E-002   0.0000000000000000     
  -1.8887742225353825E-002   9.8685643407343426E-002   0.0000000000000000     
  -1.9477912172533890E-002  0.10547699328696804        0.0000000000000000     
   8.6271224539191671E-013  0.10522935847218785        0.0000000000000000     
   9.5920623874312660E-013  0.11219861145058607        0.0000000000000000     
   1.0558896422138697E-012  0.11930695971467582        0.0000000000000000     
   1.1527612360767020E-012  0.12655440326445710        0.0000000000000000     
   1.2498231616309141E-012  0.13394094209992993        0.0000000000000000     
  -4.8612890515031953E-003  0.10524483564822296        0.0000000000000000     
  -5.0032432792724568E-003  0.11221205558495935        0.0000000000000000     
  -5.1417668284459341E-003  0.11931801954298664        0.0000000000000000     
  -5.2768596990236246E-003  0.12656272752230482        0.0000000000000000     
  -5.4085218910055327E-003  0.13394617952291382        0.0000000000000000     
  -9.7280374311912686E-003  0.10529126717603134        0.0000000000000000     
  -1.0011346399454887E-002  0.11225238798779982        0.0000000000000000     
  -1.0286128204122584E-002  0.11935119902770028        0.0000000000000000     
  -1.0552382845194363E-002  0.12658770029573274        0.0000000000000000     
  -1.0810110322670222E-002  0.13396189179189713        0.0000000000000000     
  -1.4600245138201500E-002  0.10536865305561303        0.0000000000000000     
  -1.5024309359588083E-002  0.11231960865910745        0.0000000000000000     
  -1.5433084125974064E-002  0.11940649816881675        0.0000000000000000     
  -1.5826569437359453E-002  0.12662932158474091        0.0000000000000000     
  -1.6204765293744240E-002  0.13398807890687994        0.0000000000000000     
  -1.9477912172533890E-002  0.10547699328696804        0.0000000000000000     
  -2.0042132159672047E-002  0.11241371759888226        0.0000000000000000     
  -2.0582634594000379E-002  0.11948391696633602        0.0000000000000000     
  -2.1099419475518893E-002  0.12668759138932933        0.0000000000000000     
  -2.1592486804227585E-002  0.13402474086786223        0.0000000000000000     
   1.2498231616309141E-012  0.13394094209992993        0.0000000000000000     
   1.3800722717394187E-012  0.14147567001041511        0.0000000000000000     
   1.5765101897546874E-012  0.14916768078523343        0.0000000000000000     
   1.8391326872882474E-012  0.15701697442438492        0.0000000000000000     
   2.1679446432498750E-012  0.16502355092786955        0.0000000000000000     
  -5.4085218910055327E-003  0.13394617952291382        0.0000000000000000     
  -5.5330493743588321E-003  0.14147493039753872        0.0000000000000000     
  -5.6467381190507017E-003  0.14915553499890449        0.0000000000000000     
  -5.7495881250811363E-003  0.15698799332701122        0.0000000000000000     
  -5.8415993924501395E-003  0.16497230538185884        0.0000000000000000     
  -1.0810110322670222E-002  0.13396189179189713        0.0000000000000000     
  -1.1053097365664200E-002  0.14147271155924249        0.0000000000000000     
  -1.1275130703290351E-002  0.14911909764081774        0.0000000000000000     
  -1.1476210335548668E-002  0.15690105003662289        0.0000000000000000     
  -1.1656336262439152E-002  0.16481856874665790        0.0000000000000000     
  -1.6204765293744240E-002  0.13398807890687994        0.0000000000000000     
  -1.6560143972536034E-002  0.14146901349552646        0.0000000000000000     
  -1.6885177751142445E-002  0.14905836871097311        0.0000000000000000     
  -1.7179866629563459E-002  0.15675614455321990        0.0000000000000000     
  -1.7444210607799094E-002  0.16456234102226677        0.0000000000000000     
  -2.1592486804227585E-002  0.13402474086786223        0.0000000000000000     
  -2.2054189194974320E-002  0.14146383620639064        0.0000000000000000     
  -2.2476879262606966E-002  0.14897334820937064        0.0000000000000000     
  -2.2860557007125512E-002  0.15655327687680223        0.0000000000000000     
  -2.3205222428529959E-002  0.16420362220868540        0.0000000000000000     
   0.0000000000000000        0.0000000000000000        0.0000000000000000     
  -8.4137980856033192E-004   1.1104742219131885E-003   0.0000000000000000     
  -1.7014755534991931E-003   2.5991219861477956E-003   0.0000000000000000     
  -2.5802872348165843E-003   4.4659432927038221E-003   0.0000000000000000     
  -3.4778148525125047E-003   6.7109381415812672E-003   0.0000000000000000     
   0.0000000000000000        0.0000000000000000        0.0000000000000000     
  -1.0563920897891698E-003   1.1344725516847657E-003   0.0000000000000000     
  -2.1390399801489929E-003   2.6510779896047327E-003   0.0000000000000000     
  -3.2479436710794690E-003   4.5498163137599017E-003   0.0000000000000000     
  -4.3831031625805985E-003   6.8306875241502711E-003   0.0000000000000000     
   0.0000000000000000        0.0000000000000000        0.0000000000000000     
  -1.2875183147463421E-003   1.1701798799108641E-003   0.0000000000000000     
  -2.6047750962181842E-003   2.7250357338921127E-003   0.0000000000000000     
  -3.9517703444155259E-003   4.6645675619437447E-003   0.0000000000000000     
  -5.3285040593383680E-003   6.9887753640657637E-003   0.0000000000000000     
   0.0000000000000000        0.0000000000000000        0.0000000000000000     
  -1.5347584834318490E-003   1.2175962065914838E-003   0.0000000000000000     
  -3.0986809017067673E-003   2.8209952190099349E-003   0.0000000000000000     
  -4.6917672548247554E-003   4.8101970372553537E-003   0.0000000000000000     
  -6.3140175427858118E-003   7.1852016613277387E-003   0.0000000000000000     
   0.0000000000000000        0.0000000000000000        0.0000000000000000     
  -1.7981125958456902E-003   1.2767215317266249E-003   0.0000000000000000     
  -3.6207573966147420E-003   2.9389564449582000E-003   0.0000000000000000     
  -5.4679344023071553E-003   4.9867047396947254E-003   0.0000000000000000     
  -7.3396436129229310E-003   7.4199664159362005E-003   0.0000000000000000     
  -3.4778148525125047E-003   6.7109381415812672E-003   0.0000000000000000     
  -4.3857700775168885E-003   9.2968066976841894E-003   0.0000000000000000     
  -5.2958645807596695E-003   1.2186249125916640E-002   0.0000000000000000     
  -6.2080983622408471E-003   1.5379265426278625E-002   0.0000000000000000     
  -7.1224714219604215E-003   1.8875855598770142E-002   0.0000000000000000     
  -4.3831031625805985E-003   6.8306875241502711E-003   0.0000000000000000     
  -5.5315104627164822E-003   9.4516776791473741E-003   0.0000000000000000     
  -6.6801575795512168E-003   1.2370772837122734E-002   0.0000000000000000     
  -7.8290445130848024E-003   1.5587972998076356E-002   0.0000000000000000     
  -8.9781712633172431E-003   1.9103278162008235E-002   0.0000000000000000     
  -5.3285040593383680E-003   6.9887753640657637E-003   0.0000000000000000     
  -6.7205012834468366E-003   9.6515638166733315E-003   0.0000000000000000     
  -8.1132870592010558E-003   1.2606837596181628E-002   0.0000000000000000     
  -9.5068613866010326E-003   1.5854596702590640E-002   0.0000000000000000     
  -1.0901224265646757E-002   1.9394841135900377E-002   0.0000000000000000     
  -6.3140175427858118E-003   7.1852016613277387E-003   0.0000000000000000     
  -7.9527425397079524E-003   9.8964651102620670E-003   0.0000000000000000     
  -9.5952530197091941E-003   1.2894443403093309E-002   0.0000000000000000     
  -1.1241548982789534E-002   1.6179136539821479E-002   0.0000000000000000     
  -1.2891630428948971E-002   1.9750544520446556E-002   0.0000000000000000     
  -7.3396436129229310E-003   7.4199664159362005E-003   0.0000000000000000     
  -9.2282342314998333E-003   1.0186381559913573E-002   0.0000000000000000     
  -1.1126055461075623E-002   1.3233590257857796E-002   0.0000000000000000     
  -1.3033107301650308E-002   1.6561592509768866E-002   0.0000000000000000     
  -1.4949389753223880E-002   2.0170388315646784E-002   0.0000000000000000     
  -7.1224714219604215E-003   1.8875855598770142E-002   0.0000000000000000     
  -8.0325246800258387E-003   2.2650143385397264E-002   0.0000000000000000     
  -8.9317990565445354E-003   2.6676252528166085E-002   0.0000000000000000     
  -9.8202945515165202E-003   3.0954183027076577E-002   0.0000000000000000     
  -1.0698011164941785E-002   3.5483934882128768E-002   0.0000000000000000     
  -8.9781712633172431E-003   1.9103278162008235E-002   0.0000000000000000     
  -1.0120459021879942E-002   2.2892020876796173E-002   0.0000000000000000     
  -1.1248828980404317E-002   2.6929533690317968E-002   0.0000000000000000     
  -1.2363281138890368E-002   3.1215816602573609E-002   0.0000000000000000     
  -1.3463815497338091E-002   3.5750869613563108E-002   0.0000000000000000     
  -1.0901224265646757E-002   1.9394841135900377E-002   0.0000000000000000     
  -1.2285891156425515E-002   2.3202848021079626E-002   0.0000000000000000     
  -1.3650377519024573E-002   2.7253894483097188E-002   0.0000000000000000     
  -1.4994683353443932E-002   3.1547980521953053E-002   0.0000000000000000     
  -1.6318808659683597E-002   3.6085106137647226E-002   0.0000000000000000     
  -1.2891630428948971E-002   1.9750544520446556E-002   0.0000000000000000     
  -1.4528821083662546E-002   2.3582624818247626E-002   0.0000000000000000     
  -1.6136444672405287E-002   2.7649334906503741E-002   0.0000000000000000     
  -1.7714501195177208E-002   3.1950674785214912E-002   0.0000000000000000     
  -1.9262990651978295E-002   3.6486644454381129E-002   0.0000000000000000     
  -1.4949389753223880E-002   2.0170388315646784E-002   0.0000000000000000     
  -1.6849248803591038E-002   2.4031351268300163E-002   0.0000000000000000     
  -1.8707030440546481E-002   2.8115854960537631E-002   0.0000000000000000     
  -2.0522734664090193E-002   3.2423899392359186E-002   0.0000000000000000     
  -2.2296361474222193E-002   3.6955484563764816E-002   0.0000000000000000     
  -1.0698011164941785E-002   3.5483934882128768E-002   0.0000000000000000     
  -1.1559042947407384E-002   4.0244458147935210E-002   0.0000000000000000     
  -1.2397483949500361E-002   4.5214702879108455E-002   0.0000000000000000     
  -1.3213334171220722E-002   5.0394669075648525E-002   0.0000000000000000     
  -1.4006593612568454E-002   5.5784356737555399E-002   0.0000000000000000     
  -1.3463815497338091E-002   3.5750869613563108E-002   0.0000000000000000     
  -1.4542134194388856E-002   4.0513224388458953E-002   0.0000000000000000     
  -1.5589939368684014E-002   4.5481412592433657E-002   0.0000000000000000     
  -1.6607231020223580E-002   5.0655434225487204E-002   0.0000000000000000     
  -1.7594009149007536E-002   5.6035289287619611E-002   0.0000000000000000     
  -1.6318808659683597E-002   3.6085106137647226E-002   0.0000000000000000     
  -1.7614280849708171E-002   4.0845712815703150E-002   0.0000000000000000     
  -1.8872627335482263E-002   4.5810242041644293E-002   0.0000000000000000     
  -2.0093848117005861E-002   5.0978693815470627E-002   0.0000000000000000     
  -2.1277943194278979E-002   5.6351068137182179E-002   0.0000000000000000     
  -1.9262990651978295E-002   3.6486644454381129E-002   0.0000000000000000     
  -2.0775482913365329E-002   4.1241923429667808E-002   0.0000000000000000     
  -2.2245547849895089E-002   4.6201191226740358E-002   0.0000000000000000     
  -2.3673185461567575E-002   5.1364447845598786E-002   0.0000000000000000     
  -2.5058395748382777E-002   5.6731693286243091E-002   0.0000000000000000     
  -2.2296361474222193E-002   3.6955484563764816E-002   0.0000000000000000     
  -2.4025740385360341E-002   4.1701856230352920E-002   0.0000000000000000     
  -2.5708700911922518E-002   4.6654260147721879E-002   0.0000000000000000     
  -2.7345243053908713E-002   5.1812696315871688E-002   0.0000000000000000     
  -2.8935366811318933E-002   5.7177164734802360E-002   0.0000000000000000     
  -1.4006593612568454E-002   5.5784356737555399E-002   0.0000000000000000     
  -1.4776913186414593E-002   6.1372198026320129E-002   0.0000000000000000     
  -1.5523943805630153E-002   6.7146625103433721E-002   0.0000000000000000     
  -1.6247685470215135E-002   7.3107637968896189E-002   0.0000000000000000     
  -1.6948138180169540E-002   7.9255236622707559E-002   0.0000000000000000     
  -1.7594009149007536E-002   5.6035289287619611E-002   0.0000000000000000     
  -1.8551429384140918E-002   6.1611559279375366E-002   0.0000000000000000     
  -1.9480647354728722E-002   6.7374825701298963E-002   0.0000000000000000     
  -2.0381663060770959E-002   7.3325088553390413E-002   0.0000000000000000     
  -2.1254476502267625E-002   7.9462347835649719E-002   0.0000000000000000     
  -2.1277943194278979E-002   5.6351068137182179E-002   0.0000000000000000     
  -2.2426486566165967E-002   6.1918536187114209E-002   0.0000000000000000     
  -2.3541052231531169E-002   6.7672269145602038E-002   0.0000000000000000     
  -2.4621640190374595E-002   7.3612267012645671E-002   0.0000000000000000     
  -2.5668250442696244E-002   7.9738529788245083E-002   0.0000000000000000     
  -2.5058395748382777E-002   5.6731693286243091E-002   0.0000000000000000     
  -2.6402084732489745E-002   6.2293128749536686E-002   0.0000000000000000     
  -2.7705158436037491E-002   6.8038955436342974E-002   0.0000000000000000     
  -2.8967616859026043E-002   7.3969173346661962E-002   0.0000000000000000     
  -3.0189460001455382E-002   8.0083782480493637E-002   0.0000000000000000     
  -2.8935366811318933E-002   5.7177164734802360E-002   0.0000000000000000     
  -3.0478223883112245E-002   6.2735336966642755E-002   0.0000000000000000     
  -3.1972965968247703E-002   6.8474884573521730E-002   0.0000000000000000     
  -3.3419593066725303E-002   7.4395807555439286E-002   0.0000000000000000     
  -3.4818105178545063E-002   8.0498105912395423E-002   0.0000000000000000     
  -1.6948138180169540E-002   7.9255236622707559E-002   0.0000000000000000     
  -1.7622855229171647E-002   8.5574765075213194E-002   0.0000000000000000     
  -1.8269389910899742E-002   9.2051567336758483E-002   0.0000000000000000     
  -1.8887742225353825E-002   9.8685643407343426E-002   0.0000000000000000     
  -1.9477912172533890E-002  0.10547699328696804        0.0000000000000000     
  -2.1254476502267625E-002   7.9462347835649719E-002   0.0000000000000000     
  -2.2096012607240083E-002   8.5771252886293045E-002   0.0000000000000000     
  -2.2903196303709697E-002   9.2236453043536573E-002   0.0000000000000000     
  -2.3676027591676464E-002   9.8857948307380275E-002   0.0000000000000000     
  -2.4414506471140390E-002  0.10563573867782416        0.0000000000000000     
  -2.5668250442696244E-002   7.9738529788245083E-002   0.0000000000000000     
  -2.6677669337509102E-002   8.6035939351132087E-002   0.0000000000000000     
  -2.7646683223826161E-002   9.2489377580038418E-002   0.0000000000000000     
  -2.8575292101647446E-002   9.9098844474964143E-002   0.0000000000000000     
  -2.9463495970972940E-002  0.10586434003590924        0.0000000000000000     
  -3.0189460001455382E-002   8.0083782480493637E-002   0.0000000000000000     
  -3.1367825419978700E-002   8.6368824469730293E-002   0.0000000000000000     
  -3.2499850671249164E-002   9.2810340946264114E-002   0.0000000000000000     
  -3.3585535755266779E-002   9.9408331910095085E-002   0.0000000000000000     
  -3.4624880672031524E-002  0.10616279736122326        0.0000000000000000     
  -3.4818105178545063E-002   8.0498105912395423E-002   0.0000000000000000     
  -3.6166480854648880E-002   8.6769908242087648E-002   0.0000000000000000     
  -3.7462698645978669E-002   9.3199343142213550E-002   0.0000000000000000     
  -3.8706758552534436E-002   9.9786410612773047E-002   0.0000000000000000     
  -3.9898660574316173E-002  0.10653111065376619        0.0000000000000000     
  -1.9477912172533890E-002  0.10547699328696804        0.0000000000000000     
  -2.0042132159672047E-002  0.11241371759888226        0.0000000000000000     
  -2.0582634594000379E-002  0.11948391696633602        0.0000000000000000     
  -2.1099419475518893E-002  0.12668759138932933        0.0000000000000000     
  -2.1592486804227585E-002  0.13402474086786223        0.0000000000000000     
  -2.4414506471140390E-002  0.10563573867782416        0.0000000000000000     
  -2.5119671760250938E-002  0.11255734134239226        0.0000000000000000     
  -2.5792562277157569E-002  0.11961027348860845        0.0000000000000000     
  -2.6433178021860290E-002  0.12679453511647282        0.0000000000000000     
  -2.7041518994359099E-002  0.13411012622598528        0.0000000000000000     
  -2.9463495970972940E-002  0.10586434003590924        0.0000000000000000     
  -3.0311785121868929E-002  0.11277310642490539        0.0000000000000000     
  -3.1120649844401702E-002  0.11981238580398432        0.0000000000000000     
  -3.1890090138571262E-002  0.12698217817314603        0.0000000000000000     
  -3.2620106004377612E-002  0.13428248353239047        0.0000000000000000     
  -3.4624880672031524E-002  0.10616279736122326        0.0000000000000000     
  -3.5618472244526009E-002  0.11306101284642173        0.0000000000000000     
  -3.6566897295732766E-002  0.12009025391246364        0.0000000000000000     
  -3.7470155825651802E-002  0.12725052055934899        0.0000000000000000     
  -3.8328247834283111E-002  0.13454181278707775        0.0000000000000000     
  -3.9898660574316173E-002  0.10653111065376619        0.0000000000000000     
  -4.1039733128222178E-002  0.11342106060694124        0.0000000000000000     
  -4.2131304631150765E-002  0.12044387781404642        0.0000000000000000     
  -4.3173375083101907E-002  0.12759956227508173        0.0000000000000000     
  -4.4165944484075619E-002  0.13488811399004719        0.0000000000000000     
  -2.1592486804227585E-002  0.13402474086786223        0.0000000000000000     
  -2.2054189194974320E-002  0.14146383620639064        0.0000000000000000     
  -2.2476879262606966E-002  0.14897334820937064        0.0000000000000000     
  -2.2860557007125512E-002  0.15655327687680223        0.0000000000000000     
  -2.3205222428529959E-002  0.16420362220868540        0.0000000000000000     
  -2.7041518994359099E-002  0.13411012622598528        0.0000000000000000     
  -2.7610504534037714E-002  0.14151071035945917        0.0000000000000000     
  -2.8133053980279869E-002  0.14894995105920775        0.0000000000000000     
  -2.8609167333085564E-002  0.15642784832523099        0.0000000000000000     
  -2.9038844592454788E-002  0.16394440215752892        0.0000000000000000     
  -3.2620106004377612E-002  0.13428248353239047        0.0000000000000000     
  -3.3304361490784841E-002  0.14166316662235623        0.0000000000000000     
  -3.3936520646757097E-002  0.14907409218368181        0.0000000000000000     
  -3.4516583472294353E-002  0.15651526021636722        0.0000000000000000     
  -3.5044549967396608E-002  0.16398667072041245        0.0000000000000000     
  -3.8328247834283111E-002  0.13454181278707775        0.0000000000000000     
  -3.9135760065215720E-002  0.14192120499508176        0.0000000000000000     
  -3.9887279262038645E-002  0.14934577158279280        0.0000000000000000     
  -4.0582805424751879E-002  0.15681551255021087        0.0000000000000000     
  -4.1222338553355421E-002  0.16433042789733596        0.0000000000000000     
  -4.4165944484075619E-002  0.13488811399004719        0.0000000000000000     
  -4.5104700257330349E-002  0.14228482547763582        0.0000000000000000     
  -4.5985329826124514E-002  0.14976498925654078        0.0000000000000000     
  -4.6807833190458149E-002  0.15732860532676196        0.0000000000000000     
  -4.7572210350331219E-002  0.16497567368829946        0.0000000000000000     
   0.0000000000000000        0.0000000000000000        0.0000000000000000     
  -1.7981125958456902E-003   1.2767215317266249E-003   0.0000000000000000     
  -3.6207573966147420E-003   2.9389564449582000E-003   0.0000000000000000     
  -5.4679344023071553E-003   4.9867047396947254E-003   0.0000000000000000     
  -7.3396436129229310E-003   7.4199664159362005E-003   0.0000000000000000     
   0.0000000000000000        0.0000000000000000        0.0000000000000000     
  -2.0693011699984580E-003   1.3546813894860369E-003   0.0000000000000000     
  -4.1636376026429013E-003   3.0934706742261034E-003   0.0000000000000000     
  -6.2830092979333316E-003   5.2163678542201984E-003   0.0000000000000000     
  -8.4274162558697473E-003   7.7233729294683227E-003   0.0000000000000000     
   0.0000000000000000        0.0000000000000000        0.0000000000000000     
  -2.3400447239007439E-003   1.4586013140394706E-003   0.0000000000000000     
  -4.7199545414920389E-003   3.2990891693028407E-003   0.0000000000000000     
  -7.1397294527738835E-003   5.5214635657901108E-003   0.0000000000000000     
  -9.5993694577462783E-003   8.1257245035012797E-003   0.0000000000000000     
   0.0000000000000000        0.0000000000000000        0.0000000000000000     
  -2.6103432575525485E-003   1.5884813053869250E-003   0.0000000000000000     
  -5.2897082131621517E-003   3.5558119301884118E-003   0.0000000000000000     
  -8.0380948668288127E-003   5.9019918744044617E-003   0.0000000000000000     
  -1.0855503218552529E-002   8.6270211380350750E-003   0.0000000000000000     
   0.0000000000000000        0.0000000000000000        0.0000000000000000     
  -2.8801967709538704E-003   1.7443213635284010E-003   0.0000000000000000     
  -5.8728986176532433E-003   3.8636389568828186E-003   0.0000000000000000     
  -8.9781055400981191E-003   6.3579527800632528E-003   0.0000000000000000     
  -1.2195817538288497E-002   9.2272628330697017E-003   0.0000000000000000     
  -7.3396436129229310E-003   7.4199664159362005E-003   0.0000000000000000     
  -9.2282342314998333E-003   1.0186381559913573E-002   0.0000000000000000     
  -1.1126055461075623E-002   1.3233590257857796E-002   0.0000000000000000     
  -1.3033107301650308E-002   1.6561592509768866E-002   0.0000000000000000     
  -1.4949389753223880E-002   2.0170388315646784E-002   0.0000000000000000     
  -8.4274162558697473E-003   7.7233729294683227E-003   0.0000000000000000     
  -1.0588574345626298E-002   1.0557143000297619E-002   0.0000000000000000     
  -1.2758199436377142E-002   1.3660335167035223E-002   0.0000000000000000     
  -1.4936291528122272E-002   1.7032949429681140E-002   0.0000000000000000     
  -1.7122850620861694E-002   2.0674985788235366E-002   0.0000000000000000     
  -9.5993694577462783E-003   8.1257245035012797E-003   0.0000000000000000     
  -1.2075360868891178E-002   1.1044579266083956E-002   0.0000000000000000     
  -1.4544189998690539E-002   1.4210735137185741E-002   0.0000000000000000     
  -1.7005856847144351E-002   1.7624192116806634E-002   0.0000000000000000     
  -1.9460361414252628E-002   2.1284950204946643E-002   0.0000000000000000     
  -1.0855503218552529E-002   8.6270211380350750E-003   0.0000000000000000     
  -1.3688593801294472E-002   1.1648690357272590E-002   0.0000000000000000     
  -1.6484027148015806E-002   1.4884790168309349E-002   0.0000000000000000     
  -1.9241803258716543E-002   1.8335320571145352E-002   0.0000000000000000     
  -2.1961922133396670E-002   2.2000281565780599E-002   0.0000000000000000     
  -1.2195817538288497E-002   9.2272628330697017E-003   0.0000000000000000     
  -1.5428273142836178E-002   1.2369476273863519E-002   0.0000000000000000     
  -1.8577710884352960E-002   1.5682500260406049E-002   0.0000000000000000     
  -2.1644130762838845E-002   1.9166334792697293E-002   0.0000000000000000     
  -2.4627532778293833E-002   2.2820979870737244E-002   0.0000000000000000     
  -1.4949389753223880E-002   2.0170388315646784E-002   0.0000000000000000     
  -1.6849248803591038E-002   2.4031351268300163E-002   0.0000000000000000     
  -1.8707030440546481E-002   2.8115854960537631E-002   0.0000000000000000     
  -2.0522734664090193E-002   3.2423899392359186E-002   0.0000000000000000     
  -2.2296361474222193E-002   3.6955484563764816E-002   0.0000000000000000     
  -1.7122850620861694E-002   2.0674985788235366E-002   0.0000000000000000     
  -1.9286312167777306E-002   2.4558629975990381E-002   0.0000000000000000     
  -2.1395111622051016E-002   2.8656067726238649E-002   0.0000000000000000     
  -2.3449248983682808E-002   3.2967299038980172E-002   0.0000000000000000     
  -2.5448724252672701E-002   3.7492323914214948E-002   0.0000000000000000     
  -1.9460361414252628E-002   2.1284950204946643E-002   0.0000000000000000     
  -2.1879149027787669E-002   2.5174063546071410E-002   0.0000000000000000     
  -2.4233665015521780E-002   2.9272586284646591E-002   0.0000000000000000     
  -2.6523909377454972E-002   3.3580518420672188E-002   0.0000000000000000     
  -2.8749882113587245E-002   3.8097859954148189E-002   0.0000000000000000     
  -2.1961922133396670E-002   2.2000281565780599E-002   0.0000000000000000     
  -2.4627759383622112E-002   2.5877651978543248E-002   0.0000000000000000     
  -2.7222690620958789E-002   2.9965410635761459E-002   0.0000000000000000     
  -2.9746715845406689E-002   3.4263557537435214E-002   0.0000000000000000     
  -3.2199835056965817E-002   3.8772092683564532E-002   0.0000000000000000     
  -2.4627532778293833E-002   2.2820979870737244E-002   0.0000000000000000     
  -2.7532143235280651E-002   2.6669395273405901E-002   0.0000000000000000     
  -3.0362188438362022E-002   3.0734540779583243E-002   0.0000000000000000     
  -3.3117668387537942E-002   3.5016416389269271E-002   0.0000000000000000     
  -3.5798583082808415E-002   3.9515022102463992E-002   0.0000000000000000     
  -2.2296361474222193E-002   3.6955484563764816E-002   0.0000000000000000     
  -2.4025740385360341E-002   4.1701856230352920E-002   0.0000000000000000     
  -2.5708700911922518E-002   4.6654260147721879E-002   0.0000000000000000     
  -2.7345243053908713E-002   5.1812696315871688E-002   0.0000000000000000     
  -2.8935366811318933E-002   5.7177164734802360E-002   0.0000000000000000     
  -2.5448724252672701E-002   3.7492323914214948E-002   0.0000000000000000     
  -2.7395516171391424E-002   4.2228190687583586E-002   0.0000000000000000     
  -2.9291603482209719E-002   4.7171947694726671E-002   0.0000000000000000     
  -3.1136986185127585E-002   5.2323594935644223E-002   0.0000000000000000     
  -3.2931664280145032E-002   5.7683132410336228E-002   0.0000000000000000     
  -2.8749882113587245E-002   3.8097859954148189E-002   0.0000000000000000     
  -3.0915273177156807E-002   4.2823606271184901E-002   0.0000000000000000     
  -3.3023772521401901E-002   4.7756752757892582E-002   0.0000000000000000     
  -3.5075380146322513E-002   5.2897299414271258E-002   0.0000000000000000     
  -3.7070096051918647E-002   5.8245246240320910E-002   0.0000000000000000     
  -3.2199835056965817E-002   3.8772092683564532E-002   0.0000000000000000     
  -3.4585011402656490E-002   4.3488102981156851E-002   0.0000000000000000     
  -3.6905208029499044E-002   4.8408675337219605E-002   0.0000000000000000     
  -3.9160424937493478E-002   5.3533809751752794E-002   0.0000000000000000     
  -4.1350662126639785E-002   5.8863506224756418E-002   0.0000000000000000     
  -3.5798583082808415E-002   3.9515022102463992E-002   0.0000000000000000     
  -3.8404730847890478E-002   4.4221680817499456E-002   0.0000000000000000     
  -4.0935910006501174E-002   4.9127715432707747E-002   0.0000000000000000     
  -4.3392120558640494E-002   5.4233125948088851E-002   0.0000000000000000     
  -4.5773362504308454E-002   5.9537912363642753E-002   0.0000000000000000     
  -2.8935366811318933E-002   5.7177164734802360E-002   0.0000000000000000     
  -3.0478223883112245E-002   6.2735336966642755E-002   0.0000000000000000     
  -3.1972965968247703E-002   6.8474884573521730E-002   0.0000000000000000     
  -3.3419593066725303E-002   7.4395807555439286E-002   0.0000000000000000     
  -3.4818105178545063E-002   8.0498105912395423E-002   0.0000000000000000     
  -3.2931664280145032E-002   5.7683132410336228E-002   0.0000000000000000     
  -3.4673200833159924E-002   6.3235871398043014E-002   0.0000000000000000     
  -3.6359158910070161E-002   6.8967123178004880E-002   0.0000000000000000     
  -3.7989538510875741E-002   7.4876887750221846E-002   0.0000000000000000     
  -3.9564339635576672E-002   8.0965165114693885E-002   0.0000000000000000     
  -3.7070096051918647E-002   5.8245246240320910E-002   0.0000000000000000     
  -3.9005312397759256E-002   6.3785442603348022E-002   0.0000000000000000     
  -4.0878421343413296E-002   6.9502737870658970E-002   0.0000000000000000     
  -4.2689422888880758E-002   7.5397132042253845E-002   0.0000000000000000     
  -4.4438317034161651E-002   8.1468625118132576E-002   0.0000000000000000     
  -4.1350662126639785E-002   5.8863506224756418E-002   0.0000000000000000     
  -4.3474558576910224E-002   6.4384050582557750E-002   0.0000000000000000     
  -4.5530753268277074E-002   7.0081728651484029E-002   0.0000000000000000     
  -4.7519246200740335E-002   7.5956540431535283E-002   0.0000000000000000     
  -4.9440037374299972E-002   8.2008485922711455E-002   0.0000000000000000     
  -4.5773362504308454E-002   5.9537912363642753E-002   0.0000000000000000     
  -4.8080939370612849E-002   6.5031695335672240E-002   0.0000000000000000     
  -5.0316154684661517E-002   7.0704095520480043E-002   0.0000000000000000     
  -5.2479008446454450E-002   7.6555112918066145E-002   0.0000000000000000     
  -5.4569500655991643E-002   8.2584747528430563E-002   0.0000000000000000     
  -3.4818105178545063E-002   8.0498105912395423E-002   0.0000000000000000     
  -3.6166480854648880E-002   8.6769908242087648E-002   0.0000000000000000     
  -3.7462698645978669E-002   9.3199343142213550E-002   0.0000000000000000     
  -3.8706758552534436E-002   9.9786410612773047E-002   0.0000000000000000     
  -3.9898660574316173E-002  0.10653111065376619        0.0000000000000000     
  -3.9564339635576672E-002   8.0965165114693885E-002   0.0000000000000000     
  -4.1082378624573826E-002   8.7222117176778760E-002   0.0000000000000000     
  -4.2542471818268077E-002   9.3637905841834193E-002   0.0000000000000000     
  -4.3944619216659445E-002  0.10021253110986017        0.0000000000000000     
  -4.5288820819747909E-002  0.10694599298085669        0.0000000000000000     
  -4.4438317034161651E-002   8.1468625118132576E-002   0.0000000000000000     
  -4.6124261712807729E-002   8.7708377782378125E-002   0.0000000000000000     
  -4.7746414858370792E-002   9.4107550719073438E-002   0.0000000000000000     
  -4.9304776470850797E-002  0.10066614392821849        0.0000000000000000     
  -5.0799346550247780E-002  0.10738415740981329        0.0000000000000000     
  -4.9440037374299972E-002   8.2008485922711455E-002   0.0000000000000000     
  -5.1292130119350597E-002   8.8228690058885756E-002   0.0000000000000000     
  -5.3074527766286773E-002   9.4608277773931271E-002   0.0000000000000000     
  -5.4787230315108501E-002  0.10114724906784806        0.0000000000000000     
  -5.6430237765815780E-002  0.10784560394063601        0.0000000000000000     
  -5.4569500655991643E-002   8.2584747528430563E-002   0.0000000000000000     
  -5.6585983844202409E-002   8.8783054006301640E-002   0.0000000000000000     
  -5.8526810542016056E-002   9.5140087006407720E-002   0.0000000000000000     
  -6.0391980749432556E-002  0.10165584652874879        0.0000000000000000     
  -6.2181494466451936E-002  0.10833033257332486        0.0000000000000000     
  -3.9898660574316173E-002  0.10653111065376619        0.0000000000000000     
  -4.1039733128222178E-002  0.11342106060694124        0.0000000000000000     
  -4.2131304631150765E-002  0.12044387781404642        0.0000000000000000     
  -4.3173375083101907E-002  0.12759956227508173        0.0000000000000000     
  -4.4165944484075619E-002  0.13488811399004719        0.0000000000000000     
  -4.5288820819747909E-002  0.10694599298085669        0.0000000000000000     
  -4.6577287123936190E-002  0.11382633306267510        0.0000000000000000     
  -4.7812228625627028E-002  0.12084159296316668        0.0000000000000000     
  -4.8993645324820402E-002  0.12799177268233144        0.0000000000000000     
  -5.0121537221516313E-002  0.13527687222016943        0.0000000000000000     
  -5.0799346550247780E-002  0.10738415740981329        0.0000000000000000     
  -5.2232853582646788E-002  0.11424991356983444        0.0000000000000000     
  -5.3608026054132896E-002  0.12125173481425845        0.0000000000000000     
  -5.4924863964706090E-002  0.12838962114308539        0.0000000000000000     
  -5.6183367314366371E-002  0.13566357255631525        0.0000000000000000     
  -5.6430237765815780E-002  0.10784560394063601        0.0000000000000000     
  -5.8006432504353958E-002  0.11469180212841927        0.0000000000000000     
  -5.9518696916668348E-002  0.12167430336732178        0.0000000000000000     
  -6.0967031002758972E-002  0.12879310765734359        0.0000000000000000     
  -6.2351434762625828E-002  0.13604821499848466        0.0000000000000000     
  -6.2181494466451936E-002  0.10833033257332486        0.0000000000000000     
  -6.3898023889057701E-002  0.11515199873842960        0.0000000000000000     
  -6.5544241213233420E-002  0.12210929862235664        0.0000000000000000     
  -6.7120146438979067E-002  0.12920223222510599        0.0000000000000000     
  -6.8625739566294641E-002  0.13643079954667764        0.0000000000000000     
  -4.4165944484075619E-002  0.13488811399004719        0.0000000000000000     
  -4.5104700257330349E-002  0.14228482547763582        0.0000000000000000     
  -4.5985329826124514E-002  0.14976498925654078        0.0000000000000000     
  -4.6807833190458149E-002  0.15732860532676196        0.0000000000000000     
  -4.7572210350331219E-002  0.16497567368829946        0.0000000000000000     
  -5.0121537221516313E-002  0.13527687222016943        0.0000000000000000     
  -5.1191815962839268E-002  0.14269053551987784        0.0000000000000000     
  -5.2200393195913783E-002  0.15022640652465394        0.0000000000000000     
  -5.3147268920739857E-002  0.15788448523449775        0.0000000000000000     
  -5.4032443137317469E-002  0.16566477164940929        0.0000000000000000     
  -5.6183367314366371E-002  0.13566357255631525        0.0000000000000000     
  -5.7377741077453082E-002  0.14307484257166722        0.0000000000000000     
  -5.8502190228305530E-002  0.15062468470686063        0.0000000000000000     
  -5.9556714766923709E-002  0.15831309896189544        0.0000000000000000     
  -6.0541314693307632E-002  0.16614008533677163        0.0000000000000000     
  -6.2351434762625828E-002  0.13604821499848466        0.0000000000000000     
  -6.3662475601171789E-002  0.14343774663300407        0.0000000000000000     
  -6.4890720923299741E-002  0.15095982380316084        0.0000000000000000     
  -6.6036170729009705E-002  0.15861444650895501        0.0000000000000000     
  -6.7098825018301694E-002  0.16640161475038656        0.0000000000000000     
  -6.8625739566294641E-002  0.13643079954667764        0.0000000000000000     
  -7.0046019533995363E-002  0.14377924770388825        0.0000000000000000     
  -7.1365985280896438E-002  0.15123182381355454        0.0000000000000000     
  -7.2585636806997880E-002  0.15878852787567649        0.0000000000000000     
  -7.3704974112299662E-002  0.16644935989025406        0.0000000000000000     
   0.0000000000000000        0.0000000000000000        0.0000000000000000     
  -2.8801967709538704E-003   1.7443213635284010E-003   0.0000000000000000     
  -5.8728986176532433E-003   3.8636389568828186E-003   0.0000000000000000     
  -8.9781055400981191E-003   6.3579527800632528E-003   0.0000000000000000     
  -1.2195817538288497E-002   9.2272628330697017E-003   0.0000000000000000     
   0.0000000000000000        0.0000000000000000        0.0000000000000000     
  -3.2834199003464845E-003   1.9988140608194573E-003   0.0000000000000000     
  -6.6774284759199129E-003   4.3299118034934320E-003   0.0000000000000000     
  -1.0182025726720287E-002   6.9932932280219262E-003   0.0000000000000000     
  -1.3797211652747606E-002   9.9889583344049352E-003   0.0000000000000000     
   0.0000000000000000        0.0000000000000000        0.0000000000000000     
  -3.9538272819721627E-003   2.4246519696156533E-003   0.0000000000000000     
  -7.9112005089167648E-003   5.0619720241276275E-003   0.0000000000000000     
  -1.1872119680833803E-002   7.9119601635359235E-003   0.0000000000000000     
  -1.5836584797723281E-002   1.0974616387840542E-002   0.0000000000000000     
   0.0000000000000000        0.0000000000000000        0.0000000000000000     
  -4.8914189158309074E-003   3.0218350899169888E-003   0.0000000000000000     
  -9.5742147166437939E-003   6.0598196187854050E-003   0.0000000000000000     
  -1.4048387402438666E-002   9.1139535866052480E-003   0.0000000000000000     
  -1.8313936973215521E-002   1.2184236993376518E-002   0.0000000000000000     
   0.0000000000000000        0.0000000000000000        0.0000000000000000     
  -6.0961948019227132E-003   3.7903634217234640E-003   0.0000000000000000     
  -1.1666471099101006E-002   7.3234545874667628E-003   0.0000000000000000     
  -1.6710828891534878E-002   1.0599273497229895E-002   0.0000000000000000     
  -2.1229268179224329E-002   1.3617820151012865E-002   0.0000000000000000     
  -1.2195817538288497E-002   9.2272628330697017E-003   0.0000000000000000     
  -1.5428273142836178E-002   1.2369476273863519E-002   0.0000000000000000     
  -1.8577710884352960E-002   1.5682500260406049E-002   0.0000000000000000     
  -2.1644130762838845E-002   1.9166334792697293E-002   0.0000000000000000     
  -2.4627532778293833E-002   2.2820979870737244E-002   0.0000000000000000     
  -1.3797211652747606E-002   9.9889583344049352E-003   0.0000000000000000     
  -1.7405866687563543E-002   1.3218854013817333E-002   0.0000000000000000     
  -2.0890871264729771E-002   1.6584927157433989E-002   0.0000000000000000     
  -2.4252225384246293E-002   2.0087177765254895E-002   0.0000000000000000     
  -2.7489929046113106E-002   2.3725605837280058E-002   0.0000000000000000     
  -1.5836584797723281E-002   1.0974616387840542E-002   0.0000000000000000     
  -1.9732842229523814E-002   1.4208740575094626E-002   0.0000000000000000     
  -2.3489138346174030E-002   1.7573132603351315E-002   0.0000000000000000     
  -2.7105473147673923E-002   2.1067792472610616E-002   0.0000000000000000     
  -3.0581846634023493E-002   2.4692720182872524E-002   0.0000000000000000     
  -1.8313936973215521E-002   1.2184236993376518E-002   0.0000000000000000     
  -2.2409199768716994E-002   1.5339135957695387E-002   0.0000000000000000     
  -2.6372512128685733E-002   1.8647116598158032E-002   0.0000000000000000     
  -3.0203874053121721E-002   2.2108178914764454E-002   0.0000000000000000     
  -3.3903285542024965E-002   2.5722322907514646E-002   0.0000000000000000     
  -2.1229268179224329E-002   1.3617820151012865E-002   0.0000000000000000     
  -2.5434939305143088E-002   1.6610040161619627E-002   0.0000000000000000     
  -2.9540992612264876E-002   1.9806879141854136E-002   0.0000000000000000     
  -3.3547428100589707E-002   2.3208337091716401E-002   0.0000000000000000     
  -3.7454245770117571E-002   2.6814414011206412E-002   0.0000000000000000     
  -2.4627532778293833E-002   2.2820979870737244E-002   0.0000000000000000     
  -2.7532143235280651E-002   2.6669395273405901E-002   0.0000000000000000     
  -3.0362188438362022E-002   3.0734540779583243E-002   0.0000000000000000     
  -3.3117668387537942E-002   3.5016416389269271E-002   0.0000000000000000     
  -3.5798583082808415E-002   3.9515022102463992E-002   0.0000000000000000     
  -2.7489929046113106E-002   2.3725605837280058E-002   0.0000000000000000     
  -3.0627182325136188E-002   2.7543183538130823E-002   0.0000000000000000     
  -3.3687185296121511E-002   3.1582883032428517E-002   0.0000000000000000     
  -3.6669937959069067E-002   3.5844704320173143E-002   0.0000000000000000     
  -3.9575440313978867E-002   4.0328647401364701E-002   0.0000000000000000     
  -3.0581846634023493E-002   2.4692720182872524E-002   0.0000000000000000     
  -3.3947758395561634E-002   2.8492906880189451E-002   0.0000000000000000     
  -3.7232708022627285E-002   3.2513343710613811E-002   0.0000000000000000     
  -4.0436695515220417E-002   3.6754030674145594E-002   0.0000000000000000     
  -4.3559720873341014E-002   4.1214967770784816E-002   0.0000000000000000     
  -3.3903285542024965E-002   2.5722322907514646E-002   0.0000000000000000     
  -3.7493871446557005E-002   2.9518565299581811E-002   0.0000000000000000     
  -4.0998756617879321E-002   3.3525922814139152E-002   0.0000000000000000     
  -4.4417941055991929E-002   3.7744395451186658E-002   0.0000000000000000     
  -4.7751424760894841E-002   4.2173983210724339E-002   0.0000000000000000     
  -3.7454245770117571E-002   2.6814414011206412E-002   0.0000000000000000     
  -4.1265521478122277E-002   3.0620158796307882E-002   0.0000000000000000     
  -4.4985331081877647E-002   3.4620620343004511E-002   0.0000000000000000     
  -4.8613674581383673E-002   3.8815798651296307E-002   0.0000000000000000     
  -5.2150551976640348E-002   4.3205693721183255E-002   0.0000000000000000     
  -3.5798583082808415E-002   3.9515022102463992E-002   0.0000000000000000     
  -3.8404730847890478E-002   4.4221680817499456E-002   0.0000000000000000     
  -4.0935910006501174E-002   4.9127715432707747E-002   0.0000000000000000     
  -4.3392120558640494E-002   5.4233125948088851E-002   0.0000000000000000     
  -4.5773362504308454E-002   5.9537912363642753E-002   0.0000000000000000     
  -3.9575440313978867E-002   4.0328647401364701E-002   0.0000000000000000     
  -4.2400185055060033E-002   4.5021214441366218E-002   0.0000000000000000     
  -4.5140664876521686E-002   4.9908907605540724E-002   0.0000000000000000     
  -4.7796879778363811E-002   5.4991726893888225E-002   0.0000000000000000     
  -5.0368829760586438E-002   6.0269672306408693E-002   0.0000000000000000     
  -4.3559720873341014E-002   4.1214967770784816E-002   0.0000000000000000     
  -4.6597127566366435E-002   4.5883578513910644E-002   0.0000000000000000     
  -4.9544259063674011E-002   5.0747286416902293E-002   0.0000000000000000     
  -5.2401115365263720E-002   5.5806091479759734E-002   0.0000000000000000     
  -5.5167696471135570E-002   6.1059993702482995E-002   0.0000000000000000     
  -4.7751424760894841E-002   4.2173983210724339E-002   0.0000000000000000     
  -5.0995558381809691E-002   4.6808773035132742E-002   0.0000000000000000     
  -5.4146692567958128E-002   5.1642851866792433E-002   0.0000000000000000     
  -5.7204827319340193E-002   5.6676219705703398E-002   0.0000000000000000     
  -6.0169962635955851E-002   6.1908876551865666E-002   0.0000000000000000     
  -5.2150551976640348E-002   4.3205693721183255E-002   0.0000000000000000     
  -5.5595477501389788E-002   4.7796798005032497E-002   0.0000000000000000     
  -5.8947965389374080E-002   5.2595603955211151E-002   0.0000000000000000     
  -6.2208015640593237E-002   5.7602111571719218E-002   0.0000000000000000     
  -6.5375628255047252E-002   6.2816320854556698E-002   0.0000000000000000     
  -4.5773362504308454E-002   5.9537912363642753E-002   0.0000000000000000     
  -4.8080939370612849E-002   6.5031695335672240E-002   0.0000000000000000     
  -5.0316154684661517E-002   7.0704095520480043E-002   0.0000000000000000     
  -5.2479008446454450E-002   7.6555112918066145E-002   0.0000000000000000     
  -5.4569500655991643E-002   8.2584747528430563E-002   0.0000000000000000     
  -5.0368829760586438E-002   6.0269672306408693E-002   0.0000000000000000     
  -5.2860151968679069E-002   6.5735133675554877E-002   0.0000000000000000     
  -5.5274483548131179E-002   7.1380500833779434E-002   0.0000000000000000     
  -5.7611824498942796E-002   7.7205773781082440E-002   0.0000000000000000     
  -5.9872174821113906E-002   8.3210952517463840E-002   0.0000000000000000     
  -5.5167696471135570E-002   6.1059993702482995E-002   0.0000000000000000     
  -5.7847893560920793E-002   6.6501122415069003E-002   0.0000000000000000     
  -6.0445597814250608E-002   7.2121606947514710E-002   0.0000000000000000     
  -6.2960809231125001E-002   7.7921447299820118E-002   0.0000000000000000     
  -6.5393527811543978E-002   8.3900643471985253E-002   0.0000000000000000     
  -6.0169962635955851E-002   6.1908876551865666E-002   0.0000000000000000     
  -6.3044164147338058E-002   6.7329661554214673E-002   0.0000000000000000     
  -6.5829497483019805E-002   7.2927413861685844E-002   0.0000000000000000     
  -6.8525962643001079E-002   7.8702133474279234E-002   0.0000000000000000     
  -7.1133559627281878E-002   8.4653820391994802E-002   0.0000000000000000     
  -6.5375628255047252E-002   6.2816320854556698E-002   0.0000000000000000     
  -6.8448963727930856E-002   6.8220751092991819E-002   0.0000000000000000     
  -7.1426182554438777E-002   7.3797921576292849E-002   0.0000000000000000     
  -7.4307284734571016E-002   7.9547832304459720E-002   0.0000000000000000     
  -7.7092270268327601E-002   8.5470483277492515E-002   0.0000000000000000     
  -5.4569500655991643E-002   8.2584747528430563E-002   0.0000000000000000     
  -5.6585983844202409E-002   8.8783054006301640E-002   0.0000000000000000     
  -5.8526810542016056E-002   9.5140087006407720E-002   0.0000000000000000     
  -6.0391980749432556E-002  0.10165584652874879        0.0000000000000000     
  -6.2181494466451936E-002  0.10833033257332486        0.0000000000000000     
  -5.9872174821113906E-002   8.3210952517463840E-002   0.0000000000000000     
  -6.2053264312464225E-002   8.9385273357428588E-002   0.0000000000000000     
  -6.4152822770813425E-002   9.5717972615481595E-002   0.0000000000000000     
  -6.6170850196161521E-002  0.10220905029162287        0.0000000000000000     
  -6.8107346588508505E-002  0.10885850638585243        0.0000000000000000     
  -6.5393527811543978E-002   8.3900643471985253E-002   0.0000000000000000     
  -6.7741412949237065E-002   9.0049151845069370E-002   0.0000000000000000     
  -7.0002124037933738E-002   9.6356928800131747E-002   0.0000000000000000     
  -7.2175661077633985E-002  0.10282397433717243        0.0000000000000000     
  -7.4262024068337817E-002  0.10945028845619136        0.0000000000000000     
  -7.1133559627281878E-002   8.4653820391994802E-002   0.0000000000000000     
  -7.3650429754520921E-002   9.0774689469223999E-002   0.0000000000000000     
  -7.6074714343376953E-002   9.7056955560358205E-002   0.0000000000000000     
  -7.8406413393849919E-002  0.10350061866539738        0.0000000000000000     
  -8.0645526905939860E-002  0.11010567878434160        0.0000000000000000     
  -7.7092270268327601E-002   8.5470483277492515E-002   0.0000000000000000     
  -7.9780314728315829E-002   9.1561886229892475E-002   0.0000000000000000     
  -8.2370593687143084E-002   9.7818052896160912E-002   0.0000000000000000     
  -8.4863107144809352E-002  0.10423898327629783        0.0000000000000000     
  -8.7257855101314646E-002  0.11082467737030320        0.0000000000000000     
  -6.2181494466451936E-002  0.10833033257332486        0.0000000000000000     
  -6.3898023889057701E-002  0.11515199873842960        0.0000000000000000     
  -6.5544241213233420E-002  0.12210929862235664        0.0000000000000000     
  -6.7120146438979067E-002  0.12920223222510599        0.0000000000000000     
  -6.8625739566294641E-002  0.13643079954667764        0.0000000000000000     
  -6.8107346588508505E-002  0.10885850638585243        0.0000000000000000     
  -6.9964957304035999E-002  0.11565428192882475        0.0000000000000000     
  -7.1746327698925638E-002  0.12258431795119425        0.0000000000000000     
  -7.3451457773177437E-002  0.12964861445296094        0.0000000000000000     
  -7.5080347526791352E-002  0.13684717143412481        0.0000000000000000     
  -7.4262024068337817E-002  0.10945028845619136        0.0000000000000000     
  -7.6264562316566822E-002  0.11622243022856402        0.0000000000000000     
  -7.8186625128842613E-002  0.12312695872566580        0.0000000000000000     
  -8.0028212505165147E-002  0.13016387394749673        0.0000000000000000     
  -8.1789324445534467E-002  0.13733317589405680        0.0000000000000000     
  -8.0645526905939860E-002  0.11010567878434160        0.0000000000000000     
  -8.2796838926650212E-002  0.11685644363764741        0.0000000000000000     
  -8.4865133502984330E-002  0.12373722094577133        0.0000000000000000     
  -8.6850410634942296E-002  0.13074801070871339        0.0000000000000000     
  -8.8752670322524013E-002  0.13788881292647362        0.0000000000000000     
  -8.7257855101314646E-002  0.11082467737030320        0.0000000000000000     
  -8.9561787134286086E-002  0.11755632215607492        0.0000000000000000     
  -9.1781852821350790E-002  0.12441510461151084        0.0000000000000000     
  -9.3918052162508744E-002  0.13140102473661094        0.0000000000000000     
  -9.5970385157759977E-002  0.13851408253137523        0.0000000000000000     
  -6.8625739566294641E-002  0.13643079954667764        0.0000000000000000     
  -7.0046019533995363E-002  0.14377924770388825        0.0000000000000000     
  -7.1365985280896438E-002  0.15123182381355454        0.0000000000000000     
  -7.2585636806997880E-002  0.15878852787567649        0.0000000000000000     
  -7.3704974112299662E-002  0.16644935989025406        0.0000000000000000     
  -7.5080347526791352E-002  0.13684717143412481        0.0000000000000000     
  -7.6615752176659169E-002  0.14415405427401368        0.0000000000000000     
  -7.8040426939672655E-002  0.15154332835195536        0.0000000000000000     
  -7.9354371815831798E-002  0.15901499366794986        0.0000000000000000     
  -8.0557586805136597E-002  0.16656905022199708        0.0000000000000000     
  -8.1789324445534467E-002  0.13733317589405680        0.0000000000000000     
  -8.3459052829898558E-002  0.14461687483307414        0.0000000000000000     
  -8.5026489538205421E-002  0.15199698103227691        0.0000000000000000     
  -8.6491634570455084E-002  0.15947349449166506        0.0000000000000000     
  -8.7854487926647518E-002  0.16704641521123859        0.0000000000000000     
  -8.8752670322524013E-002  0.13788881292647362        0.0000000000000000     
  -9.0575921493713546E-002  0.14516770938106968        0.0000000000000000     
  -9.2324173076494764E-002  0.15259278185451916        0.0000000000000000     
  -9.3997425070867738E-002  0.16016403034682214        0.0000000000000000     
  -9.5595677476832452E-002  0.16788145485797862        0.0000000000000000     
  -9.5970385157759977E-002  0.13851408253137523        0.0000000000000000     
  -9.7966358168104090E-002  0.14580655791800015        0.0000000000000000     
  -9.9933477554540684E-002  0.15333073081868212        0.0000000000000000     
 -0.10187174331706979       0.16108660123342108        0.0000000000000000     
 -0.10378115545569139       0.16907416916221712        0.0000000000000000     
 </DataArray>
 <DataArray  type="Float64" Name="stress" NumberOfComponents="3" format="ascii">
   13417116246.378788        4025134873.9136367        2894030436.7129712     
   11766804961.601667        1889975688.3769231        1715711469.4348969     
   10313899143.184929        412834724.04149437        810518819.39636827     
   9058398791.1285782       -406288019.09265232        178452486.59738484     
   8000303905.4326105       -567392541.02551603       -180487528.96205354     
   10540442317.331224        3162132695.1993670        2225546119.7159357     
   9668045307.3923111        1589330598.2028370        1446443851.8823030     
   8944376669.0706959        512289739.93063021        862836150.09847426     
   8369436402.3663797       -68989879.617254734        474723014.36445117     
   7943224507.2793570       -154508260.44081831        282104444.68023258     
   8338400301.2903166        2501520090.3870950        1711988623.1480305     
   8022112562.7903547        1424533580.9109704        1275313110.8919022     
   7805876101.1646051        681051327.68220925        956500413.49583793     
   7689690916.4130602        271073330.70080757        755550530.95983922     
   7673557008.5357246        194599589.96676731        672463463.28390384     
   6810990198.2560663        2043297059.4768198        1353357947.0092549     
   6829006727.7958002        1395584636.5013247        1202319246.4636946     
   6898397439.4666529        919119487.29622960        1091511609.5884585     
   7019162333.2686262        613901611.86153483        1020935036.3835465     
   7191301409.2017202        479931010.19724035        990589526.84895873     
   5958212008.2284746        1787463602.4685423        1149654091.2996092     
   6088727802.4086428        1502483764.9738979        1227462258.5976815     
   6221940683.9768438        1226494218.7726932        1267869738.3763366     
   6357850652.9330740        959494963.86492693        1270876530.6355755     
   6496457709.2773380        701486000.25060010        1236482635.3753977     
   8000303905.4326105       -567392541.02551603       -180487528.96205354     
   7919503399.6145554       -199173520.09772348       -78203844.641779259     
   7796990984.9508114        30005804.677761078       -8776887.9226645641     
   7632766661.4413729        120145433.30093765        27793341.195296772     
   7426830429.0862408        71245365.771802902        31506842.712100264     
   7943224507.2793570       -154508260.44081831        282104444.68023258     
   7741382272.8267984        17167078.805375576        280904318.46446097     
   7516009131.7323790        110406062.57870865        264808132.05752042     
   7267105083.9961052        125208690.87918234        233815885.45940781     
   6994670129.6179762        61574963.706803322        187927578.67012167     
   7673557008.5357246        194599589.96676731        672463463.28390384     
   7401989238.0486183        185126105.31134462        588990695.76989722     
   7125071563.1234884        157819605.86251545        508582535.47470403     
   6842803983.7603350        112680091.62027550        431238982.39832574     
   6555186499.9591599        49707562.584632874        356960036.54076099     
   7191301409.2017202        479931010.19724035        990589526.84895873     
   6901324295.2800198        304703559.42019010        846055287.27452350     
   6624178279.1241331        172246434.52918267        722546322.32888913     
   6359863360.7340622        82559635.524219751        620062632.01205325     
   6108379540.1097994        35643162.405300140        538604216.32401538     
   6496457709.2773380        701486000.25060010        1236482635.3753977     
   6239387444.5210028        375899441.13190818        1052098092.9783429     
   6013329279.7343187        153686548.57871509        906699492.62007368     
   5818283214.9172802        34847322.591012001        800286834.30058587     
   5654249250.0698919        19381763.168805838        732860118.01988602     
   7426830429.0862408        71245365.771802902        31506842.712100264     
   7223576640.4608088       -20884195.795519829        13797890.990303660     
   7033001204.3137522       -70752582.434936523        725559.96274810296     
   6855104120.6450710       -78359794.146435738       -7710150.3705716915     
   6689885389.4547577       -43705830.930030346       -11509240.009646917     
   6994670129.6179762        61574963.706803322        187927578.67012167     
   6812091957.0434608        1465747.6615061760        179385904.26918641     
   6637594675.6729975       -31707164.370278358        174722618.70809221     
   6471178285.5065956       -37943772.388536215        173937721.98684150     
   6312842786.5442448       -17244076.393279314        177031214.10542947     
   6555186499.9591599        49707562.584632874        356960036.54076099     
   6391117566.7087088        20968779.043308020        352221934.64064741     
   6230532063.3880005        3841428.6011075974        350603989.72597718     
   6073429989.9970264       -1674488.7419652939        352106201.79675120     
   5919811346.5357895        4421027.0140881538        356728570.85297221     
   6108379540.1097994        35643162.405300140        538604216.32401538     
   5960653469.4565649        37624898.349892139        532305982.10468614     
   5811813367.4587517        35893196.479220390        528369673.01640391     
   5661859234.1163588        30448056.793276548        526795289.05916965     
   5510791069.4293823        21289479.292067289        527582830.23298240     
   5654249250.0698919        19381763.168805838        732860118.01988602     
   5520699665.2870235        51434105.581258535        719638046.66130245     
   5381438587.8852596        64448139.264055014        708019668.57937205     
   5236466017.8645973        58423864.217189074        698004983.77409053     
   5085781955.2250376        33361280.440668106        689593992.24545944     
   6689885389.4547577       -43705830.930030346       -11509240.009646917     
   6525625631.1157675        362516.40334939957       -4215252.6570576029     
   6354705119.5917578        22228353.119999647        1450562.4825537591     
   6177123854.8827238        21891679.219897985        5488205.4091932541     
   5992881836.9886656       -647505.29694247246        7897676.1228567194     
   6312842786.5442448       -17244076.393279314        177031214.10542947     
   6141153715.7180910        5655403.2629854679        173729989.29415548     
   5965475526.3605175        15257821.147832870        171227204.24660486     
   5785808218.4715109        11563177.261252165        169522858.96277565     
   5602151792.0510836       -5428528.3967459202        168616953.44266847     
   5919811346.5357895        4421027.0140881538        356728570.85297221     
   5747626140.2987480        8231592.1161172390        345949040.97370189     
   5574123450.1838827        7650544.2920536995        338394562.83484256     
   5399303276.1911821        2677883.5418748856        334065136.43640727     
   5223165618.3206501       -6686390.1343982220        332960761.77839023     
   5510791069.4293823        21289479.292067289        527582830.23298240     
   5345042904.8577366        8091082.9627535343        512441902.38156992     
   5180648891.0618544       -593477.44734978676        502952638.24727374     
   5017609028.0417366       -4764201.9382345676        499115037.83008939     
   4855923315.7973795       -4421090.5099117756        500929101.13002300     
   5085781955.2250376        33361280.440668106        689593992.24545944     
   4933404009.3950539        5233875.8028860092        673208573.51776981     
   4785051848.9944305       -9474244.0703680515        664901430.48388922     
   4640725474.0231686       -10763079.179082870        664672563.14382482     
   4500424884.4812632        1367370.4767258167        672521971.49756968     
   5992881836.9886656       -647505.29694247246        7897676.1228567194     
   5799175866.2392235       -31187538.305215597       -13487052.376362709     
   5608727354.6298752       -50869374.179852724       -29196677.085579619     
   5421536302.1606169       -59693012.920854807       -39231198.004786968     
   5237602708.8314438       -57658454.528235912       -43590615.133996919     
   5602151792.0510836       -5428528.3967459202        168616953.44266847     
   5426264169.3990126       -22964280.037475109        154141714.29735860     
   5252470267.1817245       -33520963.562287569        144696804.96752495     
   5080770085.3992186       -37098578.971153736        140282225.45315465     
   4911163624.0514889       -33697126.264090300        140897975.75424841     
   5223165618.3206501       -6686390.1343982220        332960761.77839023     
   5063254132.4101381       -11770523.814358473        324037316.83080167     
   4904272628.2291040       -13754718.396063089        319499427.72414631     
   4746221105.7775364       -12638973.879541636        319347094.45843154     
   4589099565.0554447       -8423290.2647647858        323580317.03364229     
   4855923315.7973795       -4421090.5099117756        500929101.13002300     
   4710145755.2726145        2393730.3641805649        496199755.22396004     
   4564134437.7720165        8429361.3188178539        495211191.18429756     
   4417889363.2955751        13685802.353998899        497963409.01103222     
   4271410531.8433022        18163053.469721556        504456408.70416999     
   4500424884.4812632        1367370.4767258167        672521971.49756968     
   4366939037.9864311        19528482.498116493        670629029.47683823     
   4232055695.8104568        33031275.582361460        671832095.34797430     
   4095774857.9533339        41875749.729441643        676131169.11097217     
   3958096524.4150691        46061904.939387083        683526250.76583600     
   5237602708.8314438       -57658454.528235912       -43590615.133996919     
   5050557491.7221737       -55443304.195499659       -49132983.553198308     
   4860989373.1041250       -61637825.558710575       -50935635.401934303     
   4668898352.9773035       -76242018.617827654       -48998570.680200413     
   4474284431.3416910       -99255883.372902870       -43321789.387997285     
   4911163624.0514889       -33697126.264090300        140897975.75424841     
   4733891236.7476530       -32057638.655582428        134486174.67224026     
   4554879730.7815380       -36215213.254672766        131985063.65261871     
   4374129106.1531343       -46169850.061379910        133394642.69535337     
   4191639362.8624492       -61921549.075700998        138714911.80047661     
   4589099565.0554447       -8423290.2647647858        323580317.03364229     
   4422088503.2481947       -7212916.6731317043        317213496.60974646     
   4254122105.6251659       -9186995.8007771969        314928339.74013120     
   4085200372.1863542       -14345527.647701979        316724846.42479539     
   3915323302.9317493       -22688512.213920116        322603016.66374081     
   4271410531.8433022        18163053.469721556        504456408.70416999     
   4115149291.2238054        19090861.751838923        499048982.25929880     
   3958716497.6350217        19446826.802993536        497894192.86061299     
   3802112151.0769434        19230948.623183250        500992040.50811660     
   3645336251.5495815        18443227.212405443        508342525.20180148     
   3958096524.4150691        46061904.939387083        683526250.76583600     
   3813073600.6744747        46853696.619318724        679992631.62090278     
   3668662906.8110924        49686254.556619644        680882623.01406229     
   3524864442.8249197        54559578.751280546        686196224.94531322     
   3381678208.7159495        61473669.203298807        695933437.41465569     
   4474284431.3416910       -99255883.372902870       -43321789.387997285     
   4308723773.4669695       -114380128.53243923       -63559669.548195727     
   4145141164.6618652       -122910876.79322982       -83795815.690158769     
   3983536604.9263954       -124848128.15524697       -104030227.81386845     
   3823910094.2605476       -120191882.61852908       -124262905.91935042     
   4191639362.8624492       -61921549.075700998        138714911.80047661     
   4029298306.6777716       -71746758.797378778        123440250.08052197     
   3868618489.9207473       -76034503.760201454        109417616.69516748     
   3709599912.5913982       -74784783.964117765        96647011.644419849     
   3552242574.6897011       -67997599.409183025        85128434.928255081     
   3915323302.9317493       -22688512.213920116        322603016.66374081     
   3759774117.9124031       -26143005.655200958        311921962.13508892     
   3605569362.6787620       -25116066.477458000        303743230.25738657     
   3452709037.2308326       -19607694.680685043        298066821.03063446     
   3301193141.5686007       -9617890.2649099827        294892734.45484245     
   3645336251.5495815        18443227.212405443        508342525.20180148     
   3500151207.1708803        22431130.894159555        501885466.61549145     
   3355993782.9359131        29844435.055038810        499181024.99648839     
   3212863978.8446956        40683139.695082664        500229200.34479475     
   3070761794.8972244        54947244.814272046        505029992.66040331     
   3381678208.7159495        61473669.203298807        695933437.41465569     
   3250429574.4531841        73975650.850655079        693330763.52173102     
   3119891750.6922011        88847000.837280631        695731000.91247571     
   2990064737.4330001        106087719.16318715        703134149.58687544     
   2860948534.6755891        125697805.82837307        715540209.54495013     
   3823910094.2605476       -120191882.61852908       -124262905.91935042     
   3748619687.7528372       -186496713.96813750       -87800519.556098416     
   3607881842.1972032       -470959675.47750187       -92376584.901192859     
   3401696557.5936055       -973580767.14671826       -137991101.95464399     
   3130063833.9421029       -1694359988.9756606       -224644070.71645439     
   3552242574.6897011       -67997599.409183025        85128434.928255081     
   3391224084.0294461       -124728536.20493889        72614247.976560980     
   3187388457.9922028       -324183257.59064651        32984472.334218323     
   2940735696.5779614       -666361763.56632829       -33760891.998772271     
   2651265799.7867513       -1151264054.1319628       -127621845.02242039     
   3301193141.5686007       -9617890.2649099827        294892734.45484245     
   3094226175.3777943       -44841049.920212150        259803995.13763970     
   2867072377.4809508       -147353648.59565234        211522530.14748788     
   2619731747.8780551       -317155686.29123712        150048339.48439252     
   2352204286.5691328       -554247163.00694466        75381423.148336887     
   3070761794.8972244        54947244.814272046        505029992.66040331     
   2857625961.7978806        53165744.886019468        473768721.92713392     
   2646933600.6634412        59529151.507457256        443237588.53861201     
   2438684711.4939203        74037464.678602099        413436592.49484831     
   2232879294.2892981        96690684.399421573        384365733.79584438     
   2860948534.6755891        125697805.82837307        715540209.54495013     
   2681423443.2897129        169291848.21379149        714508428.34504497     
   2526972127.5396814        296465142.71869266        728129647.50760078     
   2397594587.4255118        507217689.34313613        756403867.03260386     
   2293290822.9472022        801549488.08709645        799331086.92007256     
   5958212008.2284746        1787463602.4685423        1149654091.2996092     
   6088727802.4086428        1502483764.9738979        1227462258.5976815     
   6221940683.9768438        1226494218.7726932        1267869738.3763366     
   6357850652.9330740        959494963.86492693        1270876530.6355755     
   6496457709.2773380        701486000.25060010        1236482635.3753977     
   5434723323.4569559        1630416997.0370870        1033149522.9797019     
   5489925835.5619278        1372686503.1629539        1113474418.4040537     
   5547309017.6475716        1122224909.2243905        1166978397.3775520     
   5606872869.7138853        879032215.22139609        1193661459.9001997     
   5668617391.7608690        643108421.15397096        1193523605.9719942     
   4895181736.1909275        1468554520.8572781        936116709.01014125     
   4905298883.5594578        1247141745.8052833        1018355845.5855179     
   4917080283.5012970        1031276479.3309875        1084353836.7786062     
   4930525936.0164480        820958721.43439078        1134110682.5894065     
   4945635841.1049070        616188472.11549318        1167626383.0179191     
   4339587246.4303846        1301876173.9291153        858555649.39092708     
   4334846946.4012299        1125849492.9008853        942106540.14207411     
   4331254481.5380230        953648929.09248400        1019996056.5794972     
   4328809851.8407640        785274482.50391138        1092224198.7031965     
   4327513057.3094559        620726153.13516855        1158790966.5131721     
   3767939854.1753325        1130381956.2525997        800466344.12205982     
   3778570024.0872459        1008809744.4497604        884726502.07372260     
   3789831611.7577467        889342258.50888026        973905056.78022587     
   3801724617.1868353        771979498.42995882        1068002008.2415699     
   3814249040.3745117        656721464.21299624        1167017356.4577537     
   6496457709.2773380        701486000.25060010        1236482635.3753977     
   6239387444.5210028        375899441.13190818        1052098092.9783429     
   6013329279.7343187        153686548.57871509        906699492.62007368     
   5818283214.9172802        34847322.591012001        800286834.30058587     
   5654249250.0698919        19381763.168805838        732860118.01988602     
   5668617391.7608690        643108421.15397096        1193523605.9719942     
   5518475421.9962616        383641499.14373541        1072562494.6590549     
   5392541454.5151615        204867918.07852197        979609598.12209439     
   5290815489.3175669        106787677.95832610        914664916.36111188     
   5213297526.4034786        89400778.783150434        877728449.37610924     
   4945635841.1049070        616188472.11549318        1167626383.0179191     
   4871057231.2954416        413431706.70273805        1102150588.8219285     
   4813882526.0833387        268687956.61452866        1053705282.1391112     
   4774111725.4685993        181957221.85086250        1022290462.9694666     
   4751744829.4512234        153239502.41174245        1007906131.3129945     
   4327513057.3094559        620726153.13516855        1158790966.5131721     
   4297132872.4185419        465270063.80891752        1140862375.4669642     
   4277352494.4388494        345146664.18673623        1128986544.6711233     
   4268171923.3703785        260355954.26862478        1123163474.1256511     
   4269591159.2131286        210897934.05458260        1123393163.8305445     
   3814249040.3745117        656721464.21299624        1167017356.4577537     
   3796702345.3655634        539156570.46227217        1188697854.5941629     
   3782951359.5816946        434244040.79514360        1205453385.7181323     
   3772996083.0229034        341983875.21160924        1217283949.8296640     
   3766836515.6891913        262376073.71167016        1224189546.9287581     
   5654249250.0698919        19381763.168805838        732860118.01988602     
   5520699665.2870235        51434105.581258535        719638046.66130245     
   5381438587.8852596        64448139.264055014        708019668.57937205     
   5236466017.8645973        58423864.217189074        698004983.77409053     
   5085781955.2250376        33361280.440668106        689593992.24545944     
   5213297526.4034786        89400778.783150434        877728449.37610924     
   5076573857.7429342        87453699.107926607        853711333.84873140     
   4937533306.2871666        77783676.781944990        833494942.54364622     
   4796175872.0361710        60390711.805206299        817079275.46085644     
   4652501554.9899454        35274804.177707672        804464332.60036039     
   4751744829.4512234        153239502.41174245        1007906131.3129945     
   4618124308.1862736        119176170.03082156        977054349.74443686     
   4485581513.9497652        88705261.078042030        952200323.34381568     
   4354116446.7416983        61826775.553405046        933344052.11113286     
   4223729106.5620775        38540713.456910610        920485536.04638767     
   4269591159.2131286        210897934.05458260        1123393163.8305445     
   4145351016.6170363        146601518.34994292        1089667094.3484211     
   4025583210.8730583        97212892.152347565        1064135810.9798784     
   3910287741.9811921        62732055.461793900        1046799313.7249159     
   3799464609.9414382        43159008.278283596        1037657602.5835353     
   3766836515.6891913        262376073.71167016        1224189546.9287581     
   3658253983.0352259        169729744.06529486        1191549567.6606834     
   3557538397.0570431        103306570.00486171        1169301405.4518340     
   3464689757.7546439        63106551.530374646        1157445060.3022103     
   3379708065.1280284        49129688.641826630        1155980532.2118113     
   5085781955.2250376        33361280.440668106        689593992.24545944     
   4933404009.3950539        5233875.8028860092        673208573.51776981     
   4785051848.9944305       -9474244.0703680515        664901430.48388922     
   4640725474.0231686       -10763079.179082870        664672563.14382482     
   4500424884.4812632        1367370.4767258167        672521971.49756968     
   4652501554.9899454        35274804.177707672        804464332.60036039     
   4521442400.2340918        14281155.685919285        792784609.06250155     
   4392922794.5033197        1752670.6110548973        787779428.46954703     
   4266942737.7976179       -2310651.0469007492        789448790.82149887     
   4143502230.1169939        2091190.7120671272        797792696.11835492     
   4223729106.5620775        38540713.456910610        920485536.04638767     
   4109978077.8834891        23477621.612064362        911777565.22669137     
   3997280361.8256888        11925571.836518288        908340404.60299635     
   3885635958.3886824        3884564.1302769184        910174054.17530227     
   3775044867.5724630       -645401.50666570663        917278513.94361198     
   3799464609.9414382        43159008.278283596        1037657602.5835353     
   3699011042.3432350        32823273.581310272        1030187442.0103409     
   3598124550.9615393        21044459.606026888        1026584358.8842400     
   3496805135.7963486        7822566.3524272442        1026848353.2052366     
   3395052796.8476667       -6842406.1794795990        1030979424.9733269     
   3379708065.1280284        49129688.641826630        1155980532.2118113     
   3288541293.6133385        42318111.593665123        1148014239.4134507     
   3195455361.9108725        29109333.919580817        1142511291.3132806     
   3100450270.0206294        9503355.6195690632        1139471687.9112980     
   3003526017.9426050       -16499823.306373000        1138895429.2075086     
   4500424884.4812632        1367370.4767258167        672521971.49756968     
   4366939037.9864311        19528482.498116493        670629029.47683823     
   4232055695.8104568        33031275.582361460        671832095.34797430     
   4095774857.9533339        41875749.729441643        676131169.11097217     
   3958096524.4150691        46061904.939387083        683526250.76583600     
   4143502230.1169939        2091190.7120671272        797792696.11835492     
   4015348032.0470085        8201786.6144201756        791112167.59253299     
   3886713314.3542786        12710650.440961123        788217787.52912152     
   3757598077.0387959        15617782.191667318        789109555.92811728     
   3628002320.1005745        16923181.866566658        793787472.78952110     
   3775044867.5724630       -645401.50666570663        917278513.94361198     
   3654194148.1288738       -5993772.6628799438        906880204.31416476     
   3533779885.1209373       -9887289.0335862637        900958183.71766734     
   3413802078.5486541       -12325950.618781567        899512452.15412390     
   3294260728.4120207       -13309757.418474913        902543009.62352860     
   3395052796.8476667       -6842406.1794795990        1030979424.9733269     
   3283477386.2320285       -23058195.333795786        1017933139.6417176     
   3173255408.1104403       -34762542.841279984        1010053283.9136056     
   3064386862.4829063       -41955448.701917410        1007339857.7889863     
   2956871749.3494201       -44636912.915730238        1009792861.2678627     
   3003526017.9426050       -16499823.306373000        1138895429.2075086     
   2903197746.3564701       -42991481.398327827        1124270973.5752046     
   2805139883.3227830       -61915110.982123375        1115503088.1169376     
   2709352428.8415499       -73270712.057735324        1112591772.8327110     
   2615835382.9127607       -77058284.625199795        1115537027.7225237     
   3958096524.4150691        46061904.939387083        683526250.76583600     
   3813073600.6744747        46853696.619318724        679992631.62090278     
   3668662906.8110924        49686254.556619644        680882623.01406229     
   3524864442.8249197        54559578.751280546        686196224.94531322     
   3381678208.7159495        61473669.203298807        695933437.41465569     
   3628002320.1005745        16923181.866566658        793787472.78952110     
   3494070357.0361838        16531931.719854832        789441127.51867485     
   3360357954.4843731        16872549.948427677        789475689.57450330     
   3226865112.4451475        17945036.552271605        793891158.95700741     
   3093591830.9185042        19749391.531396508        802687535.66618216     
   3294260728.4120207       -13309757.418474913        902543009.62352860     
   3171297716.8483586       -14920652.144471645        896925823.96803939     
   3048161596.4326558       -17108576.377270818        895646842.42780697     
   2924852367.1649103       -19873530.116876841        898706065.00283492     
   2801370029.0451183       -23215513.363298059        906103491.69312179     
   2956871749.3494201       -44636912.915730238        1009792861.2678627     
   2844755680.1110125       -47504054.973651648        1002446720.9690007     
   2732073832.6559372       -52257124.420462728        999396081.57397759     
   2618826206.9841967       -58896121.256164074        1000640943.0828017     
   2505012803.0957832       -67421045.480767250        1006181305.4954697     
   2615835382.9127607       -77058284.625199795        1115537027.7225237     
   2514444246.8241348       -81218276.767697453        1106003818.5215530     
   2412094663.1542192       -88573094.181162000        1100723407.0130148     
   2308786631.9030104       -99122736.865603328        1099695793.1968999     
   2204520153.0705056       -112867204.82102942        1102920977.0732155     
   3381678208.7159495        61473669.203298807        695933437.41465569     
   3250429574.4531841        73975650.850655079        693330763.52173102     
   3119891750.6922011        88847000.837280631        695731000.91247571     
   2990064737.4330001        106087719.16318715        703134149.58687544     
   2860948534.6755891        125697805.82837307        715540209.54495013     
   3093591830.9185042        19749391.531396508        802687535.66618216     
   2972659624.8388500        25796124.791820645        798841521.61302829     
   2851863938.8931170        32297925.165334105        799417982.96789014     
   2731204773.0813131        39254792.651929021        804416919.73077643     
   2610682127.4034381        46666727.251628876        813838331.90167844     
   2801370029.0451183       -23215513.363298059        906103491.69312179     
   2689095862.9324536       -24121544.954632401        900344132.05056250     
   2576383926.5858526       -26486810.659073472        898426811.94038093     
   2463234220.0053263       -30311310.476608872        900351531.36258006     
   2349646743.1908612       -35595044.407254696        906118290.31715822     
   2505012803.0957832       -67421045.480767250        1006181305.4954697     
   2399738288.7339902       -75777358.388698697        997838594.83433700     
   2293451713.7704062       -87507206.635932207        992757487.82994235     
   2186153078.2050347       -102610590.22245681        990937984.48229456     
   2077842382.0378816       -121087509.14825678        992380084.79137290     
   2204520153.0705056       -112867204.82102942        1102920977.0732155     
   2104586902.2434652       -129171315.51039875        1091324909.9643517     
   2003067300.4467816       -150763262.76524365        1082410010.6365812     
   1899961347.6804514       -177643046.58557510        1076176279.0899129     
   1795269043.9444804       -209810666.97138178        1072623715.3243359     
   2860948534.6755891        125697805.82837307        715540209.54495013     
   2681423443.2897129        169291848.21379149        714508428.34504497     
   2526972127.5396814        296465142.71869266        728129647.50760078     
   2397594587.4255118        507217689.34313613        756403867.03260386     
   2293290822.9472022        801549488.08709645        799331086.92007256     
   2610682127.4034381        46666727.251628876        813838331.90167844     
   2455874769.0830145        60533504.223653316        828306590.34575260     
   2311968422.1660833        110736985.87398517        853995627.41927350     
   2178963086.6526470        197277172.20263147        890905443.12223911     
   2056858762.5427072        320154063.20959955        939036037.45464098     
   2349646743.1908612       -35595044.407254696        906118290.31715822     
   2209750770.1272960       -54397437.191199303        919551696.80077875     
   2066583044.2348652       -84105672.738028765        940773660.18084228     
   1920143565.5135660       -124719751.04774296        969784180.45733762     
   1770432333.9634051       -176239672.12033951        1006583257.6302763     
   2077842382.0378816       -121087509.14825678        992380084.79137290     
   1943051446.4225729       -175500976.03074920        988243747.71013010     
   1790815993.7460439       -288062833.11731327        988463745.79231179     
   1621136024.0082855       -458773080.40797162        993040079.03792226     
   1434011537.2092998       -687631717.90271604        1001972747.4469616     
   1795269043.9444804       -209810666.97138178        1072623715.3243359     
   1655776797.9688380       -302777112.29498923        1034382743.0737972     
   1484667270.6996140       -501134495.26388144        997065884.25367987     
   1281940462.1367967       -804882815.87807286        960673138.86398530     
   1047596372.2803988       -1214022074.1375382        925204506.90470624     
   3767939854.1753325        1130381956.2525997        800466344.12205982     
   3778570024.0872459        1008809744.4497604        884726502.07372260     
   3789831611.7577467        889342258.50888026        973905056.78022587     
   3801724617.1868353        771979498.42995882        1068002008.2415699     
   3814249040.3745117        656721464.21299624        1167017356.4577537     
   3207405396.4277596        962221618.92832792        756697701.19504774     
   3235219417.5003119        868285839.50503790        853071115.55317342     
   3262768412.9235029        773466641.25054431        951366841.96166921     
   3290052382.6973324        677764024.16484785        1051584880.4205358     
   3317071326.8218017        581177988.24794757        1153725230.9297726     
   2685149710.1896601        805544913.05689800        722098628.60139954     
   2721587340.4100795        736677493.40932560        829539448.72338140     
   2756863501.5731888        663938510.23738754        935906496.19126332     
   2790978193.6789894        587327963.54108465        1041199771.0050457     
   2823931416.7274785        506845853.32041562        1145419273.1647289     
   2201172795.4610338        660351838.63831019        696669126.34111547     
   2237673792.8165488        613984706.16262376        814131501.58434641     
   2272116877.7068057        560757865.46940994        927524019.46900749     
   2304502050.1318040        500671316.55866885        1036846679.9950997     
   2334829310.0915437        433725059.43039954        1142099483.1626213     
   1755474652.2418804        526642395.67256415        680409194.41419518     
   1783478774.7197194        500207477.76493251        806847274.13606882     
   1808528541.3243515        463924706.94661111        926219411.79490244     
   1830623952.0557773        417794083.21760064        1038525607.3906965     
   1849765006.9139955        361815606.57789999        1143765860.9234509     
   3814249040.3745117        656721464.21299624        1167017356.4577537     
   3796702345.3655634        539156570.46227217        1188697854.5941629     
   3782951359.5816946        434244040.79514360        1205453385.7181323     
   3772996083.0229034        341983875.21160924        1217283949.8296640     
   3766836515.6891913        262376073.71167016        1224189546.9287581     
   3317071326.8218017        581177988.24794757        1153725230.9297726     
   3292262140.4447651        474253608.62122750        1182095554.6204300     
   3271153207.4801435        379663407.03589153        1207348810.2425342     
   3253744527.9279380        297407383.49193823        1229484997.7960844     
   3240036101.7881455        227485537.98936915        1248504117.2810800     
   2823931416.7274785        506845853.32041562        1145419273.1647289     
   2797025164.5363097        412111615.48388606        1180368057.2948608     
   2773723709.9448929        329393369.64652908        1214007672.3003249     
   2754027052.9532280        258691115.80834472        1246338118.1811192     
   2737935193.5613136        200004853.96933222        1277359394.9372449     
   2334829310.0915437        433725059.43039954        1142099483.1626213     
   2310991417.6401987        352730591.05024821        1183515362.6174548     
   2290662866.9759421        283433928.62705672        1225429971.8915052     
   2273843658.0987740        225835072.16082841        1267843310.9847701     
   2260533791.0086937        179934021.65155852        1310755379.8972514     
   1849765006.9139955        361815606.57789999        1143765860.9234509     
   1834160899.7564306        296110535.32031196        1191537470.5882127     
   1821970678.5732908        241785083.97747320        1241615709.0160742     
   1813194343.3645759        198839252.54938680        1294000576.2070367     
   1807831894.1302862        167273041.03604978        1348692072.1610980     
   3766836515.6891913        262376073.71167016        1224189546.9287581     
   3658253983.0352259        169729744.06529486        1191549567.6606834     
   3557538397.0570431        103306570.00486171        1169301405.4518340     
   3464689757.7546439        63106551.530374646        1157445060.3022103     
   3379708065.1280284        49129688.641826630        1155980532.2118113     
   3240036101.7881455        227485537.98936915        1248504117.2810800     
   3160893119.2600441        152904818.46222723        1231544395.9262140     
   3087921197.3142009        98894300.875940561        1222669678.3506558     
   3021120335.9506164        65453985.230517507        1221879964.5544078     
   2960490535.1692858        52583871.525948644        1229175254.5374703     
   2737935193.5613136        200004853.96933222        1277359394.9372449     
   2681640866.0736051        141512476.03578174        1274101397.7198050     
   2629821713.0746288        97937346.398004651        1276621591.0017605     
   2582477734.5643835        69279465.055999875        1284919974.7831097     
   2539608930.5428710        55538832.009768724        1298996549.0638525     
   2260533791.0086937        179934021.65155852        1310755379.8972514     
   2220497223.4759054        135552716.78595841        1319220573.0414591     
   2183239944.3383241        100435706.57104814        1331157143.4051464     
   2148761953.5959482        74582991.006821632        1346565090.9883122     
   2117063251.2487788        57994570.093285680        1365444415.7909579     
   1807831894.1302862        167273041.03604978        1348692072.1610980     
   1777462191.4669464        135025540.71275765        1366901921.8911743     
   1748175891.1052878        106389381.39507073        1386276335.5608139     
   1719972993.0453105        81364563.082986236        1406815313.1700170     
   1692853497.2870121        59951085.776501179        1428518854.7187831     
   3379708065.1280284        49129688.641826630        1155980532.2118113     
   3288541293.6133385        42318111.593665123        1148014239.4134507     
   3195455361.9108725        29109333.919580817        1142511291.3132806     
   3100450270.0206294        9503355.6195690632        1139471687.9112980     
   3003526017.9426050       -16499823.306373000        1138895429.2075086     
   2960490535.1692858        52583871.525948644        1229175254.5374703     
   2875478688.5460343        40745928.559666276        1219601441.2879441     
   2789799155.7301030        26682364.951124907        1213458771.5455177     
   2703451936.7214947        10393180.700324178        1210747245.3101869     
   2616437031.5202093       -8121624.1927374601        1211466862.5819507     
   2539608930.5428710        55538832.009768724        1298996549.0638525     
   2463517148.2650738        39504064.961568117        1289275268.3574455     
   2388009153.7897005        25415257.254779100        1283952929.9670417     
   2313084947.1167493        13272408.889394283        1283029533.8926432     
   2238744528.2462196        3075519.8654191494        1286505080.1342499     
   2117063251.2487788        57994570.093285680        1365444415.7909579     
   2052656672.7704601        38592520.799377680        1357035720.6219516     
   1990085356.0896637        25308010.830540538        1353993766.5778575     
   1929349301.2063911        18141040.186784744        1356318553.6586766     
   1870448508.1206384        17091608.868097067        1364010081.8644063     
   1692853497.2870121        59951085.776501179        1428518854.7187831     
   1642897262.0621915        38011296.073086500        1422882798.0814631     
   1596027762.6299951        26360625.678415954        1423581281.3779619     
   1552244998.9904206        24999074.592487097        1430614304.6082799     
   1511548971.1434696        33926642.815301955        1443981867.7724180     
   3003526017.9426050       -16499823.306373000        1138895429.2075086     
   2903197746.3564701       -42991481.398327827        1124270973.5752046     
   2805139883.3227830       -61915110.982123375        1115503088.1169376     
   2709352428.8415499       -73270712.057735324        1112591772.8327110     
   2615835382.9127607       -77058284.625199795        1115537027.7225237     
   2616437031.5202093       -8121624.1927374601        1211466862.5819507     
   2533685226.1601377       -24023180.446334600        1202039938.4641302     
   2452480877.5556669       -34766547.514604330        1197832933.1526949     
   2372823985.7067966       -40351725.397538066        1198845846.6476555     
   2294714550.6135235       -40778714.095140934        1205078678.9490025     
   2238744528.2462196        3075519.8654191494        1286505080.1342499     
   2171750185.2046485       -2781635.7220929861        1281432243.7679162     
   2105580347.1218266       -5890441.4471056461        1280942674.8403263     
   2040235013.9977551       -6250897.3096172810        1285036373.3514762     
   1975714185.8324335       -3863003.3096343279        1293713339.3013718     
   1870448508.1206384        17091608.868097067        1364010081.8644063     
   1817392623.4900014        20733152.774404407        1362447889.4865689     
   1764438292.0212648        24713207.220379710        1364832313.1798296     
   1711585513.7144268        29031772.206019402        1371163352.9441812     
   1658834288.5694861        33688847.731316745        1381441008.7796280     
   1511548971.1434696        33926642.815301955        1443981867.7724180     
   1470612541.0161984        46521185.043154061        1445086875.6200867     
   1429054712.2539783        57044398.487843633        1449501848.1712055     
   1386875484.8568063        65496283.149360418        1457226785.4257672     
   1344074858.8246839        71876839.027707815        1468261687.3837769     
   2615835382.9127607       -77058284.625199795        1115537027.7225237     
   2514444246.8241348       -81218276.767697453        1106003818.5215530     
   2412094663.1542192       -88573094.181162000        1100723407.0130148     
   2308786631.9030104       -99122736.865603328        1099695793.1968999     
   2204520153.0705056       -112867204.82102942        1102920977.0732155     
   2294714550.6135235       -40778714.095140934        1205078678.9490025     
   2205046157.5147939       -43096288.230258703        1195475796.4462574     
   2114870155.1093357       -47105893.387813330        1190212437.4723775     
   2024186543.3971484       -52807529.567792177        1189288602.0273647     
   1932995322.3782239       -60201196.770225525        1192704290.1112173     
   1975714185.8324335       -3863003.3096343279        1293713339.3013718     
   1898016323.8277061       -4263823.0061541796        1284566761.4838383     
   1820261690.7908158       -4853879.4765583277        1279846433.0316124     
   1742450286.7217593       -5633172.7208559513        1279552353.9446893     
   1664582111.6205316       -6601702.7390451431        1283684524.2230732     
   1658834288.5694861        33688847.731316745        1381441008.7796280     
   1593354745.7628744        35279118.904630661        1373276713.6342993     
   1528269270.1986630        38182947.552609682        1369625393.6907146     
   1463577861.8768437        42400333.675227344        1370487048.9488738     
   1399280520.7974224        47931277.272510290        1375861679.4087768     
   1344074858.8246839        71876839.027707815        1468261687.3837769     
   1291061423.3202987        75532537.502093971        1461605652.8976436     
   1238892893.3328741        82004587.699681163        1459549319.4496901     
   1187569268.8624065        91292989.620456874        1462092687.0399220     
   1137090549.9088998        103397743.26443845        1469235755.6683331     
   2204520153.0705056       -112867204.82102942        1102920977.0732155     
   2104586902.2434652       -129171315.51039875        1091324909.9643517     
   2003067300.4467816       -150763262.76524365        1082410010.6365812     
   1899961347.6804514       -177643046.58557510        1076176279.0899129     
   1795269043.9444804       -209810666.97138178        1072623715.3243359     
   1932995322.3782239       -60201196.770225525        1192704290.1112173     
   1843654017.7984097       -68939809.772209764        1181357000.9243779     
   1753567627.5376706       -80162041.710622072        1173730310.8341367     
   1662736151.5959949       -93867892.585479140        1169824219.8405042     
   1571159589.9733865       -110057362.39678216        1169638727.9434736     
   1664582111.6205316       -6601702.7390451431        1283684524.2230732     
   1588802557.0465431       -6883876.9260499477        1273567489.1284177     
   1513119182.0803337       -6845452.4204621911        1268210484.4458690     
   1437531986.7219031       -6486429.2222771645        1267613510.1754372     
   1362040970.9712510       -5806807.3314931989        1271776566.3171160     
   1399280520.7974224        47931277.272510290        1375861679.4087768     
   1340032519.9878507        56996483.028051674        1367956374.5764701     
   1281721964.0747709        69186505.105231881        1365850531.4717784     
   1224348853.0581760        84501343.504029393        1369544150.0947115     
   1167913186.9380789        102940998.22448385        1379037230.4452636     
   1137090549.9088998        103397743.26443845        1469235755.6683331     
   1097343906.6223416        122701270.09011847        1464523657.2685370     
   1059375973.5209782        147933830.86645019        1466650451.9118695     
   1023186750.6048188        179095425.59346259        1475616139.5983245     
   988776237.87386322        216186054.27115124        1491420720.3279119     
   1795269043.9444804       -209810666.97138178        1072623715.3243359     
   1655776797.9688380       -302777112.29498923        1034382743.0737972     
   1484667270.6996140       -501134495.26388144        997065884.25367987     
   1281940462.1367967       -804882815.87807286        960673138.86398530     
   1047596372.2803988       -1214022074.1375382        925204506.90470624     
   1571159589.9733865       -110057362.39678216        1169638727.9434736     
   1447947717.5860293       -162408185.56877577        1109028933.2705140     
   1307895814.3095496       -270892445.03784984        1050645553.5846642     
   1151003880.1439419       -435510140.80401939        994488588.88594425     
   977271915.08920527       -656261272.86728263        940558039.17433798     
   1362040970.9712510       -5806807.3314931989        1271776566.3171160     
   1258830333.7627614       -16425749.874683499        1206038074.6935906     
   1153556916.0696039       -33920627.366775572        1143828299.6138852     
   1046220717.8917723       -58291439.807763755        1085147241.0780015     
   936821739.22928047       -89538187.197646320        1029994899.0859363     
   1167913186.9380789        102940998.22448385        1379037230.4452636     
   1088424646.4990289        135170194.78727132        1325410167.3430412     
   1021650575.9797618        209780957.74933290        1276614122.3413446     
   967590975.38028681        326773287.11069882        1232649095.4401665     
   926245844.70060146        486147182.87136364        1193515086.6395147     
   988776237.87386322        216186054.27115124        1491420720.3279119     
   936730655.79482782        292379648.41707534        1467145211.2188613     
   912176794.04003429        460212310.31047487        1449003021.7670414     
   915114652.60948980        719684039.95136607        1436994151.9724450     
   945544231.50319397        1070794837.3397551        1431118601.8350685     
   1755474652.2418804        526642395.67256415        680409194.41419518     
   1783478774.7197194        500207477.76493251        806847274.13606882     
   1808528541.3243515        463924706.94661111        926219411.79490244     
   1830623952.0557773        417794083.21760064        1038525607.3906965     
   1849765006.9139955        361815606.57789999        1143765860.9234509     
   1325838418.3797581        397751525.51392746        670193440.99875629     
   1339104312.5170338        375604177.76577783        792364055.35587537     
   1350154439.7494721        346070940.33483762        909274073.78495061     
   1358988800.0770736        309151813.22110695        1020923496.2859827     
   1365607393.4998376        264846796.42458576        1127312322.8589714     
   890047231.72222579        267014169.51666775        662896474.27291632     
   893733029.33321285        250701831.47228259        781661310.39504552     
   895941649.00773239        229465566.97300601        896970896.72412741     
   896673090.74578428        203305376.01883793        1008825233.2601621     
   895927354.54736912        172221258.60977852        1117224320.0031488     
   448101092.26928353        134430327.68078506        658518294.23667514     
   447364925.16825640        125500438.88444677        774739039.25357902     
   445890169.09913188        114108586.86111610        889309880.61243224     
   443676824.06190932        100254771.61079305        1002230818.3132340     
   440724890.05658931        83938993.133477777        1113501852.3559844     
   2.0931001895078089E-002   6.2793005685234269E-003   657058900.89003265     
   2.2164882109197384E-002   2.2702593010643238E-003   771597241.93147647     
   2.3670745995164964E-002  -8.3190951837908492E-004   886291025.44986510     
   2.5448705070918575E-002  -3.0274846846511574E-003   1001140251.4451987     
   2.7498636380783273E-002  -4.3161387925244165E-003   1116144919.9174776     
   1849765006.9139955        361815606.57789999        1143765860.9234509     
   1834160899.7564306        296110535.32031196        1191537470.5882127     
   1821970678.5732908        241785083.97747320        1241615709.0160742     
   1813194343.3645759        198839252.54938680        1294000576.2070367     
   1807831894.1302862        167273041.03604978        1348692072.1610980     
   1365607393.4998376        264846796.42458576        1127312322.8589714     
   1359693396.9275758        217304718.11984941        1182960699.0747700     
   1356339814.8361690        178297354.75129503        1239564917.8347361     
   1355546647.2256165        147824706.31892174        1297124979.1388683     
   1357313894.0959172        125886772.82272917        1355640882.9871686     
   895927354.54736912        172221258.60977852        1117224320.0031488     
   895844079.36345816        141684356.49880853        1179753746.0274861     
   897467747.16683066        116837264.34545013        1241888228.3770576     
   900798357.95748699        97679982.149705023        1303627767.0518615     
   905835911.73542738        84212509.911572009        1364972362.0518997     
   440724890.05658931        83938993.133477777        1113501852.3559844     
   442612947.06407690        69249450.457188517        1181916611.4463611     
   445354475.56527704        57404812.759941339        1248585640.6430378     
   448949475.56019074        48405080.041738555        1313508939.9460146     
   453397947.04881686        42250252.302577972        1376686509.3552916     
   2.7498636380783273E-002  -4.3161387925244165E-003   1116144919.9174776     
   2.9431899911730390E-002  -5.0117019051260283E-003   1189449295.3313940     
   3.1507659061919414E-002  -5.2321928840808156E-003   1259657154.6326776     
   3.3725510293684619E-002  -4.9789134868543396E-003   1326768497.8213282     
   3.6086015128436850E-002  -4.2504690243662571E-003   1390783324.8973453     
   1807831894.1302862        167273041.03604978        1348692072.1610980     
   1777462191.4669464        135025540.71275765        1366901921.8911743     
   1748175891.1052878        106389381.39507073        1386276335.5608139     
   1719972993.0453105        81364563.082986236        1406815313.1700170     
   1692853497.2870121        59951085.776501179        1428518854.7187831     
   1357313894.0959172        125886772.82272917        1355640882.9871686     
   1332767938.3360803        101170543.95170522        1374827057.9418542     
   1309034534.3025613        79162820.835075498        1395590488.5476077     
   1286113681.9953604        59863603.472838581        1417931174.8044302     
   1264005381.4144773        43272891.864995837        1441849116.7123241     
   905835911.73542738        84212509.911572009        1364972362.0518997     
   888292822.05482244        67381288.245536029        1384818869.8932712     
   871291433.52517271        52355737.082684249        1406655325.0972168     
   854831746.14647734        39135856.423014253        1430481727.6637356     
   838913759.91873741        27721646.266526759        1456298077.5928285     
   453397947.04881686        42250252.302577972        1376686509.3552916     
   444036842.62317258        33657773.594248489        1396877357.7454252     
   434946588.77312082        25968130.137894422        1419470845.2096384     
   426127185.49865955        19181321.933507904        1444466971.7479291     
   417578632.79978997        13297348.981094867        1471865737.3602998     
   3.6086015128436850E-002  -4.2504690243662571E-003   1390783324.8973453     
   4.1131155258279484E-002  -2.1548925647537302E-003   1411002521.4983180     
   4.6404752751039662E-002   7.0220843791727466E-004   1434037048.8848739     
   5.1907230802993927E-002   4.3216374846853575E-003   1459886907.0570152     
   5.7638280595237790E-002   8.7041866388519080E-003   1488552096.0147393     
   1692853497.2870121        59951085.776501179        1428518854.7187831     
   1642897262.0621915        38011296.073086500        1422882798.0814631     
   1596027762.6299951        26360625.678415954        1423581281.3779619     
   1552244998.9904206        24999074.592487097        1430614304.6082799     
   1511548971.1434696        33926642.815301955        1443981867.7724180     
   1264005381.4144773        43272891.864995837        1441849116.7123241     
   1231175207.1250648        28209150.227562904        1440137892.3137600     
   1200660084.6805270        20862248.073043942        1443679240.6856945     
   1172460014.0808609        21232185.401429772        1452473161.8281271     
   1146574995.3260672        29318962.212725759        1466519655.7410610     
   838913759.91873741        27721646.266526759        1456298077.5928285     
   820118311.81238890        18606552.269374102        1457611387.4939792     
   802866231.60316288        14636017.929296315        1463095303.0023096     
   787157519.29106033        15810043.246296138        1472749824.1178169     
   772992174.87608075        22128628.220374346        1486574950.8405025     
   417578632.79978997        13297348.981094867        1471865737.3602998     
   409726576.12416154        9203502.1985184401        1475303283.6221247     
   402646203.39790571        7681935.2471833676        1481829468.3278077     
   396337514.62102413        8732648.1270955503        1491444291.4773502     
   390800509.79351497        12355640.838249907        1504147753.0707479     
   5.7638280595237790E-002   8.7041866388519080E-003   1488552096.0147393     
   6.0385144686734310E-002   1.4998453486507086E-002   1493213580.6981964     
   6.4755389695103388E-002   2.6704337001766037E-002   1499881736.6621902     
   7.0748472327827855E-002   4.3819852737223816E-002   1508556563.9067242     
   7.8366342719101006E-002   6.6350633778453530E-002   1519238062.4317930     
   1511548971.1434696        33926642.815301955        1443981867.7724180     
   1470612541.0161984        46521185.043154061        1445086875.6200867     
   1429054712.2539783        57044398.487843633        1449501848.1712055     
   1386875484.8568063        65496283.149360418        1457226785.4257672     
   1344074858.8246839        71876839.027707815        1468261687.3837769     
   1146574995.3260672        29318962.212725759        1466519655.7410610     
   1113752241.4400942        38128739.502900660        1464224607.1791756     
   1080463438.5784159        45385020.207387805        1465734290.6235425     
   1046708586.7410278        51087804.326178610        1471048706.0741546     
   1012487685.9279357        55237091.859287083        1480167853.5310171     
   772992174.87608075        22128628.220374346        1486574950.8405025     
   749696718.09655523        27577726.832418084        1481061087.1381848     
   726090562.00056493        31991161.056247711        1479846722.7449141     
   702173706.58811057        35368930.891863704        1482931857.6606934     
   677946151.85919106        37711036.339262307        1490316491.8855200     
   390800509.79351497        12355640.838249907        1504147753.0707479     
   378445970.98558259        14868147.031708091        1495596315.4971089     
   365936082.52042717        16862821.034423739        1491839144.5353193     
   353270844.39804995        18339662.846399814        1492876240.1853821     
   340450256.61845380        19298672.467645556        1498707602.4472938     
   7.8366342719101006E-002   6.6350633778453530E-002   1519238062.4317930     
  0.10717159760375396       0.10075909886661852        1507830292.2559500     
  0.13799938755823313       0.14190900057617575        1501711555.9947603     
  0.17084825998991360       0.18979688471048956        1500881853.6482215     
  0.20571909560456009       0.24442291139788080        1505341185.2163339     
   1344074858.8246839        71876839.027707815        1468261687.3837769     
   1291061423.3202987        75532537.502093971        1461605652.8976436     
   1238892893.3328741        82004587.699681163        1459549319.4496901     
   1187569268.8624065        91292989.620456874        1462092687.0399220     
   1137090549.9088998        103397743.26443845        1469235755.6683331     
   1012487685.9279357        55237091.859287083        1480167853.5310171     
   971435043.18114102        57591095.889978588        1473491099.7307086     
   931016079.57117355        62057363.710095316        1471715645.7312162     
   891230795.09802985        68635895.319625020        1474841491.5325403     
   852079189.76171792        77326690.718590587        1482868637.1346800     
   677946151.85919106        37711036.339262307        1490316491.8855200     
   649716012.62036717        39021859.151372492        1483372587.9942195     
   621908326.13823962        41740857.819139153        1481631582.6663673     
   594523092.41280389        45868032.342545003        1485093475.9019654     
   567560311.44406676        51403382.721610248        1493758267.7010117     
   340450256.61845380        19298672.467645556        1498707602.4472938     
   325904331.63798279        19824827.286292896        1491250117.6881781     
   311569633.03407419        21055070.026815340        1489297130.2551455     
   297446160.80672681        22989400.689209715        1492848640.1481953     
   283533914.95594233        25627819.273478828        1501904647.3673279     
  0.20571909560456009       0.24442291139788080        1505341185.2163339     
  0.23397986844734225       0.29471269746961115        1497123688.8125815     
  0.25867561298093406       0.33312079056751615        1494712288.4975493     
  0.27979674438155827       0.35961246572144373        1498106984.2712312     
  0.29735179520116928       0.37421755255002248        1507307776.1336288     
   1137090549.9088998        103397743.26443845        1469235755.6683331     
   1097343906.6223416        122701270.09011847        1464523657.2685370     
   1059375973.5209782        147933830.86645019        1466650451.9118695     
   1023186750.6048188        179095425.59346259        1475616139.5983245     
   988776237.87386322        216186054.27115124        1491420720.3279119     
   852079189.76171792        77326690.718590587        1482868637.1346800     
   827541209.97008407        93385936.635645986        1479529607.0419221     
   804337262.81393516        113891958.00431445        1481799336.0348930     
   782467348.29327750        138844754.82462052        1489677824.1135910     
   761931466.40810692        168244327.09655318        1503165071.2780201     
   567560311.44406676        51403382.721610248        1493758267.7010117     
   554716326.69764435        63163947.195117310        1491273515.4406269     
   542761697.03699684        77889028.621206731        1493167388.3085725     
   531696422.46212691        95578626.999889031        1499439886.3048458     
   521520502.97303349        116232742.33115835        1510091009.4294515     
   283533914.95594233        25627819.273478828        1501904647.3673279     
   278869256.80502266        32035301.768534854        1499755382.4646537     
   274649276.19016570        39925042.717134543        1500754608.7329092     
   270873973.11137158        49297042.119276106        1504902326.1720939     
   267543347.56864160        60151299.974965498        1512198534.7822108     
  0.29735179520116928       0.37421755255002248        1507307776.1336288     
  0.29221991127236968       0.35589974191173490        1504975208.1140003     
  0.27344106832285353       0.29209345564983957        1504560997.3079021     
  0.24101192653335712       0.18278582630998169        1506065143.7153323     
  0.19493610022883709        2.7988554697321200E-002   1509487647.3362987     
   988776237.87386322        216186054.27115124        1491420720.3279119     
   936730655.79482782        292379648.41707534        1467145211.2188613     
   912176794.04003429        460212310.31047487        1449003021.7670414     
   915114652.60948980        719684039.95136607        1436994151.9724450     
   945544231.50319397        1070794837.3397551        1431118601.8350685     
   761931466.40810692        168244327.09655318        1503165071.2780201     
   720606661.17554295        224702337.03169623        1502473098.3116229     
   699900646.16513872        349889647.70737767        1508448922.6954679     
   699813421.37689924        543806259.12359834        1521092544.4295499     
   720344986.81081641        806452171.28034949        1540403963.5138776     
   521520502.97303349        116232742.33115835        1510091009.4294515     
   492443553.70985287        153413291.79241058        1524964154.1532722     
   477112464.56674480        236413374.98724133        1547039573.9203553     
   475527235.54371047        365232991.91565132        1576317268.7306902     
   487687866.64075309        539872142.57764482        1612797238.5842860     
   267543347.56864160        60151299.974965498        1512198534.7822108     
   252241333.39774972        78512512.699196801        1534618378.7438138     
   243812249.24484378        119783492.15004766        1564774975.4416974     
   242256095.10992464        183964238.32751846        1602668324.8758559     
   247572870.99299556        271054751.23162848        1648298427.0462883     
  0.19493610022883709        2.7988554697321200E-002   1509487647.3362987     
  0.23923500543225479      -0.24794708410977762        1531435772.0832548     
  0.19943835960001749      -0.80419983859027888        1561655127.2595007     
   7.5543852309210013E-002  -1.6407801857114619        1600145712.8650484     
 -0.13245082686308296       -2.7576944391042635        1646907528.8998778     
   2.0931001895078089E-002   6.2793005685234269E-003   657058900.89003265     
   2.2164882109197384E-002   2.2702593010643238E-003   771597241.93147647     
   2.3670745995164964E-002  -8.3190951837908492E-004   886291025.44986510     
   2.5448705070918575E-002  -3.0274846846511574E-003   1001140251.4451987     
   2.7498636380783273E-002  -4.3161387925244165E-003   1116144919.9174776     
  -448101092.22813791       -134430327.66844139        658518294.23313773     
  -447364925.12451172       -125500438.87936580        774739039.25011647     
  -445890169.05228162       -114108586.86161061        889309880.60897076     
  -443676824.01144779       -100254771.61517599        1002230818.3097010     
  -440724890.00200975       -83938993.140061289        1113501852.3523068     
  -890047231.68322980       -267014169.50496897        662896474.26613915     
  -893733029.29169500       -250701831.46715397        781661310.38837326     
  -895941648.96322429       -229465566.97288644        896970896.71741378     
  -896673090.69781792       -203305376.02216652        1008825233.2532607     
  -895927354.49547589       -172221258.61499423        1117224319.9959137     
  -1325838418.3443446       -397751525.50330341        670193440.98903680     
  -1339104312.4793847       -375604177.76109403        792364055.34624660     
  -1350154439.7091575       -346070940.33465946        909274073.77519369     
  -1358988800.0336630       -309151813.22399986        1020923496.2758782     
  -1365607393.4528999       -264846796.42911401        1127312322.8482995     
  -1755474652.2114823       -526642395.66344470        680409194.40183055     
  -1783478774.6875813       -500207477.76118618        806847274.12373698     
  -1808528541.2900813       -463924706.94692957        926219411.78231120     
  -1830623952.0189815       -417794083.22067481        1038525607.3775533     
  -1849765006.8742824       -361815606.58242214        1143765860.9094636     
   2.7498636380783273E-002  -4.3161387925244165E-003   1116144919.9174776     
   2.9431899911730390E-002  -5.0117019051260283E-003   1189449295.3313940     
   3.1507659061919414E-002  -5.2321928840808156E-003   1259657154.6326776     
   3.3725510293684619E-002  -4.9789134868543396E-003   1326768497.8213282     
   3.6086015128436850E-002  -4.2504690243662571E-003   1390783324.8973453     
  -440724890.00200975       -83938993.140061289        1113501852.3523068     
  -442612947.00567096       -69249450.464819163        1181916611.4421823     
  -445354475.50273341       -57404812.767580435        1248585640.6382473     
  -448949475.49319625       -48405080.048342735        1313508939.9405024     
  -453397946.97706002       -42250252.307109579        1376686509.3489473     
  -895927354.49547589       -172221258.61499423        1117224319.9959137     
  -895844079.30809462       -141684356.50482267        1179753746.0192809     
  -897467747.10765719       -116837264.35113141        1241888228.3676608     
  -900798357.89416397       -97679982.153920919        1303627767.0410535     
  -905835911.66761494       -84212509.913190484        1364972362.0394597     
  -1365607393.4528999       -264846796.42911401        1127312322.8482995     
  -1359693396.8778389       -217304718.12502298        1182960699.0626907     
  -1356339814.7832644       -178297354.75588784        1239564917.8209183     
  -1355546647.1691782       -147824706.32171261        1297124979.1229820     
  -1357313894.0355783       -125886772.82249308        1355640882.9688811     
  -1849765006.8742824       -361815606.58242214        1143765860.9094636     
  -1834160899.7149036       -296110535.32541907        1191537470.5724125     
  -1821970678.5295556       -241785083.98185045        1241615708.9980204     
  -1813194343.3182385       -198839252.55171824        1294000576.1862879     
  -1807831894.0809507       -167273041.03502017        1348692072.1372137     
   3.6086015128436850E-002  -4.2504690243662571E-003   1390783324.8973453     
   4.1131155258279484E-002  -2.1548925647537302E-003   1411002521.4983180     
   4.6404752751039662E-002   7.0220843791727466E-004   1434037048.8848739     
   5.1907230802993927E-002   4.3216374846853575E-003   1459886907.0570152     
   5.7638280595237790E-002   8.7041866388519080E-003   1488552096.0147393     
  -453397946.97706002       -42250252.307109579        1376686509.3489473     
  -444036842.54153579       -33657773.594146788        1396877357.7381923     
  -434946588.68123931       -25968130.131941766        1419470845.2012532     
  -426127185.39617068       -19181321.920497552        1444466971.7381289     
  -417578632.68632829       -13297348.959807634        1471865737.3488183     
  -905835911.66761494       -84212509.913190484        1364972362.0394597     
  -888292821.97809410       -67381288.242303580        1384818869.8789461     
  -871291433.43925714       -52355737.073695511        1406655325.0804777     
  -854831746.05110359       -39135856.407367468        1430481727.6440566     
  -838913759.81363416       -27721646.243317455        1456298077.5696802     
  -1357313894.0355783       -125886772.82249308        1355640882.9688811     
  -1332767938.2685437       -101170543.94662821        1374827057.9205766     
  -1309034534.2276511       -79162820.824566603        1395590488.5225480     
  -1286113681.9128954       -59863603.456297934        1417931174.7747970     
  -1264005381.3242819       -43272891.841833353        1441849116.6773236     
  -1807831894.0809507       -167273041.03502017        1348692072.1372137     
  -1777462191.4128864       -135025540.70712191        1366901921.8630850     
  -1748175891.0464172       -106389381.38454241        1386276335.5274642     
  -1719972992.9815450       -81364563.067285597        1406815313.1303518     
  -1692853497.2182677       -59951085.755345702        1428518854.6717467     
   5.7638280595237790E-002   8.7041866388519080E-003   1488552096.0147393     
   6.0385144686734310E-002   1.4998453486507086E-002   1493213580.6981964     
   6.4755389695103388E-002   2.6704337001766037E-002   1499881736.6621902     
   7.0748472327827855E-002   4.3819852737223816E-002   1508556563.9067242     
   7.8366342719101006E-002   6.6350633778453530E-002   1519238062.4317930     
  -417578632.68632829       -13297348.959807634        1471865737.3488183     
  -409726576.00546569       -9203502.1654898971        1475303283.6120265     
  -402646203.27092028       -7681935.1922297031        1481829468.3190892     
  -396337514.48269320       -8732648.0400308967        1491444291.4700050     
  -390800509.64078373       -12355640.708891511        1504147753.0647745     
  -838913759.81363416       -27721646.243317455        1456298077.5696802     
  -820118311.70232379       -18606552.235279799        1457611387.4733744     
  -802866231.48527157       -14636017.874769866        1463095302.9842391     
  -787157519.16247749       -15810043.161787003        1472749824.1022749     
  -772992174.73394227       -22128628.096332043        1486574950.8274810     
  -1264005381.3242819       -43272891.841833353        1441849116.6773236     
  -1231175207.0301886       -28209150.194370329        1440137892.2822392     
  -1200660084.5782964       -20862248.020907104        1443679240.6576419     
  -1172460013.9686027       -21232185.321440697        1452473161.8035331     
  -1146574995.2011101       -29318962.095979035        1466519655.7199090     
  -1692853497.2182677       -59951085.755345702        1428518854.6717467     
  -1642897261.9890625       -38011296.042766988        1422882798.0386205     
  -1596027762.5499976       -26360625.630653024        1423581281.3392978     
  -1552244998.9010725       -24999074.519005895        1430614304.5737786     
  -1511548971.0422857       -33926642.707823455        1443981867.7420621     
   7.8366342719101006E-002   6.6350633778453530E-002   1519238062.4317930     
  0.10717159760375396       0.10075909886661852        1507830292.2559500     
  0.13799938755823313       0.14190900057617575        1501711555.9947603     
  0.17084825998991360       0.18979688471048956        1500881853.6482215     
  0.20571909560456009       0.24442291139788080        1505341185.2163339     
  -390800509.64078373       -12355640.708891511        1504147753.0647745     
  -378445970.77294075       -14868146.837974280        1495596315.4940414     
  -365936082.24537933       -16862820.767995432        1491839144.5379517     
  -353270844.05809647       -18339662.498943835        1492876240.1965086     
  -340450256.21109641       -19298672.030837461        1498707602.4697077     
  -772992174.73394227       -22128628.096332043        1486574950.8274810     
  -749696717.88422823       -27577726.646064728        1481061087.1291716     
  -726090561.71709549       -31991160.804402560        1479846722.7454994     
  -702173706.23254418       -35368930.571345389        1482931857.6764650     
  -677946151.43057275       -37711035.946886122        1490316491.9220681     
  -1146574995.2011101       -29318962.095979035        1466519655.7199090     
  -1113752241.2266884       -38128739.323509693        1464224607.1613398     
  -1080463438.2771487       -45385019.967313409        1465734290.6173999     
  -1046708586.3524907       -51087804.027389944        1471048706.0880899     
  -1012487685.4527133       -55237091.503737390        1480167853.5734098     
  -1511548971.0422857       -33926642.707823455        1443981867.7420621     
  -1470612540.8003180       -46521184.870296419        1445086875.5905480     
  -1429054711.9255364       -57044398.256720006        1449501848.1536558     
  -1386875484.4179373       -65496282.867087543        1457226785.4313858     
  -1344074858.2775192       -71876838.701391578        1468261687.4237399     
  0.20571909560456009       0.24442291139788080        1505341185.2163339     
  0.23397986844734225       0.29471269746961115        1497123688.8125815     
  0.25867561298093406       0.33312079056751615        1494712288.4975493     
  0.27979674438155827       0.35961246572144373        1498106984.2712312     
  0.29735179520116928       0.37421755255002248        1507307776.1336288     
  -340450256.21109641       -19298672.030837461        1498707602.4697077     
  -325904331.17391348       -19824826.767656848        1491250117.7144139     
  -311569632.51864612       -21055069.444193229        1489297130.2896771     
  -297446160.24529421       -22989400.060448751        1492848640.1954956     
  -283533914.35385281       -25627818.616405584        1501904647.4318724     
  -677946151.43057275       -37711035.946886122        1490316491.9220681     
  -649716012.12207079       -39021858.692109734        1483372588.0404932     
  -621908325.57382679       -41740857.304861248        1481631582.7313178     
  -594523091.78584135       -45868031.785140038        1485093475.9945400     
  -567560310.75811183       -51403382.132938430        1493758267.8301561     
  -1012487685.4527133       -55237091.503737390        1480167853.5734098     
  -971435042.61048865       -57591095.478638768        1473491099.7908239     
  -931016078.90686822       -62057363.248885989        1471715645.8224750     
  -891230794.34184980       -68635894.814473122        1474841491.6683643     
  -852079188.91543162       -77326690.175394475        1482868637.3284919     
  -1344074858.2775192       -71876838.701391578        1468261687.4237399     
  -1291061422.6391704       -75532537.127248466        1461605652.9654036     
  -1238892892.5177712       -82004587.276273370        1459549319.5631456     
  -1187569267.9133162       -91292989.148442984        1462092687.2169657     
  -1137090548.8258052       -103397742.74375993        1469235755.9268646     
  0.29735179520116928       0.37421755255002248        1507307776.1336288     
  0.29221991127236968       0.35589974191173490        1504975208.1140003     
  0.27344106832285353       0.29209345564983957        1504560997.3079021     
  0.24101192653335712       0.18278582630998169        1506065143.7153323     
  0.19493610022883709        2.7988554697321200E-002   1509487647.3362987     
  -283533914.35385281       -25627818.616405584        1501904647.4318724     
  -278869256.20600492       -32035301.136595450        1499755382.5290849     
  -274649275.61547381       -39925042.181173630        1500754608.8001070     
  -270873972.58224559       -49297041.750094756        1504902326.2449348     
  -267543347.10633045       -60151299.843392298        1512198534.8635726     
  -567560310.75811183       -51403382.132938430        1493758267.8301561     
  -554716325.99935484       -63163946.617635608        1491273515.5766063     
  -542761696.34156990       -77889028.105574638        1493167388.4571409     
  -531696421.78475851       -95578626.596758515        1499439886.4717636     
  -521520502.32892001       -116232742.09118503        1510091009.6204686     
  -852079188.91543162       -77326690.175394475        1482868637.3284919     
  -827541209.08782661       -93385936.087210327        1479529607.2565677     
  -804337261.90485549       -113891957.48113611        1481799336.2790110     
  -782467347.36652350       -138844754.35719460        1489677824.3958151     
  -761931465.47282720       -168244326.71536890        1503165071.6069798     
  -1137090548.8258052       -103397742.74375993        1469235755.9268646     
  -1097343905.4714203       -122701269.54531828        1464523657.5689685     
  -1059375972.3053299       -147933830.30785838        1466650452.2657096     
  -1023186749.3275412       -179095425.03140426        1475616140.0170913     
  -988776236.53804994       -216186053.71594077        1491420720.8231120     
  0.19493610022883709        2.7988554697321200E-002   1509487647.3362987     
  0.23923500543225479      -0.24794708410977762        1531435772.0832548     
  0.19943835960001749      -0.80419983859027888        1561655127.2595007     
   7.5543852309210013E-002  -1.6407801857114619        1600145712.8650484     
 -0.13245082686308296       -2.7576944391042635        1646907528.8998778     
  -267543347.10633045       -60151299.843392298        1512198534.8635726     
  -252241332.81437245       -78512512.970036134        1534618378.6879098     
  -243812248.66498190       -119783493.23857442        1564774975.2390099     
  -242256094.65816408       -183964240.64901578        1602668324.5168731     
  -247572870.79391325       -271054755.20135057        1648298426.5214970     
  -521520502.32892001       -116232742.09118503        1510091009.6204686     
  -492443552.93939322       -153413291.81355917        1524964154.1206377     
  -477112463.75090891       -236413375.53940809        1547039573.6450429     
  -475527234.76346409       -365232993.26872241        1576317268.1936767     
  -487687865.97706044       -539872145.00151217        1612797237.7665350     
  -761931465.47282720       -168244326.71536890        1503165071.6069798     
  -720606660.13582528       -224702336.77850729        1502473098.3814380     
  -699900645.05833650       -349889647.70669174        1508448922.4775879     
  -699813420.24036360       -543806259.49992549        1521092543.8954401     
  -720344985.68189645       -806452172.15818036        1540403962.6349833     
  -988776236.53804994       -216186053.71594077        1491420720.8231120     
  -936730654.40366101       -292379647.86485982        1467145211.4703000     
  -912176792.58726668       -460212309.74042451        1449003021.7366536     
  -915114651.08884811       -719684039.34257710        1436994151.6221690     
  -945544229.90841722       -1070794836.6713541        1431118601.1268556     
  -1755474652.2114823       -526642395.66344470        680409194.40183055     
  -1783478774.6875813       -500207477.76118618        806847274.12373698     
  -1808528541.2900813       -463924706.94692957        926219411.78231120     
  -1830623952.0189815       -417794083.22067481        1038525607.3775533     
  -1849765006.8742824       -361815606.58242214        1143765860.9094636     
  -2201172795.4366798       -660351838.63100398        696669126.32652164     
  -2237673792.7908816       -613984706.15949571        814131501.56998980     
  -2272116877.6794767       -560757865.46929848        927524019.45457661     
  -2304502050.1024652       -500671316.56041288        1036846679.9802821     
  -2334829310.0598474       -433725059.43283874        1142099483.1471062     
  -2685149710.1719747       -805544913.05159235        722098628.58511162     
  -2721587340.3915625       -736677493.40701926        829539448.70748305     
  -2756863501.5535364       -663938510.23706698        935906496.17542410     
  -2790978193.6578965       -587327963.54173541        1041199770.9889343     
  -2823931416.7046442       -506845853.32102543        1145419273.1480143     
  -3207405396.4173665       -962221618.92521000        756697701.17760015     
  -3235219417.4896240       -868285839.50375688        853071115.53621662     
  -3262768412.9122601       -773466641.25023413        951366841.94485331     
  -3290052382.6852760       -677764024.16464281        1051584880.4035102     
  -3317071326.8086696       -581177988.24698031        1153725230.9121878     
  -3767939854.1728554       -1130381956.2518566        800466344.10398757     
  -3778570024.0850649       -1008809744.4497085        884726502.05619049     
  -3789831611.7556472       -889342258.50880098        973905056.76286459     
  -3801724617.1846008       -771979498.42913294        1068002008.2240099     
  -3814249040.3719268       -656721464.21070504        1167017356.4396260     
  -1849765006.8742824       -361815606.58242214        1143765860.9094636     
  -1834160899.7149036       -296110535.32541907        1191537470.5724125     
  -1821970678.5295556       -241785083.98185045        1241615708.9980204     
  -1813194343.3182385       -198839252.55171824        1294000576.1862879     
  -1807831894.0809507       -167273041.03502017        1348692072.1372137     
  -2334829310.0598474       -433725059.43283874        1142099483.1471062     
  -2310991417.6076031       -352730591.05270225        1183515362.6003134     
  -2290662866.9420581       -283433928.62823254        1225429971.8723431     
  -2273843658.0632138       -225835072.15942973        1267843310.9631944     
  -2260533790.9710693       -179934021.64629376        1310755379.8728695     
  -2823931416.7046442       -506845853.32102543        1145419273.1480143     
  -2797025164.5133519       -412111615.48390043        1180368057.2766984     
  -2773723709.9214301       -329393369.64467394        1214007672.2803681     
  -2754027052.9288769       -258691115.80334830        1246338118.1590233     
  -2737935193.5356946       -200004853.95992053        1277359394.9126649     
  -3317071326.8086696       -581177988.24698031        1153725230.9121878     
  -3292262140.4321504       -474253608.61901271        1182095554.6015668     
  -3271153207.4676690       -379663407.03117621        1207348810.2220957     
  -3253744527.9152279       -297407383.48347270        1229484997.7737739     
  -3240036101.7748265       -227485537.97589815        1248504117.2566001     
  -3814249040.3719268       -656721464.21070504        1167017356.4396260     
  -3796702345.3639975       -539156570.45804048        1188697854.5749199     
  -3782951359.5807772       -434244040.78773928        1205453385.6975265     
  -3772996083.0222673       -341983875.19980359        1217283949.8074458     
  -3766836515.6884642       -262376073.69422889        1224189546.9046764     
  -1807831894.0809507       -167273041.03502017        1348692072.1372137     
  -1777462191.4128864       -135025540.70712191        1366901921.8630850     
  -1748175891.0464172       -106389381.38454241        1386276335.5274642     
  -1719972992.9815450       -81364563.067285597        1406815313.1303518     
  -1692853497.2182677       -59951085.755345702        1428518854.6717467     
  -2260533790.9710693       -179934021.64629376        1310755379.8728695     
  -2220497223.4363461       -135552716.77583718        1319220573.0129428     
  -2183239944.2965393       -100435706.55510068        1331157143.3713479     
  -2148761953.5516467       -74582990.984080076        1346565090.9480836     
  -2117063251.2016716       -57994570.062785864        1365444415.7431519     
  -2737935193.5356946       -200004853.95992053        1277359394.9126649     
  -2681640866.0491023       -141512476.02133977        1274101397.6914003     
  -2629821713.0507455       -97937346.376878738        1276621590.9682903     
  -2582477734.5406251       -69279465.026538491        1284919974.7433362     
  -2539608930.5187421       -55538831.970321655        1298996549.0165341     
  -3240036101.7748265       -227485537.97589815        1248504117.2566001     
  -3160893119.2511554       -152904818.44363201        1231544395.8984587     
  -3087921197.3090415       -98894300.849887013        1222669678.3182940     
  -3021120335.9484859       -65453985.194662690        1221879964.5161083     
  -2960490535.1694841       -52583871.477958560        1229175254.4918981     
  -3766836515.6884642       -262376073.69422889        1224189546.9046764     
  -3658253983.0425062       -169729744.04271376        1191549567.6341159     
  -3557538397.0714259       -103306569.97411931        1169301405.4213569     
  -3464689757.7752213       -63106551.488446355        1157445060.2663987     
  -3379708065.1538935       -49129688.585699320        1155980532.1692414     
  -1692853497.2182677       -59951085.755345702        1428518854.6717467     
  -1642897261.9890625       -38011296.042766988        1422882798.0386205     
  -1596027762.5499976       -26360625.630653024        1423581281.3392978     
  -1552244998.9010725       -24999074.519005895        1430614304.5737786     
  -1511548971.0422857       -33926642.707823455        1443981867.7420621     
  -2117063251.2016716       -57994570.062785864        1365444415.7431519     
  -2052656672.7196898       -38592520.758682370        1357035720.5796044     
  -1990085356.0340841       -25308010.775831699        1353993766.5401931     
  -1929349301.1448548       -18141040.114234686        1356318553.6249151     
  -1870448508.0520024       -17091608.773901463        1364010081.8337727     
  -2539608930.5187421       -55538831.970321655        1298996549.0165341     
  -2463517148.2401819       -39504064.911555290        1289275268.3152926     
  -2388009153.7642331       -25415257.194829226        1283952929.9285159     
  -2313084947.0908995       -13272408.820152283        1283029533.8562050     
  -2238744528.2201762       -3075519.7875105143        1286505080.0983586     
  -2960490535.1694841       -52583871.477958560        1229175254.4918981     
  -2875478688.5505400       -40745928.501388311        1219601441.2456851     
  -2789799155.7404451       -26682364.887646437        1213458771.5042679     
  -2703451936.7392011       -10393180.636737108        1210747245.2676475     
  -2616437031.5468044        8121624.2513411045        1211466862.5358238     
  -3379708065.1538935       -49129688.585699320        1155980532.1692414     
  -3288541293.6507645       -42318111.528185129        1148014239.3707812     
  -3195455361.9627218       -29109333.854285359        1142511291.2674477     
  -3100450270.0897655       -9503355.5640088320        1139471687.8592427     
  -3003526018.0318904        16499823.342655301        1138895429.1461647     
  -1511548971.0422857       -33926642.707823455        1443981867.7420621     
  -1470612540.8003180       -46521184.870296419        1445086875.5905480     
  -1429054711.9255364       -57044398.256720006        1449501848.1536558     
  -1386875484.4179373       -65496282.867087543        1457226785.4313858     
  -1344074858.2775192       -71876838.701391578        1468261687.4237399     
  -1870448508.0520024       -17091608.773901463        1364010081.8337727     
  -1817392623.2787223       -20733152.621285915        1362447889.4503324     
  -1764438291.6707299       -24713207.019631267        1364832313.1497982     
  -1711585513.2280214       -29031771.968921125        1371163352.9321711     
  -1658834287.9505992       -33688847.469166815        1381441008.7974470     
  -2238744528.2201762       -3075519.7875105143        1286505080.0983586     
  -2171750185.0062037        2781635.8530019522        1281432243.7185411     
  -2105580346.7556179        5890441.6155543327        1280942674.7899129     
  -2040235013.4684193        6250897.5001512766        1285036373.3124752     
  -1975714185.1446095        3863003.5067855120        1293713339.2862217     
  -2616437031.5468044        8121624.2513411045        1211466862.5358238     
  -2533685225.9827590        24023180.552566528        1202039938.3951757     
  -2452480877.1802020        34766547.648828506        1197832933.0740006     
  -2372823985.1391339        40351725.540126920        1198845846.5722978     
  -2294714549.8595591        40778714.226451039        1205078678.8900654     
  -3003526018.0318904        16499823.342655301        1138895429.1461647     
  -2903197746.2083912        42991481.477411270        1124270973.4802351     
  -2805139882.9444833        61915111.080191016        1115503088.0020602     
  -2709352428.2401643        73270712.151007891        1112591772.7116399     
  -2615835382.0954413        77058284.689840078        1115537027.6089759     
  -1344074858.2775192       -71876838.701391578        1468261687.4237399     
  -1291061422.6391704       -75532537.127248466        1461605652.9654036     
  -1238892892.5177712       -82004587.276273370        1459549319.5631456     
  -1187569267.9133162       -91292989.148442984        1462092687.2169657     
  -1137090548.8258052       -103397742.74375993        1469235755.9268646     
  -1658834287.9505992       -33688847.469166815        1381441008.7974470     
  -1593354744.9667599       -35279118.607907653        1373276713.6797755     
  -1528269269.2245119       -38182947.218614638        1369625393.7824497     
  -1463577860.7238495       -42400333.301271558        1370487049.1054723     
  -1399280519.4647734       -47931276.855889142        1375861679.6488450     
  -1975714185.1446095        3863003.5067855120        1293713339.2862217     
  -1898016322.9173703        4263823.2245328426        1284566761.4971321     
  -1820261689.6563594        4853879.7215157747        1279846433.0926583     
  -1742450285.3615763        5633172.9977418184        1279552354.0728023     
  -1664582110.0330210        6601703.0532096624        1283684524.4375665     
  -2294714549.8595591        40778714.226451039        1205078678.8900654     
  -2205046156.4910035        43096288.370063424        1195475796.4174769     
  -2114870153.8133166        47105893.544116378        1190212437.4937739     
  -2024186541.8265011        52807529.748595715        1189288602.1189568     
  -1932995320.5305507        60201196.983520985        1192704290.2930288     
  -2615835382.0954413        77058284.689840078        1115537027.6089759     
  -2514444245.6876569        81218276.828689933        1106003818.4408059     
  -2412094661.6953835        88573094.249172449        1100723406.9857910     
  -2308786630.1186199        99122736.951289415        1099695793.2439368     
  -2204520150.9573646        112867204.93504405        1102920977.2152379     
  -1137090548.8258052       -103397742.74375993        1469235755.9268646     
  -1097343905.4714203       -122701269.54531828        1464523657.5689685     
  -1059375972.3053299       -147933830.30785838        1466650452.2657096     
  -1023186749.3275412       -179095425.03140426        1475616140.0170913     
  -988776236.53804994       -216186053.71594077        1491420720.8231120     
  -1399280519.4647734       -47931276.855889142        1375861679.6488450     
  -1340032518.5514634       -56996482.583233714        1367956374.8630381     
  -1281721962.5299664       -69186504.616625428        1365850531.8200245     
  -1224348851.4002912       -84501342.956086695        1369544150.5198035     
  -1167913185.1624317       -102940997.60160267        1379037230.9623711     
  -1664582110.0330210        6601703.0532096624        1283684524.4375665     
  -1588802555.3089249        6883877.2756286263        1273567489.4030805     
  -1513119180.1801584        6845452.8469446301        1268210484.7995405     
  -1437531984.6467357        6486429.7671191096        1267613510.6269441     
  -1362040968.7086415        5806808.0361936092        1271776566.8852932     
  -1932995320.5305507        60201196.983520985        1192704290.2930288     
  -1843654015.7438025        68939810.031272769        1181357001.1890931     
  -1753567625.2559090        80162042.082835197        1173730311.2042551     
  -1662736149.0668714        93867893.138219357        1169824220.3385134     
  -1571159587.1766787        110057363.19744515        1169638728.5918696     
  -2204520150.9573646        112867204.93504405        1102920977.2152379     
  -2104586899.8561051        129171315.68367112        1091324910.2210822     
  -2003067297.7572103        150763263.09108233        1082410011.0341721     
  -1899961344.6606984        177643047.15721405        1076176279.6545134     
  -1795269040.5665510        209810667.88213599        1072623716.0821016     
  -988776236.53804994       -216186053.71594077        1491420720.8231120     
  -936730654.40366101       -292379647.86485982        1467145211.4703000     
  -912176792.58726668       -460212309.74042451        1449003021.7366536     
  -915114651.08884811       -719684039.34257710        1436994151.6221690     
  -945544229.90841722       -1070794836.6713541        1431118601.1268556     
  -1167913185.1624317       -102940997.60160267        1379037230.9623711     
  -1088424644.7097313       -135170194.08597022        1325410167.6597931     
  -1021650574.1585904       -209780956.90886196        1276614122.4449275     
  -967590973.50901878       -326773286.07033199        1232649095.3177893     
  -926245842.76101172       -486147181.57033533        1193515086.2783542     
  -1362040968.7086415        5806808.0361936092        1271776566.8852932     
  -1258830331.4560456        16425750.760877788        1206038075.1187687     
  -1153556913.6885972        33920628.535078228        1143828299.9085090     
  -1046220715.4062954        58291441.358787596        1085147241.2545211     
  -936821736.60913730        89538189.232017398        1029994899.1567963     
  -1571159587.1766787        110057363.19744515        1169638728.5918696     
  -1447947714.6426191        162408186.67563230        1109028933.8472168     
  -1307895811.1772785        270892446.59142470        1050645554.1273878     
  -1151003876.7806630        435510142.94478017        994488589.43238235     
  -977271911.45278525        656261275.73571336        940558039.76218760     
  -1795269040.5665510        209810667.88213599        1072623716.0821016     
  -1655776794.2694428        302777113.65831840        1034382743.8451495     
  -1484667266.6246343        501134497.26017129        997065885.10156953     
  -1281940457.6321454        804882818.68763566        960673139.85136151     
  -1047596367.2919534        1214022077.9407601        925204508.09452367     
  -3767939854.1728554       -1130381956.2518566        800466344.10398757     
  -3778570024.0850649       -1008809744.4497085        884726502.05619049     
  -3789831611.7556472       -889342258.50880098        973905056.76286459     
  -3801724617.1846008       -771979498.42913294        1068002008.2240099     
  -3814249040.3719268       -656721464.21070504        1167017356.4396260     
  -4339587246.4361467       -1301876173.9308441        858555649.37281656     
  -4334846946.4077864       -1125849492.9020042        942106540.12469506     
  -4331254481.5452986       -953648929.09273469        1019996056.5625350     
  -4328809851.8486824       -785274482.50303423        1092224198.6863356     
  -4327513057.3179340       -620726153.13290310        1158790966.4960971     
  -4895181736.2049446       -1468554520.8614833        936116708.99263072     
  -4905298883.5746164       -1247141745.8075325        1018355845.5687695     
  -4917080283.5176573       -1031276479.3314801        1084353836.7623594     
  -4930525936.0340700       -820958721.43332791        1134110682.5734003     
  -4945635841.1238489       -616188472.11307335        1167626383.0018916     
  -5434723323.4792528       -1630416997.0437758        1033149522.9634296     
  -5489925835.5855541       -1372686503.1662924        1113474418.3884132     
  -5547309017.6727257       -1122224909.2250388        1166978397.3623383     
  -5606872869.7407646       -879032215.22001314        1193661459.8852034     
  -5668617391.7896729       -643108421.15121579        1193523605.9570103     
  -5958212008.2590656       -1787463602.4777195        1149654091.2852130     
  -6088727802.4405994       -1502483764.9782853        1227462258.5836267     
  -6221940684.0105009       -1226494218.7734094        1267869738.3624711     
  -6357850652.9687700       -959494963.86309171        1270876530.6217463     
  -6496457709.3154068       -701486000.24733186        1236482635.3614523     
  -3814249040.3719268       -656721464.21070504        1167017356.4396260     
  -3796702345.3639975       -539156570.45804048        1188697854.5749199     
  -3782951359.5807772       -434244040.78773928        1205453385.6975265     
  -3772996083.0222673       -341983875.19980359        1217283949.8074458     
  -3766836515.6884642       -262376073.69422889        1224189546.9046764     
  -4327513057.3179340       -620726153.13290310        1158790966.4960971     
  -4297132872.4286041       -465270063.80501556        1140862375.4494357     
  -4277352494.4502058       -345146664.18023503        1128986544.6530259     
  -4268171923.3827419       -260355954.25856280        1123163474.1068683     
  -4269591159.2262073       -210897934.03999686        1123393163.8109622     
  -4945635841.1238489       -616188472.11307335        1167626383.0018916     
  -4871057231.3161478       -413431706.69887114        1102150588.8060143     
  -4813882526.1056032       -268687956.60851979        1053705282.1233284     
  -4774111725.4922123       -181957221.84201932        1022290462.9538339     
  -4751744829.4759779       -153239502.39937091        1007906131.2975308     
  -5668617391.7896729       -643108421.15121579        1193523605.9570103     
  -5518475422.0266314       -383641499.13960886        1072562494.6446564     
  -5392541454.5469675       -204867918.07259655        979609598.10843337     
  -5290815489.3506823       -106787677.95017672        914664916.34834146     
  -5213297526.4377747       -89400778.772352934        877728449.36438143     
  -6496457709.3154068       -701486000.24733186        1236482635.3614523     
  -6239387444.5600538       -375899441.12722802        1052098092.9653612     
  -6013329279.7743015       -153686548.57246137        906699492.60834217     
  -5818283214.9581518       -34847322.583034992        800286834.29039311     
  -5654249250.1116028       -19381763.158946514        732860118.01151443     
  -3766836515.6884642       -262376073.69422889        1224189546.9046764     
  -3658253983.0425062       -169729744.04271376        1191549567.6341159     
  -3557538397.0714259       -103306569.97411931        1169301405.4213569     
  -3464689757.7752213       -63106551.488446355        1157445060.2663987     
  -3379708065.1538935       -49129688.585699320        1155980532.1692414     
  -4269591159.2262073       -210897934.03999686        1123393163.8109622     
  -4145351016.6413465       -146601518.33200812        1089667094.3286095     
  -4025583210.9075851       -97212892.127672911        1064135810.9591929     
  -3910287742.0249176       -62732055.426992178        1046799313.7027142     
  -3799464609.9933481       -43159008.229966879        1037657602.5591718     
  -4751744829.4759779       -153239502.39937091        1007906131.2975308     
  -4618124308.2232561       -119176170.01622272        977054349.73112929     
  -4485581513.9978542       -88705261.057462931        952200323.33279967     
  -4354116446.7997627       -61826775.523082733        933344052.10254359     
  -4223729106.6289926       -38540713.413094044        920485536.04036045     
  -5213297526.4377747       -89400778.772352934        877728449.36438143     
  -5076573857.7882357       -87453699.095358372        853711333.84167469     
  -4937533306.3422327       -77783676.763482094        833494942.54217637     
  -4796175872.0997610       -60390711.776718855        817079275.46588790     
  -4652501555.0608273       -35274804.135076523        804464332.61280620     
  -5654249250.1116028       -19381763.158946514        732860118.01151443     
  -5520699665.3362837       -51434105.569414377        719638046.66024601     
  -5381438587.9407167       -64448139.245734453        708019668.58732450     
  -5236466017.9249077       -58423864.187898397        698004983.79274619     
  -5085781955.2888517       -33361280.395917892        689593992.27651119     
  -3379708065.1538935       -49129688.585699320        1155980532.1692414     
  -3288541293.6507645       -42318111.528185129        1148014239.3707812     
  -3195455361.9627218       -29109333.854285359        1142511291.2674477     
  -3100450270.0897655       -9503355.5640088320        1139471687.8592427     
  -3003526018.0318904        16499823.342655301        1138895429.1461647     
  -3799464609.9933481       -43159008.229966879        1037657602.5591718     
  -3699011042.4131088       -32823273.525240660        1030187441.9871713     
  -3598124551.0522580       -21044459.551803827        1026584358.8607727     
  -3496805135.9107938       -7822566.3096621037        1026848353.1799725     
  -3395052796.9887190        6842406.2011897564        1030979424.9447738     
  -4223729106.6289926       -38540713.413094044        920485536.04036045     
  -4109978077.9702945       -23477621.560750484        911777565.22313523     
  -3997280361.9352837       -11925571.787368774        908340404.60198188     
  -3885635958.5239649       -3884564.0929574966        910174054.17690182     
  -3775044867.7363362        645401.52248930931        917278513.94789326     
  -4652501555.0608273       -35274804.135076523        804464332.61280620     
  -4521442400.3223190       -14281155.634710073        792784609.07866943     
  -4392922794.6118040       -1752670.5609855652        787779428.49107850     
  -4266942737.9292774        2310651.0861024857        789448790.85003269     
  -4143502230.2747469       -2091190.6934483051        797792696.15553224     
  -5085781955.2888517       -33361280.395917892        689593992.27651119     
  -4933404009.4691820       -5233875.7471227646        673208573.55377603     
  -4785051849.0818119        9474244.1273531914        664901430.52806115     
  -4640725474.1267328        10763079.227522373        664672563.19936240     
  -4500424884.6039457       -1367370.4466257095        672521971.56768215     
  -3003526018.0318904        16499823.342655301        1138895429.1461647     
  -2903197746.2083912        42991481.477411270        1124270973.4802351     
  -2805139882.9444833        61915111.080191016        1115503088.0020602     
  -2709352428.2401643        73270712.151007891        1112591772.7116399     
  -2615835382.0954413        77058284.689840078        1115537027.6089759     
  -3395052796.9887190        6842406.2011897564        1030979424.9447738     
  -3283477386.1066165        23058195.405057669        1017933139.5772197     
  -3173255407.7271013        34762542.933634758        1010053283.8202720     
  -3064386861.8501725        41955448.786922336        1007339857.6739311     
  -2956871748.4758272        44636912.964926481        1009792861.1381930     
  -3775044867.7363362        645401.52248930931        917278513.94789326     
  -3654194148.0160618        5993772.7293338776        906880204.27855849     
  -3533779884.7413654        9887289.1175823212        900958183.64267778     
  -3413802077.9122524        12325950.687218428        899512452.04025376     
  -3294260727.5287242        13309757.438253164        902543009.47128427     
  -4143502230.2747469       -2091190.6934483051        797792696.15553224     
  -4015348031.9367270       -8201786.5497522354        791112167.58425212     
  -3886713313.9872775       -12710650.367964506        788217787.46927786     
  -3757598076.4264102       -15617782.148108721        789109555.81060791     
  -3628002319.2541137       -16923181.890164852        793787472.60824549     
  -4500424884.6039457       -1367370.4466257095        672521971.56768215     
  -4366939037.8686056       -19528482.432200670        670629029.49429798     
  -4232055695.4648361       -33031275.523003578        671832095.30007029     
  -4095774857.3926449       -41875749.719058990        676131168.98500133     
  -3958096523.6520138       -46061905.020335913        683526250.54908502     
  -2615835382.0954413        77058284.689840078        1115537027.6089759     
  -2514444245.6876569        81218276.828689933        1106003818.4408059     
  -2412094661.6953835        88573094.249172449        1100723406.9857910     
  -2308786630.1186199        99122736.951289415        1099695793.2439368     
  -2204520150.9573646        112867204.93504405        1102920977.2152379     
  -2956871748.4758272        44636912.964926481        1009792861.1381930     
  -2844755678.8792267        47504055.015078545        1002446720.8546859     
  -2732073831.0621347        52257124.466855168        999396081.48527288     
  -2618826205.0245624        58896121.320243359        1000640943.0299572     
  -2505012800.7665014        67421045.575255275        1006181305.4887379     
  -3294260727.5287242        13309757.438253164        902543009.47128427     
  -3171297715.5977573        14920652.143382907        896925823.81443298     
  -3048161594.8103104        17108576.370113969        895646842.27261651     
  -2924852365.1663880        19873530.118435621        898706064.84583533     
  -2801370026.6659803        23215513.388362050        906103491.53408968     
  -3628002319.2541137       -16923181.890164852        793787472.60824549     
  -3494070355.8432522       -16531931.786407232        789441127.32004607     
  -3360357952.9399099       -16872550.041060925        789475689.34782052     
  -3226865110.5440979       -17945036.654140711        793891158.69156706     
  -3093591828.6558056       -19749391.625636101        802687535.35128558     
  -3958096523.6520138       -46061905.020335913        683526250.54908502     
  -3813073599.6157064       -46853696.774277210        679992631.37153041     
  -3668662905.4509315       -49686254.766651869        680882622.71088493     
  -3524864441.1576924       -54559578.997485638        686196224.56715298     
  -3381678206.7359786       -61473669.466738224        695933436.94033253     
  -2204520150.9573646        112867204.93504405        1102920977.2152379     
  -2104586899.8561051        129171315.68367112        1091324910.2210822     
  -2003067297.7572103        150763263.09108233        1082410011.0341721     
  -1899961344.6606984        177643047.15721405        1076176279.6545134     
  -1795269040.5665510        209810667.88213599        1072623716.0821016     
  -2505012800.7665014        67421045.575255275        1006181305.4887379     
  -2399738286.0777125        75777358.554147363        997838594.91152501     
  -2293451710.7557817        87507206.976837993        992757488.00279629     
  -2186153074.8007131        102610590.84332800        990937984.76254809     
  -2077842378.2125075        121087510.15360534        992380085.19078386     
  -2801370026.6659803        23215513.388362050        906103491.53408968     
  -2689095860.2147121        24121545.049996376        900344131.94858384     
  -2576383923.4947839        26486810.940473676        898426811.89279640     
  -2463234216.5062108        30311311.059780002        900351531.36672449     
  -2349646739.2489862        35595045.407922864        906118290.37036955     
  -3093591828.6558056       -19749391.625636101        802687535.35128558     
  -2972659622.2670946       -25796124.828764558        798841521.33225226     
  -2851863935.9742241       -32297925.018028140        799417982.70417058     
  -2731204769.7771893       -39254792.193406940        804416919.46704221     
  -2610682123.6759906       -46666726.354916573        813838331.62086046     
  -3381678206.7359786       -61473669.466738224        695933436.94033253     
  -3250429572.2348714       -73975651.082145333        693330763.06253290     
  -3119891748.1940947       -88847000.898648381        695731000.43692410     
  -2990064734.6136398       -106087718.91623878        703134149.06349504     
  -2860948531.4935131       -125697805.13491130        715540208.94225657     
  -1795269040.5665510        209810667.88213599        1072623716.0821016     
  -1655776794.2694428        302777113.65831840        1034382743.8451495     
  -1484667266.6246343        501134497.26017129        997065885.10156953     
  -1281940457.6321454        804882818.68763566        960673139.85136151     
  -1047596367.2919534        1214022077.9407601        925204508.09452367     
  -2077842378.2125075        121087510.15360534        992380085.19078386     
  -1943051442.1324432        175500977.63043058        988243748.07204449     
  -1790815988.8927772        288062835.63925910        988463746.13129056     
  -1621136018.4935172        458773084.18007278        993040079.36852014     
  -1434011530.9346578        687631723.25287819        1001972747.7837448     
  -2349646739.2489862        35595045.407922864        906118290.37036955     
  -2209750765.7156382        54397438.886477590        919551696.81706667     
  -2066583039.2107852        84105675.603381276        940773660.12635994     
  -1920143559.7344303        124719755.55862606        969784180.29825819     
  -1770432327.2865655        176239678.75222874        1006583257.3327591     
  -2610682123.6759906       -46666726.354916573        813838331.62086046     
  -2455874765.0190263       -60533502.573536515        828306590.08021617     
  -2311968417.5786552       -110736982.84745204        853995627.08678365     
  -2178963081.3548751       -197277167.17665935        890905442.64057148     
  -2056858756.3476727       -320154055.56117398        939036036.74157870     
  -2860948531.4935131       -125697805.13491130        715540208.94225657     
  -2681423440.0426097       -169291846.74959922        714508427.86149454     
  -2526972123.9963870       -296465139.71324575        728129647.01256144     
  -2397594583.3548470       -507217684.02582347        756403866.39546061     
  -2293290818.1179948       -801549479.68734777        799331086.01019526     
  -5958212008.2590656       -1787463602.4777195        1149654091.2852130     
  -6088727802.4405994       -1502483764.9782853        1227462258.5836267     
  -6221940684.0105009       -1226494218.7734094        1267869738.3624711     
  -6357850652.9687700       -959494963.86309171        1270876530.6217463     
  -6496457709.3154068       -701486000.24733186        1236482635.3614523     
  -6810990198.2938280       -2043297059.4881485        1353357946.9973159     
  -6829006727.8351517       -1395584636.5067830        1202319246.4523597     
  -6898397439.5080729       -919119487.29740477        1091511609.5774574     
  -7019162333.3125868       -613901611.86001205        1020935036.3726101     
  -7191301409.2486982       -479931010.19460607        990589526.83781707     
  -8338400301.3329802       -2501520090.3998942        1711988623.1390717     
  -8022112562.8351707       -1424533580.9169209        1275313110.8836458     
  -7805876101.2121830       -681051327.68336201        956500413.48789752     
  -7689690916.4640207       -271073330.69921780        755550530.95182812     
  -7673557008.5906820       -194599589.96448708        672463463.27543616     
  -10540442317.376522       -3162132695.2129569        2225546119.7104802     
  -9668045307.4406509       -1589330598.2086973        1446443851.8774848     
  -8944376669.1228333       -512289739.93128157        862836150.09379053     
  -8369436402.4230700        68989879.619291782        474723014.35939866     
  -7943224507.3413572        154508260.44302368        282104444.67430860     
  -13417116246.424456       -4025134873.9273367        2894030436.7115421     
  -11766804961.651600       -1889975688.3821139        1715711469.4338770     
  -10313899143.240026       -412834724.04116201        810518819.39513683     
  -9058398791.1897354        406288019.09551716        178452486.59532312     
  -8000303905.5007210        567392541.02792788       -180487528.96556613     
  -6496457709.3154068       -701486000.24733186        1236482635.3614523     
  -6239387444.5600538       -375899441.12722802        1052098092.9653612     
  -6013329279.7743015       -153686548.57246137        906699492.60834217     
  -5818283214.9581518       -34847322.583034992        800286834.29039311     
  -5654249250.1116028       -19381763.158946514        732860118.01151443     
  -7191301409.2486982       -479931010.19460607        990589526.83781707     
  -6901324295.3278255       -304703559.41648793        846055287.26452100     
  -6624178279.1727533       -172246434.52437115        722546322.31993663     
  -6359863360.7834797       -82559635.518252373        620062632.00406229     
  -6108379540.1600065       -35643162.398135185        538604216.31689835     
  -7673557008.5906820       -194599589.96448708        672463463.27543616     
  -7401989238.1053181       -185126105.30866432        588990695.76270270     
  -7125071563.1819506       -157819605.85950470        508582535.46832007     
  -6842803983.8205833       -112680091.61700273        431238982.39228809     
  -6555186500.0212135       -49707562.581164360        356960036.53460747     
  -7943224507.3413572        154508260.44302368        282104444.67430860     
  -7741382272.8925266       -17167078.803754807        280904318.45990515     
  -7516009131.8018961       -110406062.57785845        264808132.05349544     
  -7267105084.0694599       -125208690.87928295        233815885.45507327     
  -6994670129.6952229       -61574963.708033085        187927578.66464496     
  -8000303905.5007210        567392541.02792788       -180487528.96556613     
  -7919503399.6894579        199173520.09823847       -78203844.643868446     
  -7796990985.0325890       -30005804.679442883       -8776887.9245411865     
  -7632766661.5301170       -120145433.30509996        27793341.192418344     
  -7426830429.1820374       -71245365.778747559        31506842.707009465     
  -5654249250.1116028       -19381763.158946514        732860118.01151443     
  -5520699665.3362837       -51434105.569414377        719638046.66024601     
  -5381438587.9407167       -64448139.245734453        708019668.58732450     
  -5236466017.9249077       -58423864.187898397        698004983.79274619     
  -5085781955.2888517       -33361280.395917892        689593992.27651119     
  -6108379540.1600065       -35643162.398135185        538604216.31689835     
  -5960653469.5103321       -37624898.340891600        532305982.10491055     
  -5811813367.5151234       -35893196.465193510        528369673.02537626     
  -5661859234.1743784       -30448056.771041155        526795289.07829922     
  -5510791069.4880962       -21289479.258437872        527582830.26367539     
  -6555186500.0212135       -49707562.581164360        356960036.53460747     
  -6391117566.7711582       -20968779.038398504        352221934.64140427     
  -6230532063.4502754       -3841428.5928757191        350603989.73477030     
  -6073429990.0585642        1674488.7554056644        352106201.81469566     
  -5919811346.5960255       -4421026.9935600758        356728570.88119125     
  -6994670129.6952229       -61574963.708033085        187927578.66464496     
  -6812091957.1187525       -1465747.6619329453        179385904.26973516     
  -6637594675.7461662        31707164.371222973        174722618.71549863     
  -6471178285.5774632        37943772.391439438        173937722.00194111     
  -6312842786.6126404        17244076.398714542        177031214.12905589     
  -7426830429.1820374       -71245365.778747559        31506842.707009465     
  -7223576640.5531254        20884195.788491726        13797890.989895973     
  -7033001204.4028053        70752582.427093983        725559.96756716480     
  -6855104120.7310743        78359794.137060165       -7710150.3599742791     
  -6689885389.5379410        43705830.918375015       -11509239.992728399     
  -5085781955.2888517       -33361280.395917892        689593992.27651119     
  -4933404009.4691820       -5233875.7471227646        673208573.55377603     
  -4785051849.0818119        9474244.1273531914        664901430.52806115     
  -4640725474.1267328        10763079.227522373        664672563.19936240     
  -4500424884.6039457       -1367370.4466257095        672521971.56768215     
  -5510791069.4880962       -21289479.258437872        527582830.26367539     
  -5345042904.9172277       -8091082.9204225540        512441902.41233099     
  -5180648891.1248379        593477.48931932449        502952638.28276646     
  -5017609028.1109314        4764201.9707851410        499115037.87498093     
  -4855923315.8755140        4421090.5239682198        500929101.18897742     
  -5919811346.5960255       -4421026.9935600758        356728570.88119125     
  -5747626140.3460608       -8231592.0879588127        345949040.99734962     
  -5574123450.2207680       -7650544.2645971775        338394562.86004966     
  -5399303276.2201414       -2677883.5234632492        334065136.46929181     
  -5223165618.3441877        6686390.1354374886        332960761.82507598     
  -6312842786.6126404        17244076.398714542        177031214.12905589     
  -6141153715.7556849       -5655403.2497267723        173729989.30882990     
  -5965475526.3695974       -15257821.134373903        171227204.25991070     
  -5785808218.4543571       -11563177.255204678        169522858.98229638     
  -5602151792.0099831        5428528.3877665997        168616953.47598332     
  -6689885389.5379410        43705830.918375015       -11509239.992728399     
  -6525625631.1461048       -362516.40574264526       -4215252.6532241311     
  -6354705119.5713205       -22228353.120023012        1450562.4823507164     
  -6177123854.8135805       -21891679.224456310        5488205.4139884571     
  -5992881836.8728876        647505.28095650673        7897676.1416929336     
  -4500424884.6039457       -1367370.4466257095        672521971.56768215     
  -4366939037.8686056       -19528482.432200670        670629029.49429798     
  -4232055695.4648361       -33031275.523003578        671832095.30007029     
  -4095774857.3926449       -41875749.719058990        676131168.98500133     
  -3958096523.6520138       -46061905.020335913        683526250.54908502     
  -4855923315.8755140        4421090.5239682198        500929101.18897742     
  -4710145755.1392059       -2393730.3208715916        496199755.22319043     
  -4564134437.4364777       -8429361.2776498795        495211191.11574948     
  -4417889362.7673397       -13685802.346378565        497963408.86664754     
  -4271410531.1317749       -18163053.527029991        504456408.47588980     
  -5223165618.3441877        6686390.1354374886        332960761.82507598     
  -5063254132.2378159        11770523.842047215        324037316.81454539     
  -4904272627.8670244        13754718.430042744        319499427.64153671     
  -4746221105.2318392        12638973.899365664        319347094.30606389     
  -4589099564.3322363        8423290.2500691414        323580316.80810988     
  -5602151792.0099831        5428528.3877665997        168616953.47598332     
  -5426264169.1644325        22964280.056577444        154141714.26835245     
  -5252470266.7564840        33520963.600053072        144696804.87743998     
  -5080770084.7861395        37098579.018173695        140282225.30324003     
  -4911163623.2533989        33697126.310952902        140897975.54575303     
  -5992881836.8728876        647505.28095650673        7897676.1416929336     
  -5799175865.9190626        31187538.322695255       -13487052.415378295     
  -5608727354.1048422        50869374.232404947       -29196677.176547877     
  -5421536301.4302511        59693013.010019779       -39231198.141814537     
  -5237602707.8952656        57658454.655625582       -43590615.311187230     
  -3958096523.6520138       -46061905.020335913        683526250.54908502     
  -3813073599.6157064       -46853696.774277210        679992631.37153041     
  -3668662905.4509315       -49686254.766651869        680882622.71088493     
  -3524864441.1576924       -54559578.997485638        686196224.56715298     
  -3381678206.7359786       -61473669.466738224        695933436.94033253     
  -4271410531.1317749       -18163053.527029991        504456408.47588980     
  -4115149290.2708054       -19090861.864226103        499048982.02452856     
  -3958716496.4361367       -19446826.955764055        497894192.59444368     
  -3802112149.6277690       -19230948.801647663        500992040.18563467     
  -3645336249.8457131       -18443227.401882887        508342524.79809523     
  -4589099564.3322363        8423290.2500691414        323580316.80810988     
  -4422088502.3484287        7212916.6190733910        317213496.40238476     
  -4254122104.5456901        9186995.7178254128        314928339.52229172     
  -4085200370.9240336        14345527.546327353        316724846.16782922     
  -3915323301.4834499        22688512.104566813        322603016.33900476     
  -4911163623.2533989        33697126.310952902        140897975.54575303     
  -4733891235.8485775        32057638.675618410        134486174.50508958     
  -4554879729.7795992        36215213.254108906        131985063.49441493     
  -4374129105.0464725        46169850.046447039        133394642.51373553     
  -4191639361.6491942        61921549.052619696        138714911.56305620     
  -5237602707.8952656        57658454.655625582       -43590615.311187230     
  -5050557490.7712507        55443304.305399895       -49132983.667358272     
  -4860989372.1378632        61637825.653083563       -50935635.489173174     
  -4668898351.9950924        76242018.698723078       -48998570.776633129     
  -4474284430.3429461        99255883.442257166       -43321789.529748000     
  -3381678206.7359786       -61473669.466738224        695933436.94033253     
  -3250429572.2348714       -73975651.082145333        693330763.06253290     
  -3119891748.1940947       -88847000.898648381        695731000.43692410     
  -2990064734.6136398       -106087718.91623878        703134149.06349504     
  -2860948531.4935131       -125697805.13491130        715540208.94225657     
  -3645336249.8457131       -18443227.401882887        508342524.79809523     
  -3500151205.3206019       -22431131.067149878        501885466.27667493     
  -3355993780.9040933       -29844435.094433665        499181024.68688750     
  -3212863976.5961943       -40683139.483739972        500229200.02872854     
  -3070761792.3968987       -54947244.235069275        505029992.30220407     
  -3915323301.4834499        22688512.104566813        322603016.33900476     
  -3759774116.4216251        26143005.543268919        311921961.91763055     
  -3605569361.1166906        25116066.459014416        303743230.10733384     
  -3452709035.5686460        19607694.851786137        298066820.90812260     
  -3301193139.7774916        9617890.7215938568        294892734.31998110     
  -4191639361.6491942        61921549.052619696        138714911.56305620     
  -4029298305.5379605        71746758.749085426        123440249.98540536     
  -3868618488.8318925        76034503.761661530        109417616.69827665     
  -3709599911.5309963        74784784.090331078        96647011.701669112     
  -3552242573.6352692        67997599.735113382        85128434.995585829     
  -4474284430.3429461        99255883.442257166       -43321789.529748000     
  -4308723772.6695938        114380128.55032563       -63559669.520006739     
  -4145141164.0496912        122910876.81354785       -83795815.540299788     
  -3983536604.4832420        124848128.23193216       -104030227.59061483     
  -3823910093.9702473        120191882.80546594       -124262905.67097217     
  -2860948531.4935131       -125697805.13491130        715540208.94225657     
  -2681423440.0426097       -169291846.74959922        714508427.86149454     
  -2526972123.9963870       -296465139.71324575        728129647.01256144     
  -2397594583.3548470       -507217684.02582347        756403866.39546061     
  -2293290818.1179948       -801549479.68734777        799331086.01019526     
  -3070761792.3968987       -54947244.235069275        505029992.30220407     
  -2857625959.5170498       -53165743.836668968        473768721.94240826     
  -2646933598.4765749       -59529149.569519877        443237588.90848303     
  -2438684709.2754765       -74037461.433624864        413436593.20043868     
  -2232879291.9137459       -96690679.428961754        384365734.81825089     
  -3301193139.7774916        9617890.7215938568        294892734.31998110     
  -3094226173.7714314        44841050.642274022        259803995.50734493     
  -2867072376.0394464        147353649.64939511        211522531.11462289     
  -2619731746.5815310        317155687.74295306        150048341.14181384     
  -2352204285.3976660        554247164.92297339        75381425.588917956     
  -3552242573.6352692        67997599.735113382        85128434.995585829     
  -3391224082.8057513        124728536.68724775        72614248.556307897     
  -3187388456.6849961        324183257.94349957        32984473.630978219     
  -2940735695.2730069        666361763.50390124       -33760889.780401349     
  -2651265798.5697484        1151264053.3684764       -127621841.67782080     
  -3823910093.9702473        120191882.80546594       -124262905.67097217     
  -3748619686.6200171        186496714.29820442       -87800518.910704419     
  -3607881840.4132290        470959675.31282544       -92376583.542446405     
  -3401696555.3499069        973580765.84921718       -137991099.56618118     
  -3130063831.4300199        1694359985.9074893       -224644066.98194426     
 </DataArray>
 <DataArray  type="Float64" Name="VM" NumberOfComponents="1" format="ascii">
   12936044724.615330     
   11341152028.730621     
   10210770519.817968     
   9273376590.2445259     
   8304446813.6718130     
   10130592122.205275     
   9322443404.7232838     
   8826984821.7817192     
   8444271284.5875835     
   8036462588.0808687     
   7982515994.9207764     
   7735314327.8161354     
   7669681183.6152992     
   7670262500.4827576     
   7667117870.7889090     
   6491726065.3838491     
   6587051480.3889236     
   6757692589.0897636     
   6961563403.7950344     
   7172002789.6462164     
   5657768372.2095060     
   5890826752.8603401     
   6116219476.5750771     
   6331504662.9178123     
   6536477580.8881254     
   8304446813.6718130     
   8022088698.1566095     
   7782046317.0322170     
   7573561723.8373728     
   7391666721.2147036     
   8036462588.0808687     
   7748104219.1937189     
   7475502647.5020285     
   7216688881.2629719     
   6971689570.2137804     
   7667117870.7889090     
   7382014971.1965103     
   7102326689.7518082     
   6828141516.0498829     
   6559676817.5639420     
   7172002789.6462164     
   6911272810.2453222     
   6658425878.6364965     
   6409605530.9537239     
   6161666380.3392448     
   6536477580.8881254     
   6328238697.3813429     
   6142140723.6408138     
   5964248432.4706316     
   5785548614.6561394     
   7391666721.2147036     
   7234080823.7491903     
   7068643182.7179461     
   6894630929.1524839     
   6711874634.6521635     
   6971689570.2137804     
   6818442056.6378527     
   6660383750.8558340     
   6497221871.0781279     
   6328914654.2963610     
   6559676817.5639420     
   6409757435.5678310     
   6258145082.8697271     
   6104806374.4464808     
   5949771432.4132490     
   6161666380.3392448     
   6013034625.7764463     
   5865780588.6955366     
   5719940934.0761604     
   5575569971.6482410     
   5785548614.6561394     
   5634754188.6632366     
   5488268095.4530487     
   5345997380.9080324     
   5207997935.4335375     
   6711874634.6521635     
   6525448464.8662043     
   6343620649.0986605     
   6166214487.9531593     
   5993221226.8503475     
   6328914654.2963610     
   6145699030.2521534     
   5965238231.9980993     
   5787488412.1787920     
   5612471883.3284693     
   5949771432.4132490     
   5774686494.5712204     
   5601053323.3349409     
   5428887812.4451065     
   5258233212.2047205     
   5575569971.6482410     
   5414248982.5238171     
   5253673186.6300039     
   5093886082.5039215     
   4935004474.6191511     
   5207997935.4335375     
   5066785079.3056116     
   4926299569.1239710     
   4786623665.3234844     
   4648067304.6849680     
   5993221226.8503475     
   5814879286.0496607     
   5634561209.1925001     
   5452051378.0285873     
   5267209805.5559235     
   5612471883.3284693     
   5444332782.6708183     
   5275267474.0877190     
   5105205933.5379400     
   4934137458.3591833     
   5258233212.2047205     
   5100125356.8946333     
   4942243999.0516796     
   4784632649.7849808     
   4627383034.9578915     
   4935004474.6191511     
   4786736522.7466326     
   4639894810.6102142     
   4494593867.8594780     
   4350991240.5129423     
   4648067304.6849680     
   4509377796.9999380     
   4373290680.1010904     
   4239937699.5527153     
   4109495922.4073663     
   5267209805.5559235     
   5079219101.6690769     
   4892894954.8150301     
   4708247390.5664349     
   4525351068.0313578     
   4934137458.3591833     
   4755709295.3405800     
   4578805195.1832781     
   4403461407.7371426     
   4229769864.8177567     
   4627383034.9578915     
   4459673544.0967064     
   4293513883.7431674     
   4128996986.5560627     
   3966273101.3797469     
   4350991240.5129423     
   4195641317.3598876     
   4042094246.2394047     
   3890538200.4643531     
   3741232570.0929432     
   4109495922.4073663     
   3968657064.6190290     
   3830153726.3667059     
   3694310050.0846772     
   3561546349.5075216     
   4525351068.0313578     
   4368424801.1888323     
   4210445405.1525526     
   4051413937.3004537     
   3891357251.6784978     
   4229769864.8177567     
   4071264425.3776994     
   3911784170.6780243     
   3751288823.5973668     
   3589754239.7581372     
   3966273101.3797469     
   3811399034.7223091     
   3656241077.3178968     
   3500830660.2129931     
   3345236067.8484797     
   3741232570.0929432     
   3595652422.5257249     
   3451227652.5981221     
   3308191111.3134556     
   3166864882.0343237     
   3561546349.5075216     
   3431098193.7305689     
   3304020305.2495117     
   3180837230.5100365     
   3062222212.2966094     
   3891357251.6784978     
   3848267484.8708510     
   3868253037.8787980     
   3986019312.1584949     
   4257112304.7776613     
   3589754239.7581372     
   3457565458.3560257     
   3361711151.5429516     
   3324902653.5390325     
   3384640052.1591568     
   3345236067.8484797     
   3149204509.4299636     
   2966229261.7662477     
   2803923767.3535905     
   2675967965.6092243     
   3166864882.0343237     
   2947930685.5377970     
   2727931482.7423406     
   2506970299.6050825     
   2285259603.6596427     
   3062222212.2966094     
   2880332474.5704818     
   2704595887.0986729     
   2550699440.0761442     
   2445458822.9714379     
   5657768372.2095060     
   5890826752.8603401     
   6116219476.5750771     
   6331504662.9178123     
   6536477580.8881254     
   5151291655.1575584     
   5311034048.0376644     
   5467377201.6595135     
   5617435551.5621662     
   5759754490.3084936     
   4643227198.9027567     
   4755088068.8537674     
   4868039664.7799549     
   4979449977.7273712     
   5087397411.6809416     
   4133841701.1436729     
   4223830499.9035983     
   4319709635.1687651     
   4419819897.9937944     
   4522704854.1643200     
   3624660258.9092183     
   3719093063.8338852     
   3824757387.3574381     
   3941585190.8337483     
   4069480082.2352123     
   6536477580.8881254     
   6328238697.3813429     
   6142140723.6408138     
   5964248432.4706316     
   5785548614.6561394     
   5759754490.3084936     
   5651088967.0936279     
   5558382890.3542137     
   5472565575.4154177     
   5388099148.2799835     
   5087397411.6809416     
   5052571878.1035795     
   5028231338.9966526     
   5009171634.4624825     
   4992196967.7365637     
   4522704854.1643200     
   4537312062.1155853     
   4556576400.1737556     
   4578025926.6531773     
   4599942961.8536844     
   4069480082.2352123     
   4110672604.2989540     
   4149206958.7848678     
   4184195171.7527766     
   4214912917.8566046     
   5785548614.6561394     
   5634754188.6632366     
   5488268095.4530487     
   5345997380.9080324     
   5207997935.4335375     
   5388099148.2799835     
   5246118016.6459999     
   5107383617.2750893     
   4971937367.4536533     
   4839874743.9353552     
   4992196967.7365637     
   4863621112.3659554     
   4738192886.4997921     
   4615879651.8658810     
   4496717501.1567774     
   4599942961.8536844     
   4489970538.0478907     
   4384128992.1903725     
   4282096631.0925493     
   4183779726.3046408     
   4214912917.8566046     
   4129175098.5789204     
   4049818753.3339949     
   3975984171.8064528     
   3907386504.9948130     
   5207997935.4335375     
   5066785079.3056116     
   4926299569.1239710     
   4786623665.3234844     
   4648067304.6849680     
   4839874743.9353552     
   4718537508.2009087     
   4599115533.1652613     
   4481780144.3672829     
   4366848956.4700346     
   4496717501.1567774     
   4392037508.3331347     
   4290217888.1845016     
   4191460165.0947447     
   4096046899.7316623     
   4183779726.3046408     
   4092212714.9343166     
   4004104007.6975303     
   3919643603.8906269     
   3839064517.0792966     
   3907386504.9948130     
   3825041161.4273605     
   3746299627.4278741     
   3671321927.0170922     
   3600312046.0911045     
   4648067304.6849680     
   4509377796.9999380     
   4373290680.1010904     
   4239937699.5527153     
   4109495922.4073663     
   4366848956.4700346     
   4238835859.6629853     
   4113533898.7350497     
   3991138127.0417633     
   3871896891.9041448     
   4096046899.7316623     
   3980247268.8830094     
   3867533385.0528760     
   3758143540.5190725     
   3652386666.3086891     
   3839064517.0792966     
   3737115213.5781870     
   3638913526.8087492     
   3544713753.7065454     
   3454868085.8864422     
   3600312046.0911045     
   3513854558.7291284     
   3432107983.7277365     
   3355302776.4296823     
   3283804668.0423756     
   4109495922.4073663     
   3968657064.6190290     
   3830153726.3667059     
   3694310050.0846772     
   3561546349.5075216     
   3871896891.9041448     
   3744421065.2078557     
   3620139230.8948483     
   3499409061.9232726     
   3382680259.5317774     
   3652386666.3086891     
   3538092348.4174232     
   3427868335.5531707     
   3322092900.9186959     
   3221229401.3331633     
   3454868085.8864422     
   3353315856.0031171     
   3256701727.1975107     
   3165407564.9499755     
   3079890871.7291660     
   3283804668.0423756     
   3194210144.5234280     
   3110380780.7151752     
   3032683101.0073566     
   2961548612.4443784     
   3561546349.5075216     
   3431098193.7305689     
   3304020305.2495117     
   3180837230.5100365     
   3062222212.2966094     
   3382680259.5317774     
   3267281885.0712032     
   3155830972.7116585     
   3048781283.7982454     
   2946693987.2361026     
   3221229401.3331633     
   3119061112.5898318     
   3021292453.7021332     
   2928310792.1544247     
   2840579812.8693523     
   3079890871.7291660     
   2988875620.5014086     
   2902580596.0495448     
   2821345590.2302904     
   2745568539.6616549     
   2961548612.4443784     
   2879373837.1285300     
   2802111958.2649360     
   2730089970.6610665     
   2663689725.8599615     
   3062222212.2966094     
   2880332474.5704818     
   2704595887.0986729     
   2550699440.0761442     
   2445458822.9714379     
   2946693987.2361026     
   2818616310.1202183     
   2699882561.4424038     
   2595780473.2590246     
   2513965183.1076655     
   2840579812.8693523     
   2746431920.7373271     
   2665861181.5284591     
   2600659575.1745877     
   2552869179.7359867     
   2745568539.6616549     
   2660288340.7672577     
   2595583051.6991339     
   2557474166.2167287     
   2554828065.6470804     
   2663689725.8599615     
   2558211304.6858149     
   2486324959.2510228     
   2468136581.2929335     
   2532019552.6957164     
   3624660258.9092183     
   3719093063.8338852     
   3824757387.3574381     
   3941585190.8337483     
   4069480082.2352123     
   3137651867.3744545     
   3254944047.9249678     
   3381650845.3607092     
   3517303213.1054115     
   3661443284.5671535     
   2694476233.2460909     
   2830054121.6933079     
   2972959093.9599752     
   3122112228.1222973     
   3276604854.2341266     
   2298634668.3233714     
   2449223150.6960073     
   2604565126.7115350     
   2762744379.1066189     
   2922335545.6692758     
   1955353192.3196089     
   2119410817.2981181     
   2284869305.0848422     
   2448778962.1901913     
   2609189203.5277157     
   4069480082.2352123     
   4110672604.2989540     
   4149206958.7848678     
   4184195171.7527766     
   4214912917.8566046     
   3661443284.5671535     
   3700620081.3949242     
   3738411947.1432819     
   3773925944.9002409     
   3806416930.3648291     
   3276604854.2341266     
   3319684540.3751998     
   3363010689.3975959     
   3405762746.4336576     
   3447264394.9500785     
   2922335545.6692758     
   2975242624.4371419     
   3030388660.6378312     
   3087091316.8079748     
   3144818171.8714943     
   2609189203.5277157     
   2677311696.6240234     
   2749971009.5777264     
   2826656866.4899416     
   2907016650.3839641     
   4214912917.8566046     
   4129175098.5789204     
   4049818753.3339949     
   3975984171.8064528     
   3907386504.9948130     
   3806416930.3648291     
   3752521046.4069734     
   3704648839.3198633     
   3662332574.4621334     
   3625494536.9588161     
   3447264394.9500785     
   3420780757.6177168     
   3399600603.9144473     
   3383509456.5583038     
   3372510529.5061092     
   3144818171.8714943     
   3141499130.7084475     
   3142178664.6530347     
   3146774872.0099497     
   3155290377.2356706     
   2907016650.3839641     
   2922817739.3483338     
   2940533375.2057090     
   2960130134.6302700     
   2981586330.3954387     
   3907386504.9948130     
   3825041161.4273605     
   3746299627.4278741     
   3671321927.0170922     
   3600312046.0911045     
   3625494536.9588161     
   3551782214.1191545     
   3482341081.7179470     
   3417365886.7545776     
   3357084195.6058006     
   3372510529.5061092     
   3310566495.6741252     
   3253943325.5708756     
   3202863137.0578585     
   3157591991.0492411     
   3155290377.2356706     
   3108103834.2894354     
   3067672159.4694872     
   3034224361.7098279     
   3008067698.8058200     
   2981586330.3954387     
   2951591772.1295900     
   2930132796.5329447     
   2917405811.2911153     
   2913743370.7487588     
   3600312046.0911045     
   3513854558.7291284     
   3432107983.7277365     
   3355302776.4296823     
   3283804668.0423756     
   3357084195.6058006     
   3288723940.5021076     
   3225762959.0216422     
   3168495473.0674591     
   3117306072.2814054     
   3157591991.0492411     
   3106244260.9093981     
   3060775800.6613746     
   3021474264.0188951     
   2988674667.8405409     
   3008067698.8058200     
   2972281663.5247006     
   2942541423.5186486     
   2919065651.0569625     
   2902088851.4741278     
   2913743370.7487588     
   2891587637.0210214     
   2875256282.6820526     
   2864857395.5157070     
   2860502193.9794846     
   3283804668.0423756     
   3194210144.5234280     
   3110380780.7151752     
   3032683101.0073566     
   2961548612.4443784     
   3117306072.2814054     
   3040822633.9695816     
   2970578146.6175089     
   2906928658.4171500     
   2850279688.5807867     
   2988674667.8405409     
   2925903663.0582848     
   2869883654.5060034     
   2820947170.2267733     
   2779461123.7218676     
   2902088851.4741278     
   2853327637.5441709     
   2811820092.2986579     
   2777859969.5409932     
   2751763100.8494053     
   2860502193.9794846     
   2825579740.7576261     
   2798363468.2347517     
   2779097606.3915529     
   2768041642.1107712     
   2961548612.4443784     
   2879373837.1285300     
   2802111958.2649360     
   2730089970.6610665     
   2663689725.8599615     
   2850279688.5807867     
   2778079747.3952332     
   2711996214.2843747     
   2652366178.6290064     
   2599564775.5490990     
   2779461123.7218676     
   2720514753.2031980     
   2669271062.1705313     
   2626099154.5707464     
   2591398336.6151538     
   2751763100.8494053     
   2708592354.1856995     
   2674988434.6356783     
   2651351543.1216888     
   2638109732.5355515     
   2768041642.1107712     
   2742090878.8937559     
   2727752732.5212936     
   2725448074.3264537     
   2735628359.3157492     
   2663689725.8599615     
   2558211304.6858149     
   2486324959.2510228     
   2468136581.2929335     
   2532019552.6957164     
   2599564775.5490990     
   2459252548.5820551     
   2334489561.0522194     
   2232213147.7594333     
   2163569559.8680954     
   2591398336.6151538     
   2443191429.1535020     
   2301304647.1213040     
   2166009002.5115442     
   2037695231.0751219     
   2638109732.5355515     
   2515144718.7539229     
   2400559510.9065509     
   2298934877.4315519     
   2217524165.8885646     
   2735628359.3157492     
   2673315247.5753446     
   2631139706.5947952     
   2625193919.1194310     
   2678147298.6726322     
   1955353192.3196089     
   2119410817.2981181     
   2284869305.0848422     
   2448778962.1901913     
   2609189203.5277157     
   1654139437.6769249     
   1820666930.7073390     
   1988911992.5553603     
   2156187817.9945745     
   2320743384.1820374     
   1394317261.5371811     
   1571792874.7863281     
   1750270977.6200097     
   1927755768.1130083     
   2103002328.4675176     
   1208125306.7287979     
   1400143913.6072907     
   1591720800.4760830     
   1782082844.4002006     
   1970773783.4069307     
   1138059399.9068999     
   1336445626.0053322     
   1535101086.3714874     
   1734025781.0053651     
   1933219709.9069672     
   2609189203.5277157     
   2677311696.6240234     
   2749971009.5777264     
   2826656866.4899416     
   2907016650.3839641     
   2320743384.1820374     
   2408050607.9572406     
   2497834941.5987997     
   2589705621.5124507     
   2683387268.3086667     
   2103002328.4675176     
   2207066080.4101048     
   2311082158.3127909     
   2414813690.1574349     
   2518093798.4150848     
   1970773783.4069307     
   2088260432.3183665     
   2202945468.5062804     
   2314753648.6707907     
   2423632777.3971868     
   1933219709.9069672     
   2060186612.5409729     
   2181790191.9414434     
   2298030448.1083775     
   2408907381.0417752     
   2907016650.3839641     
   2922817739.3483338     
   2940533375.2057090     
   2960130134.6302700     
   2981586330.3954387     
   2683387268.3086667     
   2705941114.8220501     
   2731159045.7289410     
   2759033726.5070300     
   2789564769.8737388     
   2518093798.4150848     
   2546943259.7268167     
   2579207318.3435359     
   2614889725.5016804     
   2653997171.8436012     
   2423632777.3971868     
   2457062337.3368216     
   2494644377.5513244     
   2536381894.7497544     
   2582278507.7715797     
   2408907381.0417752     
   2443928056.8428836     
   2483825028.6047354     
   2528598296.3273335     
   2578247860.0106740     
   2981586330.3954387     
   2951591772.1295900     
   2930132796.5329447     
   2917405811.2911153     
   2913743370.7487588     
   2789564769.8737388     
   2775580873.8092146     
   2769404386.1022129     
   2771146740.8662562     
   2780992113.3499861     
   2653997171.8436012     
   2651711437.1246953     
   2656125228.8458052     
   2667282897.7330937     
   2685259126.3322811     
   2582278507.7715797     
   2587228051.0596018     
   2597411325.6840706     
   2612836931.8282485     
   2633520552.1849113     
   2578247860.0106740     
   2586321788.3211260     
   2597871373.2435565     
   2612896614.7779722     
   2631397512.9243636     
   2913743370.7487588     
   2891587637.0210214     
   2875256282.6820526     
   2864857395.5157070     
   2860502193.9794846     
   2780992113.3499861     
   2762479499.9802814     
   2750555438.3251019     
   2745302838.0799170     
   2746806545.6159511     
   2685259126.3322811     
   2668849302.6673479     
   2659857407.2604399     
   2658331135.4285240     
   2664319198.7957320     
   2633520552.1849113     
   2616914335.8537340     
   2608596357.4416175     
   2608581256.1784301     
   2616884027.0246072     
   2631397512.9243636     
   2611638675.3787346     
   2601040713.2962399     
   2599603626.6768756     
   2607327415.5206418     
   2860502193.9794846     
   2825579740.7576261     
   2798363468.2347517     
   2779097606.3915529     
   2768041642.1107712     
   2746806545.6159511     
   2721136680.0806355     
   2703831814.1132560     
   2695051960.1924567     
   2694963466.1236157     
   2664319198.7957320     
   2645653639.5099192     
   2635953284.5968652     
   2635298820.9824753     
   2643772641.8794670     
   2616884027.0246072     
   2602234885.7445149     
   2597109288.8670850     
   2601529513.4450049     
   2615518040.3643360     
   2607327415.5206418     
   2593094294.2383285     
   2588917626.3753052     
   2594797411.9315615     
   2610733650.9071002     
   2768041642.1107712     
   2742090878.8937559     
   2727752732.5212936     
   2725448074.3264537     
   2735628359.3157492     
   2694963466.1236157     
   2680165713.2914915     
   2674978519.8224878     
   2679610342.7406716     
   2694284832.8961477     
   2643772641.8794670     
   2635972668.3192930     
   2635721595.2599692     
   2643099972.2833400     
   2658194969.7957759     
   2615518040.3643360     
   2611064779.7114820     
   2612059347.8638320     
   2618519172.3498797     
   2630463413.0421586     
   2610733650.9071002     
   2606693524.5849934     
   2605976090.4237871     
   2608581348.4234786     
   2614509298.5840807     
   2735628359.3157492     
   2673315247.5753446     
   2631139706.5947952     
   2625193919.1194310     
   2678147298.6726322     
   2694284832.8961477     
   2679574468.6426802     
   2682098086.7040710     
   2710363211.7476935     
   2776125238.2285562     
   2658194969.7957759     
   2677132032.5022459     
   2711222261.1855578     
   2764086006.3044786     
   2840661382.5802636     
   2630463413.0421586     
   2667423196.4890456     
   2718483030.3931785     
   2784528986.6089349     
   2866761293.7717805     
   2614509298.5840807     
   2652524565.7766690     
   2704866024.3138962     
   2771533674.1957841     
   2852527515.4222975     
   1138059399.9068999     
   1336445626.0053322     
   1535101086.3714874     
   1734025781.0053651     
   1933219709.9069672     
   1208125306.7109568     
   1400143913.5898829     
   1591720800.4588025     
   1782082844.3827970     
   1970773783.3891978     
   1394317261.5078497     
   1571792874.7567172     
   1750270977.5898371     
   1927755768.0819688     
   2103002328.4353199     
   1654139437.6426871     
   1820666930.6717160     
   1988911992.5181482     
   2156187817.9554758     
   2320743384.1407285     
   1955353192.2851415     
   2119410817.2614746     
   2284869305.0458217     
   2448778962.1484761     
   2609189203.4829445     
   1933219709.9069672     
   2060186612.5409729     
   2181790191.9414434     
   2298030448.1083775     
   2408907381.0417752     
   1970773783.3891978     
   2088260432.2993047     
   2202945468.4857330     
   2314753648.6486115     
   2423632777.3732324     
   2103002328.4353199     
   2207066080.3754172     
   2311082158.2753434     
   2414813690.1169748     
   2518093798.3713574     
   2320743384.1407285     
   2408050607.9126053     
   2497834941.5504699     
   2589705621.4600773     
   2683387268.2518935     
   2609189203.4829445     
   2677311696.5755906     
   2749971009.5251536     
   2826656866.4327683     
   2907016650.3217201     
   2408907381.0417752     
   2443928056.8428836     
   2483825028.6047354     
   2528598296.3273335     
   2578247860.0106740     
   2423632777.3732324     
   2457062337.3102994     
   2494644377.5219259     
   2536381894.7171741     
   2582278507.7355027     
   2518093798.3713574     
   2546943259.6781826     
   2579207318.2893324     
   2614889725.4412427     
   2653997171.7762480     
   2683387268.2518935     
   2705941114.7586770     
   2731159045.6579208     
   2759033726.4272923     
   2789564769.7841845     
   2907016650.3217201     
   2922817739.2787504     
   2940533375.1273570     
   2960130134.5416722     
   2981586330.2950716     
   2578247860.0106740     
   2586321788.3211260     
   2597871373.2435565     
   2612896614.7779722     
   2631397512.9243636     
   2582278507.7355027     
   2587228051.0262384     
   2597411325.6537485     
   2612836931.8012304     
   2633520552.1613612     
   2653997171.7762480     
   2651711437.0620952     
   2656125228.7885733     
   2667282897.6817522     
   2685259126.2871552     
   2789564769.7841845     
   2775580873.7255716     
   2769404386.0253143     
   2771146740.7968268     
   2780992113.2884994     
   2981586330.2950716     
   2951591772.0354443     
   2930132796.4459548     
   2917405811.2121229     
   2913743370.6783528     
   2631397512.9243636     
   2611638675.3787346     
   2601040713.2962399     
   2599603626.6768756     
   2607327415.5206418     
   2633520552.1613612     
   2616914335.8312349     
   2608596357.4254041     
   2608581256.1737738     
   2616884027.0368156     
   2685259126.2871552     
   2668849302.6180434     
   2659857407.2170854     
   2658331135.4014306     
   2664319198.7953997     
   2780992113.2884994     
   2762479499.9010406     
   2750555438.2426157     
   2745302838.0091949     
   2746806545.5724711     
   2913743370.6783528     
   2891587636.9098535     
   2875256282.5483780     
   2864857395.3787117     
   2860502193.8592625     
   2607327415.5206418     
   2593094294.2383285     
   2588917626.3753052     
   2594797411.9315615     
   2610733650.9071002     
   2616884027.0368156     
   2602234885.7617931     
   2597109288.8969698     
   2601529513.4951105     
   2615518040.4423833     
   2664319198.7953997     
   2645653639.5186763     
   2635953284.6302176     
   2635298821.0561705     
   2643772642.0095215     
   2746806545.5724711     
   2721136680.0453281     
   2703831814.1099753     
   2695051960.2456684     
   2694963466.2583966     
   2860502193.8592625     
   2825579740.6362782     
   2798363468.1446757     
   2779097606.3663502     
   2768041642.1852436     
   2610733650.9071002     
   2606693524.5849934     
   2605976090.4237871     
   2608581348.4234786     
   2614509298.5840807     
   2615518040.4423833     
   2611064779.7881980     
   2612059347.9436073     
   2618519172.4378581     
   2630463413.1444249     
   2643772642.0095215     
   2635972668.4584222     
   2635721595.4173889     
   2643099972.4693742     
   2658194970.0220790     
   2694963466.2583966     
   2680165713.4554830     
   2674978520.0305586     
   2679610343.0087795     
   2694284833.2415409     
   2768041642.1852436     
   2742090879.0249295     
   2727752732.7310681     
   2725448074.6376629     
   2735628359.7520981     
   2614509298.5840807     
   2652524565.7766690     
   2704866024.3138962     
   2771533674.1957841     
   2852527515.4222975     
   2630463413.1444249     
   2667423196.3411436     
   2718483030.0030932     
   2784528986.0170918     
   2866761293.0627122     
   2658194970.0220790     
   2677132032.3260980     
   2711222260.6058383     
   2764086005.3654418     
   2840661381.3891377     
   2694284833.2415409     
   2679574468.5369186     
   2682098086.1198254     
   2710363210.6959314     
   2776125236.7776847     
   2735628359.7520981     
   2673315247.6142840     
   2631139706.1670957     
   2625193918.1617932     
   2678147297.1438060     
   1955353192.2851415     
   2119410817.2614746     
   2284869305.0458217     
   2448778962.1484761     
   2609189203.4829445     
   2298634668.2916780     
   2449223150.6621027     
   2604565126.6752439     
   2762744379.0677109     
   2922335545.6275005     
   2694476233.2190723     
   2830054121.6644392     
   2972959093.9290638     
   3122112228.0891380     
   3276604854.1985159     
   3137651867.3534379     
   3254944047.9027328     
   3381650845.3370337     
   3517303213.0800810     
   3661443284.5399604     
   3624660258.8952103     
   3719093063.8194652     
   3824757387.3423610     
   3941585190.8177748     
   4069480082.2181067     
   2609189203.4829445     
   2677311696.5755906     
   2749971009.5251536     
   2826656866.4327683     
   2907016650.3217201     
   2922335545.6275005     
   2975242624.3926377     
   3030388660.5902224     
   3087091316.7569127     
   3144818171.8166294     
   3276604854.1985159     
   3319684540.3379030     
   3363010689.3583646     
   3405762746.3922739     
   3447264394.9063416     
   3661443284.5399604     
   3700620081.3671346     
   3738411947.1147819     
   3773925944.8709602     
   3806416930.3347297     
   4069480082.2181067     
   4110672604.2823157     
   4149206958.7687206     
   4184195171.7371960     
   4214912917.8417020     
   2907016650.3217201     
   2922817739.2787504     
   2940533375.1273570     
   2960130134.5416722     
   2981586330.2950716     
   3144818171.8166294     
   3141499130.6485548     
   3142178664.5867448     
   3146774871.9358058     
   3155290377.1521039     
   3447264394.9063416     
   3420780757.5723400     
   3399600603.8661718     
   3383509456.5057402     
   3372510529.4476638     
   3806416930.3347297     
   3752521046.3794146     
   3704648839.2937527     
   3662332574.4362087     
   3625494536.9315219     
   4214912917.8417020     
   4129175098.5712957     
   4049818753.3327656     
   3975984171.8105488     
   3907386505.0028081     
   2981586330.2950716     
   2951591772.0354443     
   2930132796.4459548     
   2917405811.2121229     
   2913743370.6783528     
   3155290377.1521039     
   3108103834.2136855     
   3067672159.4010820     
   3034224361.6482401     
   3008067698.7504148     
   3372510529.4476638     
   3310566495.6245136     
   3253943325.5282097     
   3202863137.0201693     
   3157591991.0144620     
   3625494536.9315219     
   3551782214.1021657     
   3482341081.7080116     
   3417365886.7483020     
   3357084195.5996022     
   3907386505.0028081     
   3825041161.4483342     
   3746299627.4573050     
   3671321927.0502362     
   3600312046.1228795     
   2913743370.6783528     
   2891587636.9098535     
   2875256282.5483780     
   2864857395.3787117     
   2860502193.8592625     
   3008067698.7504148     
   2972281663.3921642     
   2942541423.3266425     
   2919065650.8244071     
   2902088851.2212896     
   3157591991.0144620     
   3106244260.7553382     
   3060775800.4040685     
   3021474263.6758776     
   2988674667.4311442     
   3357084195.5996022     
   3288723940.3308926     
   3225762958.6989660     
   3168495472.6084018     
   3117306071.7031622     
   3600312046.1228795     
   3513854558.5483570     
   3432107983.3449645     
   3355302775.8567629     
   3283804667.2932630     
   2860502193.8592625     
   2825579740.6362782     
   2798363468.1446757     
   2779097606.3663502     
   2768041642.1852436     
   2902088851.2212896     
   2853327637.2493672     
   2811820091.9960871     
   2777859969.2668958     
   2751763100.6421223     
   2988674667.4311442     
   2925903662.5557499     
   2869883653.9452696     
   2820947169.6456528     
   2779461123.1612530     
   3117306071.7031622     
   3040822633.2386537     
   2970578145.7683825     
   2906928657.4878435     
   2850279687.6132932     
   3283804667.2932630     
   3194210143.5560384     
   3110380779.5624852     
   3032683099.7063217     
   2961548611.0365829     
   2768041642.1852436     
   2742090879.0249295     
   2727752732.7310681     
   2725448074.6376629     
   2735628359.7520981     
   2751763100.6421223     
   2708592354.0250440     
   2674988434.5533266     
   2651351543.1503153     
   2638109732.7086067     
   2779461123.1612530     
   2720514752.6749167     
   2669271061.7170262     
   2626099154.2365270     
   2591398336.4466944     
   2850279687.6132932     
   2778079746.4363093     
   2711996213.3871632     
   2652366177.8505306     
   2599564774.9506521     
   2961548611.0365829     
   2879373835.6930265     
   2802111956.8647051     
   2730089969.3650613     
   2663689724.7443466     
   2735628359.7520981     
   2673315247.6142840     
   2631139706.1670957     
   2625193918.1617932     
   2678147297.1438060     
   2638109732.7086067     
   2515144718.6424999     
   2400559510.4817114     
   2298934876.6511617     
   2217524164.6943588     
   2591398336.4466944     
   2443191428.8211393     
   2301304646.6595964     
   2166009001.9592009     
   2037695230.4774485     
   2599564774.9506521     
   2459252547.9310107     
   2334489560.4638686     
   2232213147.3970556     
   2163569559.9585876     
   2663689724.7443466     
   2558211303.6107163     
   2486324958.4255004     
   2468136581.0175428     
   2532019553.3504782     
   3624660258.8952103     
   3719093063.8194652     
   3824757387.3423610     
   3941585190.8177748     
   4069480082.2181067     
   4133841701.1371675     
   4223830499.8975482     
   4319709635.1631718     
   4419819897.9886198     
   4522704854.1594992     
   4643227198.9038401     
   4755088068.8560867     
   4868039664.7837448     
   4979449977.7327824     
   5087397411.6880550     
   5151291655.1663523     
   5311034048.0483341     
   5467377201.6725159     
   5617435551.5778055     
   5759754490.3269663     
   5657768372.2261801     
   5890826752.8793612     
   6116219476.5970964     
   6331504662.9432688     
   6536477580.9172783     
   4069480082.2181067     
   4110672604.2823157     
   4149206958.7687206     
   4184195171.7371960     
   4214912917.8417020     
   4522704854.1594992     
   4537312062.1128244     
   4556576400.1730928     
   4578025926.6546459     
   4599942961.8572769     
   5087397411.6880550     
   5052571878.1138277     
   5028231339.0100069     
   5009171634.4788799     
   4992196967.7558880     
   5759754490.3269663     
   5651088967.1157904     
   5558382890.3799181     
   5472565575.4444876     
   5388099148.3121958     
   6536477580.9172783     
   6328238697.4142408     
   6142140723.6771669     
   5964248432.5101252     
   5785548614.6984367     
   4214912917.8417020     
   4129175098.5712957     
   4049818753.3327656     
   3975984171.8105488     
   3907386505.0028081     
   4599942961.8572769     
   4489970538.0632076     
   4384128992.2174120     
   4282096631.1312551     
   4183779726.3548274     
   4992196967.7558880     
   4863621112.3991718     
   4738192886.5475826     
   4615879651.9289484     
   4496717501.2358437     
   5388099148.3121958     
   5246118016.6918859     
   5107383617.3358288     
   4971937367.5304832     
   4839874744.0296192     
   5785548614.6984367     
   5634754188.7165642     
   5488268095.5189457     
   5345997380.9881096     
   5207997935.5295477     
   3907386505.0028081     
   3825041161.4483342     
   3746299627.4573050     
   3671321927.0502362     
   3600312046.1228795     
   4183779726.3548274     
   4092212715.0045886     
   4004104007.7848401     
   3919643603.9917464     
   3839064517.1907959     
   4496717501.2358437     
   4392037508.4356537     
   4290217888.3085771     
   4191460165.2383990     
   4096046899.8928771     
   4839874744.0296192     
   4718537508.3178463     
   4599115533.3038187     
   4481780144.5264263     
   4366848956.6488819     
   5207997935.5295477     
   5066785079.4191923     
   4926299569.2546024     
   4786623665.4707346     
   4648067304.8487320     
   3600312046.1228795     
   3513854558.5483570     
   3432107983.3449645     
   3355302775.8567629     
   3283804667.2932630     
   3839064517.1907959     
   3737115213.4466519     
   3638913526.4360638     
   3544713753.0954652     
   3454868085.0411167     
   4096046899.8928771     
   3980247268.7856207     
   3867533384.6917558     
   3758143539.8894806     
   3652386665.4065204     
   4366848956.6488819     
   4238835859.5844927     
   4113533898.3887110     
   3991138126.4170437     
   3871896890.9904089     
   4648067304.8487320     
   4509377796.9255104     
   4373290679.7741318     
   4239937698.9585071     
   4109495921.5304675     
   3283804667.2932630     
   3194210143.5560384     
   3110380779.5624852     
   3032683099.7063217     
   2961548611.0365829     
   3454868085.0411167     
   3353315854.8650556     
   3256701725.7862105     
   3165407563.2880712     
   3079890869.8430586     
   3652386665.4065204     
   3538092347.1765227     
   3427868333.9816213     
   3322092899.0264487     
   3221229399.1324282     
   3871896890.9904089     
   3744421063.9409275     
   3620139229.2739496     
   3499409059.9480543     
   3382680257.2023458     
   4109495921.5304675     
   3968657063.4072223     
   3830153724.8131657     
   3694310048.1816883     
   3561546347.2460613     
   2961548611.0365829     
   2879373835.6930265     
   2802111956.8647051     
   2730089969.3650613     
   2663689724.7443466     
   3079890869.8430586     
   2988875618.4829583     
   2902580593.9444413     
   2821345588.0889297     
   2745568537.5401225     
   3221229399.1324282     
   3119061110.1897593     
   3021292451.1326966     
   2928310789.4480672     
   2840579810.0613708     
   3382680257.2023458     
   3267281882.5190425     
   3155830969.9534869     
   3048781280.8502855     
   2946693984.1135664     
   3561546347.2460613     
   3431098191.2699447     
   3304020302.5964732     
   3180837227.6675324     
   3062222209.2619805     
   2663689724.7443466     
   2558211303.6107163     
   2486324958.4255004     
   2468136581.0175428     
   2532019553.3504782     
   2745568537.5401225     
   2660288338.5853333     
   2595583049.6184931     
   2557474164.4836793     
   2554828064.6184988     
   2840579810.0613708     
   2746431917.8760033     
   2665861178.6978598     
   2600659572.4727325     
   2552869177.2806225     
   2946693984.1135664     
   2818616307.0722241     
   2699882558.4643669     
   2595780470.2448053     
   2513965179.7893176     
   3062222209.2619805     
   2880332471.8786664     
   2704595884.6570501     
   2550699437.5294247     
   2445458819.5272937     
   5657768372.2261801     
   5890826752.8793612     
   6116219476.5970964     
   6331504662.9432688     
   6536477580.9172783     
   6491726065.4076815     
   6587051480.4176722     
   6757692589.1234589     
   6961563403.8332415     
   7172002789.6882763     
   7982515994.9502192     
   7735314327.8524132     
   7669681183.6581545     
   7670262500.5313206     
   7667117870.8420706     
   10130592122.238911     
   9322443404.7650127     
   8826984821.8313713     
   8444271284.6441765     
   8036462588.1432543     
   12936044724.651791     
   11341152028.775976     
   10210770519.872372     
   9273376590.3070107     
   8304446813.7413111     
   6536477580.9172783     
   6328238697.4142408     
   6142140723.6771669     
   5964248432.5101252     
   5785548614.6984367     
   7172002789.6882763     
   6911272810.2900162     
   6658425878.6835909     
   6409605531.0030031     
   6161666380.3905163     
   7667117870.8420706     
   7382014971.2522058     
   7102326689.8098793     
   6828141516.1102047     
   6559676817.6264200     
   8036462588.1432543     
   7748104219.2596283     
   7475502647.5713959     
   7216688881.3357334     
   6971689570.2898922     
   8304446813.7413111     
   8022088698.2318125     
   7782046317.1131649     
   7573561723.9240437     
   7391666721.3070078     
   5785548614.6984367     
   5634754188.7165642     
   5488268095.5189457     
   5345997380.9881096     
   5207997935.5295477     
   6161666380.3905163     
   6013034625.8340416     
   5865780588.7605047     
   5719940934.1496086     
   5575569971.7313652     
   6559676817.6264200     
   6409757435.6325531     
   6258145082.9372787     
   6104806374.5175056     
   5949771432.4884319     
   6971689570.2898922     
   6818442056.7128963     
   6660383750.9299841     
   6497221871.1515942     
   6328914654.3693838     
   7391666721.3070078     
   7234080823.8379745     
   7068643182.8030176     
   6894630929.2336798     
   6711874634.7293739     
   5207997935.5295477     
   5066785079.4191923     
   4926299569.2546024     
   4786623665.4707346     
   4648067304.8487320     
   5575569971.7313652     
   5414248982.6120691     
   5253673186.7230062     
   5093886082.6013699     
   4935004474.7209492     
   5949771432.4884319     
   5774686494.6365004     
   5601053323.3898172     
   5428887812.4891186     
   5258233212.2375021     
   6328914654.3693838     
   6145699030.2975588     
   5965238232.0150099     
   5787488412.1663866     
   5612471883.2859364     
   6711874634.7293739     
   6525448464.8953371     
   6343620649.0782118     
   6166214487.8817616     
   5993221226.7266493     
   4648067304.8487320     
   4509377796.9255104     
   4373290679.7741318     
   4239937698.9585071     
   4109495921.5304675     
   4935004474.7209492     
   4786736522.6364393     
   4639894810.2786846     
   4494593867.2967939     
   4350991239.7086220     
   5258233212.2375021     
   5100125356.7340670     
   4942243998.6928110     
   4784632649.2223196     
   4627383034.1853809     
   5612471883.2859364     
   5444332782.4436588     
   5275267473.6745939     
   5105205932.9369488     
   4934137457.5678644     
   5993221226.7266493     
   5814879285.7385874     
   5634561208.6955490     
   5452051377.3465786     
   5267209804.6890135     
   4109495921.5304675     
   3968657063.4072223     
   3830153724.8131657     
   3694310048.1816883     
   3561546347.2460613     
   4350991239.7086220     
   4195641316.2889600     
   4042094244.8957005     
   3890538198.8407960     
   3741232568.1810107     
   4627383034.1853809     
   4459673543.1326599     
   4293513882.5832324     
   4128996985.1953034     
   3966273099.8120708     
   4934137457.5678644     
   4755709294.4385262     
   4578805194.1686468     
   4403461406.6079721     
   4229769863.5714250     
   5267209804.6890135     
   5079219100.7774820     
   4892894953.8997746     
   4708247389.6289110     
   4525351067.0728092     
   3561546347.2460613     
   3431098191.2699447     
   3304020302.5964732     
   3180837227.6675324     
   3062222209.2619805     
   3741232568.1810107     
   3595652420.5053654     
   3451227650.4779997     
   3308191109.1002235     
   3166864879.7309599     
   3966273099.8120708     
   3811399033.1372457     
   3656241075.7254915     
   3500830658.6230402     
   3345236066.2693605     
   4229769863.5714250     
   4071264424.2061934     
   3911784169.5916142     
   3751288822.6075263     
   3589754238.8769636     
   4525351067.0728092     
   4368424800.3999739     
   4210445404.5425854     
   4051413936.8807626     
   3891357251.4625735     
   3062222209.2619805     
   2880332471.8786664     
   2704595884.6570501     
   2550699437.5294247     
   2445458819.5272937     
   3166864879.7309599     
   2947930683.8444448     
   2727931481.7224674     
   2506970299.3113723     
   2285259604.1226454     
   3345236066.2693605     
   3149204508.2967176     
   2966229261.1056314     
   2803923767.1773758     
   2675967965.9033809     
   3589754238.8769636     
   3457565457.4241915     
   3361711150.4799762     
   3324902652.1463947     
   3384640050.0618134     
   3891357251.4625735     
   3848267483.8724957     
   3868253035.9121141     
   3986019308.8510780     
   4257112299.4904280     
 </DataArray>
 <DataArray  type="Float64" Name="strain" NumberOfComponents="3" format="ascii">
  0.20349292973674496        0.0000000000000000       0.12540798559089542     
  0.18666353758480983       -2.7334430001726282E-002   7.4347497008845534E-002
  0.16983414543287470       -4.4688916981899751E-002   3.5122482173842624E-002
  0.15300475328093957       -5.2063460940520431E-002   7.7329410858866764E-003
  0.13617536112900441       -4.9458061877588319E-002  -7.8211262550223204E-003
  0.15986337514619023        0.0000000000000000        9.6440331854357214E-002
  0.15318743546552432       -2.1851383233580938E-002   6.2679233581566463E-002
  0.14651149578485845       -3.6183721013176309E-002   3.7389566504267217E-002
  0.13983555610419260       -4.2997013338786139E-002   2.0571330622459551E-002
  0.13315961642352669       -4.2291260210410422E-002   1.2224525936143413E-002
  0.12646573790290314        0.0000000000000000        7.4186173669747987E-002
  0.12657920814195106       -1.6368336465435597E-002   5.5263568138649091E-002
  0.12669267838099904       -2.7678525044452874E-002   4.1448351251486312E-002
  0.12680614862004697       -3.3930565737051846E-002   3.2740523008259699E-002
  0.12691961885909492       -3.5124458543232505E-002   2.9140083408969165E-002
  0.10330001800688367        0.0000000000000000        5.8645511037067714E-002
  0.10683885561409004       -1.0885289697290256E-002   5.2100500680093434E-002
  0.11037769322129640       -1.9173329075729439E-002   4.7298836415499874E-002
  0.11391653082850275       -2.4864118135317550E-002   4.4240518243287015E-002
  0.11745536843570913       -2.7957656876054594E-002   4.2925546163454877E-002
   9.0366215458131866E-002   0.0000000000000000        4.9818343956316402E-002
   9.3966377881941232E-002  -5.4022429291449162E-003   5.3190031205899532E-002
   9.7566540305750599E-002  -1.0668133107006001E-002   5.4941021996307918E-002
  0.10116670272955994       -1.5797670533583257E-002   5.5071316327541607E-002
  0.10476686515336929       -2.0790855208876687E-002   5.3580914199600566E-002
  0.13617536112900441       -4.9458061877588319E-002  -7.8211262550223204E-003
  0.13298759092739787       -4.2917075666368168E-002  -3.3888332678104344E-003
  0.12979982072579138       -3.8484858180124704E-002  -3.8033180998213109E-004
  0.12661205052418487       -3.6161409418857905E-002   1.2043781184628601E-003
  0.12342428032257832       -3.5946729382567821E-002   1.3652965175243448E-003
  0.13315961642352669       -4.2291260210410422E-002   1.2224525936143413E-002
  0.12893720248641977       -3.8420793384044402E-002   1.2172520466793308E-002
  0.12471478854931278       -3.5739944615683417E-002   1.1475019055825885E-002
  0.12049237461220585       -3.4248713905327487E-002   1.0132021703241005E-002
  0.11626996067509893       -3.3947101252976494E-002   8.1435284090386056E-003
  0.12691961885909492       -3.5124458543232505E-002   2.9140083408969165E-002
  0.12244085677425358       -3.3924511101720685E-002   2.5522930150028881E-002
  0.11796209468941223       -3.2995031051242185E-002   2.2038576537237176E-002
  0.11348333260457087       -3.2336018391797082E-002   1.8687022570594115E-002
  0.10900457051972950       -3.1947473123385250E-002   1.5468268250099643E-002
  0.11745536843570913       -2.7957656876054594E-002   4.2925546163454877E-002
  0.11349855379089938       -2.9428228819396929E-002   3.6662395781896021E-002
  0.10954173914608964       -3.0250117486800954E-002   3.1310340634251865E-002
  0.10558492450127993       -3.0423322878266646E-002   2.6869380720522310E-002
  0.10162810985647015       -2.9947844993793993E-002   2.3339516040707334E-002
  0.10476686515336929       -2.0790855208876687E-002   5.3580914199600566E-002
  0.10211029353635717       -2.4931946537073209E-002   4.5590917362394859E-002
   9.9453721919345067E-002  -2.7505203922359674E-002   3.9290311346869861E-002
   9.6797150302332949E-002  -2.8510627364736203E-002   3.4679096153025391E-002
   9.4140578685320830E-002  -2.7948216864202693E-002   3.1757271780861726E-002
  0.12342428032257832       -3.5946729382567821E-002   1.3652965175243448E-003
  0.12049736498665775       -3.6465953132229376E-002   5.9790860957982528E-004
  0.11757044965073722       -3.6344215728817700E-002   3.1440931719084464E-005
  0.11464353431481669       -3.5581517172332613E-002  -3.3410651605810665E-004
  0.11171661897889612       -3.4177857462774297E-002  -4.9873373375136643E-004
  0.11626996067509893       -3.3947101252976494E-002   8.1435284090386056E-003
  0.11352753721241680       -3.4036030657525529E-002   7.7733891849980780E-003
  0.11078511374973468       -3.3716426117869625E-002   7.5713134773506621E-003
  0.10804269028705261       -3.2988287634008587E-002   7.5373012860964657E-003
  0.10530026682437046       -3.1851615205942541E-002   7.6713526112352770E-003
  0.10900457051972950       -3.1947473123385250E-002   1.5468268250099643E-002
  0.10641378221659528       -3.1606108182821745E-002   1.5262950501094722E-002
  0.10382299391346113       -3.1088636506921542E-002   1.5192839554792344E-002
  0.10123220561032693       -3.0395058095684553E-002   1.5257935411192552E-002
   9.8641417307192725E-002  -2.9525372949110812E-002   1.5458238070295463E-002
  0.10162810985647015       -2.9947844993793993E-002   2.3339516040707334E-002
   9.9156099999193295E-002  -2.9176185708117957E-002   2.3066592557869733E-002
   9.6684090141916437E-002  -2.8460846895973422E-002   2.2896019164044171E-002
   9.4212080284639607E-002  -2.7801828557360523E-002   2.2827795859230685E-002
   9.1740070427362708E-002  -2.7199130692279125E-002   2.2861922643429237E-002
   9.4140578685320830E-002  -2.7948216864202693E-002   3.1757271780861726E-002
   9.1754490560210761E-002  -2.6746263233414141E-002   3.1184315355323108E-002
   8.9368402435100719E-002  -2.5833057285025381E-002   3.0680852305106122E-002
   8.6982314309990677E-002  -2.5208599019036500E-002   3.0246882630210591E-002
   8.4596226184880607E-002  -2.4872888435447382E-002   2.9882406330636574E-002
  0.11171661897889612       -3.4177857462774297E-002  -4.9873373375136643E-004
  0.10875861460324604       -3.2622086215523011E-002  -1.8266094847249614E-004
  0.10580061022759596       -3.1403053045958793E-002   6.2857707577329558E-005
  0.10284260585194591       -3.0520757954081986E-002   2.3782223439837435E-004
   9.9884601476295798E-002  -2.9975200939892366E-002   3.4223263199045784E-004
  0.10530026682437046       -3.1851615205942541E-002   7.6713526112352770E-003
  0.10232428491231993       -3.0611511857540699E-002   7.5282995360800714E-003
   9.9348303000269464E-002  -2.9573080612672040E-002   7.4198455173528771E-003
   9.6372321088218915E-002  -2.8736321471336684E-002   7.3459905550536109E-003
   9.3396339176168464E-002  -2.8101234433534517E-002   7.3067346491823004E-003
   9.8641417307192725E-002  -2.9525372949110812E-002   1.5458238070295463E-002
   9.5752611044398556E-002  -2.8600937499558457E-002   1.4991125108860415E-002
   9.2863804781604442E-002  -2.7743108179385183E-002   1.4663764389509844E-002
   8.9974998518810329E-002  -2.6951884988591329E-002   1.4476155912244316E-002
   8.7086192256016173E-002  -2.6227267927176556E-002   1.4428299677063577E-002
   9.1740070427362708E-002  -2.7199130692279125E-002   2.2861922643429237E-002
   8.9043592999481835E-002  -2.6590363141576125E-002   2.2205815769868031E-002
   8.6347115571600991E-002  -2.5913135746098433E-002   2.1794614324048528E-002
   8.3650638143720119E-002  -2.5167448505845930E-002   2.1628318305970541E-002
   8.0954160715839218E-002  -2.4353301420818763E-002   2.1706927715634330E-002
   8.4596226184880607E-002  -2.4872888435447382E-002   2.9882406330636574E-002
   8.2197230777569796E-002  -2.4579788783593834E-002   2.9172371519103360E-002
   7.9798235370259013E-002  -2.4083163312811622E-002   2.8812395320968534E-002
   7.7399239962948230E-002  -2.3383012023100558E-002   2.8802477736232408E-002
   7.5000244555637419E-002  -2.2479334914460886E-002   2.9142618764894684E-002
   9.9884601476295798E-002  -2.9975200939892366E-002   3.4223263199045784E-004
   9.6808868795513148E-002  -2.9515671636283047E-002  -5.8443893630905075E-004
   9.3733136114730525E-002  -2.8891459676146924E-002  -1.2651893403751169E-003
   9.0657403433947889E-002  -2.8102565059483997E-002  -1.7000185802074352E-003
   8.7581670753165253E-002  -2.7148987786294487E-002  -1.8889266558065332E-003
   9.3396339176168464E-002  -2.8101234433534517E-002   7.3067346491823004E-003
   9.0552557556837582E-002  -2.7514058847619649E-002   6.6794742862188727E-003
   8.7708775937506839E-002  -2.6821034061946747E-002   6.2701948819260805E-003
   8.4864994318176082E-002  -2.6022160076515324E-002   6.0788964363033687E-003
   8.2021212698845269E-002  -2.5117436891325617E-002   6.1055789493507651E-003
   8.7086192256016173E-002  -2.6227267927176556E-002   1.4428299677063577E-002
   8.4446421492574100E-002  -2.5512446058956667E-002   1.4041617062668071E-002
   8.1806650729132041E-002  -2.4750608447746569E-002   1.3844975201379672E-002
   7.9166879965689982E-002  -2.3941755093546707E-002   1.3838374093198699E-002
   7.6527109202247895E-002  -2.3085885996356637E-002   1.4021813738124500E-002
   8.0954160715839218E-002  -2.4353301420818763E-002   2.1706927715634330E-002
   7.8490460602722661E-002  -2.3510833270293394E-002   2.1501989393038268E-002
   7.6026760489606174E-002  -2.2680182833546447E-002   2.1459151617986227E-002
   7.3563060376489589E-002  -2.1861350110577896E-002   2.1578414390478064E-002
   7.1099360263373101E-002  -2.1054335101387822E-002   2.1859777710514033E-002
   7.5000244555637419E-002  -2.2479334914460886E-002   2.9142618764894684E-002
   7.2684674887283279E-002  -2.1509220481630217E-002   2.9060591277329656E-002
   7.0369105218929140E-002  -2.0609757219346263E-002   2.9112724131745552E-002
   6.8053535550575014E-002  -1.9780945127609306E-002   2.9299017328142128E-002
   6.5737965882220889E-002  -1.9022784206418897E-002   2.9619470866519559E-002
   8.7581670753165253E-002  -2.7148987786294487E-002  -1.8889266558065332E-003
   8.4453174716347057E-002  -2.6176842528535860E-002  -2.1290959539719267E-003
   8.1324678679528972E-002  -2.5332243958165801E-002  -2.2072108674171531E-003
   7.8196182642710860E-002  -2.4615192075183645E-002  -2.1232713961420180E-003
   7.5067686605892692E-002  -2.4025686879590169E-002  -1.8772775401465491E-003
   8.2021212698845269E-002  -2.5117436891325617E-002   6.1055789493507651E-003
   7.9058475472405465E-002  -2.4203750161331306E-002   5.8277342357970774E-003
   7.6095738245965661E-002  -2.3377985541485569E-002   5.7193527582801440E-003
   7.3133001019525801E-002  -2.2640143031788670E-002   5.7804345167986465E-003
   7.0170263793085996E-002  -2.1990222632240597E-002   6.0109795113539866E-003
   7.6527109202247895E-002  -2.3085885996356637E-002   1.4021813738124500E-002
   7.3737539637502236E-002  -2.2230657794126502E-002   1.3745918186422346E-002
   7.0947970072756647E-002  -2.1423727124805447E-002   1.3646894722072353E-002
   6.8158400508011086E-002  -2.0665093988393474E-002   1.3724743345074467E-002
   6.5368830943265427E-002  -1.9954758384890747E-002   1.3979464055428770E-002
   7.1099360263373101E-002  -2.1054335101387822E-002   2.1859777710514033E-002
   6.8490367211637565E-002  -2.0257565426921711E-002   2.1625455897902948E-002
   6.5881374159902056E-002  -1.9469468708125215E-002   2.1575415023959897E-002
   6.3272381108166478E-002  -1.8690044944998332E-002   2.1709655088685054E-002
   6.0663388056430997E-002  -1.7919294137541147E-002   2.2028176092078064E-002
   6.5737965882220889E-002  -1.9022784206418897E-002   2.9619470866519559E-002
   6.3316958194811312E-002  -1.8284473059717060E-002   2.9466347370239121E-002
   6.0895950507401778E-002  -1.7515210291445135E-002   2.9504913663942700E-002
   5.8474942819992264E-002  -1.6714995901603257E-002   2.9735169747630241E-002
   5.6053935132582666E-002  -1.5883829890191437E-002   3.0157115621301744E-002
   7.5067686605892692E-002  -2.4025686879590169E-002  -1.8772775401465491E-003
   7.2383963533778350E-002  -2.3449954342875501E-002  -2.7542523470884817E-003
   6.9700240461663898E-002  -2.2774220436529824E-002  -3.6311520132402131E-003
   6.7016517389549501E-002  -2.1998485160552764E-002  -4.5079765386009663E-003
   6.4332794317435105E-002  -2.1122748514944889E-002  -5.3847259231718514E-003
   7.0170263793085996E-002  -2.1990222632240597E-002   6.0109795113539866E-003
   6.7513705571949745E-002  -2.1342270846678502E-002   5.3490775034892857E-003
   6.4857147350813465E-002  -2.0610334178940426E-002   4.7414300567905909E-003
   6.2200589129677228E-002  -1.9794412629025621E-002   4.1880371712581937E-003
   5.9544030908540935E-002  -1.8894506196934890E-002   3.6888988468910533E-003
   6.5368830943265427E-002  -1.9954758384890747E-002   1.3979464055428770E-002
   6.2793616993482723E-002  -1.9234587350482030E-002   1.3516618359187188E-002
   6.0218403043699992E-002  -1.8446447921351444E-002   1.3162206644486751E-002
   5.7643189093917302E-002  -1.7590340097498915E-002   1.2916228911327494E-002
   5.5067975144134557E-002  -1.6666263878924836E-002   1.2778685159709841E-002
   6.0663388056430997E-002  -1.7919294137541147E-002   2.2028176092078064E-002
   5.8223697798377202E-002  -1.7126903854285072E-002   2.1748370220004629E-002
   5.5784007540323359E-002  -1.6282561663762254E-002   2.1631177749847831E-002
   5.3344317282269516E-002  -1.5386267565972101E-002   2.1676598681607772E-002
   5.0904627024215714E-002  -1.4438021560914921E-002   2.1884633015284143E-002
   5.6053935132582666E-002  -1.5883829890191437E-002   3.0157115621301744E-002
   5.3803947986633127E-002  -1.5019220358088337E-002   3.0044333085941677E-002
   5.1553960840683616E-002  -1.4118675406172995E-002   3.0148343372873948E-002
   4.9303973694734063E-002  -1.3182195034445215E-002   3.0469146482097934E-002
   4.7053986548784621E-002  -1.2209779242905061E-002   3.1006742413614508E-002
   6.4332794317435105E-002  -2.1122748514944889E-002  -5.3847259231718514E-003
   6.3409478365721306E-002  -2.1851377004899808E-002  -3.8046891807642647E-003
   6.2486162414007562E-002  -2.5888737135611045E-002  -4.0029853457183573E-003
   6.1562846462293680E-002  -3.3234828907079995E-002  -5.9796144180345734E-003
   6.0639530510580020E-002  -4.3889652319304862E-002  -9.7345763977130240E-003
   5.9544030908540935E-002  -1.8894506196934890E-002   3.6888988468910533E-003
   5.7144044081515466E-002  -1.9034929356896213E-002   3.1466174123176427E-003
   5.4744057254489942E-002  -2.1339996583138454E-002   1.4293271344827940E-003
   5.2344070427464334E-002  -2.5809707875661947E-002  -1.4629719866134649E-003
   4.9944083600439004E-002  -3.2444063234466469E-002  -5.5302799509715506E-003
   5.5067975144134557E-002  -1.6666263878924836E-002   1.2778685159709841E-002
   5.1794641505897632E-002  -1.6218481708892507E-002   1.1258173122631054E-002
   4.8521307867660776E-002  -1.6791256030665627E-002   9.1659763063911409E-003
   4.5247974229423775E-002  -1.8384586844244228E-002   6.5020947109903429E-003
   4.1974640591186940E-002  -2.0998474149628077E-002   3.2665283364279318E-003
   5.0904627024215714E-002  -1.4438021560914921E-002   2.1884633015284143E-002
   4.7361270638867914E-002  -1.3402034060889079E-002   2.0529977950175804E-002
   4.3817914253520066E-002  -1.2242515478192918E-002   1.9206962170006520E-002
   4.0274557868172328E-002  -1.0959465812826233E-002   1.7915585674776760E-002
   3.6731201482824521E-002  -9.5528850647894625E-003   1.6655848464486589E-002
   4.7053986548784621E-002  -1.2209779242905061E-002   3.1006742413614508E-002
   4.3843931480426257E-002  -1.0585586412885373E-002   3.0962031894951947E-002
   4.0633876412067893E-002  -7.6937749257201954E-003   3.1552284725329366E-002
   3.7423821343709515E-002  -3.5343447814086236E-003   3.2777500904746168E-002
   3.4213766275351221E-002   1.8927040200489298E-003   3.4637680433203144E-002
   9.0366215458131866E-002   0.0000000000000000        4.9818343956316402E-002
   9.3966377881941232E-002  -5.4022429291449162E-003   5.3190031205899532E-002
   9.7566540305750599E-002  -1.0668133107006001E-002   5.4941021996307918E-002
  0.10116670272955994       -1.5797670533583257E-002   5.5071316327541607E-002
  0.10476686515336929       -2.0790855208876687E-002   5.3580914199600566E-002
   8.2426637072430503E-002   0.0000000000000000        4.4769812662453751E-002
   8.4635331410217368E-002  -4.5715207917604089E-003   4.8250558130842322E-002
   8.6844025748004233E-002  -9.0327966011646815E-003   5.0569063886360593E-002
   8.9052720085791112E-002  -1.3383827428212825E-002   5.1725329929008648E-002
   9.1261414423577963E-002  -1.7624613272904831E-002   5.1719356258786410E-002
   7.4243589665562396E-002   0.0000000000000000        4.0565057390439453E-002
   7.5519272663631218E-002  -3.7407986543759012E-003   4.4128753308705776E-002
   7.6794955661700026E-002  -7.3974600953233653E-003   4.6988666260406264E-002
   7.8070638659768848E-002  -1.0969984322842392E-002   4.9144796245540946E-002
   7.9346321657837657E-002  -1.4458371336932984E-002   5.0597143264109828E-002
   6.5817073237527501E-002   0.0000000000000000        3.7204078140273510E-002
   6.6618201642182739E-002  -2.9100765169913943E-003   4.0824616739489880E-002
   6.7419330046837964E-002  -5.7621235894820492E-003   4.4199829118444882E-002
   6.8220458451493174E-002  -8.5561412174719638E-003   4.7329715277138515E-002
   6.9021586856148426E-002  -1.1292129400961137E-002   5.0214275215570793E-002
   5.7147087788325876E-002   0.0000000000000000        3.4686874911955927E-002
   5.7932118345871961E-002  -2.0793543796068870E-003   3.8338148423194648E-002
   5.8717148903418045E-002  -4.1267870836407296E-003   4.2202552460476453E-002
   5.9502179460964123E-002  -6.1422981121015269E-003   4.6280087023801361E-002
   6.0287210018510215E-002  -8.1258874649892867E-003   5.0570752113169325E-002
  0.10476686515336929       -2.0790855208876687E-002   5.3580914199600566E-002
  0.10211029353635717       -2.4931946537073209E-002   4.5590917362394859E-002
   9.9453721919345067E-002  -2.7505203922359674E-002   3.9290311346869861E-002
   9.6797150302332949E-002  -2.8510627364736203E-002   3.4679096153025391E-002
   9.4140578685320830E-002  -2.7948216864202693E-002   3.1757271780861726E-002
   9.1261414423577963E-002  -1.7624613272904831E-002   5.1719356258786410E-002
   9.0056382870885673E-002  -2.1198352124252383E-002   4.6477708101892376E-002
   8.8851351318193425E-002  -2.3548241971267109E-002   4.2449749251957422E-002
   8.7646319765501163E-002  -2.4674282813949070E-002   3.9635479708981514E-002
   8.6441288212808887E-002  -2.4576474652298216E-002   3.8034899472964734E-002
   7.9346321657837657E-002  -1.4458371336932984E-002   5.0597143264109828E-002
   7.9117128654743671E-002  -1.7464757711431574E-002   4.7759858848950232E-002
   7.8887935651649671E-002  -1.9591280020174549E-002   4.5660562226028149E-002
   7.8658742648555671E-002  -2.0837938263161954E-002   4.4299253395343553E-002
   7.8429549645461685E-002  -2.1204732440393746E-002   4.3675932356896430E-002
   6.9021586856148426E-002  -1.1292129400961137E-002   5.0214275215570793E-002
   6.9292530887931109E-002  -1.3731163298610750E-002   4.9437369603568454E-002
   6.9563474919713805E-002  -1.5634318069081977E-002   4.8922750269082008E-002
   6.9834418951496516E-002  -1.7001593712374814E-002   4.8670417212111544E-002
   7.0105362983279240E-002  -1.7832990228489273E-002   4.8680370432656932E-002
   6.0287210018510215E-002  -8.1258874649892867E-003   5.0570752113169325E-002
   6.0582589570448028E-002  -9.9975688857899467E-003   5.1510240365747056E-002
   6.0877969122385855E-002  -1.1677356117989411E-002   5.2236313381119066E-002
   6.1173348674323676E-002  -1.3165249161587695E-002   5.2748971159285445E-002
   6.1468728226261503E-002  -1.4461248016584785E-002   5.3048213700246191E-002
   9.4140578685320830E-002  -2.7948216864202693E-002   3.1757271780861726E-002
   9.1754490560210761E-002  -2.6746263233414141E-002   3.1184315355323108E-002
   8.9368402435100719E-002  -2.5833057285025381E-002   3.0680852305106122E-002
   8.6982314309990677E-002  -2.5208599019036500E-002   3.0246882630210591E-002
   8.4596226184880607E-002  -2.4872888435447382E-002   2.9882406330636574E-002
   8.6441288212808887E-002  -2.4576474652298216E-002   3.8034899472964734E-002
   8.4172295800175934E-002  -2.3925307636915895E-002   3.6994157800111692E-002
   8.1903303387543050E-002  -2.3391271918403417E-002   3.6118114176891335E-002
   7.9634310974910152E-002  -2.2974367496760750E-002   3.5406768603303780E-002
   7.7365318562277227E-002  -2.2674594371987933E-002   3.4860121079348952E-002
   7.8429549645461685E-002  -2.1204732440393746E-002   4.3675932356896430E-002
   7.6372857619617124E-002  -2.1104352040417676E-002   4.2339021822258932E-002
   7.4316165593772535E-002  -2.0949486551781457E-002   4.1262014011565346E-002
   7.2259473567927945E-002  -2.0740135974485072E-002   4.0444908924815760E-002
   7.0202781542083398E-002  -2.0476300308528539E-002   3.9887706562010135E-002
   7.0105362983279240E-002  -1.7832990228489273E-002   4.8680370432656932E-002
   6.8356176018534220E-002  -1.8283396443919464E-002   4.7218907421764919E-002
   6.6606989053789228E-002  -1.8507701185159500E-002   4.6112551809128065E-002
   6.4857802089044236E-002  -1.8505904452209395E-002   4.5361303594746355E-002
   6.3108615124299217E-002  -1.8278006245069131E-002   4.4965162778619866E-002
   6.1468728226261503E-002  -1.4461248016584785E-002   5.3048213700246191E-002
   6.0122250996927286E-002  -1.5462440847421214E-002   5.1633814598629618E-002
   5.8775773767593076E-002  -1.6065915818537519E-002   5.0669727569579472E-002
   5.7429296538258859E-002  -1.6271672929933641E-002   5.0155952613095786E-002
   5.6082819308924670E-002  -1.6079712181609696E-002   5.0092489729178485E-002
   8.4596226184880607E-002  -2.4872888435447382E-002   2.9882406330636574E-002
   8.2197230777569796E-002  -2.4579788783593834E-002   2.9172371519103360E-002
   7.9798235370259013E-002  -2.4083163312811622E-002   2.8812395320968534E-002
   7.7399239962948230E-002  -2.3383012023100558E-002   2.8802477736232408E-002
   7.5000244555637419E-002  -2.2479334914460886E-002   2.9142618764894684E-002
   7.7365318562277227E-002  -2.2674594371987933E-002   3.4860121079348952E-002
   7.5285967558805275E-002  -2.2369192739738475E-002   3.4353999726041737E-002
   7.3206616555333393E-002  -2.1935402795665686E-002   3.4137108567013706E-002
   7.1127265551861468E-002  -2.1373224539769767E-002   3.4209447602264950E-002
   6.9047914548389558E-002  -2.0682657972050517E-002   3.4571016831795379E-002
   7.0202781542083398E-002  -2.0476300308528539E-002   3.9887706562010135E-002
   6.8382246523331164E-002  -2.0158596695883040E-002   3.9510361159823294E-002
   6.6561711504578888E-002  -1.9787642278519809E-002   3.9361417532796511E-002
   6.4741176485826654E-002  -1.9363437056438795E-002   3.9440875680929764E-002
   6.2920641467074379E-002  -1.8885981029640078E-002   3.9748735604223186E-002
   6.3108615124299217E-002  -1.8278006245069131E-002   4.4965162778619866E-002
   6.1486067671147365E-002  -1.7948000652027670E-002   4.4641455820448109E-002
   5.9863520217995521E-002  -1.7639881761373918E-002   4.4485322218317067E-002
   5.8240972764843676E-002  -1.7353649573107956E-002   4.4496761972226920E-002
   5.6618425311691839E-002  -1.7089304087229661E-002   4.4675775082177502E-002
   5.6082819308924670E-002  -1.6079712181609696E-002   5.0092489729178485E-002
   5.4597431002253977E-002  -1.5737404608172273E-002   4.9747283707916201E-002
   5.3112042695583311E-002  -1.5492121244228017E-002   4.9508822623575491E-002
   5.1626654388912646E-002  -1.5343862089776996E-002   4.9377106476156250E-002
   5.0141266082241953E-002  -1.5292627144819243E-002   4.9352135265658709E-002
   7.5000244555637419E-002  -2.2479334914460886E-002   2.9142618764894684E-002
   7.2684674887283279E-002  -2.1509220481630217E-002   2.9060591277329656E-002
   7.0369105218929140E-002  -2.0609757219346263E-002   2.9112724131745552E-002
   6.8053535550575014E-002  -1.9780945127609306E-002   2.9299017328142128E-002
   6.5737965882220889E-002  -1.9022784206418897E-002   2.9619470866519559E-002
   6.9047914548389558E-002  -2.0682657972050517E-002   3.4571016831795379E-002
   6.6881458267711372E-002  -1.9940043716661374E-002   3.4281527262343098E-002
   6.4715001987033172E-002  -1.9221722397755374E-002   3.4156104126261931E-002
   6.2548545706354930E-002  -1.8527694015332857E-002   3.4194747423551747E-002
   6.0382089425676744E-002  -1.7857958569393428E-002   3.4397457154212580E-002
   6.2920641467074379E-002  -1.8885981029640078E-002   3.9748735604223186E-002
   6.0933204665462301E-002  -1.8370866951692370E-002   3.9298142186947140E-002
   5.8945767863850224E-002  -1.7833687576164461E-002   3.9041521294432252E-002
   5.6958331062238146E-002  -1.7274442903056297E-002   3.8978872926678704E-002
   5.4970894260626048E-002  -1.6693132932368016E-002   3.9110197083686238E-002
   5.6618425311691839E-002  -1.7089304087229661E-002   4.4675775082177502E-002
   5.4839914080536123E-002  -1.6801690186723405E-002   4.4110436051141094E-002
   5.3061402849380407E-002  -1.6445652754573534E-002   4.3768975636256244E-002
   5.1282891618224691E-002  -1.6021191790779821E-002   4.3651393837522742E-002
   4.9504380387068982E-002  -1.5528307295342603E-002   4.3757690654940715E-002
   5.0141266082241953E-002  -1.5292627144819243E-002   4.9352135265658709E-002
   4.8601586512932810E-002  -1.5232513421754482E-002   4.8718408854925538E-002
   4.7061906943623666E-002  -1.5057617932982638E-002   4.8338467151733969E-002
   4.5522227374314508E-002  -1.4767940678503339E-002   4.8212310156084147E-002
   4.3982547805005351E-002  -1.4363481658317134E-002   4.8339937867976024E-002
   6.5737965882220889E-002  -1.9022784206418897E-002   2.9619470866519559E-002
   6.3316958194811312E-002  -1.8284473059717060E-002   2.9466347370239121E-002
   6.0895950507401778E-002  -1.7515210291445135E-002   2.9504913663942700E-002
   5.8474942819992264E-002  -1.6714995901603257E-002   2.9735169747630241E-002
   5.6053935132582666E-002  -1.5883829890191437E-002   3.0157115621301744E-002
   6.0382089425676744E-002  -1.7857958569393428E-002   3.4397457154212580E-002
   5.8151846292003789E-002  -1.7194819589850002E-002   3.4209115525809242E-002
   5.5921603158330752E-002  -1.6520580606614738E-002   3.4210613214895144E-002
   5.3691360024657769E-002  -1.5835241619687877E-002   3.4401950221470322E-002
   5.1461116890984759E-002  -1.5138802629069248E-002   3.4783126545534560E-002
   5.4970894260626048E-002  -1.6693132932368016E-002   3.9110197083686238E-002
   5.2929565208195001E-002  -1.6105166119982986E-002   3.8866785705281709E-002
   5.0888236155763947E-002  -1.5525950921784458E-002   3.8811363171871636E-002
   4.8846907103332886E-002  -1.4955487337772499E-002   3.8943929483456180E-002
   4.6805578050901797E-002  -1.4393775367947226E-002   3.9264484640035277E-002
   4.9504380387068982E-002  -1.5528307295342603E-002   4.3757690654940715E-002
   4.7650114943385127E-002  -1.5015512650115921E-002   4.3439357908656696E-002
   4.5795849499701266E-002  -1.4531321236954064E-002   4.3307163534872364E-002
   4.3941584056017433E-002  -1.4075733055857052E-002   4.3361107533588072E-002
   4.2087318612333557E-002  -1.3648748106825037E-002   4.3601189904803689E-002
   4.3982547805005351E-002  -1.4363481658317134E-002   4.8339937867976024E-002
   4.2313495497574072E-002  -1.3925859180248967E-002   4.7926832135933961E-002
   4.0644443190142793E-002  -1.3536691552123795E-002   4.7698014303897307E-002
   3.8975390882711521E-002  -1.3195978773941772E-002   4.7653484371865659E-002
   3.7306338575280235E-002  -1.2903720845703015E-002   4.7793242339839337E-002
   5.6053935132582666E-002  -1.5883829890191437E-002   3.0157115621301744E-002
   5.3803947986633127E-002  -1.5019220358088337E-002   3.0044333085941677E-002
   5.1553960840683616E-002  -1.4118675406172995E-002   3.0148343372873948E-002
   4.9303973694734063E-002  -1.3182195034445215E-002   3.0469146482097934E-002
   4.7053986548784621E-002  -1.2209779242905061E-002   3.1006742413614508E-002
   5.1461116890984759E-002  -1.5138802629069248E-002   3.4783126545534560E-002
   4.9415346456688394E-002  -1.4433362710997238E-002   3.4616465936564561E-002
   4.7369576022391946E-002  -1.3721020941710016E-002   3.4641445928608572E-002
   4.5323805588095567E-002  -1.3001777321207747E-002   3.4858066521666980E-002
   4.3278035153799160E-002  -1.2275631849490043E-002   3.5266327715739398E-002
   4.6805578050901797E-002  -1.4393775367947226E-002   3.9264484640035277E-002
   4.4938872106980721E-002  -1.3847505063906140E-002   3.9014912388857709E-002
   4.3072166163059582E-002  -1.3323366477247155E-002   3.8931828517416507E-002
   4.1205460219138484E-002  -1.2821359607970114E-002   3.9015233025711804E-002
   3.9338754275217297E-002  -1.2341484456075219E-002   3.9265125913743523E-002
   4.2087318612333557E-002  -1.3648748106825037E-002   4.3601189904803689E-002
   4.0374524937510002E-002  -1.3261647416814931E-002   4.3239672442821273E-002
   3.8661731262686433E-002  -1.2925712012784234E-002   4.3019491139297504E-002
   3.6948937587862864E-002  -1.2640941894732787E-002   4.2940645994232765E-002
   3.5236143913039308E-002  -1.2407337062660354E-002   4.3003137007626160E-002
   3.7306338575280235E-002  -1.2903720845703015E-002   4.7793242339839337E-002
   3.5722304948276412E-002  -1.2675789769723972E-002   4.7290746098455239E-002
   3.4138271321272576E-002  -1.2528057548321300E-002   4.6904433794251854E-002
   3.2554237694268733E-002  -1.2460524181495177E-002   4.6634305427229558E-002
   3.0970204067264917E-002  -1.2473189669245432E-002   4.6480360997387893E-002
   4.7053986548784621E-002  -1.2209779242905061E-002   3.1006742413614508E-002
   4.3843931480426257E-002  -1.0585586412885373E-002   3.0962031894951947E-002
   4.0633876412067893E-002  -7.6937749257201954E-003   3.1552284725329366E-002
   3.7423821343709515E-002  -3.5343447814086236E-003   3.2777500904746168E-002
   3.4213766275351221E-002   1.8927040200489298E-003   3.4637680433203144E-002
   4.3278035153799160E-002  -1.2275631849490043E-002   3.5266327715739398E-002
   4.0628578630265311E-002  -1.1270482108354185E-002   3.5893285581649281E-002
   3.7979122106731461E-002  -9.7142256795973297E-003   3.7006477188168518E-002
   3.5329665583197625E-002  -7.6068625632193763E-003   3.8605902535297026E-002
   3.2680209059663790E-002  -4.9483927592202104E-003   4.0691561623034445E-002
   3.9338754275217297E-002  -1.2341484456075219E-002   3.9265125913743523E-002
   3.7101166688077600E-002  -1.1955377803823136E-002   3.9847240194700415E-002
   3.4863579100937896E-002  -1.1734676433474804E-002   4.0766858607836499E-002
   3.2625991513798150E-002  -1.1679380345030214E-002   4.2023981153151299E-002
   3.0388403926658453E-002  -1.1789489538489351E-002   4.3618607830645306E-002
   3.5236143913039308E-002  -1.2407337062660354E-002   4.3003137007626160E-002
   3.3261695653863298E-002  -1.2640273499292018E-002   4.2823895734105638E-002
   3.1287247394687301E-002  -1.3755127187352108E-002   4.2833428984333510E-002
   2.9312799135511287E-002  -1.5751898126840955E-002   4.3031736758309964E-002
   2.7338350876335245E-002  -1.8630586317758435E-002   4.3418819056035007E-002
   3.0970204067264917E-002  -1.2473189669245432E-002   4.6480360997387893E-002
   2.9110165527622245E-002  -1.3325169194760678E-002   4.4823252199864549E-002
   2.7250126987979642E-002  -1.5775577941229427E-002   4.3206188317659461E-002
   2.5390088448336977E-002  -1.9824415908651864E-002   4.1629169350772696E-002
   2.3530049908694339E-002  -2.5471683097027631E-002   4.0092195299203937E-002
   5.7147087788325876E-002   0.0000000000000000        3.4686874911955927E-002
   5.7932118345871961E-002  -2.0793543796068870E-003   3.8338148423194648E-002
   5.8717148903418045E-002  -4.1267870836407296E-003   4.2202552460476453E-002
   5.9502179460964123E-002  -6.1422981121015269E-003   4.6280087023801361E-002
   6.0287210018510215E-002  -8.1258874649892867E-003   5.0570752113169325E-002
   4.8645648512487691E-002   0.0000000000000000        3.2790233718452071E-002
   4.9578894427480015E-002  -1.7046664290842634E-003   3.6966415007304181E-002
   5.0512140342472325E-002  -3.4227313771084417E-003   4.1225896485005666E-002
   5.1445386257464636E-002  -5.1541948440725315E-003   4.5568678151556553E-002
   5.2378632172456960E-002  -6.8990568299765499E-003   4.9994760006956816E-002
   4.0724770604543180E-002   0.0000000000000000        3.1290940572727313E-002
   4.1676401539788029E-002  -1.3299784785616377E-003   3.5946709444679863E-002
   4.2628032475032877E-002  -2.7186756705761522E-003   4.0555948168288079E-002
   4.3579663410277733E-002  -4.1660915760435360E-003   4.5118656743551977E-002
   4.4531294345522568E-002  -5.6722261949638001E-003   4.9634835170471583E-002
   3.3384454064492350E-002   0.0000000000000000        3.0188995474781669E-002
   3.4224639682796022E-002  -9.5529052803901304E-004   3.5279031735321681E-002
   3.5064825301099709E-002  -2.0146199640438617E-003   4.0192707510323659E-002
   3.5905010919403388E-002  -3.1779883080145389E-003   4.4930022799787653E-002
   3.6745196537707067E-002  -4.4453955599510608E-003   4.9490977603713585E-002
   2.6624698892335187E-002   0.0000000000000000        2.9484398424615123E-002
   2.7223608856503996E-002  -5.8060257751638839E-004   3.4963381879229649E-002
   2.7822518820672805E-002  -1.3105642575115730E-003   4.0136174511112441E-002
   2.8421428784841617E-002  -2.1898850399855417E-003   4.5002776320263518E-002
   2.9020338749010426E-002  -3.2185649249383119E-003   4.9563187306682875E-002
   6.0287210018510215E-002  -8.1258874649892867E-003   5.0570752113169325E-002
   6.0582589570448028E-002  -9.9975688857899467E-003   5.1510240365747056E-002
   6.0877969122385855E-002  -1.1677356117989411E-002   5.2236313381119066E-002
   6.1173348674323676E-002  -1.3165249161587695E-002   5.2748971159285445E-002
   6.1468728226261503E-002  -1.4461248016584785E-002   5.3048213700246191E-002
   5.2378632172456960E-002  -6.8990568299765499E-003   4.9994760006956816E-002
   5.2499767630973276E-002  -8.5570838918700310E-003   5.1224140700218634E-002
   5.2620903089489607E-002  -1.0028042586802528E-002   5.2318448443843146E-002
   5.2742038548005937E-002  -1.1311932914774052E-002   5.3277683237830324E-002
   5.2863174006522254E-002  -1.2408754875784578E-002   5.4101845082180133E-002
   4.4531294345522568E-002  -5.6722261949638001E-003   4.9634835170471583E-002
   4.4556527998185734E-002  -7.1165988979501153E-003   5.1149282482777302E-002
   4.4581761650848900E-002  -8.3787290556156455E-003   5.2606999133014080E-002
   4.4606995303512073E-002  -9.4586166679603931E-003   5.4007985121181830E-002
   4.4632228956175232E-002  -1.0356261734984364E-002   5.5352240447280612E-002
   3.6745196537707067E-002  -4.4453955599510608E-003   4.9490977603713585E-002
   3.6752870672085408E-002  -5.6761139040301910E-003   5.1285665713423037E-002
   3.6760544806463749E-002  -6.7294155244287650E-003   5.3101965448631890E-002
   3.6768218940842097E-002  -7.6053004211467318E-003   5.4939876809340038E-002
   3.6775893075220438E-002  -8.3037685941841598E-003   5.6799399795547559E-002
   2.9020338749010426E-002  -3.2185649249383119E-003   4.9563187306682875E-002
   2.9088795652672285E-002  -4.2356289101102874E-003   5.1633290392155889E-002
   2.9157252556334147E-002  -5.0801019932419002E-003   5.3803347390696546E-002
   2.9225709459995999E-002  -5.7519841743330991E-003   5.6073358302304921E-002
   2.9294166363657857E-002  -6.2512754533839351E-003   5.8443323126980910E-002
   6.1468728226261503E-002  -1.4461248016584785E-002   5.3048213700246191E-002
   6.0122250996927286E-002  -1.5462440847421214E-002   5.1633814598629618E-002
   5.8775773767593076E-002  -1.6065915818537519E-002   5.0669727569579472E-002
   5.7429296538258859E-002  -1.6271672929933641E-002   5.0155952613095786E-002
   5.6082819308924670E-002  -1.6079712181609696E-002   5.0092489729178485E-002
   5.2863174006522254E-002  -1.2408754875784578E-002   5.4101845082180133E-002
   5.1917027895356266E-002  -1.3256051955263099E-002   5.3366923823469276E-002
   5.0970881784190313E-002  -1.3791367638638662E-002   5.2982352728528415E-002
   5.0024735673024345E-002  -1.4014701925911121E-002   5.2948131797357675E-002
   4.9078589561858357E-002  -1.3926054817080619E-002   5.3264261029957044E-002
   4.4632228956175232E-002  -1.0356261734984364E-002   5.5352240447280612E-002
   4.3986452054381175E-002  -1.1049663063104996E-002   5.5211060567858218E-002
   4.3340675152587119E-002  -1.1516819458739733E-002   5.5320268943409620E-002
   4.2694898250793055E-002  -1.1757730921888586E-002   5.5679865573934749E-002
   4.2049121348999005E-002  -1.1772397452551542E-002   5.6289850459433612E-002
   3.6775893075220438E-002  -8.3037685941841598E-003   5.6799399795547559E-002
   3.6330523474001959E-002  -8.8432741709468868E-003   5.7166224831796557E-002
   3.5885153872783494E-002  -9.2422712788408183E-003   5.7683476214223012E-002
   3.5439784271565029E-002  -9.5007599178660480E-003   5.8351153942826868E-002
   3.4994414670346551E-002  -9.6187400880224649E-003   5.9169258017608174E-002
   2.9294166363657857E-002  -6.2512754533839351E-003   5.8443323126980910E-002
   2.8949242154218652E-002  -6.6368852787887719E-003   5.9232416615284222E-002
   2.8604317944779443E-002  -6.9677230989419279E-003   6.0071974540968603E-002
   2.8259393735340241E-002  -7.2437889138434481E-003   6.0961996904034067E-002
   2.7914469525901028E-002  -7.4650827234933742E-003   6.1902483704480607E-002
   5.6082819308924670E-002  -1.6079712181609696E-002   5.0092489729178485E-002
   5.4597431002253977E-002  -1.5737404608172273E-002   4.9747283707916201E-002
   5.3112042695583311E-002  -1.5492121244228017E-002   4.9508822623575491E-002
   5.1626654388912646E-002  -1.5343862089776996E-002   4.9377106476156250E-002
   5.0141266082241953E-002  -1.5292627144819243E-002   4.9352135265658709E-002
   4.9078589561858357E-002  -1.3926054817080619E-002   5.3264261029957044E-002
   4.7720915166302239E-002  -1.3698294633402400E-002   5.2849395789144243E-002
   4.6363240770746092E-002  -1.3504289696131766E-002   5.2583213433639100E-002
   4.5005566375189959E-002  -1.3344040005268738E-002   5.2465713963441428E-002
   4.3647891979633840E-002  -1.3217545560813337E-002   5.2496897378551191E-002
   4.2049121348999005E-002  -1.1772397452551542E-002   5.6289850459433612E-002
   4.0861098812943392E-002  -1.1659184658632568E-002   5.5868594962155974E-002
   3.9673076276887778E-002  -1.1516458148035518E-002   5.5637960298571806E-002
   3.8485053740832185E-002  -1.1344217920760510E-002   5.5597946468681207E-002
   3.7297031204776565E-002  -1.1142463976807446E-002   5.5748553472484162E-002
   3.4994414670346551E-002  -9.6187400880224649E-003   5.9169258017608174E-002
   3.4017981942177450E-002  -9.6200746838626741E-003   5.8804881226951232E-002
   3.3041549214008363E-002  -9.5286265999393101E-003   5.8673063218373823E-002
   3.2065116485839262E-002  -9.3443958362522100E-003   5.8773803991875984E-002
   3.1088683757670155E-002  -9.0673823928015748E-003   5.9107103547457608E-002
   2.7914469525901028E-002  -7.4650827234933742E-003   6.1902483704480607E-002
   2.7191564554004427E-002  -7.5809647090928495E-003   6.1658254583530067E-002
   2.6468659582107840E-002  -7.5407950518430432E-003   6.1688522193045013E-002
   2.5745754610211242E-002  -7.3445737517439857E-003   6.1993286533025466E-002
   2.5022849638314651E-002  -6.9923008087956484E-003   6.2572547603471446E-002
   5.0141266082241953E-002  -1.5292627144819243E-002   4.9352135265658709E-002
   4.8601586512932810E-002  -1.5232513421754482E-002   4.8718408854925538E-002
   4.7061906943623666E-002  -1.5057617932982638E-002   4.8338467151733969E-002
   4.5522227374314508E-002  -1.4767940678503339E-002   4.8212310156084147E-002
   4.3982547805005351E-002  -1.4363481658317134E-002   4.8339937867976024E-002
   4.3647891979633840E-002  -1.3217545560813337E-002   5.2496897378551191E-002
   4.2348203004900636E-002  -1.3068812471572933E-002   5.2088397333445641E-002
   4.1048514030167474E-002  -1.2841846846355073E-002   5.1906093769950111E-002
   3.9748825055434298E-002  -1.2536648685159617E-002   5.1949986688065067E-002
   3.8449136080701093E-002  -1.2153217987986631E-002   5.2220076087790113E-002
   3.7297031204776565E-002  -1.1142463976807446E-002   5.5748553472484162E-002
   3.6209744598687942E-002  -1.0905111521391460E-002   5.5528730563276368E-002
   3.5122457992599304E-002  -1.0626075759727561E-002   5.5507515909747479E-002
   3.4035171386510667E-002  -1.0305356691815728E-002   5.5684909511897300E-002
   3.2947884780422064E-002  -9.9429543176560720E-003   5.6060911369726116E-002
   3.1088683757670155E-002  -9.0673823928015748E-003   5.9107103547457608E-002
   3.0186211294294669E-002  -8.7414105712099351E-003   5.9039408544417984E-002
   2.9283738830919181E-002  -8.4103046730999945E-003   5.9142733571125955E-002
   2.8381266367543685E-002  -8.0740646984718122E-003   5.9417078627581187E-002
   2.7478793904168186E-002  -7.7326906473254853E-003   5.9862443713783881E-002
   2.5022849638314651E-002  -6.9923008087956484E-003   6.2572547603471446E-002
   2.4277603091720869E-002  -6.5777096210284242E-003   6.2620431276870420E-002
   2.3532356545127087E-002  -6.1945335864724976E-003   6.2811746754085573E-002
   2.2787109998533304E-002  -5.8427727051280250E-003   6.3146494035116574E-002
   2.2041863451939522E-002  -5.5224269769949541E-003   6.3624673119963671E-002
   4.3982547805005351E-002  -1.4363481658317134E-002   4.8339937867976024E-002
   4.2313495497574072E-002  -1.3925859180248967E-002   4.7926832135933961E-002
   4.0644443190142793E-002  -1.3536691552123795E-002   4.7698014303897307E-002
   3.8975390882711521E-002  -1.3195978773941772E-002   4.7653484371865659E-002
   3.7306338575280235E-002  -1.2903720845703015E-002   4.7793242339839337E-002
   3.8449136080701093E-002  -1.2153217987986631E-002   5.2220076087790113E-002
   3.6966250733064532E-002  -1.1743502258078284E-002   5.1803951179337823E-002
   3.5483365385427991E-002  -1.1359448998676899E-002   5.1575872290469699E-002
   3.4000480037791436E-002  -1.1001058209782279E-002   5.1535839421185808E-002
   3.2517594690154861E-002  -1.0668329891394879E-002   5.1683852571486083E-002
   3.2947884780422064E-002  -9.9429543176560720E-003   5.6060911369726116E-002
   3.1654924512159205E-002  -9.5611453359077669E-003   5.5664559664299659E-002
   3.0361964243896391E-002  -9.1822064452300525E-003   5.5460012098036533E-002
   2.9069003975633605E-002  -8.8061376456230623E-003   5.5447268670936536E-002
   2.7776043707370753E-002  -8.4329389370867425E-003   5.5626329382999842E-002
   2.7478793904168186E-002  -7.7326906473254853E-003   5.9862443713783881E-002
   2.6379516834858088E-002  -7.3787884137371945E-003   5.9508657590819636E-002
   2.5280239765548003E-002  -7.0049638917831537E-003   5.9350433726597637E-002
   2.4180962696237925E-002  -6.6112170814637628E-003   5.9387772121117864E-002
   2.3081685626927820E-002  -6.1975479827786062E-003   5.9620672774380323E-002
   2.2041863451939522E-002  -5.5224269769949541E-003   6.3624673119963671E-002
   2.1140027701161176E-002  -5.1964314915665943E-003   6.3336244958897892E-002
   2.0238191950382831E-002  -4.8277213383363521E-003   6.3247137176153240E-002
   1.9336356199604492E-002  -4.4162965173044182E-003   6.3357349771729951E-002
   1.8434520448826139E-002  -3.9621570284705254E-003   6.3666882745627762E-002
   3.7306338575280235E-002  -1.2903720845703015E-002   4.7793242339839337E-002
   3.5722304948276412E-002  -1.2675789769723972E-002   4.7290746098455239E-002
   3.4138271321272576E-002  -1.2528057548321300E-002   4.6904433794251854E-002
   3.2554237694268733E-002  -1.2460524181495177E-002   4.6634305427229558E-002
   3.0970204067264917E-002  -1.2473189669245432E-002   4.6480360997387893E-002
   3.2517594690154861E-002  -1.0668329891394879E-002   5.1683852571486083E-002
   3.1072266012167879E-002  -1.0367266918528878E-002   5.1192136706723040E-002
   2.9626937334180953E-002  -1.0103872166198721E-002   5.0861646802812591E-002
   2.8181608656193978E-002  -9.8781456344046274E-003   5.0692382859755185E-002
   2.6736279978207017E-002  -9.6900873231466345E-003   5.0684344877550525E-002
   2.7776043707370753E-002  -8.4329389370867425E-003   5.5626329382999842E-002
   2.6514462002072636E-002  -8.0587440673335481E-003   5.5187924528898105E-002
   2.5252880296774537E-002  -7.6796867840760383E-003   5.4955787659320986E-002
   2.3991298591476438E-002  -7.2957670873141350E-003   5.4929918774268949E-002
   2.2729716886178315E-002  -6.9069849770478087E-003   5.5110317873741696E-002
   2.3081685626927820E-002  -6.1975479827786062E-003   5.9620672774380323E-002
   2.2048892917990583E-002  -5.7502212161383917E-003   5.9278109564980377E-002
   2.1016100209053357E-002  -5.2555014019533240E-003   5.9186856363777060E-002
   1.9983307500116124E-002  -4.7133885402237249E-003   5.9346913170770829E-002
   1.8950514791178895E-002  -4.1238826309489968E-003   5.9758279985961421E-002
   1.8434520448826139E-002  -3.9621570284705254E-003   6.3666882745627762E-002
   1.7675558759921772E-002  -3.4416983649430688E-003   6.3462691814969940E-002
   1.6916597071017385E-002  -2.8313160198307208E-003   6.3554852916181015E-002
   1.6157635382113001E-002  -2.1310099931330512E-003   6.3943366049260736E-002
   1.5398673693208631E-002  -1.3407802848501293E-003   6.4628231214209519E-002
   3.0970204067264917E-002  -1.2473189669245432E-002   4.6480360997387893E-002
   2.9110165527622245E-002  -1.3325169194760678E-002   4.4823252199864549E-002
   2.7250126987979642E-002  -1.5775577941229427E-002   4.3206188317659461E-002
   2.5390088448336977E-002  -1.9824415908651864E-002   4.1629169350772696E-002
   2.3530049908694339E-002  -2.5471683097027631E-002   4.0092195299203937E-002
   2.6736279978207017E-002  -9.6900873231466345E-003   5.0684344877550525E-002
   2.4944502887611034E-002  -9.9465416807430762E-003   4.8057920441722274E-002
   2.3152725797015078E-002  -1.1054353155511912E-002   4.5527973988668785E-002
   2.1360948706419129E-002  -1.3013521747453367E-002   4.3094505518390919E-002
   1.9569171615823167E-002  -1.5824047456567403E-002   4.0757515030887981E-002
   2.2729716886178315E-002  -6.9069849770478087E-003   5.5110317873741696E-002
   2.1062634312086104E-002  -6.5679141667251972E-003   5.2261649903388926E-002
   1.9395551737993944E-002  -6.3331283697942789E-003   4.9565892983268363E-002
   1.7728469163901688E-002  -6.2026275862549236E-003   4.7023047113380068E-002
   1.6061386589809573E-002  -6.1764118161071746E-003   4.4633112293723909E-002
   1.8950514791178895E-002  -4.1238826309489968E-003   5.9758279985961421E-002
   1.7464559801047462E-002  -3.1892866527072905E-003   5.7434440584865118E-002
   1.5978604810916033E-002  -1.6119035840765940E-003   5.5319945301458270E-002
   1.4492649820784619E-002   6.0826657494354643E-004   5.3414794135740545E-002
   1.3006694830653205E-002   3.4712238243530535E-003   5.1718987087712304E-002
   1.5398673693208631E-002  -1.3407802848501293E-003   6.4628231214209519E-002
   1.4150279354495088E-002   1.8934086131044969E-004   6.3576292486150654E-002
   1.2901885015781531E-002   3.1093212016410771E-003   6.2790130943238459E-002
   1.1653490677068001E-002   7.4191607361419852E-003   6.2269746585472616E-002
   1.0405096338354458E-002   1.3118859464813282E-002   6.2015139412852971E-002
   2.6624698892335187E-002   0.0000000000000000        2.9484398424615123E-002
   2.7223608856503996E-002  -5.8060257751638839E-004   3.4963381879229649E-002
   2.7822518820672805E-002  -1.3105642575115730E-003   4.0136174511112441E-002
   2.8421428784841617E-002  -2.1898850399855417E-003   4.5002776320263518E-002
   2.9020338749010426E-002  -3.2185649249383119E-003   4.9563187306682875E-002
   2.0108549345426333E-002   0.0000000000000000        2.9041715776612773E-002
   2.0440384319788341E-002  -4.3545193315553798E-004   3.4335775732087931E-002
   2.0772219294150348E-002  -9.8292319316673361E-004   3.9401876530681196E-002
   2.1104054268512359E-002  -1.6424137800335852E-003   4.4240018172392585E-002
   2.1435889242874366E-002  -2.4139236937560926E-003   4.8850200657222093E-002
   1.3499049681120425E-002   0.0000000000000000        2.8725513885159707E-002
   1.3642041331525467E-002  -2.9030128879468757E-004   3.3871990117118639E-002
   1.3785032981930510E-002  -6.5528212882189508E-004   3.8868738858045523E-002
   1.3928024632335549E-002  -1.0949425200816234E-003   4.3715760107940357E-002
   1.4071016282740594E-002  -1.6092824625738708E-003   4.8413053866803120E-002
   6.7961998994174669E-003   0.0000000000000000        2.8535792750255921E-002
   6.8285798917153730E-003  -1.4515064443383586E-004   3.3572025034321759E-002
   6.8609598840132843E-003  -3.2764106447705785E-004   3.8536761493205396E-002
   6.8933398763111903E-003  -5.4747126012966250E-004   4.3430002126906807E-002
   6.9257198686090990E-003  -8.0464123139165023E-004   4.8251746935425992E-002
   3.1745352874201771E-013   0.0000000000000000        2.8472552371901418E-002
   3.5806340531463476E-013  -7.2986755528248182E-014   3.3435880483697313E-002
   3.9867198084464484E-013  -1.3221888861547626E-013   3.8405944436160820E-002
   4.3928250793856538E-013  -1.7770160343211217E-013   4.3382744229291940E-002
   4.7989130030900995E-013  -2.0942882844598998E-013   4.8366279863090694E-002
   2.9020338749010426E-002  -3.2185649249383119E-003   4.9563187306682875E-002
   2.9088795652672285E-002  -4.2356289101102874E-003   5.1633290392155889E-002
   2.9157252556334147E-002  -5.0801019932419002E-003   5.3803347390696546E-002
   2.9225709459995999E-002  -5.7519841743330991E-003   5.6073358302304921E-002
   2.9294166363657857E-002  -6.2512754533839351E-003   5.8443323126980910E-002
   2.1435889242874366E-002  -2.4139236937560926E-003   4.8850200657222093E-002
   2.1575033024860350E-002  -3.1767216826403886E-003   5.1261630293240032E-002
   2.1714176806846341E-002  -3.8100764949925946E-003   5.3714479772838566E-002
   2.1853320588832329E-002  -4.3139881308127187E-003   5.6208749096017627E-002
   2.1992464370818310E-002  -4.6884565901007674E-003   5.8744438262777303E-002
   1.4071016282740594E-002  -1.6092824625738708E-003   4.8413053866803120E-002
   1.4222312873563594E-002  -2.1178144551704820E-003   5.1122662327857726E-002
   1.4373609464386594E-002  -2.5400509967433175E-003   5.3815156563005825E-002
   1.4524906055209593E-002  -2.8759920872923517E-003   5.6490536572247334E-002
   1.4676202646032597E-002  -3.1256377268176032E-003   5.9148802355582321E-002
   6.9257198686090990E-003  -8.0464123139165023E-004   4.8251746935425992E-002
   7.0306351987820060E-003  -1.0589072277005758E-003   5.1216386496008980E-002
   7.1355505289549112E-003  -1.2700254984940296E-003   5.4105377761198309E-002
   7.2404658591278198E-003  -1.4379960437719780E-003   5.6918720730993973E-002
   7.3453811893007242E-003  -1.5628188635344511E-003   5.9656415405395971E-002
   4.7989130030900995E-013  -2.0942882844598998E-013   4.8366279863090694E-002
   5.1559017472113666E-013  -2.3068786464408575E-013   5.1542802797693743E-002
   5.5128861545239438E-013  -2.4474151004427736E-013   5.4585143367416024E-002
   5.8698640566234861E-013  -2.5160944291599541E-013   5.7493301572257551E-002
   6.2268593059577881E-013  -2.5127122604828855E-013   6.0267277412218295E-002
   2.9294166363657857E-002  -6.2512754533839351E-003   5.8443323126980910E-002
   2.8949242154218652E-002  -6.6368852787887719E-003   5.9232416615284222E-002
   2.8604317944779443E-002  -6.9677230989419279E-003   6.0071974540968603E-002
   2.8259393735340241E-002  -7.2437889138434481E-003   6.0961996904034067E-002
   2.7914469525901028E-002  -7.4650827234933742E-003   6.1902483704480607E-002
   2.1992464370818310E-002  -4.6884565901007674E-003   5.8744438262777303E-002
   2.1706946252509476E-002  -4.9776639591519803E-003   5.9575839177480348E-002
   2.1421428134200643E-002  -5.2257923242615481E-003   6.0475587837063000E-002
   2.1135910015891816E-002  -5.4328416854294934E-003   6.1443684241525312E-002
   2.0850391897582980E-002  -5.5988120426557902E-003   6.2480128390867376E-002
   1.4676202646032597E-002  -3.1256377268176032E-003   5.9148802355582321E-002
   1.4467973926352694E-002  -3.3184426395151782E-003   6.0008817695375090E-002
   1.4259745206672791E-002  -3.4838615495811258E-003   6.0955064087546064E-002
   1.4051516486992885E-002  -3.6218944570154824E-003   6.1987541532095208E-002
   1.3843287767312990E-002  -3.7325413618182410E-003   6.3106250029022565E-002
   7.3453811893007242E-003  -1.5628188635344511E-003   5.9656415405395971E-002
   7.2323251757483008E-003  -1.6592213198783883E-003   6.0531352168968426E-002
   7.1192691621958749E-003  -1.7419307749006970E-003   6.1510403292417665E-002
   7.0062131486434533E-003  -1.8109472286014995E-003   6.2593568775743597E-002
   6.8931571350910248E-003  -1.8662706809807021E-003   6.3780848618946326E-002
   6.2268593059577881E-013  -2.5127122604828855E-013   6.0267277412218295E-002
   6.9629371712842669E-013  -2.4157065237062625E-013   6.1143442598260447E-002
   7.6990150366107457E-013  -2.2032028978991036E-013   6.2141605451677871E-002
   8.4351232595980541E-013  -1.8750886260354704E-013   6.3261765972470657E-002
   9.1711707672637033E-013  -1.4312162566199049E-013   6.4503924160638701E-002
   2.7914469525901028E-002  -7.4650827234933742E-003   6.1902483704480607E-002
   2.7191564554004427E-002  -7.5809647090928495E-003   6.1658254583530067E-002
   2.6468659582107840E-002  -7.5407950518430432E-003   6.1688522193045013E-002
   2.5745754610211242E-002  -7.3445737517439857E-003   6.1993286533025466E-002
   2.5022849638314651E-002  -6.9923008087956484E-003   6.2572547603471446E-002
   2.0850391897582980E-002  -5.5988120426557902E-003   6.2480128390867376E-002
   2.0378541034279933E-002  -5.6857235318326094E-003   6.2405975333596264E-002
   1.9906690170976897E-002  -5.6555962888519030E-003   6.2559433763046762E-002
   1.9434839307673864E-002  -5.5084303137138075E-003   6.2940503679218843E-002
   1.8962988444370825E-002  -5.2442256064182402E-003   6.3549185082112644E-002
   1.3843287767312990E-002  -3.7325413618182410E-003   6.3106250029022565E-002
   1.3575605768859612E-002  -3.7904823545723762E-003   6.3163160124739104E-002
   1.3307923770406233E-002  -3.7703975258608757E-003   6.3400796463433412E-002
   1.3040241771952857E-002  -3.6722868756836990E-003   6.3819159045105406E-002
   1.2772559773499476E-002  -3.4961504040408320E-003   6.4418247869755113E-002
   6.8931571350910248E-003  -1.8662706809807021E-003   6.3780848618946326E-002
   6.7827587577434338E-003  -1.8952411773121673E-003   6.3929808956958739E-002
   6.6723603803958455E-003  -1.8851987628698058E-003   6.4212610294204997E-002
   6.5619620030482571E-003  -1.8361434376535279E-003   6.4629252630685183E-002
   6.4515636257006671E-003  -1.7480752016634099E-003   6.5179735966399074E-002
   9.1711707672637033E-013  -1.4312162566199049E-013   6.4503924160638701E-002
   9.3142681067970301E-013  -5.1951498658553419E-014   6.4705921830255184E-002
   9.4573480990955971E-013   1.2129533488725031E-013   6.4994875255361573E-002
   9.6004194177767843E-013   3.7658851731459109E-013   6.5370784435958049E-002
   9.7435254309274910E-013   7.1401218271205380E-013   6.5833649372044362E-002
   2.5022849638314651E-002  -6.9923008087956484E-003   6.2572547603471446E-002
   2.4277603091720869E-002  -6.5777096210284242E-003   6.2620431276870420E-002
   2.3532356545127087E-002  -6.1945335864724976E-003   6.2811746754085573E-002
   2.2787109998533304E-002  -5.8427727051280250E-003   6.3146494035116574E-002
   2.2041863451939522E-002  -5.5224269769949541E-003   6.3624673119963671E-002
   1.8962988444370825E-002  -5.2442256064182402E-003   6.3549185082112644E-002
   1.8371893659820400E-002  -4.9332822154854600E-003   6.3449732977764281E-002
   1.7780798875269989E-002  -4.6459001894356144E-003   6.3515152593686841E-002
   1.7189704090719571E-002  -4.3820795282688285E-003   6.3745443929880033E-002
   1.6598609306169160E-002  -4.1418202319848940E-003   6.4140606986344079E-002
   1.2772559773499476E-002  -3.4961504040408320E-003   6.4418247869755113E-002
   1.2357056667447163E-002  -3.2888548099424750E-003   6.4179313775988012E-002
   1.1941553561394844E-002  -3.0972667923986966E-003   6.4126691318946272E-002
   1.1526050455342525E-002  -2.9213863514094916E-003   6.4260380498630046E-002
   1.1110547349290206E-002  -2.7612134869749172E-003   6.4580381315039195E-002
   6.4515636257006671E-003  -1.7480752016634099E-003   6.5179735966399074E-002
   6.2330921146011697E-003  -1.6444274043994449E-003   6.4809173671541390E-002
   6.0146206035016679E-003  -1.5486333953617405E-003   6.4646362929863838E-002
   5.7961490924021662E-003  -1.4606931745502526E-003   6.4691303741366557E-002
   5.5776775813026688E-003  -1.3806067419648432E-003   6.4943996106049395E-002
   9.7435254309274910E-013   7.1401218271205380E-013   6.5833649372044362E-002
   1.2823977990628066E-012   1.1434603264248722E-012   6.5339312664424498E-002
   1.5904447897563401E-012   1.6751530718117635E-012   6.5074167426439608E-002
   1.8984865762794456E-012   2.3090401118919246E-012   6.5038213658089594E-002
   2.2065370364199310E-012   3.0451197119418794E-012   6.5231451359374470E-002
   2.2041863451939522E-002  -5.5224269769949541E-003   6.3624673119963671E-002
   2.1140027701161176E-002  -5.1964314915665943E-003   6.3336244958897892E-002
   2.0238191950382831E-002  -4.8277213383363521E-003   6.3247137176153240E-002
   1.9336356199604492E-002  -4.4162965173044182E-003   6.3357349771729951E-002
   1.8434520448826139E-002  -3.9621570284705254E-003   6.3666882745627762E-002
   1.6598609306169160E-002  -4.1418202319848940E-003   6.4140606986344079E-002
   1.5902628573569125E-002  -3.8973236177393955E-003   6.3851280988330705E-002
   1.5206647840969083E-002  -3.6207910026876122E-003   6.3774344648352702E-002
   1.4510667108369037E-002  -3.3122223868297315E-003   6.3909797966410081E-002
   1.3814686375769013E-002  -2.9716177701654134E-003   6.4257640942502803E-002
   1.1110547349290206E-002  -2.7612134869749172E-003   6.4580381315039195E-002
   1.0633490914582589E-002  -2.5982157439122938E-003   6.4279478813082852E-002
   1.0156434479874965E-002  -2.4138606670388793E-003   6.4204035248875913E-002
   9.6793780451673393E-003  -2.2081482563549356E-003   6.4354050622418502E-002
   9.2023216104597273E-003  -1.9810785118601626E-003   6.4729524933710508E-002
   5.5776775813026688E-003  -1.3806067419648432E-003   6.4943996106049395E-002
   5.3326147242015827E-003  -1.2991078700850325E-003   6.4620838433154387E-002
   5.0875518671004930E-003  -1.2069303313901152E-003   6.4536208977722970E-002
   4.8424890099993982E-003  -1.1040741258801388E-003   6.4690107739755129E-002
   4.5974261528983111E-003  -9.9053925355506445E-004   6.5082534719250879E-002
   2.2065370364199310E-012   3.0451197119418794E-012   6.5231451359374470E-002
   2.4261009867743155E-012   3.7419789489234745E-012   6.4875359848545200E-002
   2.6456562635113201E-012   4.2586351112205989E-012   6.4770865834893804E-002
   2.8652167444187526E-012   4.5945573734496037E-012   6.4917969318420018E-002
   3.0847754906027092E-012   4.7502002331611948E-012   6.5316670299123913E-002
   1.8434520448826139E-002  -3.9621570284705254E-003   6.3666882745627762E-002
   1.7675558759921772E-002  -3.4416983649430688E-003   6.3462691814969940E-002
   1.6916597071017385E-002  -2.8313160198307208E-003   6.3554852916181015E-002
   1.6157635382113001E-002  -2.1310099931330512E-003   6.3943366049260736E-002
   1.5398673693208631E-002  -1.3407802848501293E-003   6.4628231214209519E-002
   1.3814686375769013E-002  -2.9716177701654134E-003   6.4257640942502803E-002
   1.3325423816323172E-002  -2.5812737725896540E-003   6.4112949638483296E-002
   1.2836161256877348E-002  -2.1234870139977685E-003   6.4211304561512028E-002
   1.2346898697431523E-002  -1.5982574943893789E-003   6.4552705711588942E-002
   1.1857636137985683E-002  -1.0055852137646482E-003   6.5137153088714206E-002
   9.2023216104597273E-003  -1.9810785118601626E-003   6.4729524933710508E-002
   8.9294523756518196E-003  -1.7208491802362669E-003   6.4621852335760496E-002
   8.6565831408439136E-003  -1.4156580081648718E-003   6.4703920160038148E-002
   8.3837139060360041E-003  -1.0655049956458176E-003   6.4975728406543323E-002
   8.1108446712280999E-003  -6.7039014267919472E-004   6.5437277075276232E-002
   4.5974261528983111E-003  -9.9053925355506445E-004   6.5082534719250879E-002
   4.4876444379077039E-003  -8.6042458788286591E-004   6.4989399906801665E-002
   4.3778627229170888E-003  -7.0782900233191948E-004   6.5032699711759401E-002
   4.2680810079264797E-003  -5.3275249690225637E-004   6.5212434134124073E-002
   4.1582992929358655E-003  -3.3519507159378292E-004   6.5528603173895805E-002
   3.0847754906027092E-012   4.7502002331611948E-012   6.5316670299123913E-002
   3.0908331449808202E-012   4.4705628088337335E-012   6.5215592351606677E-002
   3.0968838604650273E-012   3.5010189192163921E-012   6.5197643216675760E-002
   3.1029363106727104E-012   1.8413708058329092E-012   6.5262822894331066E-002
   3.1089922303273454E-012  -5.0820458952216541E-013   6.5411131384572940E-002
   1.5398673693208631E-002  -1.3407802848501293E-003   6.4628231214209519E-002
   1.4150279354495088E-002   1.8934086131044969E-004   6.3576292486150654E-002
   1.2901885015781531E-002   3.1093212016410771E-003   6.2790130943238459E-002
   1.1653490677068001E-002   7.4191607361419852E-003   6.2269746585472616E-002
   1.0405096338354458E-002   1.3118859464813282E-002   6.2015139412852971E-002
   1.1857636137985683E-002  -1.0055852137646482E-003   6.5137153088714206E-002
   1.0886599334433901E-002   1.4200564465055576E-004   6.5107167593503656E-002
   9.9155625308820911E-003   2.3319908976306009E-003   6.5366119983470278E-002
   8.9445257273303297E-003   5.5643705451754767E-003   6.5914010258613834E-002
   7.9734889237785267E-003   9.8391445872850758E-003   6.6750838418934699E-002
   8.1108446712280999E-003  -6.7039014267919472E-004   6.5437277075276232E-002
   7.4403261028688286E-003   9.4670427990911632E-005   6.6081780013308458E-002
   6.7698075345095400E-003   1.5546605936202981E-003   6.7038381536548730E-002
   6.0992889661502514E-003   3.7095803542089700E-003   6.8307081644996576E-002
   5.4287703977909940E-003   6.5594297097569809E-003   6.9887880338652397E-002
   4.1582992929358655E-003  -3.3519507159378292E-004   6.5528603173895805E-002
   3.8114596597998446E-003   4.7335211331198113E-005   6.6500129745565267E-002
   3.4646200266638246E-003   7.7733028960990866E-004   6.7806915602473553E-002
   3.1177803935278185E-003   1.8547901632423513E-003   6.9448960744620425E-002
   2.7709407603917838E-003   3.2797148322288305E-003   7.1426265172005829E-002
   3.1089922303273454E-012  -5.0820458952216541E-013   6.5411131384572940E-002
   5.2269855110864683E-012  -5.3286264289909013E-012   6.6362216790274375E-002
   7.3449718529516872E-012  -1.4400522441171404E-011   6.7671722181245036E-002
   9.4629651337108101E-012  -2.7724055690070415E-011   6.9339647557485437E-002
   1.1580958414469933E-011  -4.5299319850755637E-011   7.1365992918994703E-002
   3.1745352874201771E-013   0.0000000000000000        2.8472552371901418E-002
   3.5806340531463476E-013  -7.2986755528248182E-014   3.3435880483697313E-002
   3.9867198084464484E-013  -1.3221888861547626E-013   3.8405944436160820E-002
   4.3928250793856538E-013  -1.7770160343211217E-013   4.3382744229291940E-002
   4.7989130030900995E-013  -2.0942882844598998E-013   4.8366279863090694E-002
  -6.7961998987934253E-003   0.0000000000000000        2.8535792750102637E-002
  -6.8285798910116997E-003   1.4515064429979508E-004   3.3572025034171712E-002
  -6.8609598832299742E-003   3.2764106423456476E-004   3.8536761493055398E-002
  -6.8933398754482495E-003   5.4747125980430557E-004   4.3430002126753707E-002
  -6.9257198676665223E-003   8.0464123100902705E-004   4.8251746935266626E-002
  -1.3499049680528986E-002   0.0000000000000000        2.8725513884866029E-002
  -1.3642041330859146E-002   2.9030128867257518E-004   3.3871990116829509E-002
  -1.3785032981189306E-002   6.5528212860134754E-004   3.8868738857754596E-002
  -1.3928024631519466E-002   1.0949425197863145E-003   4.3715760107641298E-002
  -1.4071016281849627E-002   1.6092824622274756E-003   4.8413053866489593E-002
  -2.0108549344889228E-002   0.0000000000000000        2.9041715776191593E-002
  -2.0440384319184275E-002   4.3545193304535615E-004   3.4335775731670688E-002
  -2.0772219293479326E-002   9.8292319296812902E-004   3.9401876530258395E-002
  -2.1104054267774383E-002   1.6424137797683173E-003   4.4240018171954720E-002
  -2.1435889242069430E-002   2.4139236934459327E-003   4.8850200656759650E-002
  -2.6624698891874150E-002   0.0000000000000000        2.9484398424079322E-002
  -2.7223608855987090E-002   5.8060257741813625E-004   3.4963381878695271E-002
  -2.7822518820100037E-002   1.3105642573349140E-003   4.0136174510566822E-002
  -2.8421428784212985E-002   2.1898850397503271E-003   4.5002776319693981E-002
  -2.9020338748325929E-002   3.2185649246643765E-003   4.9563187306076756E-002
   4.7989130030900995E-013  -2.0942882844598998E-013   4.8366279863090694E-002
   5.1559017472113666E-013  -2.3068786464408575E-013   5.1542802797693743E-002
   5.5128861545239438E-013  -2.4474151004427736E-013   5.4585143367416024E-002
   5.8698640566234861E-013  -2.5160944291599541E-013   5.7493301572257551E-002
   6.2268593059577881E-013  -2.5127122604828855E-013   6.0267277412218295E-002
  -6.9257198676665223E-003   8.0464123100902705E-004   4.8251746935266626E-002
  -7.0306351977704202E-003   1.0589072272813686E-003   5.1216386495827895E-002
  -7.1355505278743216E-003   1.2700254980539934E-003   5.4105377760990711E-002
  -7.2404658579782238E-003   1.4379960433269358E-003   5.6918720730755108E-002
  -7.3453811880821191E-003   1.5628188631001405E-003   5.9656415405121052E-002
  -1.4071016281849627E-002   1.6092824622274756E-003   4.8413053866489593E-002
  -1.4222312872610797E-002   2.1178144547934290E-003   5.1122662327502177E-002
  -1.4373609463371963E-002   2.5400509963527627E-003   5.3815156562598637E-002
  -1.4524906054133127E-002   2.8759920869054706E-003   5.6490536571778986E-002
  -1.4676202644894295E-002   3.1256377264515661E-003   5.9148802355043259E-002
  -2.1435889242069430E-002   2.4139236934459327E-003   4.8850200656759650E-002
  -2.1575033024005531E-002   3.1767216823054773E-003   5.1261630292716603E-002
  -2.1714176805941635E-002   3.8100764946515254E-003   5.3714479772239795E-002
  -2.1853320587877742E-002   4.3139881304840146E-003   5.6208749095329226E-002
  -2.1992464369813836E-002   4.6884565898030056E-003   5.8744438261984853E-002
  -2.9020338748325929E-002   3.2185649246643765E-003   4.9563187306076756E-002
  -2.9088795651954633E-002   4.2356289098175346E-003   5.1633290391471208E-002
  -2.9157252555583341E-002   5.0801019929502698E-003   5.3803347389914220E-002
  -2.9225709459212049E-002   5.7519841740625551E-003   5.6073358301405814E-002
  -2.9294166362840747E-002   6.2512754531544173E-003   5.8443323125945926E-002
   6.2268593059577881E-013  -2.5127122604828855E-013   6.0267277412218295E-002
   6.9629371712842669E-013  -2.4157065237062625E-013   6.1143442598260447E-002
   7.6990150366107457E-013  -2.2032028978991036E-013   6.2141605451677871E-002
   8.4351232595980541E-013  -1.8750886260354704E-013   6.3261765972470657E-002
   9.1711707672637033E-013  -1.4312162566199049E-013   6.4503924160638701E-002
  -7.3453811880821191E-003   1.5628188631001405E-003   5.9656415405121052E-002
  -7.2323251743881961E-003   1.6592213194718992E-003   6.0531352168655003E-002
  -7.1192691606942792E-003   1.7419307745405004E-003   6.1510403292054310E-002
  -7.0062131470003570E-003   1.8109472283058944E-003   6.2593568775318922E-002
  -6.8931571333064341E-003   1.8662706807681811E-003   6.3780848618448793E-002
  -1.4676202644894295E-002   3.1256377264515661E-003   5.9148802355043259E-002
  -1.4467973925090052E-002   3.3184426391854108E-003   6.0008817694754329E-002
  -1.4259745205285808E-002   3.4838615493013609E-003   6.0955064086820707E-002
  -1.4051516485481558E-002   3.6218944567993944E-003   6.1987541531242453E-002
  -1.3843287765677316E-002   3.7325413616795464E-003   6.3106250028019478E-002
  -2.1992464369813836E-002   4.6884565898030056E-003   5.8744438261984853E-002
  -2.1706946251409256E-002   4.9776639588989154E-003   5.9575839176558315E-002
  -2.1421428133004686E-002   5.2257923240621460E-003   6.0475587835977083E-002
  -2.1135910014600103E-002   5.4328416852928458E-003   6.1443684240241200E-002
  -2.0850391896195530E-002   5.5988120425908526E-003   6.2480128389350686E-002
  -2.9294166362840747E-002   6.2512754531544173E-003   5.8443323125945926E-002
  -2.8949242153345829E-002   6.6368852786123991E-003   5.9232416614067016E-002
  -2.8604317943850908E-002   6.9677230988230456E-003   6.0071974539523447E-002
  -2.8259393734355990E-002   7.2437889137862985E-003   6.0961996902315241E-002
  -2.7914469524861065E-002   7.4650827235022421E-003   6.1902483702442362E-002
   9.1711707672637033E-013  -1.4312162566199049E-013   6.4503924160638701E-002
   9.3142681067970301E-013  -5.1951498658553419E-014   6.4705921830255184E-002
   9.4573480990955971E-013   1.2129533488725031E-013   6.4994875255361573E-002
   9.6004194177767843E-013   3.7658851731459109E-013   6.5370784435958049E-002
   9.7435254309274910E-013   7.1401218271205380E-013   6.5833649372044362E-002
  -6.8931571333064341E-003   1.8662706807681811E-003   6.3780848618448793E-002
  -6.7827587559303121E-003   1.8952411772691635E-003   6.3929808956521145E-002
  -6.6723603785541893E-003   1.8851987631507729E-003   6.4212610293827202E-002
  -6.5619620011780656E-003   1.8361434384129511E-003   6.4629252630366882E-002
  -6.4515636238019376E-003   1.7480752030557267E-003   6.5179735966140226E-002
  -1.3843287765677316E-002   3.7325413616795464E-003   6.3106250028019478E-002
  -1.3575605767195664E-002   3.7904823545902890E-003   6.3163160123846221E-002
  -1.3307923768714010E-002   3.7703975261801932E-003   6.3400796462650358E-002
  -1.3040241770232358E-002   3.6722868764492715E-003   6.3819159044431917E-002
  -1.2772559771750711E-002   3.4961504053975107E-003   6.4418247869190842E-002
  -2.0850391896195530E-002   5.5988120425908526E-003   6.2480128389350686E-002
  -2.0378541032864624E-002   5.6857235319114369E-003   6.2405975332230364E-002
  -1.9906690169533739E-002   5.6555962892096976E-003   6.2559433761831151E-002
  -1.9434839306202840E-002   5.5084303144856683E-003   6.2940503678153098E-002
  -1.8962988442871937E-002   5.2442256077392321E-003   6.3549185081196058E-002
  -2.7914469524861065E-002   7.4650827235022421E-003   6.1902483702442362E-002
  -2.7191564552937208E-002   7.5809647092325294E-003   6.1658254581673552E-002
  -2.6468659581013361E-002   7.5407950522391048E-003   6.1688522191369569E-002
  -2.5745754609089511E-002   7.3445737525219303E-003   6.1993286531530412E-002
  -2.5022849637165643E-002   6.9923008100810369E-003   6.2572547602156026E-002
   9.7435254309274910E-013   7.1401218271205380E-013   6.5833649372044362E-002
   1.2823977990628066E-012   1.1434603264248722E-012   6.5339312664424498E-002
   1.5904447897563401E-012   1.6751530718117635E-012   6.5074167426439608E-002
   1.8984865762794456E-012   2.3090401118919246E-012   6.5038213658089594E-002
   2.2065370364199310E-012   3.0451197119418794E-012   6.5231451359374470E-002
  -6.4515636238019376E-003   1.7480752030557267E-003   6.5179735966140226E-002
  -6.2330921120258079E-003   1.6444274065651326E-003   6.4809173671408468E-002
  -6.0146206002496781E-003   1.5486333984269726E-003   6.4646362929977913E-002
  -5.7961490884735553E-003   1.4606931786414184E-003   6.4691303741848713E-002
  -5.5776775766974186E-003   1.3806067472081907E-003   6.4943996107020674E-002
  -1.2772559771750711E-002   3.4961504053975107E-003   6.4418247869190842E-002
  -1.2357056664840146E-002   3.2888548119867286E-003   6.4179313775597435E-002
  -1.1941553557929578E-002   3.0972667951787679E-003   6.4126691318971640E-002
  -1.1526050451019010E-002   2.9213863549736310E-003   6.4260380499313485E-002
  -1.1110547344108448E-002   2.7612134913714281E-003   6.4580381316622956E-002
  -1.8962988442871937E-002   5.2442256077392321E-003   6.3549185081196058E-002
  -1.8371893657160590E-002   4.9332822174082795E-003   6.3449732976991385E-002
  -1.7780798871449243E-002   4.6459001919305198E-003   6.3515152593420665E-002
  -1.7189704085737896E-002   4.3820795313059546E-003   6.3745443930483897E-002
  -1.6598609300026535E-002   4.1418202355346101E-003   6.4140606988181095E-002
  -2.5022849637165643E-002   6.9923008100810369E-003   6.2572547602156026E-002
  -2.4277603088987153E-002   6.5777096228299831E-003   6.2620431275590416E-002
  -2.3532356540808673E-002   6.1945335886823480E-003   6.2811746753325085E-002
  -2.2787109992630183E-002   5.8427727076382271E-003   6.3146494035360046E-002
  -2.2041863444451696E-002   5.5224269796977365E-003   6.3624673121695396E-002
   2.2065370364199310E-012   3.0451197119418794E-012   6.5231451359374470E-002
   2.4261009867743155E-012   3.7419789489234745E-012   6.4875359848545200E-002
   2.6456562635113201E-012   4.2586351112205989E-012   6.4770865834893804E-002
   2.8652167444187526E-012   4.5945573734496037E-012   6.4917969318420018E-002
   3.0847754906027092E-012   4.7502002331611948E-012   6.5316670299123913E-002
  -5.5776775766974186E-003   1.3806067472081907E-003   6.4943996107020674E-002
  -5.3326147190602743E-003   1.2991078764086200E-003   6.4620838434291270E-002
  -5.0875518614231351E-003   1.2069303385233432E-003   6.4536208979219342E-002
  -4.8424890037859934E-003   1.1040741335523255E-003   6.4690107741804809E-002
  -4.5974261461488516E-003   9.9053926149583749E-004   6.5082534722047808E-002
  -1.1110547344108448E-002   2.7612134913714281E-003   6.4580381316622956E-002
  -1.0633490908573965E-002   2.5982157490751917E-003   6.4279478815088040E-002
  -1.0156434473039475E-002   2.4138606727881137E-003   6.4204035251690439E-002
  -9.6793780375049893E-003   2.2081482625102063E-003   6.4354050626430070E-002
  -9.2023216019705058E-003   1.9810785182415858E-003   6.4729524939306768E-002
  -1.6598609300026535E-002   4.1418202355346101E-003   6.4140606988181095E-002
  -1.5902628566114952E-002   3.8973236217417981E-003   6.3851280990935705E-002
  -1.5206647832203376E-002   3.6207910070529085E-003   6.3774344652307247E-002
  -1.4510667098291798E-002   3.3122223914680308E-003   6.3909797972295790E-002
  -1.3814686364380222E-002   2.9716177749872508E-003   6.4257640950901321E-002
  -2.2041863444451696E-002   5.5224269796977365E-003   6.3624673121695396E-002
  -2.1140027691683261E-002   5.1964314944083767E-003   6.3336244961834154E-002
  -2.0238191938914823E-002   4.8277213413176340E-003   6.3247137181069640E-002
  -1.9336356186146392E-002   4.4162965204258657E-003   6.3357349779401842E-002
  -1.8434520433377954E-002   3.9621570317330268E-003   6.3666882756830800E-002
   3.0847754906027092E-012   4.7502002331611948E-012   6.5316670299123913E-002
   3.0908331449808202E-012   4.4705628088337335E-012   6.5215592351606677E-002
   3.0968838604650273E-012   3.5010189192163921E-012   6.5197643216675760E-002
   3.1029363106727104E-012   1.8413708058329092E-012   6.5262822894331066E-002
   3.1089922303273454E-012  -5.0820458952216541E-013   6.5411131384572940E-002
  -4.5974261461488516E-003   9.9053926149583749E-004   6.5082534722047808E-002
  -4.4876444310837718E-003   8.6042459542010064E-004   6.4989399909593681E-002
  -4.3778627160186954E-003   7.0782900839114204E-004   6.5032699714671308E-002
  -4.2680810009536191E-003   5.3275250040964867E-004   6.5212434137280506E-002
  -4.1582992858885462E-003   3.3519507147511396E-004   6.5528603177421485E-002
  -9.2023216019705058E-003   1.9810785182415858E-003   6.4729524939306768E-002
  -8.9294523669010677E-003   1.7208491863695136E-003   6.4621852341652936E-002
  -8.6565831318316244E-003   1.4156580132816052E-003   6.4703920166476109E-002
  -8.3837138967621828E-003   1.0655049989778172E-003   6.4975728413776426E-002
  -8.1108446616927413E-003   6.7039014345818271E-004   6.5437277083553638E-002
  -1.3814686364380222E-002   2.9716177749872508E-003   6.4257640950901321E-002
  -1.3325423804361060E-002   2.5812737773189612E-003   6.4112949647784606E-002
  -1.2836161244341912E-002   2.1234870181720093E-003   6.4211304572090483E-002
  -1.2346898684322751E-002   1.5982574975460405E-003   6.4552705723818660E-002
  -1.1857636124303609E-002   1.0055852154413208E-003   6.5137153102969123E-002
  -1.8434520433377954E-002   3.9621570317330268E-003   6.3666882756830800E-002
  -1.7675558743463750E-002   3.4416983682684643E-003   6.3462691827988638E-002
  -1.6916597053549542E-002   2.8313160230623441E-003   6.3554852931514083E-002
  -1.6157635363635334E-002   2.1310099961143018E-003   6.3943366067407290E-002
  -1.5398673673721129E-002   1.3407802874245700E-003   6.4628231235668188E-002
   3.1089922303273454E-012  -5.0820458952216541E-013   6.5411131384572940E-002
   5.2269855110864683E-012  -5.3286264289909013E-012   6.6362216790274375E-002
   7.3449718529516872E-012  -1.4400522441171404E-011   6.7671722181245036E-002
   9.4629651337108101E-012  -2.7724055690070415E-011   6.9339647557485437E-002
   1.1580958414469933E-011  -4.5299319850755637E-011   7.1365992918994703E-002
  -4.1582992858885462E-003   3.3519507147511396E-004   6.5528603177421485E-002
  -3.8114596487226933E-003  -4.7335218762073472E-005   6.6500129743142761E-002
  -3.4646200115568265E-003  -7.7733031065133074E-004   6.7806915593690426E-002
  -3.1177803743909892E-003  -1.8547902041927758E-003   6.9448960729064507E-002
  -2.7709407372251346E-003  -3.2797148993862768E-003   7.1426265149264867E-002
  -8.1108446616927413E-003   6.7039014345818271E-004   6.5437277083553638E-002
  -7.4403260899220912E-003  -9.4670432195687049E-005   6.6081780011894298E-002
  -6.7698075181514411E-003  -1.5546606069022570E-003   6.7038381524618523E-002
  -6.0992889463807893E-003  -3.7095803806613866E-003   6.8307081621725996E-002
  -5.4287703746101132E-003  -6.5594297534732338E-003   6.9887880303216521E-002
  -1.1857636124303609E-002   1.0055852154413208E-003   6.5137153102969123E-002
  -1.0886599318371219E-002  -1.4200564562932838E-004   6.5107167596528986E-002
  -9.9155625124388164E-003  -2.3319909031531798E-003   6.5366119974028816E-002
  -8.9445257065064333E-003  -5.5643705571302741E-003   6.5914010235469070E-002
  -7.9734889005740380E-003  -9.8391446075601907E-003   6.6750838380849276E-002
  -1.5398673673721129E-002   1.3407802874245700E-003   6.4628231235668188E-002
  -1.4150279334070051E-002  -1.8934085906269216E-004   6.3576292497046327E-002
  -1.2901884994418990E-002  -3.1093211994040748E-003   6.2790130941921651E-002
  -1.1653490654767918E-002  -7.4191607335987106E-003   6.2269746570293993E-002
  -1.0405096315116852E-002  -1.3118859461647148E-002   6.2015139382163742E-002
  -2.6624698891874150E-002   0.0000000000000000        2.9484398424079322E-002
  -2.7223608855987090E-002   5.8060257741813625E-004   3.4963381878695271E-002
  -2.7822518820100037E-002   1.3105642573349140E-003   4.0136174510566822E-002
  -2.8421428784212985E-002   2.1898850397503271E-003   4.5002776319693981E-002
  -2.9020338748325929E-002   3.2185649246643765E-003   4.9563187306076756E-002
  -3.3384454064122979E-002   0.0000000000000000        3.0188995474149272E-002
  -3.4224639682383887E-002   9.5529052796281422E-004   3.5279031734699560E-002
  -3.5064825300644788E-002   2.0146199639090754E-003   4.0192707509698319E-002
  -3.5905010918905689E-002   3.1779883078387776E-003   4.4930022799145555E-002
  -3.6745196537166597E-002   4.4453955597519241E-003   4.9490977603041268E-002
  -4.0724770604274950E-002   0.0000000000000000        3.1290940572021503E-002
  -4.1676401539490947E-002   1.3299784785074922E-003   3.5946709443990935E-002
  -4.2628032474706944E-002   2.7186756704832334E-003   4.0555948167601712E-002
  -4.3579663409922934E-002   4.1660915759272246E-003   4.5118656742853820E-002
  -4.4531294345138944E-002   5.6722261948394647E-003   4.9634835169747288E-002
  -4.8645648512330060E-002   0.0000000000000000        3.2790233717696009E-002
  -4.9578894427308277E-002   1.7046664290521715E-003   3.6966415006569386E-002
  -5.0512140342286495E-002   3.4227313770573966E-003   4.1225896484276978E-002
  -5.1445386257264719E-002   5.1541948440156663E-003   4.5568678150818775E-002
  -5.2378632172242923E-002   6.8990568299270088E-003   4.9994760006194801E-002
  -5.7147087788288309E-002   0.0000000000000000        3.4686874911172796E-002
  -5.7932118345835872E-002   2.0793543795968499E-003   3.8338148422434923E-002
  -5.8717148903383448E-002   4.1267870836315546E-003   4.2202552459724131E-002
  -5.9502179460931018E-002   6.1422981121041238E-003   4.6280087023040428E-002
  -6.0287210018478588E-002   8.1258874650145495E-003   5.0570752112383793E-002
  -2.9020338748325929E-002   3.2185649246643765E-003   4.9563187306076756E-002
  -2.9088795651954633E-002   4.2356289098175346E-003   5.1633290391471208E-002
  -2.9157252555583341E-002   5.0801019929502698E-003   5.3803347389914220E-002
  -2.9225709459212049E-002   5.7519841740625551E-003   5.6073358301405814E-002
  -2.9294166362840747E-002   6.2512754531544173E-003   5.8443323125945926E-002
  -3.6745196537166597E-002   4.4453955597519241E-003   4.9490977603041268E-002
  -3.6752870671529866E-002   5.6761139038263089E-003   5.1285665712680249E-002
  -3.6760544805893143E-002   6.7294155242397496E-003   5.3101965447801533E-002
  -3.6768218940256413E-002   7.6053004209922399E-003   5.4939876808405091E-002
  -3.6775893074619689E-002   8.3037685940837852E-003   5.6799399794491008E-002
  -4.4531294345138944E-002   5.6722261948394647E-003   4.9634835169747288E-002
  -4.4556527997803033E-002   7.1165988978350875E-003   5.1149282481990264E-002
  -4.4581761650467129E-002   8.3787290555292510E-003   5.2606999132149286E-002
  -4.4606995303131211E-002   9.4586166679219135E-003   5.4007985120224339E-002
  -4.4632228955795307E-002   1.0356261735013132E-002   5.5352240446215478E-002
  -5.2378632172242923E-002   6.8990568299270088E-003   4.9994760006194801E-002
  -5.2499767630774109E-002   8.5570838918438731E-003   5.1224140699401233E-002
  -5.2620903089305268E-002   1.0028042586818740E-002   5.2318448442957480E-002
  -5.2742038547836434E-002   1.1311932914851594E-002   5.3277683236863535E-002
  -5.2863174006367614E-002   1.2408754875942497E-002   5.4101845081119343E-002
  -6.0287210018478588E-002   8.1258874650145495E-003   5.0570752112383793E-002
  -6.0582589570443088E-002   9.9975688858526448E-003   5.1510240364913203E-002
  -6.0877969122407588E-002   1.1677356118108231E-002   5.2236313380226149E-002
  -6.1173348674372102E-002   1.3165249161781276E-002   5.2748971158322645E-002
  -6.1468728226336596E-002   1.4461248016871840E-002   5.3048213699202644E-002
  -2.9294166362840747E-002   6.2512754531544173E-003   5.8443323125945926E-002
  -2.8949242153345829E-002   6.6368852786123991E-003   5.9232416614067016E-002
  -2.8604317943850908E-002   6.9677230988230456E-003   6.0071974539523447E-002
  -2.8259393734355990E-002   7.2437889137862985E-003   6.0961996902315241E-002
  -2.7914469524861065E-002   7.4650827235022421E-003   6.1902483702442362E-002
  -3.6775893074619689E-002   8.3037685940837852E-003   5.6799399794491008E-002
  -3.6330523473393252E-002   8.8432741709177781E-003   5.7166224830560858E-002
  -3.5885153872166814E-002   9.2422712788976825E-003   5.7683476212758406E-002
  -3.5439784270940376E-002   9.5007599180235644E-003   5.8351153941083624E-002
  -3.4994414669713932E-002   9.6187400882952606E-003   5.9169258015536588E-002
  -4.4632228955795307E-002   1.0356261735013132E-002   5.5352240446215478E-002
  -4.3986452054045007E-002   1.1049663063223181E-002   5.5211060566627349E-002
  -4.3340675152294700E-002   1.1516819458972415E-002   5.5320268941959246E-002
  -4.2694898250544393E-002   1.1757730922260817E-002   5.5679865572211239E-002
  -4.2049121348794093E-002   1.1772397453088349E-002   5.6289850457383148E-002
  -5.2863174006367614E-002   1.2408754875942497E-002   5.4101845081119343E-002
  -5.1917027895301102E-002   1.3256051955528579E-002   5.3366923822266543E-002
  -5.0970881784234597E-002   1.3791367639047092E-002   5.2982352727126071E-002
  -5.0024735673168112E-002   1.4014701926498049E-002   5.2948131795698024E-002
  -4.9078589562101607E-002   1.3926054817881443E-002   5.3264261027982249E-002
  -6.1468728226336596E-002   1.4461248016871840E-002   5.3048213699202644E-002
  -6.0122250997161543E-002   1.5462440847833971E-002   5.1633814597478359E-002
  -5.8775773767986497E-002   1.6065915819121805E-002   5.0669727568258799E-002
  -5.7429296538811458E-002   1.6271672930735333E-002   5.0155952611543944E-002
  -5.6082819309636399E-002   1.6079712182674483E-002   5.0092489727333794E-002
  -2.7914469524861065E-002   7.4650827235022421E-003   6.1902483702442362E-002
  -2.7191564552937208E-002   7.5809647092325294E-003   6.1658254581673552E-002
  -2.6468659581013361E-002   7.5407950522391048E-003   6.1688522191369569E-002
  -2.5745754609089511E-002   7.3445737525219303E-003   6.1993286531530412E-002
  -2.5022849637165643E-002   6.9923008100810369E-003   6.2572547602156026E-002
  -3.4994414669713932E-002   9.6187400882952606E-003   5.9169258015536588E-002
  -3.4017981941534756E-002   9.6200746842870777E-003   5.8804881225116193E-002
  -3.3041549213355573E-002   9.5286266005732249E-003   5.8673063216741705E-002
  -3.2065116485176404E-002   9.3443958371536955E-003   5.8773803990412987E-002
  -3.1088683756997200E-002   9.0673823940283227E-003   5.9107103546130149E-002
  -4.2049121348794093E-002   1.1772397453088349E-002   5.6289850457383148E-002
  -4.0861098812778586E-002   1.1659184659341654E-002   5.5868594960329351E-002
  -3.9673076276763072E-002   1.1516458148907345E-002   5.5637960296902357E-002
  -3.8485053740747559E-002   1.1344217921785292E-002   5.5597946467102213E-002
  -3.7297031204732052E-002   1.1142463977975706E-002   5.5748553470928879E-002
  -4.9078589562101607E-002   1.3926054817881443E-002   5.3264261027982249E-002
  -4.7720915166668730E-002   1.3698294634396230E-002   5.2849395787313021E-002
  -4.6363240771235853E-002   1.3504289697241451E-002   5.2583213431851614E-002
  -4.5005566375803004E-002   1.3344040006417056E-002   5.2465713961598055E-002
  -4.3647891980370113E-002   1.3217545561923040E-002   5.2496897376552366E-002
  -5.6082819309636399E-002   1.6079712182674483E-002   5.0092489727333794E-002
  -5.4597431003205153E-002   1.5737404609450736E-002   4.9747283706067180E-002
  -5.3112042696773942E-002   1.5492121245575523E-002   4.9508822621589399E-002
  -5.1626654390342711E-002   1.5343862091048681E-002   4.9377106473900513E-002
  -5.0141266083911451E-002   1.5292627145870374E-002   4.9352135263000474E-002
  -2.5022849637165643E-002   6.9923008100810369E-003   6.2572547602156026E-002
  -2.4277603088987153E-002   6.5777096228299831E-003   6.2620431275590416E-002
  -2.3532356540808673E-002   6.1945335886823480E-003   6.2811746753325085E-002
  -2.2787109992630183E-002   5.8427727076382271E-003   6.3146494035360046E-002
  -2.2041863444451696E-002   5.5224269796977365E-003   6.3624673121695396E-002
  -3.1088683756997200E-002   9.0673823940283227E-003   5.9107103546130149E-002
  -3.0186211291538943E-002   8.7414105727055130E-003   5.9039408542847741E-002
  -2.9283738826080676E-002   8.4103046746931281E-003   5.9142733569824586E-002
  -2.8381266360622420E-002   8.0740646999914213E-003   5.9417078627060749E-002
  -2.7478793895164149E-002   7.7326906486002156E-003   5.9862443714556041E-002
  -3.7297031204732052E-002   1.1142463977975706E-002   5.5748553470928879E-002
  -3.6209744596035071E-002   1.0905111522581050E-002   5.5528730561136788E-002
  -3.5122457987338068E-002   1.0626075760703995E-002   5.5507515907562893E-002
  -3.4035171378641080E-002   1.0305356692344617E-002   5.5684909510207263E-002
  -3.2947884769944084E-002   9.9429543175028057E-003   5.6060911369069613E-002
  -4.3647891980370113E-002   1.3217545561923040E-002   5.2496897376552366E-002
  -4.2348203002475479E-002   1.3068812472456569E-002   5.2088397330457614E-002
  -4.1048514024580846E-002   1.2841846846714819E-002   5.1906093766540026E-002
  -3.9748825046686198E-002   1.2536648684697784E-002   5.1949986684799568E-002
  -3.8449136068791571E-002   1.2153217986405312E-002   5.2220076085236170E-002
  -5.0141266083911451E-002   1.5292627145870374E-002   4.9352135263000474E-002
  -4.8601586510860245E-002   1.5232513422332145E-002   4.8718408850810191E-002
  -4.7061906937809012E-002   1.5057617932725600E-002   4.8338467146755937E-002
  -4.5522227364757778E-002   1.4767940677050954E-002   4.8212310150837726E-002
  -4.3982547791706558E-002   1.4363481655307875E-002   4.8339937863055626E-002
  -2.2041863444451696E-002   5.5224269796977365E-003   6.3624673121695396E-002
  -2.1140027691683261E-002   5.1964314944083767E-003   6.3336244961834154E-002
  -2.0238191938914823E-002   4.8277213413176340E-003   6.3247137181069640E-002
  -1.9336356186146392E-002   4.4162965204258657E-003   6.3357349779401842E-002
  -1.8434520433377954E-002   3.9621570317330268E-003   6.3666882756830800E-002
  -2.7478793895164149E-002   7.7326906486002156E-003   5.9862443714556041E-002
  -2.6379516823073129E-002   7.3787884147020061E-003   5.9508657592790268E-002
  -2.5280239750982127E-002   7.0049638924789825E-003   5.9350433730572819E-002
  -2.4180962678891135E-002   6.6112170819313879E-003   5.9387772127903797E-002
  -2.3081685606800111E-002   6.1975479830590485E-003   5.9620672784783280E-002
  -3.2947884769944084E-002   9.9429543175028057E-003   5.6060911369069613E-002
  -3.1654924498078836E-002   9.5611453349957326E-003   5.5664559664875726E-002
  -3.0361964226213570E-002   9.1822064436403936E-003   5.5460012100681862E-002
  -2.9069003954348315E-002   8.8061376434369117E-003   5.5447268676488096E-002
  -2.7776043682483063E-002   8.4329389343852645E-003   5.5626329392294546E-002
  -3.8449136068791571E-002   1.2153217986405312E-002   5.2220076085236170E-002
  -3.6966250716700379E-002   1.1743502255289411E-002   5.1803951178090661E-002
  -3.5483365364609193E-002   1.1359448994801857E-002   5.1575872291396867E-002
  -3.4000480012518000E-002   1.1001058204942436E-002   5.1535839425154793E-002
  -3.2517594660426787E-002   1.0668329885711439E-002   5.1683852579364586E-002
  -4.3982547791706558E-002   1.4363481655307875E-002   4.8339937863055626E-002
  -4.2313495478937729E-002   1.3925859175583116E-002   4.7926832132434927E-002
  -4.0644443166168921E-002   1.3536691545963125E-002   4.7698014302717612E-002
  -3.8975390853400113E-002   1.3195978766447923E-002   4.7653484373903932E-002
  -3.7306338540631298E-002   1.2903720837037558E-002   4.7793242345993636E-002
  -1.8434520433377954E-002   3.9621570317330268E-003   6.3666882756830800E-002
  -1.7675558743463750E-002   3.4416983682684643E-003   6.3462691827988638E-002
  -1.6916597053549542E-002   2.8313160230623441E-003   6.3554852931514083E-002
  -1.6157635363635334E-002   2.1310099961143018E-003   6.3943366067407290E-002
  -1.5398673673721129E-002   1.3407802874245700E-003   6.4628231235668188E-002
  -2.3081685606800111E-002   6.1975479830590485E-003   5.9620672784783280E-002
  -2.2048892896274888E-002   5.7502212163700883E-003   5.9278109577398319E-002
  -2.1016100185749648E-002   5.2555014023727420E-003   5.9186856378867725E-002
  -1.9983307475224418E-002   4.7133885410666765E-003   5.9346913189191483E-002
  -1.8950514764699181E-002   4.1238826324521138E-003   5.9758280008369413E-002
  -2.7776043682483063E-002   8.4329389343852645E-003   5.5626329392294546E-002
  -2.6514461974860223E-002   8.0587440644717678E-003   5.5187924540800154E-002
  -2.5252880267237363E-002   7.6796867816832023E-003   5.4955787674646754E-002
  -2.3991298559614526E-002   7.2957670860189974E-003   5.4929918793834243E-002
  -2.2729716851991662E-002   6.9069849774797687E-003   5.5110317898362710E-002
  -3.2517594660426787E-002   1.0668329885711439E-002   5.1683852579364586E-002
  -3.1072265979219738E-002   1.0367266912573558E-002   5.1192136718194031E-002
  -2.9626937298012659E-002   1.0103872160993465E-002   5.0861646818851053E-002
  -2.8181608616805621E-002   9.8781456309713460E-003   5.0692382881335575E-002
  -2.6736279935598534E-002   9.6900873225074791E-003   5.0684344905647681E-002
  -3.7306338540631298E-002   1.2903720837037558E-002   4.7793242345993636E-002
  -3.5722304909353436E-002   1.2675789760675044E-002   4.7290746109580228E-002
  -3.4138271278075581E-002   1.2528057540304088E-002   4.6904433811480795E-002
  -3.2554237646797712E-002   1.2460524175923728E-002   4.6634305451695585E-002
  -3.0970204015519864E-002   1.2473189667535023E-002   4.6480361030224404E-002
  -1.5398673673721129E-002   1.3407802874245700E-003   6.4628231235668188E-002
  -1.4150279334070051E-002  -1.8934085906269216E-004   6.3576292497046327E-002
  -1.2901884994418990E-002  -3.1093211994040748E-003   6.2790130941921651E-002
  -1.1653490654767918E-002  -7.4191607335987106E-003   6.2269746570293993E-002
  -1.0405096315116852E-002  -1.3118859461647148E-002   6.2015139382163742E-002
  -1.8950514764699181E-002   4.1238826324521138E-003   5.9758280008369413E-002
  -1.7464559774732338E-002   3.1892866554491528E-003   5.7434440598591041E-002
  -1.5978604784765531E-002   1.6119035889785860E-003   5.5319945305946860E-002
  -1.4492649794798652E-002  -6.0826656696044007E-004   5.3414794130437537E-002
  -1.3006694804831853E-002  -3.4712238123671968E-003   5.1718987072062017E-002
  -2.2729716851991662E-002   6.9069849774797687E-003   5.5110317898362710E-002
  -2.1062634278071816E-002   6.5679141699615251E-003   5.2261649921813313E-002
  -1.9395551704152008E-002   6.3331283773609554E-003   4.9565892996035393E-002
  -1.7728469130232197E-002   6.2026275996779380E-003   4.7023047121029247E-002
  -1.6061386556312375E-002   6.1764118369126431E-003   4.4633112296794508E-002
  -2.6736279935598534E-002   9.6900873225074791E-003   5.0684344905647681E-002
  -2.4944502844088480E-002   9.9465416844736337E-003   4.8057920466712735E-002
  -2.3152725752578429E-002   1.1054353165743470E-002   4.5527974012186806E-002
  -2.1360948661068285E-002   1.3013521766316318E-002   4.3094505542069901E-002
  -1.9569171569558320E-002   1.5824047486192483E-002   4.0757515056361465E-002
  -3.0970204015519864E-002   1.2473189667535023E-002   4.6480361030224404E-002
  -2.9110165472782307E-002   1.3325169198985853E-002   4.4823252233289812E-002
  -2.7250126930044763E-002   1.5775577954126027E-002   4.3206188354401348E-002
  -2.5390088387307268E-002   1.9824415932954653E-002   4.1629169393558998E-002
  -2.3530049844569689E-002   2.5471683135472434E-002   4.0092195350762694E-002
  -5.7147087788288309E-002   0.0000000000000000        3.4686874911172796E-002
  -5.7932118345835872E-002   2.0793543795968499E-003   3.8338148422434923E-002
  -5.8717148903383448E-002   4.1267870836315546E-003   4.2202552459724131E-002
  -5.9502179460931018E-002   6.1422981121041238E-003   4.6280087023040428E-002
  -6.0287210018478588E-002   8.1258874650145495E-003   5.0570752112383793E-002
  -6.5817073237614890E-002   0.0000000000000000        3.7204078139488721E-002
  -6.6618201642286420E-002   2.9100765170055288E-003   4.0824616738736788E-002
  -6.7419330046957979E-002   5.7621235895142509E-003   4.4199829117709852E-002
  -6.8220458451629523E-002   8.5561412175261704E-003   4.7329715276407870E-002
  -6.9021586856301054E-002   1.1292129401041285E-002   5.0214275214830878E-002
  -7.4243589665774989E-002   0.0000000000000000        4.0565057389680664E-002
  -7.5519272663872622E-002   3.7407986544142108E-003   4.4128753307980009E-002
  -7.6794955661970227E-002   7.3974600953969540E-003   4.6988666259702244E-002
  -7.8070638660067859E-002   1.0969984322948219E-002   4.9144796244847341E-002
  -7.9346321658165450E-002   1.4458371337068022E-002   5.0597143263415308E-002
  -8.2426637072768663E-002   0.0000000000000000        4.4769812661748613E-002
  -8.4635331410594428E-002   4.5715207918228928E-003   4.8250558130164573E-002
  -8.6844025748420234E-002   9.0327966012796468E-003   5.0569063885701329E-002
  -8.9052720086246012E-002   1.3383827428370269E-002   5.1725329928358814E-002
  -9.1261414424071818E-002   1.7624613273094773E-002   5.1719356258137117E-002
  -9.0366215458595828E-002   0.0000000000000000        4.9818343955692568E-002
  -9.3966377882451893E-002   5.4022429292315734E-003   5.3190031205290492E-002
  -9.7566540306307972E-002   1.0668133107162352E-002   5.4941021995707086E-002
 -0.10116670273016404        1.5797670533792319E-002   5.5071316326942343E-002
 -0.10476686515402012        2.0790855209121502E-002   5.3580914198996264E-002
  -6.0287210018478588E-002   8.1258874650145495E-003   5.0570752112383793E-002
  -6.0582589570443088E-002   9.9975688858526448E-003   5.1510240364913203E-002
  -6.0877969122407588E-002   1.1677356118108231E-002   5.2236313380226149E-002
  -6.1173348674372102E-002   1.3165249161781276E-002   5.2748971158322645E-002
  -6.1468728226336596E-002   1.4461248016871840E-002   5.3048213699202644E-002
  -6.9021586856301054E-002   1.1292129401041285E-002   5.0214275214830878E-002
  -6.9292530888118320E-002   1.3731163298726094E-002   4.9437369602808881E-002
  -6.9563474919935586E-002   1.5634318069247113E-002   4.8922750268297788E-002
  -6.9834418951752880E-002   1.7001593712604329E-002   4.8670417211297626E-002
  -7.0105362983570133E-002   1.7832990228797752E-002   4.8680370431808360E-002
  -7.9346321658165450E-002   1.4458371337068022E-002   5.0597143263415308E-002
  -7.9117128655108115E-002   1.7464757711599558E-002   4.7759858848260617E-002
  -7.8887935652050795E-002   1.9591280020386022E-002   4.5660562225344231E-002
  -7.8658742648993446E-002   2.0837938263427409E-002   4.4299253394666137E-002
  -7.8429549645936111E-002   2.1204732440723708E-002   4.3675932356226334E-002
  -9.1261414424071818E-002   1.7624613273094773E-002   5.1719356258137117E-002
  -9.0056382871412474E-002   2.1198352124473008E-002   4.6477708101268445E-002
  -8.8851351318753144E-002   2.3548241971524896E-002   4.2449749251365444E-002
  -8.7646319766093828E-002   2.4674282814250468E-002   3.9635479708428130E-002
  -8.6441288213434483E-002   2.4576474652649657E-002   3.8034899472456529E-002
 -0.10476686515402012        2.0790855209121502E-002   5.3580914198996264E-002
 -0.10211029353703142        2.4931946537346469E-002   4.5590917361832323E-002
  -9.9453721920042717E-002   2.7505203922663816E-002   3.9290311346361496E-002
  -9.6797150303054025E-002   2.8510627365073513E-002   3.4679096152583702E-002
  -9.4140578686065318E-002   2.7948216864575576E-002   3.1757271780498961E-002
  -6.1468728226336596E-002   1.4461248016871840E-002   5.3048213699202644E-002
  -6.0122250997161543E-002   1.5462440847833971E-002   5.1633814597478359E-002
  -5.8775773767986497E-002   1.6065915819121805E-002   5.0669727568258799E-002
  -5.7429296538811458E-002   1.6271672930735333E-002   5.0155952611543944E-002
  -5.6082819309636399E-002   1.6079712182674483E-002   5.0092489727333794E-002
  -7.0105362983570133E-002   1.7832990228797752E-002   4.8680370431808360E-002
  -6.8356176019029075E-002   1.8283396444339933E-002   4.7218907420906411E-002
  -6.6606989054488044E-002   1.8507701185743373E-002   4.6112551808231692E-002
  -6.4857802089947000E-002   1.8505904453008051E-002   4.5361303593784284E-002
  -6.3108615125405970E-002   1.8278006246133960E-002   4.4965162777564113E-002
  -7.8429549645936111E-002   2.1204732440723708E-002   4.3675932356226334E-002
  -7.6372857620306503E-002   2.1104352040845906E-002   4.2339021821682268E-002
  -7.4316165594676922E-002   2.0949486552364890E-002   4.1262014011087984E-002
  -7.2259473569047300E-002   2.0740135975280766E-002   4.0444908924443558E-002
  -7.0202781543417733E-002   2.0476300309593395E-002   3.9887706561748955E-002
  -8.6441288213434483E-002   2.4576474652649657E-002   3.8034899472456529E-002
  -8.4172295800993807E-002   2.3925307637351872E-002   3.6994157799805902E-002
  -8.1903303388553131E-002   2.3391271918986458E-002   3.6118114176827643E-002
  -7.9634310976112427E-002   2.2974367497553494E-002   3.5406768603521807E-002
  -7.7365318563671751E-002   2.2674594373052866E-002   3.4860121079888270E-002
  -9.4140578686065318E-002   2.7948216864575576E-002   3.1757271780498961E-002
  -9.1754490561090987E-002   2.6746263233857846E-002   3.1184315355277326E-002
  -8.9368402436116615E-002   2.5833057285608012E-002   3.0680852305450729E-002
  -8.6982314311142298E-002   2.5208599019826233E-002   3.0246882631019000E-002
  -8.4596226186167939E-002   2.4872888436512294E-002   2.9882406331982150E-002
  -5.6082819309636399E-002   1.6079712182674483E-002   5.0092489727333794E-002
  -5.4597431003205153E-002   1.5737404609450736E-002   4.9747283706067180E-002
  -5.3112042696773942E-002   1.5492121245575523E-002   4.9508822621589399E-002
  -5.1626654390342711E-002   1.5343862091048681E-002   4.9377106473900513E-002
  -5.0141266083911451E-002   1.5292627145870374E-002   4.9352135263000474E-002
  -6.3108615125405970E-002   1.8278006246133960E-002   4.4965162777564113E-002
  -6.1486067672592279E-002   1.7948000653311535E-002   4.4641455819444092E-002
  -5.9863520219778615E-002   1.7639881762731228E-002   4.4485322217300151E-002
  -5.8240972766964924E-002   1.7353649574392935E-002   4.4496761971132143E-002
  -5.6618425314151268E-002   1.7089304088296758E-002   4.4675775080940200E-002
  -7.0202781543417733E-002   2.0476300309593395E-002   3.9887706561748955E-002
  -6.8382246525034496E-002   2.0158596697172300E-002   3.9510361159669195E-002
  -6.6561711506651217E-002   1.9787642279886938E-002   3.9361417532752546E-002
  -6.4741176488267965E-002   1.9363437057737201E-002   3.9440875680999077E-002
  -6.2920641469884714E-002   1.8885981030723170E-002   3.9748735604408711E-002
  -7.7365318563671751E-002   2.2674594373052866E-002   3.4860121079888270E-002
  -7.5285967560531769E-002   2.2369192741033096E-002   3.4353999726742343E-002
  -7.3206616557391802E-002   2.1935402797042591E-002   3.4137108567946738E-002
  -7.1127265554251806E-002   2.1373224541081433E-002   3.4209447603501419E-002
  -6.9047914551111866E-002   2.0682657973149596E-002   3.4571016833406396E-002
  -8.4596226186167939E-002   2.4872888436512294E-002   2.9882406331982150E-002
  -8.2197230779084085E-002   2.4579788784893863E-002   2.9172371520663626E-002
  -7.9798235372000301E-002   2.4083163314198280E-002   2.8812395322882649E-002
  -7.7399239964916489E-002   2.3383012024425703E-002   2.8802477738639035E-002
  -7.5000244557832635E-002   2.2479334915575966E-002   2.9142618767932893E-002
  -5.0141266083911451E-002   1.5292627145870374E-002   4.9352135263000474E-002
  -4.8601586510860245E-002   1.5232513422332145E-002   4.8718408850810191E-002
  -4.7061906937809012E-002   1.5057617932725600E-002   4.8338467146755937E-002
  -4.5522227364757778E-002   1.4767940677050954E-002   4.8212310150837726E-002
  -4.3982547791706558E-002   1.4363481655307875E-002   4.8339937863055626E-002
  -5.6618425314151268E-002   1.7089304088296758E-002   4.4675775080940200E-002
  -5.4839914078802232E-002   1.6801690187284044E-002   4.4110436048346191E-002
  -5.3061402843453190E-002   1.6445652754196086E-002   4.3768975632211785E-002
  -5.1282891608104154E-002   1.6021191789032902E-002   4.3651393832537015E-002
  -4.9504380372755091E-002   1.5528307291794580E-002   4.3757690649321695E-002
  -6.2920641469884714E-002   1.8885981030723170E-002   3.9748735604408711E-002
  -6.0933204663914366E-002   1.8370866952235873E-002   3.9298142185404200E-002
  -5.8945767857944004E-002   1.7833687575666536E-002   3.9041521291182706E-002
  -5.6958331051973628E-002   1.7274442901014903E-002   3.8978872921744331E-002
  -5.4970894246003335E-002   1.6693132928281174E-002   3.9110197077088987E-002
  -6.9047914551111866E-002   2.0682657973149596E-002   3.4571016833406396E-002
  -6.6881458266196694E-002   1.9940043717187765E-002   3.4281527261984260E-002
  -6.4715001981281467E-002   1.9221722397136976E-002   3.4156104123668707E-002
  -6.2548545696366295E-002   1.8527694012996906E-002   3.4194747418459674E-002
  -6.0382089411451075E-002   1.7857958564767823E-002   3.4397457146357308E-002
  -7.5000244557832635E-002   2.2479334915575966E-002   2.9142618767932893E-002
  -7.2684674885649100E-002   2.1509220482139685E-002   2.9060591278086245E-002
  -7.0369105213465594E-002   2.0609757218607458E-002   2.9112724129669712E-002
  -6.8053535541282115E-002   1.9780945124978907E-002   2.9299017322683391E-002
  -6.5737965869098552E-002   1.9022784201254472E-002   2.9619470857127017E-002
  -4.3982547791706558E-002   1.4363481655307875E-002   4.8339937863055626E-002
  -4.2313495478937729E-002   1.3925859175583116E-002   4.7926832132434927E-002
  -4.0644443166168921E-002   1.3536691545963125E-002   4.7698014302717612E-002
  -3.8975390853400113E-002   1.3195978766447923E-002   4.7653484373903932E-002
  -3.7306338540631298E-002   1.2903720837037558E-002   4.7793242345993636E-002
  -4.9504380372755091E-002   1.5528307291794580E-002   4.3757690649321695E-002
  -4.7650114923062502E-002   1.5015512644647441E-002   4.3439357903703055E-002
  -4.5795849473369857E-002   1.4531321229758261E-002   4.3307163531028495E-002
  -4.3941584023677253E-002   1.4075733047126867E-002   4.3361107531298147E-002
  -4.2087318573984629E-002   1.3648748096753427E-002   4.3601189904511978E-002
  -5.4970894246003335E-002   1.6693132928281174E-002   3.9110197077088987E-002
  -5.2929565187346206E-002   1.6105166113711836E-002   3.8866785698625429E-002
  -5.0888236128689077E-002   1.5525950913553452E-002   3.8811363165146717E-002
  -4.8846907070031975E-002   1.4955487327805866E-002   3.8943929476652865E-002
  -4.6805578011374818E-002   1.4393775356469268E-002   3.9264484633143887E-002
  -6.0382089411451075E-002   1.7857958564767823E-002   3.4397457146357308E-002
  -5.8151846271788835E-002   1.7194819582776140E-002   3.4209115517201995E-002
  -5.5921603132126525E-002   1.6520580597348532E-002   3.4210613205072224E-002
  -5.3691359992464265E-002   1.5835241608484811E-002   3.4401950209967905E-002
  -5.1461116852801921E-002   1.5138802616185096E-002   3.4783126531889044E-002
  -6.5737965869098552E-002   1.9022784201254472E-002   2.9619470857127017E-002
  -6.3316958176390395E-002   1.8284473051840583E-002   2.9466347359432987E-002
  -6.0895950483682265E-002   1.7515210281143792E-002   2.9504913650805015E-002
  -5.8474942790974108E-002   1.6714995889163701E-002   2.9735169731243294E-002
  -5.6053935098265950E-002   1.5883829875900923E-002   3.0157115600747741E-002
  -3.7306338540631298E-002   1.2903720837037558E-002   4.7793242345993636E-002
  -3.5722304909353436E-002   1.2675789760675044E-002   4.7290746109580228E-002
  -3.4138271278075581E-002   1.2528057540304088E-002   4.6904433811480795E-002
  -3.2554237646797712E-002   1.2460524175923728E-002   4.6634305451695585E-002
  -3.0970204015519864E-002   1.2473189667535023E-002   4.6480361030224404E-002
  -4.2087318573984629E-002   1.3648748096753427E-002   4.3601189904511978E-002
  -4.0374524894065941E-002   1.3261647406291016E-002   4.3239672446166083E-002
  -3.8661731214147219E-002   1.2925712003392875E-002   4.3019491146787839E-002
  -3.6948937534228524E-002   1.2640941888059032E-002   4.2940646006377085E-002
  -3.5236143854309815E-002   1.2407337060289292E-002   4.3003137024933968E-002
  -4.6805578011374818E-002   1.4393775356469268E-002   3.9264484633143887E-002
  -4.4938872062161857E-002   1.3847505051906836E-002   3.9014912384438633E-002
  -4.3072166112948770E-002   1.3323366466481815E-002   3.8931828515354511E-002
  -4.1205460163735746E-002   1.2821359600194055E-002   3.9015233025891397E-002
  -3.9338754214522716E-002   1.2341484453043644E-002   3.9265125916049345E-002
  -5.1461116852801921E-002   1.5138802616185096E-002   3.4783126531889044E-002
  -4.9415346413641092E-002   1.4433362697522732E-002   3.4616465924397599E-002
  -4.7369575974480257E-002   1.3721020929570650E-002   3.4641445917180727E-002
  -4.5323805535319450E-002   1.3001777312329163E-002   3.4858066510238497E-002
  -4.3278035096158594E-002   1.2275631845798010E-002   3.5266327703570619E-002
  -5.6053935098265950E-002   1.5883829875900923E-002   3.0157115600747741E-002
  -5.3803947948503794E-002   1.5019220343138601E-002   3.0044333066043094E-002
  -5.1553960798741666E-002   1.4118675392659666E-002   3.0148343352266710E-002
  -4.9303973648979468E-002   1.3182195024464220E-002   3.0469146459418117E-002
  -4.7053986499217326E-002   1.2209779238552376E-002   3.1006742387497788E-002
  -3.0970204015519864E-002   1.2473189667535023E-002   4.6480361030224404E-002
  -2.9110165472782307E-002   1.3325169198985853E-002   4.4823252233289812E-002
  -2.7250126930044763E-002   1.5775577954126027E-002   4.3206188354401348E-002
  -2.5390088387307268E-002   1.9824415932954653E-002   4.1629169393558998E-002
  -2.3530049844569689E-002   2.5471683135472434E-002   4.0092195350762694E-002
  -3.5236143854309815E-002   1.2407337060289292E-002   4.3003137024933968E-002
  -3.3261695590359540E-002   1.2640273504502725E-002   4.2823895749788593E-002
  -3.1287247326409251E-002   1.3755127205118206E-002   4.2833428999022594E-002
  -2.9312799062458983E-002   1.5751898162135465E-002   4.3031736772635873E-002
  -2.7338350798508687E-002   1.8630586375554592E-002   4.3418819070628945E-002
  -3.9338754214522716E-002   1.2341484453043644E-002   3.9265125916049345E-002
  -3.7101166623026358E-002   1.1955377810019485E-002   3.9847240195406225E-002
  -3.4863579031529993E-002   1.1734676456110281E-002   4.0766858605475596E-002
  -3.2625991440033635E-002   1.1679380391315919E-002   4.2023981146257855E-002
  -3.0388403848537235E-002   1.1789489615636639E-002   4.3618607817752897E-002
  -4.3278035096158594E-002   1.2275631845798010E-002   3.5266327703570619E-002
  -4.0628578570782753E-002   1.1270482115536190E-002   3.5893285570142701E-002
  -3.7979122045406988E-002   9.7142257071024078E-003   3.7006477173760627E-002
  -3.5329665520031285E-002   7.6068626204967181E-003   3.8605902514424764E-002
  -3.2680208994655340E-002   4.9483928557187973E-003   4.0691561592135078E-002
  -4.7053986499217326E-002   1.2209779238552376E-002   3.1006742387497788E-002
  -4.3843931433628830E-002   1.0585586421053061E-002   3.0962031873998097E-002
  -4.0633876368040223E-002   7.6937749580945070E-003   3.1552284703877664E-002
  -3.7423821302451671E-002   3.5343448496771776E-003   3.2777500877136628E-002
  -3.4213766236863175E-002  -1.8927039041991556E-003   3.4637680393775128E-002
  -9.0366215458595828E-002   0.0000000000000000        4.9818343955692568E-002
  -9.3966377882451893E-002   5.4022429292315734E-003   5.3190031205290492E-002
  -9.7566540306307972E-002   1.0668133107162352E-002   5.4941021995707086E-002
 -0.10116670273016404        1.5797670533792319E-002   5.5071316326942343E-002
 -0.10476686515402012        2.0790855209121502E-002   5.3580914198996264E-002
 -0.10330001800745639        0.0000000000000000        5.8645511036550357E-002
 -0.10683885561471861        1.0885289697396036E-002   5.2100500679602250E-002
 -0.11037769322198085        1.9173329075916949E-002   4.7298836415023159E-002
 -0.11391653082924307        2.4864118135562732E-002   4.4240518242813102E-002
 -0.11745536843650528        2.7957656876333392E-002   4.2925546162972075E-002
 -0.12646573790355020        0.0000000000000000        7.4186173669359770E-002
 -0.12657920814266824        1.6368336465560504E-002   5.5263568138291315E-002
 -0.12669267838178624        2.7678525044671554E-002   4.1448351251142226E-002
 -0.12680614862090425        3.3930565737333142E-002   3.2740523007912553E-002
 -0.12691961886002226        3.5124458543545289E-002   2.9140083408602236E-002
 -0.15986337514687726        0.0000000000000000        9.6440331854120806E-002
 -0.15318743546630070        2.1851383233724972E-002   6.2679233581357671E-002
 -0.14651149578572417        3.6183721013426151E-002   3.7389566504064255E-002
 -0.13983555610514764        4.2997013339103551E-002   2.0571330622240609E-002
 -0.13315961642457108        4.2291260210757180E-002   1.2224525935886707E-002
 -0.20349292973743757        0.0000000000000000       0.12540798559083349     
 -0.18666353758561610        2.7334430001889436E-002   7.4347497008801333E-002
 -0.16983414543379463        4.4688916982180762E-002   3.5122482173789264E-002
 -0.15300475328197316        5.2063460940873961E-002   7.7329410857973346E-003
 -0.13617536113015166        4.9458061877969070E-002  -7.8211262551745320E-003
 -0.10476686515402012        2.0790855209121502E-002   5.3580914198996264E-002
 -0.10211029353703142        2.4931946537346469E-002   4.5590917361832323E-002
  -9.9453721920042717E-002   2.7505203922663816E-002   3.9290311346361496E-002
  -9.6797150303054025E-002   2.8510627365073513E-002   3.4679096152583702E-002
  -9.4140578686065318E-002   2.7948216864575576E-002   3.1757271780498961E-002
 -0.11745536843650528        2.7957656876333392E-002   4.2925546162972075E-002
 -0.11349855379171465        2.9428228819697665E-002   3.6662395781462576E-002
 -0.10954173914692403        3.0250117487124244E-002   3.1310340633863919E-002
 -0.10558492450213340        3.0423322878613192E-002   2.6869380720176032E-002
 -0.10162810985734277        2.9947844994164446E-002   2.3339516040398928E-002
 -0.12691961886002226        3.5124458543545289E-002   2.9140083408602236E-002
 -0.12244085677521198        3.3924511102048853E-002   2.5522930149717120E-002
 -0.11796209469040166        3.2995031051584682E-002   2.2038576536960536E-002
 -0.11348333260559137        3.2336018392152874E-002   1.8687022570332484E-002
 -0.10900457052078108        3.1947473123753331E-002   1.5468268249832991E-002
 -0.13315961642457108        4.2291260210757180E-002   1.2224525935886707E-002
 -0.12893720248752333        3.8420793384400048E-002   1.2172520466595890E-002
 -0.12471478855047564        3.5739944616045169E-002   1.1475019055651469E-002
 -0.12049237461342792        3.4248713905692584E-002   1.0132021703053174E-002
 -0.11626996067638022        3.3947101253342229E-002   8.1435284088012816E-003
 -0.13617536113015166        4.9458061877969070E-002  -7.8211262551745320E-003
 -0.13298759092864881        4.2917075666751257E-002  -3.3888332679009661E-003
 -0.12979982072714594        3.8484858180505566E-002  -3.8033181006345146E-004
 -0.12661205052564312        3.6161409419232252E-002   1.2043781183381282E-003
 -0.12342428032414021        3.5946729382931059E-002   1.3652965173037435E-003
  -9.4140578686065318E-002   2.7948216864575576E-002   3.1757271780498961E-002
  -9.1754490561090987E-002   2.6746263233857846E-002   3.1184315355277326E-002
  -8.9368402436116615E-002   2.5833057285608012E-002   3.0680852305450729E-002
  -8.6982314311142298E-002   2.5208599019826233E-002   3.0246882631019000E-002
  -8.4596226186167939E-002   2.4872888436512294E-002   2.9882406331982150E-002
 -0.10162810985734277        2.9947844994164446E-002   2.3339516040398928E-002
  -9.9156100000134417E-002   2.9176185708536802E-002   2.3066592557879458E-002
  -9.6684090142926102E-002   2.8460846896489062E-002   2.2896019164432971E-002
  -9.4212080285717772E-002   2.7801828558021206E-002   2.2827795860059633E-002
  -9.1740070428509402E-002   2.7199130693133178E-002   2.2861922644759267E-002
 -0.10900457052078108        3.1947473123753331E-002   1.5468268249832991E-002
 -0.10641378221766064        3.1606108183215811E-002   1.5262950501127519E-002
 -0.10382299391454021        3.1088636507370114E-002   1.5192839555173381E-002
 -0.10123220561141977        3.0395058096216249E-002   1.5257935411970146E-002
  -9.8641417308299284E-002   2.9525372949754124E-002   1.5458238071518287E-002
 -0.11626996067638022        3.3947101253342229E-002   8.1435284088012816E-003
 -0.11352753721366954        3.4036030657894879E-002   7.7733891850218576E-003
 -0.11078511375095890        3.3716426118251215E-002   7.5713134776716068E-003
 -0.10804269028824826        3.2988287634411306E-002   7.5373012867507817E-003
 -0.10530026682553757        3.1851615206375111E-002   7.6713526122590891E-003
 -0.12342428032414021        3.5946729382931059E-002   1.3652965173037435E-003
 -0.12049736498816122        3.6465953132573822E-002   5.9790860956215885E-004
 -0.11757044965218222        3.6344215729132261E-002   3.1440931927910476E-005
 -0.11464353431620322        3.5581517172606381E-002  -3.3410651559888545E-004
 -0.11171661898022422        3.4177857462995953E-002  -4.9873373301823065E-004
  -8.4596226186167939E-002   2.4872888436512294E-002   2.9882406331982150E-002
  -8.2197230779084085E-002   2.4579788784893863E-002   2.9172371520663626E-002
  -7.9798235372000301E-002   2.4083163314198280E-002   2.8812395322882649E-002
  -7.7399239964916489E-002   2.3383012024425703E-002   2.8802477738639035E-002
  -7.5000244557832635E-002   2.2479334915575966E-002   2.9142618767932893E-002
  -9.1740070428509402E-002   2.7199130693133178E-002   2.2861922644759267E-002
  -8.9043593000685012E-002   2.6590363142579093E-002   2.2205815771201010E-002
  -8.6347115572860567E-002   2.5913135747112848E-002   2.1794614325586548E-002
  -8.3650638145036121E-002   2.5167448506734413E-002   2.1628318307915839E-002
  -8.0954160717211746E-002   2.4353301421443707E-002   2.1706927718189023E-002
  -9.8641417308299284E-002   2.9525372949754124E-002   1.5458238071518287E-002
  -9.5752611045327882E-002   2.8600937500264323E-002   1.4991125109885151E-002
  -9.2863804782356493E-002   2.7743108180027225E-002   1.4663764390602152E-002
  -8.9974998519385035E-002   2.6951884989042985E-002   1.4476155913669311E-002
  -8.7086192256413647E-002   2.6227267927311559E-002   1.4428299679086626E-002
 -0.10530026682553757        3.1851615206375111E-002   7.6713526122590891E-003
 -0.10232428491301279        3.0611511857949650E-002   7.5282995367159621E-003
  -9.9348303000488081E-002   2.9573080612941751E-002   7.4198455179294645E-003
  -9.6372321087963272E-002   2.8736321471351713E-002   7.3459905558995097E-003
  -9.3396339175438547E-002   2.8101234433179356E-002   7.3067346506259442E-003
 -0.11171661898022422        3.4177857462995953E-002  -4.9873373301823065E-004
 -0.10875861460373970        3.2622086215634810E-002  -1.8266094830637902E-004
 -0.10580061022725523        3.1403053045856222E-002   6.2857707568531040E-005
 -0.10284260585077074        3.0520757953660299E-002   2.3782223460616647E-004
  -9.9884601474286239E-002   2.9975200939047042E-002   3.4223263280669380E-004
  -7.5000244557832635E-002   2.2479334915575966E-002   2.9142618767932893E-002
  -7.2684674885649100E-002   2.1509220482139685E-002   2.9060591278086245E-002
  -7.0369105213465594E-002   2.0609757218607458E-002   2.9112724129669712E-002
  -6.8053535541282115E-002   1.9780945124978907E-002   2.9299017322683391E-002
  -6.5737965869098552E-002   1.9022784201254472E-002   2.9619470857127017E-002
  -8.0954160717211746E-002   2.4353301421443707E-002   2.1706927718189023E-002
  -7.8490460600715739E-002   2.3510833270348169E-002   2.1501989393004919E-002
  -7.6026760484219719E-002   2.2680182832554893E-002   2.1459151615015812E-002
  -7.3563060367723768E-002   2.1861350108063723E-002   2.1578414384221395E-002
  -7.1099360251227775E-002   2.1054335096875043E-002   2.1859777700621891E-002
  -8.7086192256413647E-002   2.6227267927311559E-002   1.4428299679086626E-002
  -8.4446421489840495E-002   2.5512446058556529E-002   1.4041617061963635E-002
  -8.1806650723267288E-002   2.4750608446502502E-002   1.3844975197799925E-002
  -7.9166879956694150E-002   2.3941755091148625E-002   1.3838374086596102E-002
  -7.6527109190120957E-002   2.3085885992495669E-002   1.4021813728351429E-002
  -9.3396339175438547E-002   2.8101234433179356E-002   7.3067346506259442E-003
  -9.0552557553023424E-002   2.7514058846765117E-002   6.6794742849619389E-003
  -8.7708775930608329E-002   2.6821034060449968E-002   6.2701948780223993E-003
  -8.4864994308193192E-002   2.6022160074233594E-002   6.0788964298070678E-003
  -8.2021212685778083E-002   2.5117436888116212E-002   6.1055789403159644E-003
  -9.9884601474286239E-002   2.9975200939047042E-002   3.4223263280669380E-004
  -9.6808868790264513E-002   2.9515671634973567E-002  -5.8443893799972613E-004
  -9.3733136106242732E-002   2.8891459674397629E-002  -1.2651893443170747E-003
  -9.0657403422220950E-002   2.8102565057318250E-002  -1.7000185861452966E-003
  -8.7581670738199224E-002   2.7148987783736755E-002  -1.8889266634847801E-003
  -6.5737965869098552E-002   1.9022784201254472E-002   2.9619470857127017E-002
  -6.3316958176390395E-002   1.8284473051840583E-002   2.9466347359432987E-002
  -6.0895950483682265E-002   1.7515210281143792E-002   2.9504913650805015E-002
  -5.8474942790974108E-002   1.6714995889163701E-002   2.9735169731243294E-002
  -5.6053935098265950E-002   1.5883829875900923E-002   3.0157115600747741E-002
  -7.1099360251227775E-002   2.1054335096875043E-002   2.1859777700621891E-002
  -6.8490367195192289E-002   2.0257565420283591E-002   2.1625455887729572E-002
  -6.5881374139156790E-002   1.9469468699584616E-002   2.1575415012425894E-002
  -6.3272381083121249E-002   1.8690044934778053E-002   2.1709655074710836E-002
  -6.0663388027085804E-002   1.7919294125863849E-002   2.2028176074584127E-002
  -7.6527109190120957E-002   2.3085885992495669E-002   1.4021813728351429E-002
  -7.3737539622235837E-002   2.2230657788726696E-002   1.3745918177436672E-002
  -7.0947970054350634E-002   2.1423727118025544E-002   1.3646894712632640E-002
  -6.8158400486465529E-002   2.0665093980392291E-002   1.3724743333939266E-002
  -6.5368830918580326E-002   1.9954758375826692E-002   1.3979464041356873E-002
  -8.2021212685778083E-002   2.5117436888116212E-002   6.1055789403159644E-003
  -7.9058475457521052E-002   2.4203750157169863E-002   5.8277342285538818E-003
  -7.6095738229263868E-002   2.3377985536466476E-002   5.7193527514246469E-003
  -7.3133001001006767E-002   2.2640143026006476E-002   5.7804345089285400E-003
  -7.0170263772749666E-002   2.1990222625789632E-002   6.0109795010657684E-003
  -8.7581670738199224E-002   2.7148987783736755E-002  -1.8889266634847801E-003
  -8.4453174701047851E-002   2.6176842525612920E-002  -2.1290959589188585E-003
  -8.1324678663896477E-002   2.5332243954907380E-002  -2.2072108711975041E-003
  -7.8196182626745159E-002   2.4615192071620849E-002  -2.1232714003207691E-003
  -7.5067686589593730E-002   2.4025686875752350E-002  -1.8772775462890801E-003
  -5.6053935098265950E-002   1.5883829875900923E-002   3.0157115600747741E-002
  -5.3803947948503794E-002   1.5019220343138601E-002   3.0044333066043094E-002
  -5.1553960798741666E-002   1.4118675392659666E-002   3.0148343352266710E-002
  -4.9303973648979468E-002   1.3182195024464220E-002   3.0469146459418117E-002
  -4.7053986499217326E-002   1.2209779238552376E-002   3.1006742387497788E-002
  -6.0663388027085804E-002   1.7919294125863849E-002   2.2028176074584127E-002
  -5.8223697766674284E-002   1.7126903842150515E-002   2.1748370205322581E-002
  -5.5784007506262716E-002   1.6282561652946573E-002   2.1631177736431792E-002
  -5.3344317245851203E-002   1.5386267558251971E-002   2.1676598667911572E-002
  -5.0904626985439627E-002   1.4438021558066672E-002   2.1884632999762177E-002
  -6.5368830918580326E-002   1.9954758375826692E-002   1.3979464041356873E-002
  -6.2793616968076768E-002   1.9234587341162609E-002   1.3516618349763990E-002
  -6.0218403017573245E-002   1.8446447913233695E-002   1.3162206637984467E-002
  -5.7643189067069694E-002   1.7590340092039664E-002   1.2916228906018647E-002
  -5.5067975116566165E-002   1.6666263877580689E-002   1.2778685153865849E-002
  -7.0170263772749666E-002   2.1990222625789632E-002   6.0109795010657684E-003
  -6.7513705552711439E-002   2.1342270840174558E-002   5.3490774993675654E-003
  -6.4857147332673185E-002   2.0610334173520487E-002   4.7414300569253217E-003
  -6.2200589112634930E-002   1.9794412625827165E-002   4.1880371737389949E-003
  -5.9544030892596723E-002   1.8894506197094901E-002   3.6888988498087194E-003
  -7.5067686589593730E-002   2.4025686875752350E-002  -1.8772775462890801E-003
  -7.2383963520578187E-002   2.3449954339186729E-002  -2.7542523458669588E-003
  -6.9700240451562590E-002   2.2774220433807585E-002  -3.6311520067463243E-003
  -6.7016517382547020E-002   2.1998485159615076E-002  -4.5079765289266424E-003
  -6.4332794313531450E-002   2.1122748516609002E-002  -5.3847259124087943E-003
  -4.7053986499217326E-002   1.2209779238552376E-002   3.1006742387497788E-002
  -4.3843931433628830E-002   1.0585586421053061E-002   3.0962031873998097E-002
  -4.0633876368040223E-002   7.6937749580945070E-003   3.1552284703877664E-002
  -3.7423821302451671E-002   3.5343448496771776E-003   3.2777500877136628E-002
  -3.4213766236863175E-002  -1.8927039041991556E-003   3.4637680393775128E-002
  -5.0904626985439627E-002   1.4438021558066672E-002   2.1884632999762177E-002
  -4.7361270606100819E-002   1.3402034066974100E-002   2.0529977950837691E-002
  -4.3817914226761984E-002   1.2242515499557544E-002   1.9206962186034265E-002
  -4.0274557847423148E-002   1.0959465855816967E-002   1.7915585705352344E-002
  -3.6731201468084285E-002   9.5528851357526978E-003   1.6655848508790871E-002
  -5.5067975116566165E-002   1.6666263877580689E-002   1.2778685153865849E-002
  -5.1794641482735222E-002   1.6218481712895055E-002   1.1258173138651614E-002
  -4.8521307848904419E-002   1.6791256041020483E-002   9.1659763483003254E-003
  -4.5247974215073615E-002   1.8384586861956872E-002   6.5020947828119333E-003
  -4.1974640581242631E-002   2.0998474175704551E-002   3.2665284421864449E-003
  -5.9544030892596723E-002   1.8894506197094901E-002   3.6888988498087194E-003
  -5.7144044063532094E-002   1.9034929358816219E-002   3.1466174374400087E-003
  -5.4744057234467430E-002   2.1339996582483305E-002   1.4293271906757228E-003
  -5.2344070405402954E-002   2.5809707868096721E-002  -1.4629718904840584E-003
  -4.9944083576338186E-002   3.2444063215656682E-002  -5.5302798060389013E-003
  -6.4332794313531450E-002   2.1122748516609002E-002  -5.3847259124087943E-003
  -6.3409478348491310E-002   2.1851377004736827E-002  -3.8046891527971916E-003
  -6.2486162383451282E-002   2.5888737123946570E-002  -4.0029852868393445E-003
  -6.1562846418411199E-002   3.3234828874236483E-002  -5.9796143145345176E-003
  -6.0639530453371115E-002   4.3889652255608258E-002  -9.7345762358842514E-003
 </DataArray>
 </PointData>
 </Piece>
 <Piece  NumberOfPoints="          1600 "  NumberOfCells="         1024 ">
 <Points>
 <DataArray  type="Float64" NumberOfComponents="3"  format="ascii" >
  0.50000000000000000        0.0000000000000000        0.0000000000000000     
  0.53125000000000000        0.0000000000000000        0.0000000000000000     
  0.56250000000000000        0.0000000000000000        0.0000000000000000     
  0.59375000000000000        0.0000000000000000        0.0000000000000000     
  0.62500000000000000        0.0000000000000000        0.0000000000000000     
  0.50000000000000000        3.1250000000000000E-002   0.0000000000000000     
  0.53125000000000000        3.1250000000000000E-002   0.0000000000000000     
  0.56250000000000000        3.1250000000000000E-002   0.0000000000000000     
  0.59375000000000000        3.1250000000000000E-002   0.0000000000000000     
  0.62500000000000000        3.1250000000000000E-002   0.0000000000000000     
  0.50000000000000000        6.2500000000000000E-002   0.0000000000000000     
  0.53125000000000000        6.2500000000000000E-002   0.0000000000000000     
  0.56250000000000000        6.2500000000000000E-002   0.0000000000000000     
  0.59375000000000000        6.2500000000000000E-002   0.0000000000000000     
  0.62500000000000000        6.2500000000000000E-002   0.0000000000000000     
  0.50000000000000000        9.3750000000000000E-002   0.0000000000000000     
  0.53125000000000000        9.3750000000000000E-002   0.0000000000000000     
  0.56250000000000000        9.3750000000000000E-002   0.0000000000000000     
  0.59375000000000000        9.3750000000000000E-002   0.0000000000000000     
  0.62500000000000000        9.3750000000000000E-002   0.0000000000000000     
  0.50000000000000000       0.12500000000000000        0.0000000000000000     
  0.53125000000000000       0.12500000000000000        0.0000000000000000     
  0.56250000000000000       0.12500000000000000        0.0000000000000000     
  0.59375000000000000       0.12500000000000000        0.0000000000000000     
  0.62500000000000000       0.12500000000000000        0.0000000000000000     
  0.62500000000000000        0.0000000000000000        0.0000000000000000     
  0.65625000000000000        0.0000000000000000        0.0000000000000000     
  0.68750000000000000        0.0000000000000000        0.0000000000000000     
  0.71875000000000000        0.0000000000000000        0.0000000000000000     
  0.75000000000000000        0.0000000000000000        0.0000000000000000     
  0.62500000000000000        3.1250000000000000E-002   0.0000000000000000     
  0.65625000000000000        3.1250000000000000E-002   0.0000000000000000     
  0.68750000000000000        3.1250000000000000E-002   0.0000000000000000     
  0.71875000000000000        3.1250000000000000E-002   0.0000000000000000     
  0.75000000000000000        3.1250000000000000E-002   0.0000000000000000     
  0.62500000000000000        6.2500000000000000E-002   0.0000000000000000     
  0.65625000000000000        6.2500000000000000E-002   0.0000000000000000     
  0.68750000000000000        6.2500000000000000E-002   0.0000000000000000     
  0.71875000000000000        6.2500000000000000E-002   0.0000000000000000     
  0.75000000000000000        6.2500000000000000E-002   0.0000000000000000     
  0.62500000000000000        9.3750000000000000E-002   0.0000000000000000     
  0.65625000000000000        9.3750000000000000E-002   0.0000000000000000     
  0.68750000000000000        9.3750000000000000E-002   0.0000000000000000     
  0.71875000000000000        9.3750000000000000E-002   0.0000000000000000     
  0.75000000000000000        9.3750000000000000E-002   0.0000000000000000     
  0.62500000000000000       0.12500000000000000        0.0000000000000000     
  0.65625000000000000       0.12500000000000000        0.0000000000000000     
  0.68750000000000000       0.12500000000000000        0.0000000000000000     
  0.71875000000000000       0.12500000000000000        0.0000000000000000     
  0.75000000000000000       0.12500000000000000        0.0000000000000000     
  0.75000000000000000        0.0000000000000000        0.0000000000000000     
  0.78125000000000000        0.0000000000000000        0.0000000000000000     
  0.81250000000000000        0.0000000000000000        0.0000000000000000     
  0.84375000000000000        0.0000000000000000        0.0000000000000000     
  0.87500000000000000        0.0000000000000000        0.0000000000000000     
  0.75000000000000000        3.1250000000000000E-002   0.0000000000000000     
  0.78125000000000000        3.1250000000000000E-002   0.0000000000000000     
  0.81250000000000000        3.1250000000000000E-002   0.0000000000000000     
  0.84375000000000000        3.1250000000000000E-002   0.0000000000000000     
  0.87500000000000000        3.1250000000000000E-002   0.0000000000000000     
  0.75000000000000000        6.2500000000000000E-002   0.0000000000000000     
  0.78125000000000000        6.2500000000000000E-002   0.0000000000000000     
  0.81250000000000000        6.2500000000000000E-002   0.0000000000000000     
  0.84375000000000000        6.2500000000000000E-002   0.0000000000000000     
  0.87500000000000000        6.2500000000000000E-002   0.0000000000000000     
  0.75000000000000000        9.3750000000000000E-002   0.0000000000000000     
  0.78125000000000000        9.3750000000000000E-002   0.0000000000000000     
  0.81250000000000000        9.3750000000000000E-002   0.0000000000000000     
  0.84375000000000000        9.3750000000000000E-002   0.0000000000000000     
  0.87500000000000000        9.3750000000000000E-002   0.0000000000000000     
  0.75000000000000000       0.12500000000000000        0.0000000000000000     
  0.78125000000000000       0.12500000000000000        0.0000000000000000     
  0.81250000000000000       0.12500000000000000        0.0000000000000000     
  0.84375000000000000       0.12500000000000000        0.0000000000000000     
  0.87500000000000000       0.12500000000000000        0.0000000000000000     
  0.87500000000000000        0.0000000000000000        0.0000000000000000     
  0.90625000000000000        0.0000000000000000        0.0000000000000000     
  0.93750000000000000        0.0000000000000000        0.0000000000000000     
  0.96875000000000000        0.0000000000000000        0.0000000000000000     
   1.0000000000000000        0.0000000000000000        0.0000000000000000     
  0.87500000000000000        3.1250000000000000E-002   0.0000000000000000     
  0.90625000000000000        3.1250000000000000E-002   0.0000000000000000     
  0.93750000000000000        3.1250000000000000E-002   0.0000000000000000     
  0.96875000000000000        3.1250000000000000E-002   0.0000000000000000     
   1.0000000000000000        3.1250000000000000E-002   0.0000000000000000     
  0.87500000000000000        6.2500000000000000E-002   0.0000000000000000     
  0.90625000000000000        6.2500000000000000E-002   0.0000000000000000     
  0.93750000000000000        6.2500000000000000E-002   0.0000000000000000     
  0.96875000000000000        6.2500000000000000E-002   0.0000000000000000     
   1.0000000000000000        6.2500000000000000E-002   0.0000000000000000     
  0.87500000000000000        9.3750000000000000E-002   0.0000000000000000     
  0.90625000000000000        9.3750000000000000E-002   0.0000000000000000     
  0.93750000000000000        9.3750000000000000E-002   0.0000000000000000     
  0.96875000000000000        9.3750000000000000E-002   0.0000000000000000     
   1.0000000000000000        9.3750000000000000E-002   0.0000000000000000     
  0.87500000000000000       0.12500000000000000        0.0000000000000000     
  0.90625000000000000       0.12500000000000000        0.0000000000000000     
  0.93750000000000000       0.12500000000000000        0.0000000000000000     
  0.96875000000000000       0.12500000000000000        0.0000000000000000     
   1.0000000000000000       0.12500000000000000        0.0000000000000000     
   1.0000000000000000        0.0000000000000000        0.0000000000000000     
   1.0312500000000000        0.0000000000000000        0.0000000000000000     
   1.0625000000000000        0.0000000000000000        0.0000000000000000     
   1.0937500000000000        0.0000000000000000        0.0000000000000000     
   1.1250000000000000        0.0000000000000000        0.0000000000000000     
   1.0000000000000000        3.1250000000000000E-002   0.0000000000000000     
   1.0312500000000000        3.1250000000000000E-002   0.0000000000000000     
   1.0625000000000000        3.1250000000000000E-002   0.0000000000000000     
   1.0937500000000000        3.1250000000000000E-002   0.0000000000000000     
   1.1250000000000000        3.1250000000000000E-002   0.0000000000000000     
   1.0000000000000000        6.2500000000000000E-002   0.0000000000000000     
   1.0312500000000000        6.2500000000000000E-002   0.0000000000000000     
   1.0625000000000000        6.2500000000000000E-002   0.0000000000000000     
   1.0937500000000000        6.2500000000000000E-002   0.0000000000000000     
   1.1250000000000000        6.2500000000000000E-002   0.0000000000000000     
   1.0000000000000000        9.3750000000000000E-002   0.0000000000000000     
   1.0312500000000000        9.3750000000000000E-002   0.0000000000000000     
   1.0625000000000000        9.3750000000000000E-002   0.0000000000000000     
   1.0937500000000000        9.3750000000000000E-002   0.0000000000000000     
   1.1250000000000000        9.3750000000000000E-002   0.0000000000000000     
   1.0000000000000000       0.12500000000000000        0.0000000000000000     
   1.0312500000000000       0.12500000000000000        0.0000000000000000     
   1.0625000000000000       0.12500000000000000        0.0000000000000000     
   1.0937500000000000       0.12500000000000000        0.0000000000000000     
   1.1250000000000000       0.12500000000000000        0.0000000000000000     
   1.1250000000000000        0.0000000000000000        0.0000000000000000     
   1.1562500000000000        0.0000000000000000        0.0000000000000000     
   1.1875000000000000        0.0000000000000000        0.0000000000000000     
   1.2187500000000000        0.0000000000000000        0.0000000000000000     
   1.2500000000000000        0.0000000000000000        0.0000000000000000     
   1.1250000000000000        3.1250000000000000E-002   0.0000000000000000     
   1.1562500000000000        3.1250000000000000E-002   0.0000000000000000     
   1.1875000000000000        3.1250000000000000E-002   0.0000000000000000     
   1.2187500000000000        3.1250000000000000E-002   0.0000000000000000     
   1.2500000000000000        3.1250000000000000E-002   0.0000000000000000     
   1.1250000000000000        6.2500000000000000E-002   0.0000000000000000     
   1.1562500000000000        6.2500000000000000E-002   0.0000000000000000     
   1.1875000000000000        6.2500000000000000E-002   0.0000000000000000     
   1.2187500000000000        6.2500000000000000E-002   0.0000000000000000     
   1.2500000000000000        6.2500000000000000E-002   0.0000000000000000     
   1.1250000000000000        9.3750000000000000E-002   0.0000000000000000     
   1.1562500000000000        9.3750000000000000E-002   0.0000000000000000     
   1.1875000000000000        9.3750000000000000E-002   0.0000000000000000     
   1.2187500000000000        9.3750000000000000E-002   0.0000000000000000     
   1.2500000000000000        9.3750000000000000E-002   0.0000000000000000     
   1.1250000000000000       0.12500000000000000        0.0000000000000000     
   1.1562500000000000       0.12500000000000000        0.0000000000000000     
   1.1875000000000000       0.12500000000000000        0.0000000000000000     
   1.2187500000000000       0.12500000000000000        0.0000000000000000     
   1.2500000000000000       0.12500000000000000        0.0000000000000000     
   1.2500000000000000        0.0000000000000000        0.0000000000000000     
   1.2812500000000000        0.0000000000000000        0.0000000000000000     
   1.3125000000000000        0.0000000000000000        0.0000000000000000     
   1.3437500000000000        0.0000000000000000        0.0000000000000000     
   1.3750000000000000        0.0000000000000000        0.0000000000000000     
   1.2500000000000000        3.1250000000000000E-002   0.0000000000000000     
   1.2812500000000000        3.1250000000000000E-002   0.0000000000000000     
   1.3125000000000000        3.1250000000000000E-002   0.0000000000000000     
   1.3437500000000000        3.1250000000000000E-002   0.0000000000000000     
   1.3750000000000000        3.1250000000000000E-002   0.0000000000000000     
   1.2500000000000000        6.2500000000000000E-002   0.0000000000000000     
   1.2812500000000000        6.2500000000000000E-002   0.0000000000000000     
   1.3125000000000000        6.2500000000000000E-002   0.0000000000000000     
   1.3437500000000000        6.2500000000000000E-002   0.0000000000000000     
   1.3750000000000000        6.2500000000000000E-002   0.0000000000000000     
   1.2500000000000000        9.3750000000000000E-002   0.0000000000000000     
   1.2812500000000000        9.3750000000000000E-002   0.0000000000000000     
   1.3125000000000000        9.3750000000000000E-002   0.0000000000000000     
   1.3437500000000000        9.3750000000000000E-002   0.0000000000000000     
   1.3750000000000000        9.3750000000000000E-002   0.0000000000000000     
   1.2500000000000000       0.12500000000000000        0.0000000000000000     
   1.2812500000000000       0.12500000000000000        0.0000000000000000     
   1.3125000000000000       0.12500000000000000        0.0000000000000000     
   1.3437500000000000       0.12500000000000000        0.0000000000000000     
   1.3750000000000000       0.12500000000000000        0.0000000000000000     
   1.3750000000000000        0.0000000000000000        0.0000000000000000     
   1.4062500000000000        0.0000000000000000        0.0000000000000000     
   1.4375000000000000        0.0000000000000000        0.0000000000000000     
   1.4687500000000000        0.0000000000000000        0.0000000000000000     
   1.5000000000000000        0.0000000000000000        0.0000000000000000     
   1.3750000000000000        3.1250000000000000E-002   0.0000000000000000     
   1.4062500000000000        3.1250000000000000E-002   0.0000000000000000     
   1.4375000000000000        3.1250000000000000E-002   0.0000000000000000     
   1.4687500000000000        3.1250000000000000E-002   0.0000000000000000     
   1.5000000000000000        3.1250000000000000E-002   0.0000000000000000     
   1.3750000000000000        6.2500000000000000E-002   0.0000000000000000     
   1.4062500000000000        6.2500000000000000E-002   0.0000000000000000     
   1.4375000000000000        6.2500000000000000E-002   0.0000000000000000     
   1.4687500000000000        6.2500000000000000E-002   0.0000000000000000     
   1.5000000000000000        6.2500000000000000E-002   0.0000000000000000     
   1.3750000000000000        9.3750000000000000E-002   0.0000000000000000     
   1.4062500000000000        9.3750000000000000E-002   0.0000000000000000     
   1.4375000000000000        9.3750000000000000E-002   0.0000000000000000     
   1.4687500000000000        9.3750000000000000E-002   0.0000000000000000     
   1.5000000000000000        9.3750000000000000E-002   0.0000000000000000     
   1.3750000000000000       0.12500000000000000        0.0000000000000000     
   1.4062500000000000       0.12500000000000000        0.0000000000000000     
   1.4375000000000000       0.12500000000000000        0.0000000000000000     
   1.4687500000000000       0.12500000000000000        0.0000000000000000     
   1.5000000000000000       0.12500000000000000        0.0000000000000000     
  0.50000000000000000       0.12500000000000000        0.0000000000000000     
  0.53125000000000000       0.12500000000000000        0.0000000000000000     
  0.56250000000000000       0.12500000000000000        0.0000000000000000     
  0.59375000000000000       0.12500000000000000        0.0000000000000000     
  0.62500000000000000       0.12500000000000000        0.0000000000000000     
  0.50000000000000000       0.15625000000000000        0.0000000000000000     
  0.53125000000000000       0.15625000000000000        0.0000000000000000     
  0.56250000000000000       0.15625000000000000        0.0000000000000000     
  0.59375000000000000       0.15625000000000000        0.0000000000000000     
  0.62500000000000000       0.15625000000000000        0.0000000000000000     
  0.50000000000000000       0.18750000000000000        0.0000000000000000     
  0.53125000000000000       0.18750000000000000        0.0000000000000000     
  0.56250000000000000       0.18750000000000000        0.0000000000000000     
  0.59375000000000000       0.18750000000000000        0.0000000000000000     
  0.62500000000000000       0.18750000000000000        0.0000000000000000     
  0.50000000000000000       0.21875000000000000        0.0000000000000000     
  0.53125000000000000       0.21875000000000000        0.0000000000000000     
  0.56250000000000000       0.21875000000000000        0.0000000000000000     
  0.59375000000000000       0.21875000000000000        0.0000000000000000     
  0.62500000000000000       0.21875000000000000        0.0000000000000000     
  0.50000000000000000       0.25000000000000000        0.0000000000000000     
  0.53125000000000000       0.25000000000000000        0.0000000000000000     
  0.56250000000000000       0.25000000000000000        0.0000000000000000     
  0.59375000000000000       0.25000000000000000        0.0000000000000000     
  0.62500000000000000       0.25000000000000000        0.0000000000000000     
  0.62500000000000000       0.12500000000000000        0.0000000000000000     
  0.65625000000000000       0.12500000000000000        0.0000000000000000     
  0.68750000000000000       0.12500000000000000        0.0000000000000000     
  0.71875000000000000       0.12500000000000000        0.0000000000000000     
  0.75000000000000000       0.12500000000000000        0.0000000000000000     
  0.62500000000000000       0.15625000000000000        0.0000000000000000     
  0.65625000000000000       0.15625000000000000        0.0000000000000000     
  0.68750000000000000       0.15625000000000000        0.0000000000000000     
  0.71875000000000000       0.15625000000000000        0.0000000000000000     
  0.75000000000000000       0.15625000000000000        0.0000000000000000     
  0.62500000000000000       0.18750000000000000        0.0000000000000000     
  0.65625000000000000       0.18750000000000000        0.0000000000000000     
  0.68750000000000000       0.18750000000000000        0.0000000000000000     
  0.71875000000000000       0.18750000000000000        0.0000000000000000     
  0.75000000000000000       0.18750000000000000        0.0000000000000000     
  0.62500000000000000       0.21875000000000000        0.0000000000000000     
  0.65625000000000000       0.21875000000000000        0.0000000000000000     
  0.68750000000000000       0.21875000000000000        0.0000000000000000     
  0.71875000000000000       0.21875000000000000        0.0000000000000000     
  0.75000000000000000       0.21875000000000000        0.0000000000000000     
  0.62500000000000000       0.25000000000000000        0.0000000000000000     
  0.65625000000000000       0.25000000000000000        0.0000000000000000     
  0.68750000000000000       0.25000000000000000        0.0000000000000000     
  0.71875000000000000       0.25000000000000000        0.0000000000000000     
  0.75000000000000000       0.25000000000000000        0.0000000000000000     
  0.75000000000000000       0.12500000000000000        0.0000000000000000     
  0.78125000000000000       0.12500000000000000        0.0000000000000000     
  0.81250000000000000       0.12500000000000000        0.0000000000000000     
  0.84375000000000000       0.12500000000000000        0.0000000000000000     
  0.87500000000000000       0.12500000000000000        0.0000000000000000     
  0.75000000000000000       0.15625000000000000        0.0000000000000000     
  0.78125000000000000       0.15625000000000000        0.0000000000000000     
  0.81250000000000000       0.15625000000000000        0.0000000000000000     
  0.84375000000000000       0.15625000000000000        0.0000000000000000     
  0.87500000000000000       0.15625000000000000        0.0000000000000000     
  0.75000000000000000       0.18750000000000000        0.0000000000000000     
  0.78125000000000000       0.18750000000000000        0.0000000000000000     
  0.81250000000000000       0.18750000000000000        0.0000000000000000     
  0.84375000000000000       0.18750000000000000        0.0000000000000000     
  0.87500000000000000       0.18750000000000000        0.0000000000000000     
  0.75000000000000000       0.21875000000000000        0.0000000000000000     
  0.78125000000000000       0.21875000000000000        0.0000000000000000     
  0.81250000000000000       0.21875000000000000        0.0000000000000000     
  0.84375000000000000       0.21875000000000000        0.0000000000000000     
  0.87500000000000000       0.21875000000000000        0.0000000000000000     
  0.75000000000000000       0.25000000000000000        0.0000000000000000     
  0.78125000000000000       0.25000000000000000        0.0000000000000000     
  0.81250000000000000       0.25000000000000000        0.0000000000000000     
  0.84375000000000000       0.25000000000000000        0.0000000000000000     
  0.87500000000000000       0.25000000000000000        0.0000000000000000     
  0.87500000000000000       0.12500000000000000        0.0000000000000000     
  0.90625000000000000       0.12500000000000000        0.0000000000000000     
  0.93750000000000000       0.12500000000000000        0.0000000000000000     
  0.96875000000000000       0.12500000000000000        0.0000000000000000     
   1.0000000000000000       0.12500000000000000        0.0000000000000000     
  0.87500000000000000       0.15625000000000000        0.0000000000000000     
  0.90625000000000000       0.15625000000000000        0.0000000000000000     
  0.93750000000000000       0.15625000000000000        0.0000000000000000     
  0.96875000000000000       0.15625000000000000        0.0000000000000000     
   1.0000000000000000       0.15625000000000000        0.0000000000000000     
  0.87500000000000000       0.18750000000000000        0.0000000000000000     
  0.90625000000000000       0.18750000000000000        0.0000000000000000     
  0.93750000000000000       0.18750000000000000        0.0000000000000000     
  0.96875000000000000       0.18750000000000000        0.0000000000000000     
   1.0000000000000000       0.18750000000000000        0.0000000000000000     
  0.87500000000000000       0.21875000000000000        0.0000000000000000     
  0.90625000000000000       0.21875000000000000        0.0000000000000000     
  0.93750000000000000       0.21875000000000000        0.0000000000000000     
  0.96875000000000000       0.21875000000000000        0.0000000000000000     
   1.0000000000000000       0.21875000000000000        0.0000000000000000     
  0.87500000000000000       0.25000000000000000        0.0000000000000000     
  0.90625000000000000       0.25000000000000000        0.0000000000000000     
  0.93750000000000000       0.25000000000000000        0.0000000000000000     
  0.96875000000000000       0.25000000000000000        0.0000000000000000     
   1.0000000000000000       0.25000000000000000        0.0000000000000000     
   1.0000000000000000       0.12500000000000000        0.0000000000000000     
   1.0312500000000000       0.12500000000000000        0.0000000000000000     
   1.0625000000000000       0.12500000000000000        0.0000000000000000     
   1.0937500000000000       0.12500000000000000        0.0000000000000000     
   1.1250000000000000       0.12500000000000000        0.0000000000000000     
   1.0000000000000000       0.15625000000000000        0.0000000000000000     
   1.0312500000000000       0.15625000000000000        0.0000000000000000     
   1.0625000000000000       0.15625000000000000        0.0000000000000000     
   1.0937500000000000       0.15625000000000000        0.0000000000000000     
   1.1250000000000000       0.15625000000000000        0.0000000000000000     
   1.0000000000000000       0.18750000000000000        0.0000000000000000     
   1.0312500000000000       0.18750000000000000        0.0000000000000000     
   1.0625000000000000       0.18750000000000000        0.0000000000000000     
   1.0937500000000000       0.18750000000000000        0.0000000000000000     
   1.1250000000000000       0.18750000000000000        0.0000000000000000     
   1.0000000000000000       0.21875000000000000        0.0000000000000000     
   1.0312500000000000       0.21875000000000000        0.0000000000000000     
   1.0625000000000000       0.21875000000000000        0.0000000000000000     
   1.0937500000000000       0.21875000000000000        0.0000000000000000     
   1.1250000000000000       0.21875000000000000        0.0000000000000000     
   1.0000000000000000       0.25000000000000000        0.0000000000000000     
   1.0312500000000000       0.25000000000000000        0.0000000000000000     
   1.0625000000000000       0.25000000000000000        0.0000000000000000     
   1.0937500000000000       0.25000000000000000        0.0000000000000000     
   1.1250000000000000       0.25000000000000000        0.0000000000000000     
   1.1250000000000000       0.12500000000000000        0.0000000000000000     
   1.1562500000000000       0.12500000000000000        0.0000000000000000     
   1.1875000000000000       0.12500000000000000        0.0000000000000000     
   1.2187500000000000       0.12500000000000000        0.0000000000000000     
   1.2500000000000000       0.12500000000000000        0.0000000000000000     
   1.1250000000000000       0.15625000000000000        0.0000000000000000     
   1.1562500000000000       0.15625000000000000        0.0000000000000000     
   1.1875000000000000       0.15625000000000000        0.0000000000000000     
   1.2187500000000000       0.15625000000000000        0.0000000000000000     
   1.2500000000000000       0.15625000000000000        0.0000000000000000     
   1.1250000000000000       0.18750000000000000        0.0000000000000000     
   1.1562500000000000       0.18750000000000000        0.0000000000000000     
   1.1875000000000000       0.18750000000000000        0.0000000000000000     
   1.2187500000000000       0.18750000000000000        0.0000000000000000     
   1.2500000000000000       0.18750000000000000        0.0000000000000000     
   1.1250000000000000       0.21875000000000000        0.0000000000000000     
   1.1562500000000000       0.21875000000000000        0.0000000000000000     
   1.1875000000000000       0.21875000000000000        0.0000000000000000     
   1.2187500000000000       0.21875000000000000        0.0000000000000000     
   1.2500000000000000       0.21875000000000000        0.0000000000000000     
   1.1250000000000000       0.25000000000000000        0.0000000000000000     
   1.1562500000000000       0.25000000000000000        0.0000000000000000     
   1.1875000000000000       0.25000000000000000        0.0000000000000000     
   1.2187500000000000       0.25000000000000000        0.0000000000000000     
   1.2500000000000000       0.25000000000000000        0.0000000000000000     
   1.2500000000000000       0.12500000000000000        0.0000000000000000     
   1.2812500000000000       0.12500000000000000        0.0000000000000000     
   1.3125000000000000       0.12500000000000000        0.0000000000000000     
   1.3437500000000000       0.12500000000000000        0.0000000000000000     
   1.3750000000000000       0.12500000000000000        0.0000000000000000     
   1.2500000000000000       0.15625000000000000        0.0000000000000000     
   1.2812500000000000       0.15625000000000000        0.0000000000000000     
   1.3125000000000000       0.15625000000000000        0.0000000000000000     
   1.3437500000000000       0.15625000000000000        0.0000000000000000     
   1.3750000000000000       0.15625000000000000        0.0000000000000000     
   1.2500000000000000       0.18750000000000000        0.0000000000000000     
   1.2812500000000000       0.18750000000000000        0.0000000000000000     
   1.3125000000000000       0.18750000000000000        0.0000000000000000     
   1.3437500000000000       0.18750000000000000        0.0000000000000000     
   1.3750000000000000       0.18750000000000000        0.0000000000000000     
   1.2500000000000000       0.21875000000000000        0.0000000000000000     
   1.2812500000000000       0.21875000000000000        0.0000000000000000     
   1.3125000000000000       0.21875000000000000        0.0000000000000000     
   1.3437500000000000       0.21875000000000000        0.0000000000000000     
   1.3750000000000000       0.21875000000000000        0.0000000000000000     
   1.2500000000000000       0.25000000000000000        0.0000000000000000     
   1.2812500000000000       0.25000000000000000        0.0000000000000000     
   1.3125000000000000       0.25000000000000000        0.0000000000000000     
   1.3437500000000000       0.25000000000000000        0.0000000000000000     
   1.3750000000000000       0.25000000000000000        0.0000000000000000     
   1.3750000000000000       0.12500000000000000        0.0000000000000000     
   1.4062500000000000       0.12500000000000000        0.0000000000000000     
   1.4375000000000000       0.12500000000000000        0.0000000000000000     
   1.4687500000000000       0.12500000000000000        0.0000000000000000     
   1.5000000000000000       0.12500000000000000        0.0000000000000000     
   1.3750000000000000       0.15625000000000000        0.0000000000000000     
   1.4062500000000000       0.15625000000000000        0.0000000000000000     
   1.4375000000000000       0.15625000000000000        0.0000000000000000     
   1.4687500000000000       0.15625000000000000        0.0000000000000000     
   1.5000000000000000       0.15625000000000000        0.0000000000000000     
   1.3750000000000000       0.18750000000000000        0.0000000000000000     
   1.4062500000000000       0.18750000000000000        0.0000000000000000     
   1.4375000000000000       0.18750000000000000        0.0000000000000000     
   1.4687500000000000       0.18750000000000000        0.0000000000000000     
   1.5000000000000000       0.18750000000000000        0.0000000000000000     
   1.3750000000000000       0.21875000000000000        0.0000000000000000     
   1.4062500000000000       0.21875000000000000        0.0000000000000000     
   1.4375000000000000       0.21875000000000000        0.0000000000000000     
   1.4687500000000000       0.21875000000000000        0.0000000000000000     
   1.5000000000000000       0.21875000000000000        0.0000000000000000     
   1.3750000000000000       0.25000000000000000        0.0000000000000000     
   1.4062500000000000       0.25000000000000000        0.0000000000000000     
   1.4375000000000000       0.25000000000000000        0.0000000000000000     
   1.4687500000000000       0.25000000000000000        0.0000000000000000     
   1.5000000000000000       0.25000000000000000        0.0000000000000000     
  0.50000000000000000       0.25000000000000000        0.0000000000000000     
  0.53125000000000000       0.25000000000000000        0.0000000000000000     
  0.56250000000000000       0.25000000000000000        0.0000000000000000     
  0.59375000000000000       0.25000000000000000        0.0000000000000000     
  0.62500000000000000       0.25000000000000000        0.0000000000000000     
  0.50000000000000000       0.28125000000000000        0.0000000000000000     
  0.53125000000000000       0.28125000000000000        0.0000000000000000     
  0.56250000000000000       0.28125000000000000        0.0000000000000000     
  0.59375000000000000       0.28125000000000000        0.0000000000000000     
  0.62500000000000000       0.28125000000000000        0.0000000000000000     
  0.50000000000000000       0.31250000000000000        0.0000000000000000     
  0.53125000000000000       0.31250000000000000        0.0000000000000000     
  0.56250000000000000       0.31250000000000000        0.0000000000000000     
  0.59375000000000000       0.31250000000000000        0.0000000000000000     
  0.62500000000000000       0.31250000000000000        0.0000000000000000     
  0.50000000000000000       0.34375000000000000        0.0000000000000000     
  0.53125000000000000       0.34375000000000000        0.0000000000000000     
  0.56250000000000000       0.34375000000000000        0.0000000000000000     
  0.59375000000000000       0.34375000000000000        0.0000000000000000     
  0.62500000000000000       0.34375000000000000        0.0000000000000000     
  0.50000000000000000       0.37500000000000000        0.0000000000000000     
  0.53125000000000000       0.37500000000000000        0.0000000000000000     
  0.56250000000000000       0.37500000000000000        0.0000000000000000     
  0.59375000000000000       0.37500000000000000        0.0000000000000000     
  0.62500000000000000       0.37500000000000000        0.0000000000000000     
  0.62500000000000000       0.25000000000000000        0.0000000000000000     
  0.65625000000000000       0.25000000000000000        0.0000000000000000     
  0.68750000000000000       0.25000000000000000        0.0000000000000000     
  0.71875000000000000       0.25000000000000000        0.0000000000000000     
  0.75000000000000000       0.25000000000000000        0.0000000000000000     
  0.62500000000000000       0.28125000000000000        0.0000000000000000     
  0.65625000000000000       0.28125000000000000        0.0000000000000000     
  0.68750000000000000       0.28125000000000000        0.0000000000000000     
  0.71875000000000000       0.28125000000000000        0.0000000000000000     
  0.75000000000000000       0.28125000000000000        0.0000000000000000     
  0.62500000000000000       0.31250000000000000        0.0000000000000000     
  0.65625000000000000       0.31250000000000000        0.0000000000000000     
  0.68750000000000000       0.31250000000000000        0.0000000000000000     
  0.71875000000000000       0.31250000000000000        0.0000000000000000     
  0.75000000000000000       0.31250000000000000        0.0000000000000000     
  0.62500000000000000       0.34375000000000000        0.0000000000000000     
  0.65625000000000000       0.34375000000000000        0.0000000000000000     
  0.68750000000000000       0.34375000000000000        0.0000000000000000     
  0.71875000000000000       0.34375000000000000        0.0000000000000000     
  0.75000000000000000       0.34375000000000000        0.0000000000000000     
  0.62500000000000000       0.37500000000000000        0.0000000000000000     
  0.65625000000000000       0.37500000000000000        0.0000000000000000     
  0.68750000000000000       0.37500000000000000        0.0000000000000000     
  0.71875000000000000       0.37500000000000000        0.0000000000000000     
  0.75000000000000000       0.37500000000000000        0.0000000000000000     
  0.75000000000000000       0.25000000000000000        0.0000000000000000     
  0.78125000000000000       0.25000000000000000        0.0000000000000000     
  0.81250000000000000       0.25000000000000000        0.0000000000000000     
  0.84375000000000000       0.25000000000000000        0.0000000000000000     
  0.87500000000000000       0.25000000000000000        0.0000000000000000     
  0.75000000000000000       0.28125000000000000        0.0000000000000000     
  0.78125000000000000       0.28125000000000000        0.0000000000000000     
  0.81250000000000000       0.28125000000000000        0.0000000000000000     
  0.84375000000000000       0.28125000000000000        0.0000000000000000     
  0.87500000000000000       0.28125000000000000        0.0000000000000000     
  0.75000000000000000       0.31250000000000000        0.0000000000000000     
  0.78125000000000000       0.31250000000000000        0.0000000000000000     
  0.81250000000000000       0.31250000000000000        0.0000000000000000     
  0.84375000000000000       0.31250000000000000        0.0000000000000000     
  0.87500000000000000       0.31250000000000000        0.0000000000000000     
  0.75000000000000000       0.34375000000000000        0.0000000000000000     
  0.78125000000000000       0.34375000000000000        0.0000000000000000     
  0.81250000000000000       0.34375000000000000        0.0000000000000000     
  0.84375000000000000       0.34375000000000000        0.0000000000000000     
  0.87500000000000000       0.34375000000000000        0.0000000000000000     
  0.75000000000000000       0.37500000000000000        0.0000000000000000     
  0.78125000000000000       0.37500000000000000        0.0000000000000000     
  0.81250000000000000       0.37500000000000000        0.0000000000000000     
  0.84375000000000000       0.37500000000000000        0.0000000000000000     
  0.87500000000000000       0.37500000000000000        0.0000000000000000     
  0.87500000000000000       0.25000000000000000        0.0000000000000000     
  0.90625000000000000       0.25000000000000000        0.0000000000000000     
  0.93750000000000000       0.25000000000000000        0.0000000000000000     
  0.96875000000000000       0.25000000000000000        0.0000000000000000     
   1.0000000000000000       0.25000000000000000        0.0000000000000000     
  0.87500000000000000       0.28125000000000000        0.0000000000000000     
  0.90625000000000000       0.28125000000000000        0.0000000000000000     
  0.93750000000000000       0.28125000000000000        0.0000000000000000     
  0.96875000000000000       0.28125000000000000        0.0000000000000000     
   1.0000000000000000       0.28125000000000000        0.0000000000000000     
  0.87500000000000000       0.31250000000000000        0.0000000000000000     
  0.90625000000000000       0.31250000000000000        0.0000000000000000     
  0.93750000000000000       0.31250000000000000        0.0000000000000000     
  0.96875000000000000       0.31250000000000000        0.0000000000000000     
   1.0000000000000000       0.31250000000000000        0.0000000000000000     
  0.87500000000000000       0.34375000000000000        0.0000000000000000     
  0.90625000000000000       0.34375000000000000        0.0000000000000000     
  0.93750000000000000       0.34375000000000000        0.0000000000000000     
  0.96875000000000000       0.34375000000000000        0.0000000000000000     
   1.0000000000000000       0.34375000000000000        0.0000000000000000     
  0.87500000000000000       0.37500000000000000        0.0000000000000000     
  0.90625000000000000       0.37500000000000000        0.0000000000000000     
  0.93750000000000000       0.37500000000000000        0.0000000000000000     
  0.96875000000000000       0.37500000000000000        0.0000000000000000     
   1.0000000000000000       0.37500000000000000        0.0000000000000000     
   1.0000000000000000       0.25000000000000000        0.0000000000000000     
   1.0312500000000000       0.25000000000000000        0.0000000000000000     
   1.0625000000000000       0.25000000000000000        0.0000000000000000     
   1.0937500000000000       0.25000000000000000        0.0000000000000000     
   1.1250000000000000       0.25000000000000000        0.0000000000000000     
   1.0000000000000000       0.28125000000000000        0.0000000000000000     
   1.0312500000000000       0.28125000000000000        0.0000000000000000     
   1.0625000000000000       0.28125000000000000        0.0000000000000000     
   1.0937500000000000       0.28125000000000000        0.0000000000000000     
   1.1250000000000000       0.28125000000000000        0.0000000000000000     
   1.0000000000000000       0.31250000000000000        0.0000000000000000     
   1.0312500000000000       0.31250000000000000        0.0000000000000000     
   1.0625000000000000       0.31250000000000000        0.0000000000000000     
   1.0937500000000000       0.31250000000000000        0.0000000000000000     
   1.1250000000000000       0.31250000000000000        0.0000000000000000     
   1.0000000000000000       0.34375000000000000        0.0000000000000000     
   1.0312500000000000       0.34375000000000000        0.0000000000000000     
   1.0625000000000000       0.34375000000000000        0.0000000000000000     
   1.0937500000000000       0.34375000000000000        0.0000000000000000     
   1.1250000000000000       0.34375000000000000        0.0000000000000000     
   1.0000000000000000       0.37500000000000000        0.0000000000000000     
   1.0312500000000000       0.37500000000000000        0.0000000000000000     
   1.0625000000000000       0.37500000000000000        0.0000000000000000     
   1.0937500000000000       0.37500000000000000        0.0000000000000000     
   1.1250000000000000       0.37500000000000000        0.0000000000000000     
   1.1250000000000000       0.25000000000000000        0.0000000000000000     
   1.1562500000000000       0.25000000000000000        0.0000000000000000     
   1.1875000000000000       0.25000000000000000        0.0000000000000000     
   1.2187500000000000       0.25000000000000000        0.0000000000000000     
   1.2500000000000000       0.25000000000000000        0.0000000000000000     
   1.1250000000000000       0.28125000000000000        0.0000000000000000     
   1.1562500000000000       0.28125000000000000        0.0000000000000000     
   1.1875000000000000       0.28125000000000000        0.0000000000000000     
   1.2187500000000000       0.28125000000000000        0.0000000000000000     
   1.2500000000000000       0.28125000000000000        0.0000000000000000     
   1.1250000000000000       0.31250000000000000        0.0000000000000000     
   1.1562500000000000       0.31250000000000000        0.0000000000000000     
   1.1875000000000000       0.31250000000000000        0.0000000000000000     
   1.2187500000000000       0.31250000000000000        0.0000000000000000     
   1.2500000000000000       0.31250000000000000        0.0000000000000000     
   1.1250000000000000       0.34375000000000000        0.0000000000000000     
   1.1562500000000000       0.34375000000000000        0.0000000000000000     
   1.1875000000000000       0.34375000000000000        0.0000000000000000     
   1.2187500000000000       0.34375000000000000        0.0000000000000000     
   1.2500000000000000       0.34375000000000000        0.0000000000000000     
   1.1250000000000000       0.37500000000000000        0.0000000000000000     
   1.1562500000000000       0.37500000000000000        0.0000000000000000     
   1.1875000000000000       0.37500000000000000        0.0000000000000000     
   1.2187500000000000       0.37500000000000000        0.0000000000000000     
   1.2500000000000000       0.37500000000000000        0.0000000000000000     
   1.2500000000000000       0.25000000000000000        0.0000000000000000     
   1.2812500000000000       0.25000000000000000        0.0000000000000000     
   1.3125000000000000       0.25000000000000000        0.0000000000000000     
   1.3437500000000000       0.25000000000000000        0.0000000000000000     
   1.3750000000000000       0.25000000000000000        0.0000000000000000     
   1.2500000000000000       0.28125000000000000        0.0000000000000000     
   1.2812500000000000       0.28125000000000000        0.0000000000000000     
   1.3125000000000000       0.28125000000000000        0.0000000000000000     
   1.3437500000000000       0.28125000000000000        0.0000000000000000     
   1.3750000000000000       0.28125000000000000        0.0000000000000000     
   1.2500000000000000       0.31250000000000000        0.0000000000000000     
   1.2812500000000000       0.31250000000000000        0.0000000000000000     
   1.3125000000000000       0.31250000000000000        0.0000000000000000     
   1.3437500000000000       0.31250000000000000        0.0000000000000000     
   1.3750000000000000       0.31250000000000000        0.0000000000000000     
   1.2500000000000000       0.34375000000000000        0.0000000000000000     
   1.2812500000000000       0.34375000000000000        0.0000000000000000     
   1.3125000000000000       0.34375000000000000        0.0000000000000000     
   1.3437500000000000       0.34375000000000000        0.0000000000000000     
   1.3750000000000000       0.34375000000000000        0.0000000000000000     
   1.2500000000000000       0.37500000000000000        0.0000000000000000     
   1.2812500000000000       0.37500000000000000        0.0000000000000000     
   1.3125000000000000       0.37500000000000000        0.0000000000000000     
   1.3437500000000000       0.37500000000000000        0.0000000000000000     
   1.3750000000000000       0.37500000000000000        0.0000000000000000     
   1.3750000000000000       0.25000000000000000        0.0000000000000000     
   1.4062500000000000       0.25000000000000000        0.0000000000000000     
   1.4375000000000000       0.25000000000000000        0.0000000000000000     
   1.4687500000000000       0.25000000000000000        0.0000000000000000     
   1.5000000000000000       0.25000000000000000        0.0000000000000000     
   1.3750000000000000       0.28125000000000000        0.0000000000000000     
   1.4062500000000000       0.28125000000000000        0.0000000000000000     
   1.4375000000000000       0.28125000000000000        0.0000000000000000     
   1.4687500000000000       0.28125000000000000        0.0000000000000000     
   1.5000000000000000       0.28125000000000000        0.0000000000000000     
   1.3750000000000000       0.31250000000000000        0.0000000000000000     
   1.4062500000000000       0.31250000000000000        0.0000000000000000     
   1.4375000000000000       0.31250000000000000        0.0000000000000000     
   1.4687500000000000       0.31250000000000000        0.0000000000000000     
   1.5000000000000000       0.31250000000000000        0.0000000000000000     
   1.3750000000000000       0.34375000000000000        0.0000000000000000     
   1.4062500000000000       0.34375000000000000        0.0000000000000000     
   1.4375000000000000       0.34375000000000000        0.0000000000000000     
   1.4687500000000000       0.34375000000000000        0.0000000000000000     
   1.5000000000000000       0.34375000000000000        0.0000000000000000     
   1.3750000000000000       0.37500000000000000        0.0000000000000000     
   1.4062500000000000       0.37500000000000000        0.0000000000000000     
   1.4375000000000000       0.37500000000000000        0.0000000000000000     
   1.4687500000000000       0.37500000000000000        0.0000000000000000     
   1.5000000000000000       0.37500000000000000        0.0000000000000000     
  0.50000000000000000       0.37500000000000000        0.0000000000000000     
  0.53125000000000000       0.37500000000000000        0.0000000000000000     
  0.56250000000000000       0.37500000000000000        0.0000000000000000     
  0.59375000000000000       0.37500000000000000        0.0000000000000000     
  0.62500000000000000       0.37500000000000000        0.0000000000000000     
  0.50000000000000000       0.40625000000000000        0.0000000000000000     
  0.53125000000000000       0.40625000000000000        0.0000000000000000     
  0.56250000000000000       0.40625000000000000        0.0000000000000000     
  0.59375000000000000       0.40625000000000000        0.0000000000000000     
  0.62500000000000000       0.40625000000000000        0.0000000000000000     
  0.50000000000000000       0.43750000000000000        0.0000000000000000     
  0.53125000000000000       0.43750000000000000        0.0000000000000000     
  0.56250000000000000       0.43750000000000000        0.0000000000000000     
  0.59375000000000000       0.43750000000000000        0.0000000000000000     
  0.62500000000000000       0.43750000000000000        0.0000000000000000     
  0.50000000000000000       0.46875000000000000        0.0000000000000000     
  0.53125000000000000       0.46875000000000000        0.0000000000000000     
  0.56250000000000000       0.46875000000000000        0.0000000000000000     
  0.59375000000000000       0.46875000000000000        0.0000000000000000     
  0.62500000000000000       0.46875000000000000        0.0000000000000000     
  0.50000000000000000       0.50000000000000000        0.0000000000000000     
  0.53125000000000000       0.50000000000000000        0.0000000000000000     
  0.56250000000000000       0.50000000000000000        0.0000000000000000     
  0.59375000000000000       0.50000000000000000        0.0000000000000000     
  0.62500000000000000       0.50000000000000000        0.0000000000000000     
  0.62500000000000000       0.37500000000000000        0.0000000000000000     
  0.65625000000000000       0.37500000000000000        0.0000000000000000     
  0.68750000000000000       0.37500000000000000        0.0000000000000000     
  0.71875000000000000       0.37500000000000000        0.0000000000000000     
  0.75000000000000000       0.37500000000000000        0.0000000000000000     
  0.62500000000000000       0.40625000000000000        0.0000000000000000     
  0.65625000000000000       0.40625000000000000        0.0000000000000000     
  0.68750000000000000       0.40625000000000000        0.0000000000000000     
  0.71875000000000000       0.40625000000000000        0.0000000000000000     
  0.75000000000000000       0.40625000000000000        0.0000000000000000     
  0.62500000000000000       0.43750000000000000        0.0000000000000000     
  0.65625000000000000       0.43750000000000000        0.0000000000000000     
  0.68750000000000000       0.43750000000000000        0.0000000000000000     
  0.71875000000000000       0.43750000000000000        0.0000000000000000     
  0.75000000000000000       0.43750000000000000        0.0000000000000000     
  0.62500000000000000       0.46875000000000000        0.0000000000000000     
  0.65625000000000000       0.46875000000000000        0.0000000000000000     
  0.68750000000000000       0.46875000000000000        0.0000000000000000     
  0.71875000000000000       0.46875000000000000        0.0000000000000000     
  0.75000000000000000       0.46875000000000000        0.0000000000000000     
  0.62500000000000000       0.50000000000000000        0.0000000000000000     
  0.65625000000000000       0.50000000000000000        0.0000000000000000     
  0.68750000000000000       0.50000000000000000        0.0000000000000000     
  0.71875000000000000       0.50000000000000000        0.0000000000000000     
  0.75000000000000000       0.50000000000000000        0.0000000000000000     
  0.75000000000000000       0.37500000000000000        0.0000000000000000     
  0.78125000000000000       0.37500000000000000        0.0000000000000000     
  0.81250000000000000       0.37500000000000000        0.0000000000000000     
  0.84375000000000000       0.37500000000000000        0.0000000000000000     
  0.87500000000000000       0.37500000000000000        0.0000000000000000     
  0.75000000000000000       0.40625000000000000        0.0000000000000000     
  0.78125000000000000       0.40625000000000000        0.0000000000000000     
  0.81250000000000000       0.40625000000000000        0.0000000000000000     
  0.84375000000000000       0.40625000000000000        0.0000000000000000     
  0.87500000000000000       0.40625000000000000        0.0000000000000000     
  0.75000000000000000       0.43750000000000000        0.0000000000000000     
  0.78125000000000000       0.43750000000000000        0.0000000000000000     
  0.81250000000000000       0.43750000000000000        0.0000000000000000     
  0.84375000000000000       0.43750000000000000        0.0000000000000000     
  0.87500000000000000       0.43750000000000000        0.0000000000000000     
  0.75000000000000000       0.46875000000000000        0.0000000000000000     
  0.78125000000000000       0.46875000000000000        0.0000000000000000     
  0.81250000000000000       0.46875000000000000        0.0000000000000000     
  0.84375000000000000       0.46875000000000000        0.0000000000000000     
  0.87500000000000000       0.46875000000000000        0.0000000000000000     
  0.75000000000000000       0.50000000000000000        0.0000000000000000     
  0.78125000000000000       0.50000000000000000        0.0000000000000000     
  0.81250000000000000       0.50000000000000000        0.0000000000000000     
  0.84375000000000000       0.50000000000000000        0.0000000000000000     
  0.87500000000000000       0.50000000000000000        0.0000000000000000     
  0.87500000000000000       0.37500000000000000        0.0000000000000000     
  0.90625000000000000       0.37500000000000000        0.0000000000000000     
  0.93750000000000000       0.37500000000000000        0.0000000000000000     
  0.96875000000000000       0.37500000000000000        0.0000000000000000     
   1.0000000000000000       0.37500000000000000        0.0000000000000000     
  0.87500000000000000       0.40625000000000000        0.0000000000000000     
  0.90625000000000000       0.40625000000000000        0.0000000000000000     
  0.93750000000000000       0.40625000000000000        0.0000000000000000     
  0.96875000000000000       0.40625000000000000        0.0000000000000000     
   1.0000000000000000       0.40625000000000000        0.0000000000000000     
  0.87500000000000000       0.43750000000000000        0.0000000000000000     
  0.90625000000000000       0.43750000000000000        0.0000000000000000     
  0.93750000000000000       0.43750000000000000        0.0000000000000000     
  0.96875000000000000       0.43750000000000000        0.0000000000000000     
   1.0000000000000000       0.43750000000000000        0.0000000000000000     
  0.87500000000000000       0.46875000000000000        0.0000000000000000     
  0.90625000000000000       0.46875000000000000        0.0000000000000000     
  0.93750000000000000       0.46875000000000000        0.0000000000000000     
  0.96875000000000000       0.46875000000000000        0.0000000000000000     
   1.0000000000000000       0.46875000000000000        0.0000000000000000     
  0.87500000000000000       0.50000000000000000        0.0000000000000000     
  0.90625000000000000       0.50000000000000000        0.0000000000000000     
  0.93750000000000000       0.50000000000000000        0.0000000000000000     
  0.96875000000000000       0.50000000000000000        0.0000000000000000     
   1.0000000000000000       0.50000000000000000        0.0000000000000000     
   1.0000000000000000       0.37500000000000000        0.0000000000000000     
   1.0312500000000000       0.37500000000000000        0.0000000000000000     
   1.0625000000000000       0.37500000000000000        0.0000000000000000     
   1.0937500000000000       0.37500000000000000        0.0000000000000000     
   1.1250000000000000       0.37500000000000000        0.0000000000000000     
   1.0000000000000000       0.40625000000000000        0.0000000000000000     
   1.0312500000000000       0.40625000000000000        0.0000000000000000     
   1.0625000000000000       0.40625000000000000        0.0000000000000000     
   1.0937500000000000       0.40625000000000000        0.0000000000000000     
   1.1250000000000000       0.40625000000000000        0.0000000000000000     
   1.0000000000000000       0.43750000000000000        0.0000000000000000     
   1.0312500000000000       0.43750000000000000        0.0000000000000000     
   1.0625000000000000       0.43750000000000000        0.0000000000000000     
   1.0937500000000000       0.43750000000000000        0.0000000000000000     
   1.1250000000000000       0.43750000000000000        0.0000000000000000     
   1.0000000000000000       0.46875000000000000        0.0000000000000000     
   1.0312500000000000       0.46875000000000000        0.0000000000000000     
   1.0625000000000000       0.46875000000000000        0.0000000000000000     
   1.0937500000000000       0.46875000000000000        0.0000000000000000     
   1.1250000000000000       0.46875000000000000        0.0000000000000000     
   1.0000000000000000       0.50000000000000000        0.0000000000000000     
   1.0312500000000000       0.50000000000000000        0.0000000000000000     
   1.0625000000000000       0.50000000000000000        0.0000000000000000     
   1.0937500000000000       0.50000000000000000        0.0000000000000000     
   1.1250000000000000       0.50000000000000000        0.0000000000000000     
   1.1250000000000000       0.37500000000000000        0.0000000000000000     
   1.1562500000000000       0.37500000000000000        0.0000000000000000     
   1.1875000000000000       0.37500000000000000        0.0000000000000000     
   1.2187500000000000       0.37500000000000000        0.0000000000000000     
   1.2500000000000000       0.37500000000000000        0.0000000000000000     
   1.1250000000000000       0.40625000000000000        0.0000000000000000     
   1.1562500000000000       0.40625000000000000        0.0000000000000000     
   1.1875000000000000       0.40625000000000000        0.0000000000000000     
   1.2187500000000000       0.40625000000000000        0.0000000000000000     
   1.2500000000000000       0.40625000000000000        0.0000000000000000     
   1.1250000000000000       0.43750000000000000        0.0000000000000000     
   1.1562500000000000       0.43750000000000000        0.0000000000000000     
   1.1875000000000000       0.43750000000000000        0.0000000000000000     
   1.2187500000000000       0.43750000000000000        0.0000000000000000     
   1.2500000000000000       0.43750000000000000        0.0000000000000000     
   1.1250000000000000       0.46875000000000000        0.0000000000000000     
   1.1562500000000000       0.46875000000000000        0.0000000000000000     
   1.1875000000000000       0.46875000000000000        0.0000000000000000     
   1.2187500000000000       0.46875000000000000        0.0000000000000000     
   1.2500000000000000       0.46875000000000000        0.0000000000000000     
   1.1250000000000000       0.50000000000000000        0.0000000000000000     
   1.1562500000000000       0.50000000000000000        0.0000000000000000     
   1.1875000000000000       0.50000000000000000        0.0000000000000000     
   1.2187500000000000       0.50000000000000000        0.0000000000000000     
   1.2500000000000000       0.50000000000000000        0.0000000000000000     
   1.2500000000000000       0.37500000000000000        0.0000000000000000     
   1.2812500000000000       0.37500000000000000        0.0000000000000000     
   1.3125000000000000       0.37500000000000000        0.0000000000000000     
   1.3437500000000000       0.37500000000000000        0.0000000000000000     
   1.3750000000000000       0.37500000000000000        0.0000000000000000     
   1.2500000000000000       0.40625000000000000        0.0000000000000000     
   1.2812500000000000       0.40625000000000000        0.0000000000000000     
   1.3125000000000000       0.40625000000000000        0.0000000000000000     
   1.3437500000000000       0.40625000000000000        0.0000000000000000     
   1.3750000000000000       0.40625000000000000        0.0000000000000000     
   1.2500000000000000       0.43750000000000000        0.0000000000000000     
   1.2812500000000000       0.43750000000000000        0.0000000000000000     
   1.3125000000000000       0.43750000000000000        0.0000000000000000     
   1.3437500000000000       0.43750000000000000        0.0000000000000000     
   1.3750000000000000       0.43750000000000000        0.0000000000000000     
   1.2500000000000000       0.46875000000000000        0.0000000000000000     
   1.2812500000000000       0.46875000000000000        0.0000000000000000     
   1.3125000000000000       0.46875000000000000        0.0000000000000000     
   1.3437500000000000       0.46875000000000000        0.0000000000000000     
   1.3750000000000000       0.46875000000000000        0.0000000000000000     
   1.2500000000000000       0.50000000000000000        0.0000000000000000     
   1.2812500000000000       0.50000000000000000        0.0000000000000000     
   1.3125000000000000       0.50000000000000000        0.0000000000000000     
   1.3437500000000000       0.50000000000000000        0.0000000000000000     
   1.3750000000000000       0.50000000000000000        0.0000000000000000     
   1.3750000000000000       0.37500000000000000        0.0000000000000000     
   1.4062500000000000       0.37500000000000000        0.0000000000000000     
   1.4375000000000000       0.37500000000000000        0.0000000000000000     
   1.4687500000000000       0.37500000000000000        0.0000000000000000     
   1.5000000000000000       0.37500000000000000        0.0000000000000000     
   1.3750000000000000       0.40625000000000000        0.0000000000000000     
   1.4062500000000000       0.40625000000000000        0.0000000000000000     
   1.4375000000000000       0.40625000000000000        0.0000000000000000     
   1.4687500000000000       0.40625000000000000        0.0000000000000000     
   1.5000000000000000       0.40625000000000000        0.0000000000000000     
   1.3750000000000000       0.43750000000000000        0.0000000000000000     
   1.4062500000000000       0.43750000000000000        0.0000000000000000     
   1.4375000000000000       0.43750000000000000        0.0000000000000000     
   1.4687500000000000       0.43750000000000000        0.0000000000000000     
   1.5000000000000000       0.43750000000000000        0.0000000000000000     
   1.3750000000000000       0.46875000000000000        0.0000000000000000     
   1.4062500000000000       0.46875000000000000        0.0000000000000000     
   1.4375000000000000       0.46875000000000000        0.0000000000000000     
   1.4687500000000000       0.46875000000000000        0.0000000000000000     
   1.5000000000000000       0.46875000000000000        0.0000000000000000     
   1.3750000000000000       0.50000000000000000        0.0000000000000000     
   1.4062500000000000       0.50000000000000000        0.0000000000000000     
   1.4375000000000000       0.50000000000000000        0.0000000000000000     
   1.4687500000000000       0.50000000000000000        0.0000000000000000     
   1.5000000000000000       0.50000000000000000        0.0000000000000000     
  0.50000000000000000       0.50000000000000000        0.0000000000000000     
  0.53125000000000000       0.50000000000000000        0.0000000000000000     
  0.56250000000000000       0.50000000000000000        0.0000000000000000     
  0.59375000000000000       0.50000000000000000        0.0000000000000000     
  0.62500000000000000       0.50000000000000000        0.0000000000000000     
  0.50000000000000000       0.53125000000000000        0.0000000000000000     
  0.53125000000000000       0.53125000000000000        0.0000000000000000     
  0.56250000000000000       0.53125000000000000        0.0000000000000000     
  0.59375000000000000       0.53125000000000000        0.0000000000000000     
  0.62500000000000000       0.53125000000000000        0.0000000000000000     
  0.50000000000000000       0.56250000000000000        0.0000000000000000     
  0.53125000000000000       0.56250000000000000        0.0000000000000000     
  0.56250000000000000       0.56250000000000000        0.0000000000000000     
  0.59375000000000000       0.56250000000000000        0.0000000000000000     
  0.62500000000000000       0.56250000000000000        0.0000000000000000     
  0.50000000000000000       0.59375000000000000        0.0000000000000000     
  0.53125000000000000       0.59375000000000000        0.0000000000000000     
  0.56250000000000000       0.59375000000000000        0.0000000000000000     
  0.59375000000000000       0.59375000000000000        0.0000000000000000     
  0.62500000000000000       0.59375000000000000        0.0000000000000000     
  0.50000000000000000       0.62500000000000000        0.0000000000000000     
  0.53125000000000000       0.62500000000000000        0.0000000000000000     
  0.56250000000000000       0.62500000000000000        0.0000000000000000     
  0.59375000000000000       0.62500000000000000        0.0000000000000000     
  0.62500000000000000       0.62500000000000000        0.0000000000000000     
  0.62500000000000000       0.50000000000000000        0.0000000000000000     
  0.65625000000000000       0.50000000000000000        0.0000000000000000     
  0.68750000000000000       0.50000000000000000        0.0000000000000000     
  0.71875000000000000       0.50000000000000000        0.0000000000000000     
  0.75000000000000000       0.50000000000000000        0.0000000000000000     
  0.62500000000000000       0.53125000000000000        0.0000000000000000     
  0.65625000000000000       0.53125000000000000        0.0000000000000000     
  0.68750000000000000       0.53125000000000000        0.0000000000000000     
  0.71875000000000000       0.53125000000000000        0.0000000000000000     
  0.75000000000000000       0.53125000000000000        0.0000000000000000     
  0.62500000000000000       0.56250000000000000        0.0000000000000000     
  0.65625000000000000       0.56250000000000000        0.0000000000000000     
  0.68750000000000000       0.56250000000000000        0.0000000000000000     
  0.71875000000000000       0.56250000000000000        0.0000000000000000     
  0.75000000000000000       0.56250000000000000        0.0000000000000000     
  0.62500000000000000       0.59375000000000000        0.0000000000000000     
  0.65625000000000000       0.59375000000000000        0.0000000000000000     
  0.68750000000000000       0.59375000000000000        0.0000000000000000     
  0.71875000000000000       0.59375000000000000        0.0000000000000000     
  0.75000000000000000       0.59375000000000000        0.0000000000000000     
  0.62500000000000000       0.62500000000000000        0.0000000000000000     
  0.65625000000000000       0.62500000000000000        0.0000000000000000     
  0.68750000000000000       0.62500000000000000        0.0000000000000000     
  0.71875000000000000       0.62500000000000000        0.0000000000000000     
  0.75000000000000000       0.62500000000000000        0.0000000000000000     
  0.75000000000000000       0.50000000000000000        0.0000000000000000     
  0.78125000000000000       0.50000000000000000        0.0000000000000000     
  0.81250000000000000       0.50000000000000000        0.0000000000000000     
  0.84375000000000000       0.50000000000000000        0.0000000000000000     
  0.87500000000000000       0.50000000000000000        0.0000000000000000     
  0.75000000000000000       0.53125000000000000        0.0000000000000000     
  0.78125000000000000       0.53125000000000000        0.0000000000000000     
  0.81250000000000000       0.53125000000000000        0.0000000000000000     
  0.84375000000000000       0.53125000000000000        0.0000000000000000     
  0.87500000000000000       0.53125000000000000        0.0000000000000000     
  0.75000000000000000       0.56250000000000000        0.0000000000000000     
  0.78125000000000000       0.56250000000000000        0.0000000000000000     
  0.81250000000000000       0.56250000000000000        0.0000000000000000     
  0.84375000000000000       0.56250000000000000        0.0000000000000000     
  0.87500000000000000       0.56250000000000000        0.0000000000000000     
  0.75000000000000000       0.59375000000000000        0.0000000000000000     
  0.78125000000000000       0.59375000000000000        0.0000000000000000     
  0.81250000000000000       0.59375000000000000        0.0000000000000000     
  0.84375000000000000       0.59375000000000000        0.0000000000000000     
  0.87500000000000000       0.59375000000000000        0.0000000000000000     
  0.75000000000000000       0.62500000000000000        0.0000000000000000     
  0.78125000000000000       0.62500000000000000        0.0000000000000000     
  0.81250000000000000       0.62500000000000000        0.0000000000000000     
  0.84375000000000000       0.62500000000000000        0.0000000000000000     
  0.87500000000000000       0.62500000000000000        0.0000000000000000     
  0.87500000000000000       0.50000000000000000        0.0000000000000000     
  0.90625000000000000       0.50000000000000000        0.0000000000000000     
  0.93750000000000000       0.50000000000000000        0.0000000000000000     
  0.96875000000000000       0.50000000000000000        0.0000000000000000     
   1.0000000000000000       0.50000000000000000        0.0000000000000000     
  0.87500000000000000       0.53125000000000000        0.0000000000000000     
  0.90625000000000000       0.53125000000000000        0.0000000000000000     
  0.93750000000000000       0.53125000000000000        0.0000000000000000     
  0.96875000000000000       0.53125000000000000        0.0000000000000000     
   1.0000000000000000       0.53125000000000000        0.0000000000000000     
  0.87500000000000000       0.56250000000000000        0.0000000000000000     
  0.90625000000000000       0.56250000000000000        0.0000000000000000     
  0.93750000000000000       0.56250000000000000        0.0000000000000000     
  0.96875000000000000       0.56250000000000000        0.0000000000000000     
   1.0000000000000000       0.56250000000000000        0.0000000000000000     
  0.87500000000000000       0.59375000000000000        0.0000000000000000     
  0.90625000000000000       0.59375000000000000        0.0000000000000000     
  0.93750000000000000       0.59375000000000000        0.0000000000000000     
  0.96875000000000000       0.59375000000000000        0.0000000000000000     
   1.0000000000000000       0.59375000000000000        0.0000000000000000     
  0.87500000000000000       0.62500000000000000        0.0000000000000000     
  0.90625000000000000       0.62500000000000000        0.0000000000000000     
  0.93750000000000000       0.62500000000000000        0.0000000000000000     
  0.96875000000000000       0.62500000000000000        0.0000000000000000     
   1.0000000000000000       0.62500000000000000        0.0000000000000000     
   1.0000000000000000       0.50000000000000000        0.0000000000000000     
   1.0312500000000000       0.50000000000000000        0.0000000000000000     
   1.0625000000000000       0.50000000000000000        0.0000000000000000     
   1.0937500000000000       0.50000000000000000        0.0000000000000000     
   1.1250000000000000       0.50000000000000000        0.0000000000000000     
   1.0000000000000000       0.53125000000000000        0.0000000000000000     
   1.0312500000000000       0.53125000000000000        0.0000000000000000     
   1.0625000000000000       0.53125000000000000        0.0000000000000000     
   1.0937500000000000       0.53125000000000000        0.0000000000000000     
   1.1250000000000000       0.53125000000000000        0.0000000000000000     
   1.0000000000000000       0.56250000000000000        0.0000000000000000     
   1.0312500000000000       0.56250000000000000        0.0000000000000000     
   1.0625000000000000       0.56250000000000000        0.0000000000000000     
   1.0937500000000000       0.56250000000000000        0.0000000000000000     
   1.1250000000000000       0.56250000000000000        0.0000000000000000     
   1.0000000000000000       0.59375000000000000        0.0000000000000000     
   1.0312500000000000       0.59375000000000000        0.0000000000000000     
   1.0625000000000000       0.59375000000000000        0.0000000000000000     
   1.0937500000000000       0.59375000000000000        0.0000000000000000     
   1.1250000000000000       0.59375000000000000        0.0000000000000000     
   1.0000000000000000       0.62500000000000000        0.0000000000000000     
   1.0312500000000000       0.62500000000000000        0.0000000000000000     
   1.0625000000000000       0.62500000000000000        0.0000000000000000     
   1.0937500000000000       0.62500000000000000        0.0000000000000000     
   1.1250000000000000       0.62500000000000000        0.0000000000000000     
   1.1250000000000000       0.50000000000000000        0.0000000000000000     
   1.1562500000000000       0.50000000000000000        0.0000000000000000     
   1.1875000000000000       0.50000000000000000        0.0000000000000000     
   1.2187500000000000       0.50000000000000000        0.0000000000000000     
   1.2500000000000000       0.50000000000000000        0.0000000000000000     
   1.1250000000000000       0.53125000000000000        0.0000000000000000     
   1.1562500000000000       0.53125000000000000        0.0000000000000000     
   1.1875000000000000       0.53125000000000000        0.0000000000000000     
   1.2187500000000000       0.53125000000000000        0.0000000000000000     
   1.2500000000000000       0.53125000000000000        0.0000000000000000     
   1.1250000000000000       0.56250000000000000        0.0000000000000000     
   1.1562500000000000       0.56250000000000000        0.0000000000000000     
   1.1875000000000000       0.56250000000000000        0.0000000000000000     
   1.2187500000000000       0.56250000000000000        0.0000000000000000     
   1.2500000000000000       0.56250000000000000        0.0000000000000000     
   1.1250000000000000       0.59375000000000000        0.0000000000000000     
   1.1562500000000000       0.59375000000000000        0.0000000000000000     
   1.1875000000000000       0.59375000000000000        0.0000000000000000     
   1.2187500000000000       0.59375000000000000        0.0000000000000000     
   1.2500000000000000       0.59375000000000000        0.0000000000000000     
   1.1250000000000000       0.62500000000000000        0.0000000000000000     
   1.1562500000000000       0.62500000000000000        0.0000000000000000     
   1.1875000000000000       0.62500000000000000        0.0000000000000000     
   1.2187500000000000       0.62500000000000000        0.0000000000000000     
   1.2500000000000000       0.62500000000000000        0.0000000000000000     
   1.2500000000000000       0.50000000000000000        0.0000000000000000     
   1.2812500000000000       0.50000000000000000        0.0000000000000000     
   1.3125000000000000       0.50000000000000000        0.0000000000000000     
   1.3437500000000000       0.50000000000000000        0.0000000000000000     
   1.3750000000000000       0.50000000000000000        0.0000000000000000     
   1.2500000000000000       0.53125000000000000        0.0000000000000000     
   1.2812500000000000       0.53125000000000000        0.0000000000000000     
   1.3125000000000000       0.53125000000000000        0.0000000000000000     
   1.3437500000000000       0.53125000000000000        0.0000000000000000     
   1.3750000000000000       0.53125000000000000        0.0000000000000000     
   1.2500000000000000       0.56250000000000000        0.0000000000000000     
   1.2812500000000000       0.56250000000000000        0.0000000000000000     
   1.3125000000000000       0.56250000000000000        0.0000000000000000     
   1.3437500000000000       0.56250000000000000        0.0000000000000000     
   1.3750000000000000       0.56250000000000000        0.0000000000000000     
   1.2500000000000000       0.59375000000000000        0.0000000000000000     
   1.2812500000000000       0.59375000000000000        0.0000000000000000     
   1.3125000000000000       0.59375000000000000        0.0000000000000000     
   1.3437500000000000       0.59375000000000000        0.0000000000000000     
   1.3750000000000000       0.59375000000000000        0.0000000000000000     
   1.2500000000000000       0.62500000000000000        0.0000000000000000     
   1.2812500000000000       0.62500000000000000        0.0000000000000000     
   1.3125000000000000       0.62500000000000000        0.0000000000000000     
   1.3437500000000000       0.62500000000000000        0.0000000000000000     
   1.3750000000000000       0.62500000000000000        0.0000000000000000     
   1.3750000000000000       0.50000000000000000        0.0000000000000000     
   1.4062500000000000       0.50000000000000000        0.0000000000000000     
   1.4375000000000000       0.50000000000000000        0.0000000000000000     
   1.4687500000000000       0.50000000000000000        0.0000000000000000     
   1.5000000000000000       0.50000000000000000        0.0000000000000000     
   1.3750000000000000       0.53125000000000000        0.0000000000000000     
   1.4062500000000000       0.53125000000000000        0.0000000000000000     
   1.4375000000000000       0.53125000000000000        0.0000000000000000     
   1.4687500000000000       0.53125000000000000        0.0000000000000000     
   1.5000000000000000       0.53125000000000000        0.0000000000000000     
   1.3750000000000000       0.56250000000000000        0.0000000000000000     
   1.4062500000000000       0.56250000000000000        0.0000000000000000     
   1.4375000000000000       0.56250000000000000        0.0000000000000000     
   1.4687500000000000       0.56250000000000000        0.0000000000000000     
   1.5000000000000000       0.56250000000000000        0.0000000000000000     
   1.3750000000000000       0.59375000000000000        0.0000000000000000     
   1.4062500000000000       0.59375000000000000        0.0000000000000000     
   1.4375000000000000       0.59375000000000000        0.0000000000000000     
   1.4687500000000000       0.59375000000000000        0.0000000000000000     
   1.5000000000000000       0.59375000000000000        0.0000000000000000     
   1.3750000000000000       0.62500000000000000        0.0000000000000000     
   1.4062500000000000       0.62500000000000000        0.0000000000000000     
   1.4375000000000000       0.62500000000000000        0.0000000000000000     
   1.4687500000000000       0.62500000000000000        0.0000000000000000     
   1.5000000000000000       0.62500000000000000        0.0000000000000000     
  0.50000000000000000       0.62500000000000000        0.0000000000000000     
  0.53125000000000000       0.62500000000000000        0.0000000000000000     
  0.56250000000000000       0.62500000000000000        0.0000000000000000     
  0.59375000000000000       0.62500000000000000        0.0000000000000000     
  0.62500000000000000       0.62500000000000000        0.0000000000000000     
  0.50000000000000000       0.65625000000000000        0.0000000000000000     
  0.53125000000000000       0.65625000000000000        0.0000000000000000     
  0.56250000000000000       0.65625000000000000        0.0000000000000000     
  0.59375000000000000       0.65625000000000000        0.0000000000000000     
  0.62500000000000000       0.65625000000000000        0.0000000000000000     
  0.50000000000000000       0.68750000000000000        0.0000000000000000     
  0.53125000000000000       0.68750000000000000        0.0000000000000000     
  0.56250000000000000       0.68750000000000000        0.0000000000000000     
  0.59375000000000000       0.68750000000000000        0.0000000000000000     
  0.62500000000000000       0.68750000000000000        0.0000000000000000     
  0.50000000000000000       0.71875000000000000        0.0000000000000000     
  0.53125000000000000       0.71875000000000000        0.0000000000000000     
  0.56250000000000000       0.71875000000000000        0.0000000000000000     
  0.59375000000000000       0.71875000000000000        0.0000000000000000     
  0.62500000000000000       0.71875000000000000        0.0000000000000000     
  0.50000000000000000       0.75000000000000000        0.0000000000000000     
  0.53125000000000000       0.75000000000000000        0.0000000000000000     
  0.56250000000000000       0.75000000000000000        0.0000000000000000     
  0.59375000000000000       0.75000000000000000        0.0000000000000000     
  0.62500000000000000       0.75000000000000000        0.0000000000000000     
  0.62500000000000000       0.62500000000000000        0.0000000000000000     
  0.65625000000000000       0.62500000000000000        0.0000000000000000     
  0.68750000000000000       0.62500000000000000        0.0000000000000000     
  0.71875000000000000       0.62500000000000000        0.0000000000000000     
  0.75000000000000000       0.62500000000000000        0.0000000000000000     
  0.62500000000000000       0.65625000000000000        0.0000000000000000     
  0.65625000000000000       0.65625000000000000        0.0000000000000000     
  0.68750000000000000       0.65625000000000000        0.0000000000000000     
  0.71875000000000000       0.65625000000000000        0.0000000000000000     
  0.75000000000000000       0.65625000000000000        0.0000000000000000     
  0.62500000000000000       0.68750000000000000        0.0000000000000000     
  0.65625000000000000       0.68750000000000000        0.0000000000000000     
  0.68750000000000000       0.68750000000000000        0.0000000000000000     
  0.71875000000000000       0.68750000000000000        0.0000000000000000     
  0.75000000000000000       0.68750000000000000        0.0000000000000000     
  0.62500000000000000       0.71875000000000000        0.0000000000000000     
  0.65625000000000000       0.71875000000000000        0.0000000000000000     
  0.68750000000000000       0.71875000000000000        0.0000000000000000     
  0.71875000000000000       0.71875000000000000        0.0000000000000000     
  0.75000000000000000       0.71875000000000000        0.0000000000000000     
  0.62500000000000000       0.75000000000000000        0.0000000000000000     
  0.65625000000000000       0.75000000000000000        0.0000000000000000     
  0.68750000000000000       0.75000000000000000        0.0000000000000000     
  0.71875000000000000       0.75000000000000000        0.0000000000000000     
  0.75000000000000000       0.75000000000000000        0.0000000000000000     
  0.75000000000000000       0.62500000000000000        0.0000000000000000     
  0.78125000000000000       0.62500000000000000        0.0000000000000000     
  0.81250000000000000       0.62500000000000000        0.0000000000000000     
  0.84375000000000000       0.62500000000000000        0.0000000000000000     
  0.87500000000000000       0.62500000000000000        0.0000000000000000     
  0.75000000000000000       0.65625000000000000        0.0000000000000000     
  0.78125000000000000       0.65625000000000000        0.0000000000000000     
  0.81250000000000000       0.65625000000000000        0.0000000000000000     
  0.84375000000000000       0.65625000000000000        0.0000000000000000     
  0.87500000000000000       0.65625000000000000        0.0000000000000000     
  0.75000000000000000       0.68750000000000000        0.0000000000000000     
  0.78125000000000000       0.68750000000000000        0.0000000000000000     
  0.81250000000000000       0.68750000000000000        0.0000000000000000     
  0.84375000000000000       0.68750000000000000        0.0000000000000000     
  0.87500000000000000       0.68750000000000000        0.0000000000000000     
  0.75000000000000000       0.71875000000000000        0.0000000000000000     
  0.78125000000000000       0.71875000000000000        0.0000000000000000     
  0.81250000000000000       0.71875000000000000        0.0000000000000000     
  0.84375000000000000       0.71875000000000000        0.0000000000000000     
  0.87500000000000000       0.71875000000000000        0.0000000000000000     
  0.75000000000000000       0.75000000000000000        0.0000000000000000     
  0.78125000000000000       0.75000000000000000        0.0000000000000000     
  0.81250000000000000       0.75000000000000000        0.0000000000000000     
  0.84375000000000000       0.75000000000000000        0.0000000000000000     
  0.87500000000000000       0.75000000000000000        0.0000000000000000     
  0.87500000000000000       0.62500000000000000        0.0000000000000000     
  0.90625000000000000       0.62500000000000000        0.0000000000000000     
  0.93750000000000000       0.62500000000000000        0.0000000000000000     
  0.96875000000000000       0.62500000000000000        0.0000000000000000     
   1.0000000000000000       0.62500000000000000        0.0000000000000000     
  0.87500000000000000       0.65625000000000000        0.0000000000000000     
  0.90625000000000000       0.65625000000000000        0.0000000000000000     
  0.93750000000000000       0.65625000000000000        0.0000000000000000     
  0.96875000000000000       0.65625000000000000        0.0000000000000000     
   1.0000000000000000       0.65625000000000000        0.0000000000000000     
  0.87500000000000000       0.68750000000000000        0.0000000000000000     
  0.90625000000000000       0.68750000000000000        0.0000000000000000     
  0.93750000000000000       0.68750000000000000        0.0000000000000000     
  0.96875000000000000       0.68750000000000000        0.0000000000000000     
   1.0000000000000000       0.68750000000000000        0.0000000000000000     
  0.87500000000000000       0.71875000000000000        0.0000000000000000     
  0.90625000000000000       0.71875000000000000        0.0000000000000000     
  0.93750000000000000       0.71875000000000000        0.0000000000000000     
  0.96875000000000000       0.71875000000000000        0.0000000000000000     
   1.0000000000000000       0.71875000000000000        0.0000000000000000     
  0.87500000000000000       0.75000000000000000        0.0000000000000000     
  0.90625000000000000       0.75000000000000000        0.0000000000000000     
  0.93750000000000000       0.75000000000000000        0.0000000000000000     
  0.96875000000000000       0.75000000000000000        0.0000000000000000     
   1.0000000000000000       0.75000000000000000        0.0000000000000000     
   1.0000000000000000       0.62500000000000000        0.0000000000000000     
   1.0312500000000000       0.62500000000000000        0.0000000000000000     
   1.0625000000000000       0.62500000000000000        0.0000000000000000     
   1.0937500000000000       0.62500000000000000        0.0000000000000000     
   1.1250000000000000       0.62500000000000000        0.0000000000000000     
   1.0000000000000000       0.65625000000000000        0.0000000000000000     
   1.0312500000000000       0.65625000000000000        0.0000000000000000     
   1.0625000000000000       0.65625000000000000        0.0000000000000000     
   1.0937500000000000       0.65625000000000000        0.0000000000000000     
   1.1250000000000000       0.65625000000000000        0.0000000000000000     
   1.0000000000000000       0.68750000000000000        0.0000000000000000     
   1.0312500000000000       0.68750000000000000        0.0000000000000000     
   1.0625000000000000       0.68750000000000000        0.0000000000000000     
   1.0937500000000000       0.68750000000000000        0.0000000000000000     
   1.1250000000000000       0.68750000000000000        0.0000000000000000     
   1.0000000000000000       0.71875000000000000        0.0000000000000000     
   1.0312500000000000       0.71875000000000000        0.0000000000000000     
   1.0625000000000000       0.71875000000000000        0.0000000000000000     
   1.0937500000000000       0.71875000000000000        0.0000000000000000     
   1.1250000000000000       0.71875000000000000        0.0000000000000000     
   1.0000000000000000       0.75000000000000000        0.0000000000000000     
   1.0312500000000000       0.75000000000000000        0.0000000000000000     
   1.0625000000000000       0.75000000000000000        0.0000000000000000     
   1.0937500000000000       0.75000000000000000        0.0000000000000000     
   1.1250000000000000       0.75000000000000000        0.0000000000000000     
   1.1250000000000000       0.62500000000000000        0.0000000000000000     
   1.1562500000000000       0.62500000000000000        0.0000000000000000     
   1.1875000000000000       0.62500000000000000        0.0000000000000000     
   1.2187500000000000       0.62500000000000000        0.0000000000000000     
   1.2500000000000000       0.62500000000000000        0.0000000000000000     
   1.1250000000000000       0.65625000000000000        0.0000000000000000     
   1.1562500000000000       0.65625000000000000        0.0000000000000000     
   1.1875000000000000       0.65625000000000000        0.0000000000000000     
   1.2187500000000000       0.65625000000000000        0.0000000000000000     
   1.2500000000000000       0.65625000000000000        0.0000000000000000     
   1.1250000000000000       0.68750000000000000        0.0000000000000000     
   1.1562500000000000       0.68750000000000000        0.0000000000000000     
   1.1875000000000000       0.68750000000000000        0.0000000000000000     
   1.2187500000000000       0.68750000000000000        0.0000000000000000     
   1.2500000000000000       0.68750000000000000        0.0000000000000000     
   1.1250000000000000       0.71875000000000000        0.0000000000000000     
   1.1562500000000000       0.71875000000000000        0.0000000000000000     
   1.1875000000000000       0.71875000000000000        0.0000000000000000     
   1.2187500000000000       0.71875000000000000        0.0000000000000000     
   1.2500000000000000       0.71875000000000000        0.0000000000000000     
   1.1250000000000000       0.75000000000000000        0.0000000000000000     
   1.1562500000000000       0.75000000000000000        0.0000000000000000     
   1.1875000000000000       0.75000000000000000        0.0000000000000000     
   1.2187500000000000       0.75000000000000000        0.0000000000000000     
   1.2500000000000000       0.75000000000000000        0.0000000000000000     
   1.2500000000000000       0.62500000000000000        0.0000000000000000     
   1.2812500000000000       0.62500000000000000        0.0000000000000000     
   1.3125000000000000       0.62500000000000000        0.0000000000000000     
   1.3437500000000000       0.62500000000000000        0.0000000000000000     
   1.3750000000000000       0.62500000000000000        0.0000000000000000     
   1.2500000000000000       0.65625000000000000        0.0000000000000000     
   1.2812500000000000       0.65625000000000000        0.0000000000000000     
   1.3125000000000000       0.65625000000000000        0.0000000000000000     
   1.3437500000000000       0.65625000000000000        0.0000000000000000     
   1.3750000000000000       0.65625000000000000        0.0000000000000000     
   1.2500000000000000       0.68750000000000000        0.0000000000000000     
   1.2812500000000000       0.68750000000000000        0.0000000000000000     
   1.3125000000000000       0.68750000000000000        0.0000000000000000     
   1.3437500000000000       0.68750000000000000        0.0000000000000000     
   1.3750000000000000       0.68750000000000000        0.0000000000000000     
   1.2500000000000000       0.71875000000000000        0.0000000000000000     
   1.2812500000000000       0.71875000000000000        0.0000000000000000     
   1.3125000000000000       0.71875000000000000        0.0000000000000000     
   1.3437500000000000       0.71875000000000000        0.0000000000000000     
   1.3750000000000000       0.71875000000000000        0.0000000000000000     
   1.2500000000000000       0.75000000000000000        0.0000000000000000     
   1.2812500000000000       0.75000000000000000        0.0000000000000000     
   1.3125000000000000       0.75000000000000000        0.0000000000000000     
   1.3437500000000000       0.75000000000000000        0.0000000000000000     
   1.3750000000000000       0.75000000000000000        0.0000000000000000     
   1.3750000000000000       0.62500000000000000        0.0000000000000000     
   1.4062500000000000       0.62500000000000000        0.0000000000000000     
   1.4375000000000000       0.62500000000000000        0.0000000000000000     
   1.4687500000000000       0.62500000000000000        0.0000000000000000     
   1.5000000000000000       0.62500000000000000        0.0000000000000000     
   1.3750000000000000       0.65625000000000000        0.0000000000000000     
   1.4062500000000000       0.65625000000000000        0.0000000000000000     
   1.4375000000000000       0.65625000000000000        0.0000000000000000     
   1.4687500000000000       0.65625000000000000        0.0000000000000000     
   1.5000000000000000       0.65625000000000000        0.0000000000000000     
   1.3750000000000000       0.68750000000000000        0.0000000000000000     
   1.4062500000000000       0.68750000000000000        0.0000000000000000     
   1.4375000000000000       0.68750000000000000        0.0000000000000000     
   1.4687500000000000       0.68750000000000000        0.0000000000000000     
   1.5000000000000000       0.68750000000000000        0.0000000000000000     
   1.3750000000000000       0.71875000000000000        0.0000000000000000     
   1.4062500000000000       0.71875000000000000        0.0000000000000000     
   1.4375000000000000       0.71875000000000000        0.0000000000000000     
   1.4687500000000000       0.71875000000000000        0.0000000000000000     
   1.5000000000000000       0.71875000000000000        0.0000000000000000     
   1.3750000000000000       0.75000000000000000        0.0000000000000000     
   1.4062500000000000       0.75000000000000000        0.0000000000000000     
   1.4375000000000000       0.75000000000000000        0.0000000000000000     
   1.4687500000000000       0.75000000000000000        0.0000000000000000     
   1.5000000000000000       0.75000000000000000        0.0000000000000000     
  0.50000000000000000       0.75000000000000000        0.0000000000000000     
  0.53125000000000000       0.75000000000000000        0.0000000000000000     
  0.56250000000000000       0.75000000000000000        0.0000000000000000     
  0.59375000000000000       0.75000000000000000        0.0000000000000000     
  0.62500000000000000       0.75000000000000000        0.0000000000000000     
  0.50000000000000000       0.78125000000000000        0.0000000000000000     
  0.53125000000000000       0.78125000000000000        0.0000000000000000     
  0.56250000000000000       0.78125000000000000        0.0000000000000000     
  0.59375000000000000       0.78125000000000000        0.0000000000000000     
  0.62500000000000000       0.78125000000000000        0.0000000000000000     
  0.50000000000000000       0.81250000000000000        0.0000000000000000     
  0.53125000000000000       0.81250000000000000        0.0000000000000000     
  0.56250000000000000       0.81250000000000000        0.0000000000000000     
  0.59375000000000000       0.81250000000000000        0.0000000000000000     
  0.62500000000000000       0.81250000000000000        0.0000000000000000     
  0.50000000000000000       0.84375000000000000        0.0000000000000000     
  0.53125000000000000       0.84375000000000000        0.0000000000000000     
  0.56250000000000000       0.84375000000000000        0.0000000000000000     
  0.59375000000000000       0.84375000000000000        0.0000000000000000     
  0.62500000000000000       0.84375000000000000        0.0000000000000000     
  0.50000000000000000       0.87500000000000000        0.0000000000000000     
  0.53125000000000000       0.87500000000000000        0.0000000000000000     
  0.56250000000000000       0.87500000000000000        0.0000000000000000     
  0.59375000000000000       0.87500000000000000        0.0000000000000000     
  0.62500000000000000       0.87500000000000000        0.0000000000000000     
  0.62500000000000000       0.75000000000000000        0.0000000000000000     
  0.65625000000000000       0.75000000000000000        0.0000000000000000     
  0.68750000000000000       0.75000000000000000        0.0000000000000000     
  0.71875000000000000       0.75000000000000000        0.0000000000000000     
  0.75000000000000000       0.75000000000000000        0.0000000000000000     
  0.62500000000000000       0.78125000000000000        0.0000000000000000     
  0.65625000000000000       0.78125000000000000        0.0000000000000000     
  0.68750000000000000       0.78125000000000000        0.0000000000000000     
  0.71875000000000000       0.78125000000000000        0.0000000000000000     
  0.75000000000000000       0.78125000000000000        0.0000000000000000     
  0.62500000000000000       0.81250000000000000        0.0000000000000000     
  0.65625000000000000       0.81250000000000000        0.0000000000000000     
  0.68750000000000000       0.81250000000000000        0.0000000000000000     
  0.71875000000000000       0.81250000000000000        0.0000000000000000     
  0.75000000000000000       0.81250000000000000        0.0000000000000000     
  0.62500000000000000       0.84375000000000000        0.0000000000000000     
  0.65625000000000000       0.84375000000000000        0.0000000000000000     
  0.68750000000000000       0.84375000000000000        0.0000000000000000     
  0.71875000000000000       0.84375000000000000        0.0000000000000000     
  0.75000000000000000       0.84375000000000000        0.0000000000000000     
  0.62500000000000000       0.87500000000000000        0.0000000000000000     
  0.65625000000000000       0.87500000000000000        0.0000000000000000     
  0.68750000000000000       0.87500000000000000        0.0000000000000000     
  0.71875000000000000       0.87500000000000000        0.0000000000000000     
  0.75000000000000000       0.87500000000000000        0.0000000000000000     
  0.75000000000000000       0.75000000000000000        0.0000000000000000     
  0.78125000000000000       0.75000000000000000        0.0000000000000000     
  0.81250000000000000       0.75000000000000000        0.0000000000000000     
  0.84375000000000000       0.75000000000000000        0.0000000000000000     
  0.87500000000000000       0.75000000000000000        0.0000000000000000     
  0.75000000000000000       0.78125000000000000        0.0000000000000000     
  0.78125000000000000       0.78125000000000000        0.0000000000000000     
  0.81250000000000000       0.78125000000000000        0.0000000000000000     
  0.84375000000000000       0.78125000000000000        0.0000000000000000     
  0.87500000000000000       0.78125000000000000        0.0000000000000000     
  0.75000000000000000       0.81250000000000000        0.0000000000000000     
  0.78125000000000000       0.81250000000000000        0.0000000000000000     
  0.81250000000000000       0.81250000000000000        0.0000000000000000     
  0.84375000000000000       0.81250000000000000        0.0000000000000000     
  0.87500000000000000       0.81250000000000000        0.0000000000000000     
  0.75000000000000000       0.84375000000000000        0.0000000000000000     
  0.78125000000000000       0.84375000000000000        0.0000000000000000     
  0.81250000000000000       0.84375000000000000        0.0000000000000000     
  0.84375000000000000       0.84375000000000000        0.0000000000000000     
  0.87500000000000000       0.84375000000000000        0.0000000000000000     
  0.75000000000000000       0.87500000000000000        0.0000000000000000     
  0.78125000000000000       0.87500000000000000        0.0000000000000000     
  0.81250000000000000       0.87500000000000000        0.0000000000000000     
  0.84375000000000000       0.87500000000000000        0.0000000000000000     
  0.87500000000000000       0.87500000000000000        0.0000000000000000     
  0.87500000000000000       0.75000000000000000        0.0000000000000000     
  0.90625000000000000       0.75000000000000000        0.0000000000000000     
  0.93750000000000000       0.75000000000000000        0.0000000000000000     
  0.96875000000000000       0.75000000000000000        0.0000000000000000     
   1.0000000000000000       0.75000000000000000        0.0000000000000000     
  0.87500000000000000       0.78125000000000000        0.0000000000000000     
  0.90625000000000000       0.78125000000000000        0.0000000000000000     
  0.93750000000000000       0.78125000000000000        0.0000000000000000     
  0.96875000000000000       0.78125000000000000        0.0000000000000000     
   1.0000000000000000       0.78125000000000000        0.0000000000000000     
  0.87500000000000000       0.81250000000000000        0.0000000000000000     
  0.90625000000000000       0.81250000000000000        0.0000000000000000     
  0.93750000000000000       0.81250000000000000        0.0000000000000000     
  0.96875000000000000       0.81250000000000000        0.0000000000000000     
   1.0000000000000000       0.81250000000000000        0.0000000000000000     
  0.87500000000000000       0.84375000000000000        0.0000000000000000     
  0.90625000000000000       0.84375000000000000        0.0000000000000000     
  0.93750000000000000       0.84375000000000000        0.0000000000000000     
  0.96875000000000000       0.84375000000000000        0.0000000000000000     
   1.0000000000000000       0.84375000000000000        0.0000000000000000     
  0.87500000000000000       0.87500000000000000        0.0000000000000000     
  0.90625000000000000       0.87500000000000000        0.0000000000000000     
  0.93750000000000000       0.87500000000000000        0.0000000000000000     
  0.96875000000000000       0.87500000000000000        0.0000000000000000     
   1.0000000000000000       0.87500000000000000        0.0000000000000000     
   1.0000000000000000       0.75000000000000000        0.0000000000000000     
   1.0312500000000000       0.75000000000000000        0.0000000000000000     
   1.0625000000000000       0.75000000000000000        0.0000000000000000     
   1.0937500000000000       0.75000000000000000        0.0000000000000000     
   1.1250000000000000       0.75000000000000000        0.0000000000000000     
   1.0000000000000000       0.78125000000000000        0.0000000000000000     
   1.0312500000000000       0.78125000000000000        0.0000000000000000     
   1.0625000000000000       0.78125000000000000        0.0000000000000000     
   1.0937500000000000       0.78125000000000000        0.0000000000000000     
   1.1250000000000000       0.78125000000000000        0.0000000000000000     
   1.0000000000000000       0.81250000000000000        0.0000000000000000     
   1.0312500000000000       0.81250000000000000        0.0000000000000000     
   1.0625000000000000       0.81250000000000000        0.0000000000000000     
   1.0937500000000000       0.81250000000000000        0.0000000000000000     
   1.1250000000000000       0.81250000000000000        0.0000000000000000     
   1.0000000000000000       0.84375000000000000        0.0000000000000000     
   1.0312500000000000       0.84375000000000000        0.0000000000000000     
   1.0625000000000000       0.84375000000000000        0.0000000000000000     
   1.0937500000000000       0.84375000000000000        0.0000000000000000     
   1.1250000000000000       0.84375000000000000        0.0000000000000000     
   1.0000000000000000       0.87500000000000000        0.0000000000000000     
   1.0312500000000000       0.87500000000000000        0.0000000000000000     
   1.0625000000000000       0.87500000000000000        0.0000000000000000     
   1.0937500000000000       0.87500000000000000        0.0000000000000000     
   1.1250000000000000       0.87500000000000000        0.0000000000000000     
   1.1250000000000000       0.75000000000000000        0.0000000000000000     
   1.1562500000000000       0.75000000000000000        0.0000000000000000     
   1.1875000000000000       0.75000000000000000        0.0000000000000000     
   1.2187500000000000       0.75000000000000000        0.0000000000000000     
   1.2500000000000000       0.75000000000000000        0.0000000000000000     
   1.1250000000000000       0.78125000000000000        0.0000000000000000     
   1.1562500000000000       0.78125000000000000        0.0000000000000000     
   1.1875000000000000       0.78125000000000000        0.0000000000000000     
   1.2187500000000000       0.78125000000000000        0.0000000000000000     
   1.2500000000000000       0.78125000000000000        0.0000000000000000     
   1.1250000000000000       0.81250000000000000        0.0000000000000000     
   1.1562500000000000       0.81250000000000000        0.0000000000000000     
   1.1875000000000000       0.81250000000000000        0.0000000000000000     
   1.2187500000000000       0.81250000000000000        0.0000000000000000     
   1.2500000000000000       0.81250000000000000        0.0000000000000000     
   1.1250000000000000       0.84375000000000000        0.0000000000000000     
   1.1562500000000000       0.84375000000000000        0.0000000000000000     
   1.1875000000000000       0.84375000000000000        0.0000000000000000     
   1.2187500000000000       0.84375000000000000        0.0000000000000000     
   1.2500000000000000       0.84375000000000000        0.0000000000000000     
   1.1250000000000000       0.87500000000000000        0.0000000000000000     
   1.1562500000000000       0.87500000000000000        0.0000000000000000     
   1.1875000000000000       0.87500000000000000        0.0000000000000000     
   1.2187500000000000       0.87500000000000000        0.0000000000000000     
   1.2500000000000000       0.87500000000000000        0.0000000000000000     
   1.2500000000000000       0.75000000000000000        0.0000000000000000     
   1.2812500000000000       0.75000000000000000        0.0000000000000000     
   1.3125000000000000       0.75000000000000000        0.0000000000000000     
   1.3437500000000000       0.75000000000000000        0.0000000000000000     
   1.3750000000000000       0.75000000000000000        0.0000000000000000     
   1.2500000000000000       0.78125000000000000        0.0000000000000000     
   1.2812500000000000       0.78125000000000000        0.0000000000000000     
   1.3125000000000000       0.78125000000000000        0.0000000000000000     
   1.3437500000000000       0.78125000000000000        0.0000000000000000     
   1.3750000000000000       0.78125000000000000        0.0000000000000000     
   1.2500000000000000       0.81250000000000000        0.0000000000000000     
   1.2812500000000000       0.81250000000000000        0.0000000000000000     
   1.3125000000000000       0.81250000000000000        0.0000000000000000     
   1.3437500000000000       0.81250000000000000        0.0000000000000000     
   1.3750000000000000       0.81250000000000000        0.0000000000000000     
   1.2500000000000000       0.84375000000000000        0.0000000000000000     
   1.2812500000000000       0.84375000000000000        0.0000000000000000     
   1.3125000000000000       0.84375000000000000        0.0000000000000000     
   1.3437500000000000       0.84375000000000000        0.0000000000000000     
   1.3750000000000000       0.84375000000000000        0.0000000000000000     
   1.2500000000000000       0.87500000000000000        0.0000000000000000     
   1.2812500000000000       0.87500000000000000        0.0000000000000000     
   1.3125000000000000       0.87500000000000000        0.0000000000000000     
   1.3437500000000000       0.87500000000000000        0.0000000000000000     
   1.3750000000000000       0.87500000000000000        0.0000000000000000     
   1.3750000000000000       0.75000000000000000        0.0000000000000000     
   1.4062500000000000       0.75000000000000000        0.0000000000000000     
   1.4375000000000000       0.75000000000000000        0.0000000000000000     
   1.4687500000000000       0.75000000000000000        0.0000000000000000     
   1.5000000000000000       0.75000000000000000        0.0000000000000000     
   1.3750000000000000       0.78125000000000000        0.0000000000000000     
   1.4062500000000000       0.78125000000000000        0.0000000000000000     
   1.4375000000000000       0.78125000000000000        0.0000000000000000     
   1.4687500000000000       0.78125000000000000        0.0000000000000000     
   1.5000000000000000       0.78125000000000000        0.0000000000000000     
   1.3750000000000000       0.81250000000000000        0.0000000000000000     
   1.4062500000000000       0.81250000000000000        0.0000000000000000     
   1.4375000000000000       0.81250000000000000        0.0000000000000000     
   1.4687500000000000       0.81250000000000000        0.0000000000000000     
   1.5000000000000000       0.81250000000000000        0.0000000000000000     
   1.3750000000000000       0.84375000000000000        0.0000000000000000     
   1.4062500000000000       0.84375000000000000        0.0000000000000000     
   1.4375000000000000       0.84375000000000000        0.0000000000000000     
   1.4687500000000000       0.84375000000000000        0.0000000000000000     
   1.5000000000000000       0.84375000000000000        0.0000000000000000     
   1.3750000000000000       0.87500000000000000        0.0000000000000000     
   1.4062500000000000       0.87500000000000000        0.0000000000000000     
   1.4375000000000000       0.87500000000000000        0.0000000000000000     
   1.4687500000000000       0.87500000000000000        0.0000000000000000     
   1.5000000000000000       0.87500000000000000        0.0000000000000000     
  0.50000000000000000       0.87500000000000000        0.0000000000000000     
  0.53125000000000000       0.87500000000000000        0.0000000000000000     
  0.56250000000000000       0.87500000000000000        0.0000000000000000     
  0.59375000000000000       0.87500000000000000        0.0000000000000000     
  0.62500000000000000       0.87500000000000000        0.0000000000000000     
  0.50000000000000000       0.90625000000000000        0.0000000000000000     
  0.53125000000000000       0.90625000000000000        0.0000000000000000     
  0.56250000000000000       0.90625000000000000        0.0000000000000000     
  0.59375000000000000       0.90625000000000000        0.0000000000000000     
  0.62500000000000000       0.90625000000000000        0.0000000000000000     
  0.50000000000000000       0.93750000000000000        0.0000000000000000     
  0.53125000000000000       0.93750000000000000        0.0000000000000000     
  0.56250000000000000       0.93750000000000000        0.0000000000000000     
  0.59375000000000000       0.93750000000000000        0.0000000000000000     
  0.62500000000000000       0.93750000000000000        0.0000000000000000     
  0.50000000000000000       0.96875000000000000        0.0000000000000000     
  0.53125000000000000       0.96875000000000000        0.0000000000000000     
  0.56250000000000000       0.96875000000000000        0.0000000000000000     
  0.59375000000000000       0.96875000000000000        0.0000000000000000     
  0.62500000000000000       0.96875000000000000        0.0000000000000000     
  0.50000000000000000        1.0000000000000000        0.0000000000000000     
  0.53125000000000000        1.0000000000000000        0.0000000000000000     
  0.56250000000000000        1.0000000000000000        0.0000000000000000     
  0.59375000000000000        1.0000000000000000        0.0000000000000000     
  0.62500000000000000        1.0000000000000000        0.0000000000000000     
  0.62500000000000000       0.87500000000000000        0.0000000000000000     
  0.65625000000000000       0.87500000000000000        0.0000000000000000     
  0.68750000000000000       0.87500000000000000        0.0000000000000000     
  0.71875000000000000       0.87500000000000000        0.0000000000000000     
  0.75000000000000000       0.87500000000000000        0.0000000000000000     
  0.62500000000000000       0.90625000000000000        0.0000000000000000     
  0.65625000000000000       0.90625000000000000        0.0000000000000000     
  0.68750000000000000       0.90625000000000000        0.0000000000000000     
  0.71875000000000000       0.90625000000000000        0.0000000000000000     
  0.75000000000000000       0.90625000000000000        0.0000000000000000     
  0.62500000000000000       0.93750000000000000        0.0000000000000000     
  0.65625000000000000       0.93750000000000000        0.0000000000000000     
  0.68750000000000000       0.93750000000000000        0.0000000000000000     
  0.71875000000000000       0.93750000000000000        0.0000000000000000     
  0.75000000000000000       0.93750000000000000        0.0000000000000000     
  0.62500000000000000       0.96875000000000000        0.0000000000000000     
  0.65625000000000000       0.96875000000000000        0.0000000000000000     
  0.68750000000000000       0.96875000000000000        0.0000000000000000     
  0.71875000000000000       0.96875000000000000        0.0000000000000000     
  0.75000000000000000       0.96875000000000000        0.0000000000000000     
  0.62500000000000000        1.0000000000000000        0.0000000000000000     
  0.65625000000000000        1.0000000000000000        0.0000000000000000     
  0.68750000000000000        1.0000000000000000        0.0000000000000000     
  0.71875000000000000        1.0000000000000000        0.0000000000000000     
  0.75000000000000000        1.0000000000000000        0.0000000000000000     
  0.75000000000000000       0.87500000000000000        0.0000000000000000     
  0.78125000000000000       0.87500000000000000        0.0000000000000000     
  0.81250000000000000       0.87500000000000000        0.0000000000000000     
  0.84375000000000000       0.87500000000000000        0.0000000000000000     
  0.87500000000000000       0.87500000000000000        0.0000000000000000     
  0.75000000000000000       0.90625000000000000        0.0000000000000000     
  0.78125000000000000       0.90625000000000000        0.0000000000000000     
  0.81250000000000000       0.90625000000000000        0.0000000000000000     
  0.84375000000000000       0.90625000000000000        0.0000000000000000     
  0.87500000000000000       0.90625000000000000        0.0000000000000000     
  0.75000000000000000       0.93750000000000000        0.0000000000000000     
  0.78125000000000000       0.93750000000000000        0.0000000000000000     
  0.81250000000000000       0.93750000000000000        0.0000000000000000     
  0.84375000000000000       0.93750000000000000        0.0000000000000000     
  0.87500000000000000       0.93750000000000000        0.0000000000000000     
  0.75000000000000000       0.96875000000000000        0.0000000000000000     
  0.78125000000000000       0.96875000000000000        0.0000000000000000     
  0.81250000000000000       0.96875000000000000        0.0000000000000000     
  0.84375000000000000       0.96875000000000000        0.0000000000000000     
  0.87500000000000000       0.96875000000000000        0.0000000000000000     
  0.75000000000000000        1.0000000000000000        0.0000000000000000     
  0.78125000000000000        1.0000000000000000        0.0000000000000000     
  0.81250000000000000        1.0000000000000000        0.0000000000000000     
  0.84375000000000000        1.0000000000000000        0.0000000000000000     
  0.87500000000000000        1.0000000000000000        0.0000000000000000     
  0.87500000000000000       0.87500000000000000        0.0000000000000000     
  0.90625000000000000       0.87500000000000000        0.0000000000000000     
  0.93750000000000000       0.87500000000000000        0.0000000000000000     
  0.96875000000000000       0.87500000000000000        0.0000000000000000     
   1.0000000000000000       0.87500000000000000        0.0000000000000000     
  0.87500000000000000       0.90625000000000000        0.0000000000000000     
  0.90625000000000000       0.90625000000000000        0.0000000000000000     
  0.93750000000000000       0.90625000000000000        0.0000000000000000     
  0.96875000000000000       0.90625000000000000        0.0000000000000000     
   1.0000000000000000       0.90625000000000000        0.0000000000000000     
  0.87500000000000000       0.93750000000000000        0.0000000000000000     
  0.90625000000000000       0.93750000000000000        0.0000000000000000     
  0.93750000000000000       0.93750000000000000        0.0000000000000000     
  0.96875000000000000       0.93750000000000000        0.0000000000000000     
   1.0000000000000000       0.93750000000000000        0.0000000000000000     
  0.87500000000000000       0.96875000000000000        0.0000000000000000     
  0.90625000000000000       0.96875000000000000        0.0000000000000000     
  0.93750000000000000       0.96875000000000000        0.0000000000000000     
  0.96875000000000000       0.96875000000000000        0.0000000000000000     
   1.0000000000000000       0.96875000000000000        0.0000000000000000     
  0.87500000000000000        1.0000000000000000        0.0000000000000000     
  0.90625000000000000        1.0000000000000000        0.0000000000000000     
  0.93750000000000000        1.0000000000000000        0.0000000000000000     
  0.96875000000000000        1.0000000000000000        0.0000000000000000     
   1.0000000000000000        1.0000000000000000        0.0000000000000000     
   1.0000000000000000       0.87500000000000000        0.0000000000000000     
   1.0312500000000000       0.87500000000000000        0.0000000000000000     
   1.0625000000000000       0.87500000000000000        0.0000000000000000     
   1.0937500000000000       0.87500000000000000        0.0000000000000000     
   1.1250000000000000       0.87500000000000000        0.0000000000000000     
   1.0000000000000000       0.90625000000000000        0.0000000000000000     
   1.0312500000000000       0.90625000000000000        0.0000000000000000     
   1.0625000000000000       0.90625000000000000        0.0000000000000000     
   1.0937500000000000       0.90625000000000000        0.0000000000000000     
   1.1250000000000000       0.90625000000000000        0.0000000000000000     
   1.0000000000000000       0.93750000000000000        0.0000000000000000     
   1.0312500000000000       0.93750000000000000        0.0000000000000000     
   1.0625000000000000       0.93750000000000000        0.0000000000000000     
   1.0937500000000000       0.93750000000000000        0.0000000000000000     
   1.1250000000000000       0.93750000000000000        0.0000000000000000     
   1.0000000000000000       0.96875000000000000        0.0000000000000000     
   1.0312500000000000       0.96875000000000000        0.0000000000000000     
   1.0625000000000000       0.96875000000000000        0.0000000000000000     
   1.0937500000000000       0.96875000000000000        0.0000000000000000     
   1.1250000000000000       0.96875000000000000        0.0000000000000000     
   1.0000000000000000        1.0000000000000000        0.0000000000000000     
   1.0312500000000000        1.0000000000000000        0.0000000000000000     
   1.0625000000000000        1.0000000000000000        0.0000000000000000     
   1.0937500000000000        1.0000000000000000        0.0000000000000000     
   1.1250000000000000        1.0000000000000000        0.0000000000000000     
   1.1250000000000000       0.87500000000000000        0.0000000000000000     
   1.1562500000000000       0.87500000000000000        0.0000000000000000     
   1.1875000000000000       0.87500000000000000        0.0000000000000000     
   1.2187500000000000       0.87500000000000000        0.0000000000000000     
   1.2500000000000000       0.87500000000000000        0.0000000000000000     
   1.1250000000000000       0.90625000000000000        0.0000000000000000     
   1.1562500000000000       0.90625000000000000        0.0000000000000000     
   1.1875000000000000       0.90625000000000000        0.0000000000000000     
   1.2187500000000000       0.90625000000000000        0.0000000000000000     
   1.2500000000000000       0.90625000000000000        0.0000000000000000     
   1.1250000000000000       0.93750000000000000        0.0000000000000000     
   1.1562500000000000       0.93750000000000000        0.0000000000000000     
   1.1875000000000000       0.93750000000000000        0.0000000000000000     
   1.2187500000000000       0.93750000000000000        0.0000000000000000     
   1.2500000000000000       0.93750000000000000        0.0000000000000000     
   1.1250000000000000       0.96875000000000000        0.0000000000000000     
   1.1562500000000000       0.96875000000000000        0.0000000000000000     
   1.1875000000000000       0.96875000000000000        0.0000000000000000     
   1.2187500000000000       0.96875000000000000        0.0000000000000000     
   1.2500000000000000       0.96875000000000000        0.0000000000000000     
   1.1250000000000000        1.0000000000000000        0.0000000000000000     
   1.1562500000000000        1.0000000000000000        0.0000000000000000     
   1.1875000000000000        1.0000000000000000        0.0000000000000000     
   1.2187500000000000        1.0000000000000000        0.0000000000000000     
   1.2500000000000000        1.0000000000000000        0.0000000000000000     
   1.2500000000000000       0.87500000000000000        0.0000000000000000     
   1.2812500000000000       0.87500000000000000        0.0000000000000000     
   1.3125000000000000       0.87500000000000000        0.0000000000000000     
   1.3437500000000000       0.87500000000000000        0.0000000000000000     
   1.3750000000000000       0.87500000000000000        0.0000000000000000     
   1.2500000000000000       0.90625000000000000        0.0000000000000000     
   1.2812500000000000       0.90625000000000000        0.0000000000000000     
   1.3125000000000000       0.90625000000000000        0.0000000000000000     
   1.3437500000000000       0.90625000000000000        0.0000000000000000     
   1.3750000000000000       0.90625000000000000        0.0000000000000000     
   1.2500000000000000       0.93750000000000000        0.0000000000000000     
   1.2812500000000000       0.93750000000000000        0.0000000000000000     
   1.3125000000000000       0.93750000000000000        0.0000000000000000     
   1.3437500000000000       0.93750000000000000        0.0000000000000000     
   1.3750000000000000       0.93750000000000000        0.0000000000000000     
   1.2500000000000000       0.96875000000000000        0.0000000000000000     
   1.2812500000000000       0.96875000000000000        0.0000000000000000     
   1.3125000000000000       0.96875000000000000        0.0000000000000000     
   1.3437500000000000       0.96875000000000000        0.0000000000000000     
   1.3750000000000000       0.96875000000000000        0.0000000000000000     
   1.2500000000000000        1.0000000000000000        0.0000000000000000     
   1.2812500000000000        1.0000000000000000        0.0000000000000000     
   1.3125000000000000        1.0000000000000000        0.0000000000000000     
   1.3437500000000000        1.0000000000000000        0.0000000000000000     
   1.3750000000000000        1.0000000000000000        0.0000000000000000     
   1.3750000000000000       0.87500000000000000        0.0000000000000000     
   1.4062500000000000       0.87500000000000000        0.0000000000000000     
   1.4375000000000000       0.87500000000000000        0.0000000000000000     
   1.4687500000000000       0.87500000000000000        0.0000000000000000     
   1.5000000000000000       0.87500000000000000        0.0000000000000000     
   1.3750000000000000       0.90625000000000000        0.0000000000000000     
   1.4062500000000000       0.90625000000000000        0.0000000000000000     
   1.4375000000000000       0.90625000000000000        0.0000000000000000     
   1.4687500000000000       0.90625000000000000        0.0000000000000000     
   1.5000000000000000       0.90625000000000000        0.0000000000000000     
   1.3750000000000000       0.93750000000000000        0.0000000000000000     
   1.4062500000000000       0.93750000000000000        0.0000000000000000     
   1.4375000000000000       0.93750000000000000        0.0000000000000000     
   1.4687500000000000       0.93750000000000000        0.0000000000000000     
   1.5000000000000000       0.93750000000000000        0.0000000000000000     
   1.3750000000000000       0.96875000000000000        0.0000000000000000     
   1.4062500000000000       0.96875000000000000        0.0000000000000000     
   1.4375000000000000       0.96875000000000000        0.0000000000000000     
   1.4687500000000000       0.96875000000000000        0.0000000000000000     
   1.5000000000000000       0.96875000000000000        0.0000000000000000     
   1.3750000000000000        1.0000000000000000        0.0000000000000000     
   1.4062500000000000        1.0000000000000000        0.0000000000000000     
   1.4375000000000000        1.0000000000000000        0.0000000000000000     
   1.4687500000000000        1.0000000000000000        0.0000000000000000     
   1.5000000000000000        1.0000000000000000        0.0000000000000000     
 </DataArray>
 </Points>
 <Cells>
 <DataArray  type="Int32"  Name="connectivity"  format="ascii">
           0           1           6           5
           1           2           7           6
           2           3           8           7
           3           4           9           8
           5           6          11          10
           6           7          12          11
           7           8          13          12
           8           9          14          13
          10          11          16          15
          11          12          17          16
          12          13          18          17
          13          14          19          18
          15          16          21          20
          16          17          22          21
          17          18          23          22
          18          19          24          23
          25          26          31          30
          26          27          32          31
          27          28          33          32
          28          29          34          33
          30          31          36          35
          31          32          37          36
          32          33          38          37
          33          34          39          38
          35          36          41          40
          36          37          42          41
          37          38          43          42
          38          39          44          43
          40          41          46          45
          41          42          47          46
          42          43          48          47
          43          44          49          48
          50          51          56          55
          51          52          57          56
          52          53          58          57
          53          54          59          58
          55          56          61          60
          56          57          62          61
          57          58          63          62
          58          59          64          63
          60          61          66          65
          61          62          67          66
          62          63          68          67
          63          64          69          68
          65          66          71          70
          66          67          72          71
          67          68          73          72
          68          69          74          73
          75          76          81          80
          76          77          82          81
          77          78          83          82
          78          79          84          83
          80          81          86          85
          81          82          87          86
          82          83          88          87
          83          84          89          88
          85          86          91          90
          86          87          92          91
          87          88          93          92
          88          89          94          93
          90          91          96          95
          91          92          97          96
          92          93          98          97
          93          94          99          98
         100         101         106         105
         101         102         107         106
         102         103         108         107
         103         104         109         108
         105         106         111         110
         106         107         112         111
         107         108         113         112
         108         109         114         113
         110         111         116         115
         111         112         117         116
         112         113         118         117
         113         114         119         118
         115         116         121         120
         116         117         122         121
         117         118         123         122
         118         119         124         123
         125         126         131         130
         126         127         132         131
         127         128         133         132
         128         129         134         133
         130         131         136         135
         131         132         137         136
         132         133         138         137
         133         134         139         138
         135         136         141         140
         136         137         142         141
         137         138         143         142
         138         139         144         143
         140         141         146         145
         141         142         147         146
         142         143         148         147
         143         144         149         148
         150         151         156         155
         151         152         157         156
         152         153         158         157
         153         154         159         158
         155         156         161         160
         156         157         162         161
         157         158         163         162
         158         159         164         163
         160         161         166         165
         161         162         167         166
         162         163         168         167
         163         164         169         168
         165         166         171         170
         166         167         172         171
         167         168         173         172
         168         169         174         173
         175         176         181         180
         176         177         182         181
         177         178         183         182
         178         179         184         183
         180         181         186         185
         181         182         187         186
         182         183         188         187
         183         184         189         188
         185         186         191         190
         186         187         192         191
         187         188         193         192
         188         189         194         193
         190         191         196         195
         191         192         197         196
         192         193         198         197
         193         194         199         198
         200         201         206         205
         201         202         207         206
         202         203         208         207
         203         204         209         208
         205         206         211         210
         206         207         212         211
         207         208         213         212
         208         209         214         213
         210         211         216         215
         211         212         217         216
         212         213         218         217
         213         214         219         218
         215         216         221         220
         216         217         222         221
         217         218         223         222
         218         219         224         223
         225         226         231         230
         226         227         232         231
         227         228         233         232
         228         229         234         233
         230         231         236         235
         231         232         237         236
         232         233         238         237
         233         234         239         238
         235         236         241         240
         236         237         242         241
         237         238         243         242
         238         239         244         243
         240         241         246         245
         241         242         247         246
         242         243         248         247
         243         244         249         248
         250         251         256         255
         251         252         257         256
         252         253         258         257
         253         254         259         258
         255         256         261         260
         256         257         262         261
         257         258         263         262
         258         259         264         263
         260         261         266         265
         261         262         267         266
         262         263         268         267
         263         264         269         268
         265         266         271         270
         266         267         272         271
         267         268         273         272
         268         269         274         273
         275         276         281         280
         276         277         282         281
         277         278         283         282
         278         279         284         283
         280         281         286         285
         281         282         287         286
         282         283         288         287
         283         284         289         288
         285         286         291         290
         286         287         292         291
         287         288         293         292
         288         289         294         293
         290         291         296         295
         291         292         297         296
         292         293         298         297
         293         294         299         298
         300         301         306         305
         301         302         307         306
         302         303         308         307
         303         304         309         308
         305         306         311         310
         306         307         312         311
         307         308         313         312
         308         309         314         313
         310         311         316         315
         311         312         317         316
         312         313         318         317
         313         314         319         318
         315         316         321         320
         316         317         322         321
         317         318         323         322
         318         319         324         323
         325         326         331         330
         326         327         332         331
         327         328         333         332
         328         329         334         333
         330         331         336         335
         331         332         337         336
         332         333         338         337
         333         334         339         338
         335         336         341         340
         336         337         342         341
         337         338         343         342
         338         339         344         343
         340         341         346         345
         341         342         347         346
         342         343         348         347
         343         344         349         348
         350         351         356         355
         351         352         357         356
         352         353         358         357
         353         354         359         358
         355         356         361         360
         356         357         362         361
         357         358         363         362
         358         359         364         363
         360         361         366         365
         361         362         367         366
         362         363         368         367
         363         364         369         368
         365         366         371         370
         366         367         372         371
         367         368         373         372
         368         369         374         373
         375         376         381         380
         376         377         382         381
         377         378         383         382
         378         379         384         383
         380         381         386         385
         381         382         387         386
         382         383         388         387
         383         384         389         388
         385         386         391         390
         386         387         392         391
         387         388         393         392
         388         389         394         393
         390         391         396         395
         391         392         397         396
         392         393         398         397
         393         394         399         398
         400         401         406         405
         401         402         407         406
         402         403         408         407
         403         404         409         408
         405         406         411         410
         406         407         412         411
         407         408         413         412
         408         409         414         413
         410         411         416         415
         411         412         417         416
         412         413         418         417
         413         414         419         418
         415         416         421         420
         416         417         422         421
         417         418         423         422
         418         419         424         423
         425         426         431         430
         426         427         432         431
         427         428         433         432
         428         429         434         433
         430         431         436         435
         431         432         437         436
         432         433         438         437
         433         434         439         438
         435         436         441         440
         436         437         442         441
         437         438         443         442
         438         439         444         443
         440         441         446         445
         441         442         447         446
         442         443         448         447
         443         444         449         448
         450         451         456         455
         451         452         457         456
         452         453         458         457
         453         454         459         458
         455         456         461         460
         456         457         462         461
         457         458         463         462
         458         459         464         463
         460         461         466         465
         461         462         467         466
         462         463         468         467
         463         464         469         468
         465         466         471         470
         466         467         472         471
         467         468         473         472
         468         469         474         473
         475         476         481         480
         476         477         482         481
         477         478         483         482
         478         479         484         483
         480         481         486         485
         481         482         487         486
         482         483         488         487
         483         484         489         488
         485         486         491         490
         486         487         492         491
         487         488         493         492
         488         489         494         493
         490         491         496         495
         491         492         497         496
         492         493         498         497
         493         494         499         498
         500         501         506         505
         501         502         507         506
         502         503         508         507
         503         504         509         508
         505         506         511         510
         506         507         512         511
         507         508         513         512
         508         509         514         513
         510         511         516         515
         511         512         517         516
         512         513         518         517
         513         514         519         518
         515         516         521         520
         516         517         522         521
         517         518         523         522
         518         519         524         523
         525         526         531         530
         526         527         532         531
         527         528         533         532
         528         529         534         533
         530         531         536         535
         531         532         537         536
         532         533         538         537
         533         534         539         538
         535         536         541         540
         536         537         542         541
         537         538         543         542
         538         539         544         543
         540         541         546         545
         541         542         547         546
         542         543         548         547
         543         544         549         548
         550         551         556         555
         551         552         557         556
         552         553         558         557
         553         554         559         558
         555         556         561         560
         556         557         562         561
         557         558         563         562
         558         559         564         563
         560         561         566         565
         561         562         567         566
         562         563         568         567
         563         564         569         568
         565         566         571         570
         566         567         572         571
         567         568         573         572
         568         569         574         573
         575         576         581         580
         576         577         582         581
         577         578         583         582
         578         579         584         583
         580         581         586         585
         581         582         587         586
         582         583         588         587
         583         584         589         588
         585         586         591         590
         586         587         592         591
         587         588         593         592
         588         589         594         593
         590         591         596         595
         591         592         597         596
         592         593         598         597
         593         594         599         598
         600         601         606         605
         601         602         607         606
         602         603         608         607
         603         604         609         608
         605         606         611         610
         606         607         612         611
         607         608         613         612
         608         609         614         613
         610         611         616         615
         611         612         617         616
         612         613         618         617
         613         614         619         618
         615         616         621         620
         616         617         622         621
         617         618         623         622
         618         619         624         623
         625         626         631         630
         626         627         632         631
         627         628         633         632
         628         629         634         633
         630         631         636         635
         631         632         637         636
         632         633         638         637
         633         634         639         638
         635         636         641         640
         636         637         642         641
         637         638         643         642
         638         639         644         643
         640         641         646         645
         641         642         647         646
         642         643         648         647
         643         644         649         648
         650         651         656         655
         651         652         657         656
         652         653         658         657
         653         654         659         658
         655         656         661         660
         656         657         662         661
         657         658         663         662
         658         659         664         663
         660         661         666         665
         661         662         667         666
         662         663         668         667
         663         664         669         668
         665         666         671         670
         666         667         672         671
         667         668         673         672
         668         669         674         673
         675         676         681         680
         676         677         682         681
         677         678         683         682
         678         679         684         683
         680         681         686         685
         681         682         687         686
         682         683         688         687
         683         684         689         688
         685         686         691         690
         686         687         692         691
         687         688         693         692
         688         689         694         693
         690         691         696         695
         691         692         697         696
         692         693         698         697
         693         694         699         698
         700         701         706         705
         701         702         707         706
         702         703         708         707
         703         704         709         708
         705         706         711         710
         706         707         712         711
         707         708         713         712
         708         709         714         713
         710         711         716         715
         711         712         717         716
         712         713         718         717
         713         714         719         718
         715         716         721         720
         716         717         722         721
         717         718         723         722
         718         719         724         723
         725         726         731         730
         726         727         732         731
         727         728         733         732
         728         729         734         733
         730         731         736         735
         731         732         737         736
         732         733         738         737
         733         734         739         738
         735         736         741         740
         736         737         742         741
         737         738         743         742
         738         739         744         743
         740         741         746         745
         741         742         747         746
         742         743         748         747
         743         744         749         748
         750         751         756         755
         751         752         757         756
         752         753         758         757
         753         754         759         758
         755         756         761         760
         756         757         762         761
         757         758         763         762
         758         759         764         763
         760         761         766         765
         761         762         767         766
         762         763         768         767
         763         764         769         768
         765         766         771         770
         766         767         772         771
         767         768         773         772
         768         769         774         773
         775         776         781         780
         776         777         782         781
         777         778         783         782
         778         779         784         783
         780         781         786         785
         781         782         787         786
         782         783         788         787
         783         784         789         788
         785         786         791         790
         786         787         792         791
         787         788         793         792
         788         789         794         793
         790         791         796         795
         791         792         797         796
         792         793         798         797
         793         794         799         798
         800         801         806         805
         801         802         807         806
         802         803         808         807
         803         804         809         808
         805         806         811         810
         806         807         812         811
         807         808         813         812
         808         809         814         813
         810         811         816         815
         811         812         817         816
         812         813         818         817
         813         814         819         818
         815         816         821         820
         816         817         822         821
         817         818         823         822
         818         819         824         823
         825         826         831         830
         826         827         832         831
         827         828         833         832
         828         829         834         833
         830         831         836         835
         831         832         837         836
         832         833         838         837
         833         834         839         838
         835         836         841         840
         836         837         842         841
         837         838         843         842
         838         839         844         843
         840         841         846         845
         841         842         847         846
         842         843         848         847
         843         844         849         848
         850         851         856         855
         851         852         857         856
         852         853         858         857
         853         854         859         858
         855         856         861         860
         856         857         862         861
         857         858         863         862
         858         859         864         863
         860         861         866         865
         861         862         867         866
         862         863         868         867
         863         864         869         868
         865         866         871         870
         866         867         872         871
         867         868         873         872
         868         869         874         873
         875         876         881         880
         876         877         882         881
         877         878         883         882
         878         879         884         883
         880         881         886         885
         881         882         887         886
         882         883         888         887
         883         884         889         888
         885         886         891         890
         886         887         892         891
         887         888         893         892
         888         889         894         893
         890         891         896         895
         891         892         897         896
         892         893         898         897
         893         894         899         898
         900         901         906         905
         901         902         907         906
         902         903         908         907
         903         904         909         908
         905         906         911         910
         906         907         912         911
         907         908         913         912
         908         909         914         913
         910         911         916         915
         911         912         917         916
         912         913         918         917
         913         914         919         918
         915         916         921         920
         916         917         922         921
         917         918         923         922
         918         919         924         923
         925         926         931         930
         926         927         932         931
         927         928         933         932
         928         929         934         933
         930         931         936         935
         931         932         937         936
         932         933         938         937
         933         934         939         938
         935         936         941         940
         936         937         942         941
         937         938         943         942
         938         939         944         943
         940         941         946         945
         941         942         947         946
         942         943         948         947
         943         944         949         948
         950         951         956         955
         951         952         957         956
         952         953         958         957
         953         954         959         958
         955         956         961         960
         956         957         962         961
         957         958         963         962
         958         959         964         963
         960         961         966         965
         961         962         967         966
         962         963         968         967
         963         964         969         968
         965         966         971         970
         966         967         972         971
         967         968         973         972
         968         969         974         973
         975         976         981         980
         976         977         982         981
         977         978         983         982
         978         979         984         983
         980         981         986         985
         981         982         987         986
         982         983         988         987
         983         984         989         988
         985         986         991         990
         986         987         992         991
         987         988         993         992
         988         989         994         993
         990         991         996         995
         991         992         997         996
         992         993         998         997
         993         994         999         998
        1000        1001        1006        1005
        1001        1002        1007        1006
        1002        1003        1008        1007
        1003        1004        1009        1008
        1005        1006        1011        1010
        1006        1007        1012        1011
        1007        1008        1013        1012
        1008        1009        1014        1013
        1010        1011        1016        1015
        1011        1012        1017        1016
        1012        1013        1018        1017
        1013        1014        1019        1018
        1015        1016        1021        1020
        1016        1017        1022        1021
        1017        1018        1023        1022
        1018        1019        1024        1023
        1025        1026        1031        1030
        1026        1027        1032        1031
        1027        1028        1033        1032
        1028        1029        1034        1033
        1030        1031        1036        1035
        1031        1032        1037        1036
        1032        1033        1038        1037
        1033        1034        1039        1038
        1035        1036        1041        1040
        1036        1037        1042        1041
        1037        1038        1043        1042
        1038        1039        1044        1043
        1040        1041        1046        1045
        1041        1042        1047        1046
        1042        1043        1048        1047
        1043        1044        1049        1048
        1050        1051        1056        1055
        1051        1052        1057        1056
        1052        1053        1058        1057
        1053        1054        1059        1058
        1055        1056        1061        1060
        1056        1057        1062        1061
        1057        1058        1063        1062
        1058        1059        1064        1063
        1060        1061        1066        1065
        1061        1062        1067        1066
        1062        1063        1068        1067
        1063        1064        1069        1068
        1065        1066        1071        1070
        1066        1067        1072        1071
        1067        1068        1073        1072
        1068        1069        1074        1073
        1075        1076        1081        1080
        1076        1077        1082        1081
        1077        1078        1083        1082
        1078        1079        1084        1083
        1080        1081        1086        1085
        1081        1082        1087        1086
        1082        1083        1088        1087
        1083        1084        1089        1088
        1085        1086        1091        1090
        1086        1087        1092        1091
        1087        1088        1093        1092
        1088        1089        1094        1093
        1090        1091        1096        1095
        1091        1092        1097        1096
        1092        1093        1098        1097
        1093        1094        1099        1098
        1100        1101        1106        1105
        1101        1102        1107        1106
        1102        1103        1108        1107
        1103        1104        1109        1108
        1105        1106        1111        1110
        1106        1107        1112        1111
        1107        1108        1113        1112
        1108        1109        1114        1113
        1110        1111        1116        1115
        1111        1112        1117        1116
        1112        1113        1118        1117
        1113        1114        1119        1118
        1115        1116        1121        1120
        1116        1117        1122        1121
        1117        1118        1123        1122
        1118        1119        1124        1123
        1125        1126        1131        1130
        1126        1127        1132        1131
        1127        1128        1133        1132
        1128        1129        1134        1133
        1130        1131        1136        1135
        1131        1132        1137        1136
        1132        1133        1138        1137
        1133        1134        1139        1138
        1135        1136        1141        1140
        1136        1137        1142        1141
        1137        1138        1143        1142
        1138        1139        1144        1143
        1140        1141        1146        1145
        1141        1142        1147        1146
        1142        1143        1148        1147
        1143        1144        1149        1148
        1150        1151        1156        1155
        1151        1152        1157        1156
        1152        1153        1158        1157
        1153        1154        1159        1158
        1155        1156        1161        1160
        1156        1157        1162        1161
        1157        1158        1163        1162
        1158        1159        1164        1163
        1160        1161        1166        1165
        1161        1162        1167        1166
        1162        1163        1168        1167
        1163        1164        1169        1168
        1165        1166        1171        1170
        1166        1167        1172        1171
        1167        1168        1173        1172
        1168        1169        1174        1173
        1175        1176        1181        1180
        1176        1177        1182        1181
        1177        1178        1183        1182
        1178        1179        1184        1183
        1180        1181        1186        1185
        1181        1182        1187        1186
        1182        1183        1188        1187
        1183        1184        1189        1188
        1185        1186        1191        1190
        1186        1187        1192        1191
        1187        1188        1193        1192
        1188        1189        1194        1193
        1190        1191        1196        1195
        1191        1192        1197        1196
        1192        1193        1198        1197
        1193        1194        1199        1198
        1200        1201        1206        1205
        1201        1202        1207        1206
        1202        1203        1208        1207
        1203        1204        1209        1208
        1205        1206        1211        1210
        1206        1207        1212        1211
        1207        1208        1213        1212
        1208        1209        1214        1213
        1210        1211        1216        1215
        1211        1212        1217        1216
        1212        1213        1218        1217
        1213        1214        1219        1218
        1215        1216        1221        1220
        1216        1217        1222        1221
        1217        1218        1223        1222
        1218        1219        1224        1223
        1225        1226        1231        1230
        1226        1227        1232        1231
        1227        1228        1233        1232
        1228        1229        1234        1233
        1230        1231        1236        1235
        1231        1232        1237        1236
        1232        1233        1238        1237
        1233        1234        1239        1238
        1235        1236        1241        1240
        1236        1237        1242        1241
        1237        1238        1243        1242
        1238        1239        1244        1243
        1240        1241        1246        1245
        1241        1242        1247        1246
        1242        1243        1248        1247
        1243        1244        1249        1248
        1250        1251        1256        1255
        1251        1252        1257        1256
        1252        1253        1258        1257
        1253        1254        1259        1258
        1255        1256        1261        1260
        1256        1257        1262        1261
        1257        1258        1263        1262
        1258        1259        1264        1263
        1260        1261        1266        1265
        1261        1262        1267        1266
        1262        1263        1268        1267
        1263        1264        1269        1268
        1265        1266        1271        1270
        1266        1267        1272        1271
        1267        1268        1273        1272
        1268        1269        1274        1273
        1275        1276        1281        1280
        1276        1277        1282        1281
        1277        1278        1283        1282
        1278        1279        1284        1283
        1280        1281        1286        1285
        1281        1282        1287        1286
        1282        1283        1288        1287
        1283        1284        1289        1288
        1285        1286        1291        1290
        1286        1287        1292        1291
        1287        1288        1293        1292
        1288        1289        1294        1293
        1290        1291        1296        1295
        1291        1292        1297        1296
        1292        1293        1298        1297
        1293        1294        1299        1298
        1300        1301        1306        1305
        1301        1302        1307        1306
        1302        1303        1308        1307
        1303        1304        1309        1308
        1305        1306        1311        1310
        1306        1307        1312        1311
        1307        1308        1313        1312
        1308        1309        1314        1313
        1310        1311        1316        1315
        1311        1312        1317        1316
        1312        1313        1318        1317
        1313        1314        1319        1318
        1315        1316        1321        1320
        1316        1317        1322        1321
        1317        1318        1323        1322
        1318        1319        1324        1323
        1325        1326        1331        1330
        1326        1327        1332        1331
        1327        1328        1333        1332
        1328        1329        1334        1333
        1330        1331        1336        1335
        1331        1332        1337        1336
        1332        1333        1338        1337
        1333        1334        1339        1338
        1335        1336        1341        1340
        1336        1337        1342        1341
        1337        1338        1343        1342
        1338        1339        1344        1343
        1340        1341        1346        1345
        1341        1342        1347        1346
        1342        1343        1348        1347
        1343        1344        1349        1348
        1350        1351        1356        1355
        1351        1352        1357        1356
        1352        1353        1358        1357
        1353        1354        1359        1358
        1355        1356        1361        1360
        1356        1357        1362        1361
        1357        1358        1363        1362
        1358        1359        1364        1363
        1360        1361        1366        1365
        1361        1362        1367        1366
        1362        1363        1368        1367
        1363        1364        1369        1368
        1365        1366        1371        1370
        1366        1367        1372        1371
        1367        1368        1373        1372
        1368        1369        1374        1373
        1375        1376        1381        1380
        1376        1377        1382        1381
        1377        1378        1383        1382
        1378        1379        1384        1383
        1380        1381        1386        1385
        1381        1382        1387        1386
        1382        1383        1388        1387
        1383        1384        1389        1388
        1385        1386        1391        1390
        1386        1387        1392        1391
        1387        1388        1393        1392
        1388        1389        1394        1393
        1390        1391        1396        1395
        1391        1392        1397        1396
        1392        1393        1398        1397
        1393        1394        1399        1398
        1400        1401        1406        1405
        1401        1402        1407        1406
        1402        1403        1408        1407
        1403        1404        1409        1408
        1405        1406        1411        1410
        1406        1407        1412        1411
        1407        1408        1413        1412
        1408        1409        1414        1413
        1410        1411        1416        1415
        1411        1412        1417        1416
        1412        1413        1418        1417
        1413        1414        1419        1418
        1415        1416        1421        1420
        1416        1417        1422        1421
        1417        1418        1423        1422
        1418        1419        1424        1423
        1425        1426        1431        1430
        1426        1427        1432        1431
        1427        1428        1433        1432
        1428        1429        1434        1433
        1430        1431        1436        1435
        1431        1432        1437        1436
        1432        1433        1438        1437
        1433        1434        1439        1438
        1435        1436        1441        1440
        1436        1437        1442        1441
        1437        1438        1443        1442
        1438        1439        1444        1443
        1440        1441        1446        1445
        1441        1442        1447        1446
        1442        1443        1448        1447
        1443        1444        1449        1448
        1450        1451        1456        1455
        1451        1452        1457        1456
        1452        1453        1458        1457
        1453        1454        1459        1458
        1455        1456        1461        1460
        1456        1457        1462        1461
        1457        1458        1463        1462
        1458        1459        1464        1463
        1460        1461        1466        1465
        1461        1462        1467        1466
        1462        1463        1468        1467
        1463        1464        1469        1468
        1465        1466        1471        1470
        1466        1467        1472        1471
        1467        1468        1473        1472
        1468        1469        1474        1473
        1475        1476        1481        1480
        1476        1477        1482        1481
        1477        1478        1483        1482
        1478        1479        1484        1483
        1480        1481        1486        1485
        1481        1482        1487        1486
        1482        1483        1488        1487
        1483        1484        1489        1488
        1485        1486        1491        1490
        1486        1487        1492        1491
        1487        1488        1493        1492
        1488        1489        1494        1493
        1490        1491        1496        1495
        1491        1492        1497        1496
        1492        1493        1498        1497
        1493        1494        1499        1498
        1500        1501        1506        1505
        1501        1502        1507        1506
        1502        1503        1508        1507
        1503        1504        1509        1508
        1505        1506        1511        1510
        1506        1507        1512        1511
        1507        1508        1513        1512
        1508        1509        1514        1513
        1510        1511        1516        1515
        1511        1512        1517        1516
        1512        1513        1518        1517
        1513        1514        1519        1518
        1515        1516        1521        1520
        1516        1517        1522        1521
        1517        1518        1523        1522
        1518        1519        1524        1523
        1525        1526        1531        1530
        1526        1527        1532        1531
        1527        1528        1533        1532
        1528        1529        1534        1533
        1530        1531        1536        1535
        1531        1532        1537        1536
        1532        1533        1538        1537
        1533        1534        1539        1538
        1535        1536        1541        1540
        1536        1537        1542        1541
        1537        1538        1543        1542
        1538        1539        1544        1543
        1540        1541        1546        1545
        1541        1542        1547        1546
        1542        1543        1548        1547
        1543        1544        1549        1548
        1550        1551        1556        1555
        1551        1552        1557        1556
        1552        1553        1558        1557
        1553        1554        1559        1558
        1555        1556        1561        1560
        1556        1557        1562        1561
        1557        1558        1563        1562
        1558        1559        1564        1563
        1560        1561        1566        1565
        1561        1562        1567        1566
        1562        1563        1568        1567
        1563        1564        1569        1568
        1565        1566        1571        1570
        1566        1567        1572        1571
        1567        1568        1573        1572
        1568        1569        1574        1573
        1575        1576        1581        1580
        1576        1577        1582        1581
        1577        1578        1583        1582
        1578        1579        1584        1583
        1580        1581        1586        1585
        1581        1582        1587        1586
        1582        1583        1588        1587
        1583        1584        1589        1588
        1585        1586        1591        1590
        1586        1587        1592        1591
        1587        1588        1593        1592
        1588        1589        1594        1593
        1590        1591        1596        1595
        1591        1592        1597        1596
        1592        1593        1598        1597
        1593        1594        1599        1598
 </DataArray>
 <DataArray  type="Int32"  Name="offsets"  format="ascii"> 
           4
           8
          12
          16
          20
          24
          28
          32
          36
          40
          44
          48
          52
          56
          60
          64
          68
          72
          76
          80
          84
          88
          92
          96
         100
         104
         108
         112
         116
         120
         124
         128
         132
         136
         140
         144
         148
         152
         156
         160
         164
         168
         172
         176
         180
         184
         188
         192
         196
         200
         204
         208
         212
         216
         220
         224
         228
         232
         236
         240
         244
         248
         252
         256
         260
         264
         268
         272
         276
         280
         284
         288
         292
         296
         300
         304
         308
         312
         316
         320
         324
         328
         332
         336
         340
         344
         348
         352
         356
         360
         364
         368
         372
         376
         380
         384
         388
         392
         396
         400
         404
         408
         412
         416
         420
         424
         428
         432
         436
         440
         444
         448
         452
         456
         460
         464
         468
         472
         476
         480
         484
         488
         492
         496
         500
         504
         508
         512
         516
         520
         524
         528
         532
         536
         540
         544
         548
         552
         556
         560
         564
         568
         572
         576
         580
         584
         588
         592
         596
         600
         604
         608
         612
         616
         620
         624
         628
         632
         636
         640
         644
         648
         652
         656
         660
         664
         668
         672
         676
         680
         684
         688
         692
         696
         700
         704
         708
         712
         716
         720
         724
         728
         732
         736
         740
         744
         748
         752
         756
         760
         764
         768
         772
         776
         780
         784
         788
         792
         796
         800
         804
         808
         812
         816
         820
         824
         828
         832
         836
         840
         844
         848
         852
         856
         860
         864
         868
         872
         876
         880
         884
         888
         892
         896
         900
         904
         908
         912
         916
         920
         924
         928
         932
         936
         940
         944
         948
         952
         956
         960
         964
         968
         972
         976
         980
         984
         988
         992
         996
        1000
        1004
        1008
        1012
        1016
        1020
        1024
        1028
        1032
        1036
        1040
        1044
        1048
        1052
        1056
        1060
        1064
        1068
        1072
        1076
        1080
        1084
        1088
        1092
        1096
        1100
        1104
        1108
        1112
        1116
        1120
        1124
        1128
        1132
        1136
        1140
        1144
        1148
        1152
        1156
        1160
        1164
        1168
        1172
        1176
        1180
        1184
        1188
        1192
        1196
        1200
        1204
        1208
        1212
        1216
        1220
        1224
        1228
        1232
        1236
        1240
        1244
        1248
        1252
        1256
        1260
        1264
        1268
        1272
        1276
        1280
        1284
        1288
        1292
        1296
        1300
        1304
        1308
        1312
        1316
        1320
        1324
        1328
        1332
        1336
        1340
        1344
        1348
        1352
        1356
        1360
        1364
        1368
        1372
        1376
        1380
        1384
        1388
        1392
        1396
        1400
        1404
        1408
        1412
        1416
        1420
        1424
        1428
        1432
        1436
        1440
        1444
        1448
        1452
        1456
        1460
        1464
        1468
        1472
        1476
        1480
        1484
        1488
        1492
        1496
        1500
        1504
        1508
        1512
        1516
        1520
        1524
        1528
        1532
        1536
        1540
        1544
        1548
        1552
        1556
        1560
        1564
        1568
        1572
        1576
        1580
        1584
        1588
        1592
        1596
        1600
        1604
        1608
        1612
        1616
        1620
        1624
        1628
        1632
        1636
        1640
        1644
        1648
        1652
        1656
        1660
        1664
        1668
        1672
        1676
        1680
        1684
        1688
        1692
        1696
        1700
        1704
        1708
        1712
        1716
        1720
        1724
        1728
        1732
        1736
        1740
        1744
        1748
        1752
        1756
        1760
        1764
        1768
        1772
        1776
        1780
        1784
        1788
        1792
        1796
        1800
        1804
        1808
        1812
        1816
        1820
        1824
        1828
        1832
        1836
        1840
        1844
        1848
        1852
        1856
        1860
        1864
        1868
        1872
        1876
        1880
        1884
        1888
        1892
        1896
        1900
        1904
        1908
        1912
        1916
        1920
        1924
        1928
        1932
        1936
        1940
        1944
        1948
        1952
        1956
        1960
        1964
        1968
        1972
        1976
        1980
        1984
        1988
        1992
        1996
        2000
        2004
        2008
        2012
        2016
        2020
        2024
        2028
        2032
        2036
        2040
        2044
        2048
        2052
        2056
        2060
        2064
        2068
        2072
        2076
        2080
        2084
        2088
        2092
        2096
        2100
        2104
        2108
        2112
        2116
        2120
        2124
        2128
        2132
        2136
        2140
        2144
        2148
        2152
        2156
        2160
        2164
        2168
        2172
        2176
        2180
        2184
        2188
        2192
        2196
        2200
        2204
        2208
        2212
        2216
        2220
        2224
        2228
        2232
        2236
        2240
        2244
        2248
        2252
        2256
        2260
        2264
        2268
        2272
        2276
        2280
        2284
        2288
        2292
        2296
        2300
        2304
        2308
        2312
        2316
        2320
        2324
        2328
        2332
        2336
        2340
        2344
        2348
        2352
        2356
        2360
        2364
        2368
        2372
        2376
        2380
        2384
        2388
        2392
        2396
        2400
        2404
        2408
        2412
        2416
        2420
        2424
        2428
        2432
        2436
        2440
        2444
        2448
        2452
        2456
        2460
        2464
        2468
        2472
        2476
        2480
        2484
        2488
        2492
        2496
        2500
        2504
        2508
        2512
        2516
        2520
        2524
        2528
        2532
        2536
        2540
        2544
        2548
        2552
        2556
        2560
        2564
        2568
        2572
        2576
        2580
        2584
        2588
        2592
        2596
        2600
        2604
        2608
        2612
        2616
        2620
        2624
        2628
        2632
        2636
        2640
        2644
        2648
        2652
        2656
        2660
        2664
        2668
        2672
        2676
        2680
        2684
        2688
        2692
        2696
        2700
        2704
        2708
        2712
        2716
        2720
        2724
        2728
        2732
        2736
        2740
        2744
        2748
        2752
        2756
        2760
        2764
        2768
        2772
        2776
        2780
        2784
        2788
        2792
        2796
        2800
        2804
        2808
        2812
        2816
        2820
        2824
        2828
        2832
        2836
        2840
        2844
        2848
        2852
        2856
        2860
        2864
        2868
        2872
        2876
        2880
        2884
        2888
        2892
        2896
        2900
        2904
        2908
        2912
        2916
        2920
        2924
        2928
        2932
        2936
        2940
        2944
        2948
        2952
        2956
        2960
        2964
        2968
        2972
        2976
        2980
        2984
        2988
        2992
        2996
        3000
        3004
        3008
        3012
        3016
        3020
        3024
        3028
        3032
        3036
        3040
        3044
        3048
        3052
        3056
        3060
        3064
        3068
        3072
        3076
        3080
        3084
        3088
        3092
        3096
        3100
        3104
        3108
        3112
        3116
        3120
        3124
        3128
        3132
        3136
        3140
        3144
        3148
        3152
        3156
        3160
        3164
        3168
        3172
        3176
        3180
        3184
        3188
        3192
        3196
        3200
        3204
        3208
        3212
        3216
        3220
        3224
        3228
        3232
        3236
        3240
        3244
        3248
        3252
        3256
        3260
        3264
        3268
        3272
        3276
        3280
        3284
        3288
        3292
        3296
        3300
        3304
        3308
        3312
        3316
        3320
        3324
        3328
        3332
        3336
        3340
        3344
        3348
        3352
        3356
        3360
        3364
        3368
        3372
        3376
        3380
        3384
        3388
        3392
        3396
        3400
        3404
        3408
        3412
        3416
        3420
        3424
        3428
        3432
        3436
        3440
        3444
        3448
        3452
        3456
        3460
        3464
        3468
        3472
        3476
        3480
        3484
        3488
        3492
        3496
        3500
        3504
        3508
        3512
        3516
        3520
        3524
        3528
        3532
        3536
        3540
        3544
        3548
        3552
        3556
        3560
        3564
        3568
        3572
        3576
        3580
        3584
        3588
        3592
        3596
        3600
        3604
        3608
        3612
        3616
        3620
        3624
        3628
        3632
        3636
        3640
        3644
        3648
        3652
        3656
        3660
        3664
        3668
        3672
        3676
        3680
        3684
        3688
        3692
        3696
        3700
        3704
        3708
        3712
        3716
        3720
        3724
        3728
        3732
        3736
        3740
        3744
        3748
        3752
        3756
        3760
        3764
        3768
        3772
        3776
        3780
        3784
        3788
        3792
        3796
        3800
        3804
        3808
        3812
        3816
        3820
        3824
        3828
        3832
        3836
        3840
        3844
        3848
        3852
        3856
        3860
        3864
        3868
        3872
        3876
        3880
        3884
        3888
        3892
        3896
        3900
        3904
        3908
        3912
        3916
        3920
        3924
        3928
        3932
        3936
        3940
        3944
        3948
        3952
        3956
        3960
        3964
        3968
        3972
        3976
        3980
        3984
        3988
        3992
        3996
        4000
        4004
        4008
        4012
        4016
        4020
        4024
        4028
        4032
        4036
        4040
        4044
        4048
        4052
        4056
        4060
        4064
        4068
        4072
        4076
        4080
        4084
        4088
        4092
        4096
 </DataArray>
 <DataArray  type="UInt8"  Name="types"  format="ascii">
 9
 9
 9
 9
 9
 9
 9
 9
 9
 9
 9
 9
 9
 9
 9
 9
 9
 9
 9
 9
 9
 9
 9
 9
 9
 9
 9
 9
 9
 9
 9
 9
 9
 9
 9
 9
 9
 9
 9
 9
 9
 9
 9
 9
 9
 9
 9
 9
 9
 9
 9
 9
 9
 9
 9
 9
 9
 9
 9
 9
 9
 9
 9
 9
 9
 9
 9
 9
 9
 9
 9
 9
 9
 9
 9
 9
 9
 9
 9
 9
 9
 9
 9
 9
 9
 9
 9
 9
 9
 9
 9
 9
 9
 9
 9
 9
 9
 9
 9
 9
 9
 9
 9
 9
 9
 9
 9
 9
 9
 9
 9
 9
 9
 9
 9
 9
 9
 9
 9
 9
 9
 9
 9
 9
 9
 9
 9
 9
 9
 9
 9
 9
 9
 9
 9
 9
 9
 9
 9
 9
 9
 9
 9
 9
 9
 9
 9
 9
 9
 9
 9
 9
 9
 9
 9
 9
 9
 9
 9
 9
 9
 9
 9
 9
 9
 9
 9
 9
 9
 9
 9
 9
 9
 9
 9
 9
 9
 9
 9
 9
 9
 9
 9
 9
 9
 9
 9
 9
 9
 9
 9
 9
 9
 9
 9
 9
 9
 9
 9
 9
 9
 9
 9
 9
 9
 9
 9
 9
 9
 9
 9
 9
 9
 9
 9
 9
 9
 9
 9
 9
 9
 9
 9
 9
 9
 9
 9
 9
 9
 9
 9
 9
 9
 9
 9
 9
 9
 9
 9
 9
 9
 9
 9
 9
 9
 9
 9
 9
 9
 9
 9
 9
 9
 9
 9
 9
 9
 9
 9
 9
 9
 9
 9
 9
 9
 9
 9
 9
 9
 9
 9
 9
 9
 9
 9
 9
 9
 9
 9
 9
 9
 9
 9
 9
 9
 9
 9
 9
 9
 9
 9
 9
 9
 9
 9
 9
 9
 9
 9
 9
 9
 9
 9
 9
 9
 9
 9
 9
 9
 9
 9
 9
 9
 9
 9
 9
 9
 9
 9
 9
 9
 9
 9
 9
 9
 9
 9
 9
 9
 9
 9
 9
 9
 9
 9
 9
 9
 9
 9
 9
 9
 9
 9
 9
 9
 9
 9
 9
 9
 9
 9
 9
 9
 9
 9
 9
 9
 9
 9
 9
 9
 9
 9
 9
 9
 9
 9
 9
 9
 9
 9
 9
 9
 9
 9
 9
 9
 9
 9
 9
 9
 9
 9
 9
 9
 9
 9
 9
 9
 9
 9
 9
 9
 9
 9
 9
 9
 9
 9
 9
 9
 9
 9
 9
 9
 9
 9
 9
 9
 9
 9
 9
 9
 9
 9
 9
 9
 9
 9
 9
 9
 9
 9
 9
 9
 9
 9
 9
 9
 9
 9
 9
 9
 9
 9
 9
 9
 9
 9
 9
 9
 9
 9
 9
 9
 9
 9
 9
 9
 9
 9
 9
 9
 9
 9
 9
 9
 9
 9
 9
 9
 9
 9
 9
 9
 9
 9
 9
 9
 9
 9
 9
 9
 9
 9
 9
 9
 9
 9
 9
 9
 9
 9
 9
 9
 9
 9
 9
 9
 9
 9
 9
 9
 9
 9
 9
 9
 9
 9
 9
 9
 9
 9
 9
 9
 9
 9
 9
 9
 9
 9
 9
 9
 9
 9
 9
 9
 9
 9
 9
 9
 9
 9
 9
 9
 9
 9
 9
 9
 9
 9
 9
 9
 9
 9
 9
 9
 9
 9
 9
 9
 9
 9
 9
 9
 9
 9
 9
 9
 9
 9
 9
 9
 9
 9
 9
 9
 9
 9
 9
 9
 9
 9
 9
 9
 9
 9
 9
 9
 9
 9
 9
 9
 9
 9
 9
 9
 9
 9
 9
 9
 9
 9
 9
 9
 9
 9
 9
 9
 9
 9
 9
 9
 9
 9
 9
 9
 9
 9
 9
 9
 9
 9
 9
 9
 9
 9
 9
 9
 9
 9
 9
 9
 9
 9
 9
 9
 9
 9
 9
 9
 9
 9
 9
 9
 9
 9
 9
 9
 9
 9
 9
 9
 9
 9
 9
 9
 9
 9
 9
 9
 9
 9
 9
 9
 9
 9
 9
 9
 9
 9
 9
 9
 9
 9
 9
 9
 9
 9
 9
 9
 9
 9
 9
 9
 9
 9
 9
 9
 9
 9
 9
 9
 9
 9
 9
 9
 9
 9
 9
 9
 9
 9
 9
 9
 9
 9
 9
 9
 9
 9
 9
 9
 9
 9
 9
 9
 9
 9
 9
 9
 9
 9
 9
 9
 9
 9
 9
 9
 9
 9
 9
 9
 9
 9
 9
 9
 9
 9
 9
 9
 9
 9
 9
 9
 9
 9
 9
 9
 9
 9
 9
 9
 9
 9
 9
 9
 9
 9
 9
 9
 9
 9
 9
 9
 9
 9
 9
 9
 9
 9
 9
 9
 9
 9
 9
 9
 9
 9
 9
 9
 9
 9
 9
 9
 9
 9
 9
 9
 9
 9
 9
 9
 9
 9
 9
 9
 9
 9
 9
 9
 9
 9
 9
 9
 9
 9
 9
 9
 9
 9
 9
 9
 9
 9
 9
 9
 9
 9
 9
 9
 9
 9
 9
 9
 9
 9
 9
 9
 9
 9
 9
 9
 9
 9
 9
 9
 9
 9
 9
 9
 9
 9
 9
 9
 9
 9
 9
 9
 9
 9
 9
 9
 9
 9
 9
 9
 9
 9
 9
 9
 9
 9
 9
 9
 9
 9
 9
 9
 9
 9
 9
 9
 9
 9
 9
 9
 9
 9
 9
 9
 9
 9
 9
 9
 9
 9
 9
 9
 9
 9
 9
 9
 9
 9
 9
 9
 9
 9
 9
 9
 9
 9
 9
 9
 9
 9
 9
 9
 9
 9
 9
 9
 9
 9
 9
 9
 9
 9
 9
 9
 9
 9
 9
 9
 9
 9
 9
 9
 9
 9
 9
 9
 9
 9
 9
 9
 9
 9
 9
 9
 9
 9
 9
 9
 9
 9
 9
 9
 9
 9
 9
 9
 9
 9
 9
 9
 9
 9
 9
 9
 9
 9
 9
 9
 9
 9
 9
 9
 9
 9
 9
 9
 9
 9
 9
 9
 9
 9
 9
 9
 9
 9
 9
 9
 9
 9
 9
 9
 9
 9
 9
 9
 9
 9
 9
 9
 9
 9
 9
 9
 9
 9
 9
 9
 9
 9
 9
 9
 9
 9
 9
 9
 9
 9
 9
 9
 9
 9
 9
 9
 9
 9
 9
 9
 9
 9
 9
 9
 9
 9
 9
 9
 9
 9
 9
 9
 9
 9
 9
 9
 9
 9
 9
 </DataArray>
 </Cells> 
 <PointData>
 <DataArray  type="Float64" Name="disp" NumberOfComponents="3" format="ascii">
   6.4278093481454635E-002   6.2513479317623522E-002   0.0000000000000000     
   6.7637196613367950E-002   6.7986957211508742E-002   0.0000000000000000     
   7.0830311570369314E-002   7.3619810746339817E-002   0.0000000000000000     
   7.3857438352458712E-002   7.9412039922116762E-002   0.0000000000000000     
   7.6718576959636159E-002   8.5363644738839617E-002   0.0000000000000000     
   5.9840187432774986E-002   6.1847398730575154E-002   0.0000000000000000     
   6.2812688750328194E-002   6.7273846853536975E-002   0.0000000000000000     
   6.5668183517461995E-002   7.2879215079184698E-002   0.0000000000000000     
   6.8406671734176375E-002   7.8663503407518334E-002   0.0000000000000000     
   7.1028153400471361E-002   8.4626711838537913E-002   0.0000000000000000     
   5.5295506179169097E-002   6.1086467392827894E-002   0.0000000000000000     
   5.7959233058673176E-002   6.6514050006325237E-002   0.0000000000000000     
   6.0538376692293172E-002   7.2126975679978445E-002   0.0000000000000000     
   6.3032937080029064E-002   7.7925244413787495E-002   0.0000000000000000     
   6.5442914221880838E-002   8.3908856207752389E-002   0.0000000000000000     
   5.0644049720636956E-002   6.0230685304381727E-002   0.0000000000000000     
   5.3076829538402912E-002   6.5707566669873554E-002   0.0000000000000000     
   5.5440891094862832E-002   7.1363092548721058E-002   0.0000000000000000     
   5.7736234390016759E-002   7.7197262940924188E-002   0.0000000000000000     
   5.9962859423864631E-002   8.3210077846482988E-002   0.0000000000000000     
   4.5885818057178562E-002   5.9280052465236655E-002   0.0000000000000000     
   4.8165478189517386E-002   6.4854396844181927E-002   0.0000000000000000     
   5.0375726725171016E-002   7.0587565685412523E-002   0.0000000000000000     
   5.2516563664139461E-002   7.6479558988928484E-002   0.0000000000000000     
   5.4587989006422727E-002   8.2530376754729781E-002   0.0000000000000000     
   7.6718576959636159E-002   8.5363644738839617E-002   0.0000000000000000     
   7.9445949241475425E-002   9.1472520082455613E-002   0.0000000000000000     
   8.2071777047550337E-002   9.7736560838912079E-002   0.0000000000000000     
   8.4596060377860854E-002  0.10415576700820894        0.0000000000000000     
   8.7018799232407018E-002  0.11073013859034629        0.0000000000000000     
   7.1028153400471361E-002   8.4626711838537913E-002   0.0000000000000000     
   7.3547239731606068E-002   9.0757134634080139E-002   0.0000000000000000     
   7.5978541942839664E-002   9.7043066055981717E-002   0.0000000000000000     
   7.8322060034172164E-002  0.10348450610424263        0.0000000000000000     
   8.0577794005603554E-002  0.11008145477886289        0.0000000000000000     
   6.5442914221880838E-002   8.3908856207752389E-002   0.0000000000000000     
   6.7771781887258173E-002   9.0062949716541843E-002   0.0000000000000000     
   7.0023013845570706E-002   9.6372663594824590E-002   0.0000000000000000     
   7.2196610096818450E-002  0.10283799784260061        0.0000000000000000     
   7.4292570641001351E-002  0.10945895245986992        0.0000000000000000     
   5.9962859423864631E-002   8.3210077846482988E-002   0.0000000000000000     
   6.2119575708431782E-002   8.9389965329840768E-002   0.0000000000000000     
   6.4205192755743448E-002   9.5725353455440726E-002   0.0000000000000000     
   6.6219710565799658E-002  0.10221624222328293        0.0000000000000000     
   6.8163129138600398E-002  0.10886263163336737        0.0000000000000000     
   5.4587989006422727E-002   8.2530376754729781E-002   0.0000000000000000     
   5.6590621195126846E-002   8.8738181473976843E-002   0.0000000000000000     
   5.8525078673357891E-002   9.5101135637830125E-002   0.0000000000000000     
   6.0391361441115836E-002  0.10161923924628959        0.0000000000000000     
   6.2189469498400707E-002  0.10829249229935527        0.0000000000000000     
   8.7018799232407018E-002  0.11073013859034629        0.0000000000000000     
   8.9339611841751682E-002  0.11744910906484302        0.0000000000000000     
   9.1558116436457684E-002  0.12430211191121804        0.0000000000000000     
   9.3674313016525068E-002  0.13128914712947140        0.0000000000000000     
   9.5688201581953805E-002  0.13841021471960308        0.0000000000000000     
   8.0577794005603554E-002  0.11008145477886289        0.0000000000000000     
   8.2742512421195902E-002  0.11682386079973187        0.0000000000000000     
   8.4812983845011236E-002  0.12370167288673888        0.0000000000000000     
   8.6789208277049584E-002  0.13071489103988393        0.0000000000000000     
   8.8671185717310946E-002  0.13786351525916704        0.0000000000000000     
   7.4292570641001351E-002  0.10945895245986992        0.0000000000000000     
   7.6306214281752271E-002  0.11622572662586918        0.0000000000000000     
   7.8232859822704018E-002  0.12312851951983510        0.0000000000000000     
   8.0072507263856563E-002  0.13016733114176768        0.0000000000000000     
   8.1825156605209920E-002  0.13734216149166692        0.0000000000000000     
   6.8163129138600398E-002  0.10886263163336737        0.0000000000000000     
   7.0030717423420805E-002  0.11565470654325499        0.0000000000000000     
   7.1817744369535988E-002  0.12258265181050676        0.0000000000000000     
   7.3524209976945989E-002  0.12964646743512265        0.0000000000000000     
   7.5150114245650740E-002  0.13684615341710271        0.0000000000000000     
   6.2189469498400707E-002  0.10829249229935527        0.0000000000000000     
   6.3916021846201501E-002  0.11511080055188928        0.0000000000000000     
   6.5567637485507202E-002  0.12206406975875382        0.0000000000000000     
   6.7144316416317851E-002  0.12915229991994887        0.0000000000000000     
   6.8646058638633406E-002  0.13637549103547444        0.0000000000000000     
   9.5688201581953805E-002  0.13841021471960308        0.0000000000000000     
   9.7605420812820184E-002  0.14565311408558540        0.0000000000000000     
   9.9431609389200509E-002  0.15300564463139069        0.0000000000000000     
  0.10116676731109475       0.16046780635701893        0.0000000000000000     
  0.10281089457850293       0.16803959926247020        0.0000000000000000     
   8.8671185717310946E-002  0.13786351525916704        0.0000000000000000     
   9.0463072842186604E-002  0.14513341162655766        0.0000000000000000     
   9.2169026328067866E-002  0.15251044622402521        0.0000000000000000     
   9.3789046174954732E-002  0.15999461905156978        0.0000000000000000     
   9.5323132382847203E-002  0.16758593010919132        0.0000000000000000     
   8.1825156605209920E-002  0.13734216149166692        0.0000000000000000     
   8.3493748476880097E-002  0.14463800569591645        0.0000000000000000     
   8.5081223508983103E-002  0.15203985888089996        0.0000000000000000     
   8.6587581701518923E-002  0.15954772104661752        0.0000000000000000     
   8.8012823054487571E-002  0.16716159219306900        0.0000000000000000     
   7.5150114245650740E-002  0.13684615341710271        0.0000000000000000     
   7.6697447716900694E-002  0.14416689629366186        0.0000000000000000     
   7.8168200931946236E-002  0.15159388260201495        0.0000000000000000     
   7.9562373890787338E-002  0.15912711234216206        0.0000000000000000     
   8.0879966593424044E-002  0.16676658551410323        0.0000000000000000     
   6.8646058638633406E-002  0.13637549103547444        0.0000000000000000     
   7.0074170562248378E-002  0.14372008341979378        0.0000000000000000     
   7.1429958596957235E-002  0.15117251738737014        0.0000000000000000     
   7.2713422742759978E-002  0.15873279293820361        0.0000000000000000     
   7.3924562999656621E-002  0.16640091007229407        0.0000000000000000     
  0.10281089457850293       0.16803959926247020        0.0000000000000000     
  0.10436563392837310       0.17571034213414505        0.0000000000000000     
  0.10583262809765330       0.18346935375844425        0.0000000000000000     
  0.10721187708634358       0.19131663413536770        0.0000000000000000     
  0.10850338089444389       0.19925218326491551        0.0000000000000000     
   9.5323132382847203E-002  0.16758593010919132        0.0000000000000000     
   9.6772193164611137E-002  0.17527625928961618        0.0000000000000000     
   9.8137136733112335E-002  0.18305748648557083        0.0000000000000000     
   9.9417963088350866E-002  0.19092961169705519        0.0000000000000000     
  0.10061467223032668       0.19889263492406928        0.0000000000000000     
   8.8012823054487571E-002  0.16716159219306900        0.0000000000000000     
   8.9357151387723585E-002  0.17487444139643543        0.0000000000000000     
   9.0620770521061503E-002  0.18267923773289779        0.0000000000000000     
   9.1803680454501296E-002  0.19057598120245611        0.0000000000000000     
   9.2905881188043035E-002  0.19856467180511037        0.0000000000000000     
   8.0879966593424044E-002  0.16676658551410323        0.0000000000000000     
   8.2120508597710473E-002  0.17450488845460280        0.0000000000000000     
   8.3283529461500749E-002  0.18233460750042527        0.0000000000000000     
   8.4369029184794914E-002  0.19025574265157050        0.0000000000000000     
   8.5377007767592911E-002  0.19826829390803866        0.0000000000000000     
   7.3924562999656621E-002  0.16640091007229407        0.0000000000000000     
   7.5062264794571787E-002  0.17416760046411831        0.0000000000000000     
   7.6125413554430144E-002  0.18202359578815311        0.0000000000000000     
   7.7114009279231649E-002  0.18996889604439840        0.0000000000000000     
   7.8028051968976345E-002  0.19800350123285423        0.0000000000000000     
  0.10850338089444389       0.19925218326491551        0.0000000000000000     
  0.10971305720020912       0.20727277264974242        0.0000000000000000     
  0.11084682368189414       0.21537517379250337        0.0000000000000000     
  0.11190468033949896       0.22355938669319833        0.0000000000000000     
  0.11288662717302358       0.23182541135182733        0.0000000000000000     
  0.10061467223032668       0.19889263492406928        0.0000000000000000     
  0.10173263149128156       0.20693971938065187        0.0000000000000000     
  0.10277720820345720       0.21506402828084156        0.0000000000000000     
  0.10374840236685365       0.22326556162463840        0.0000000000000000     
  0.10464621398147089       0.23154431941204237        0.0000000000000000     
   9.2905881188043035E-002  0.19856467180511037        0.0000000000000000     
   9.3931688041703501E-002  0.20663665351011259        0.0000000000000000     
   9.4885416335499559E-002  0.21478327028671476        0.0000000000000000     
   9.5767066069431209E-002  0.22300452213491709        0.0000000000000000     
   9.6576637243498464E-002  0.23130040905471935        0.0000000000000000     
   8.5377007767592911E-002  0.19826829390803866        0.0000000000000000     
   8.6310226851474964E-002  0.20636357503812458        0.0000000000000000     
   8.7171448078021185E-002  0.21453289981012316        0.0000000000000000     
   8.7960671447231631E-002  0.22277626822403435        0.0000000000000000     
   8.8677896959106259E-002  0.23109368027985819        0.0000000000000000     
   7.8028051968976345E-002  0.19800350123285423        0.0000000000000000     
   7.8868247920595907E-002  0.20612048396468785        0.0000000000000000     
   7.9635303431022098E-002  0.21431291685106652        0.0000000000000000     
   8.0329218500254887E-002  0.22258079989199023        0.0000000000000000     
   8.0949993128294290E-002  0.23092413308745902        0.0000000000000000     
  0.11288662717302358       0.23182541135182733        0.0000000000000000     
  0.11382116866562465       0.24018967145833711        0.0000000000000000     
  0.11473680930045885       0.24866859070267461        0.0000000000000000     
  0.11563354907752618       0.25726216908483968        0.0000000000000000     
  0.11651138799682664       0.26597040660483245        0.0000000000000000     
  0.10464621398147089       0.23154431941204237        0.0000000000000000     
  0.10547576461096037       0.23992391923457659        0.0000000000000000     
  0.10624217581897345       0.24842797868376426        0.0000000000000000     
  0.10694544760551021       0.25705649775960526        0.0000000000000000     
  0.10758557997057061       0.26580947646209968        0.0000000000000000     
   9.6576637243498464E-002  0.23130040905471935        0.0000000000000000     
   9.7304916462734342E-002  0.23969762554281190        0.0000000000000000     
   9.7942690332171942E-002  0.24822286609588512        0.0000000000000000     
   9.8489958851811193E-002  0.25687613071393894        0.0000000000000000     
   9.8946722021652167E-002  0.26565741939697335        0.0000000000000000     
   8.8677896959106259E-002  0.23109368027985819        0.0000000000000000     
   8.9308624220946611E-002  0.23951079038304310        0.0000000000000000     
   8.9838352840054245E-002  0.24805325293903721        0.0000000000000000     
   9.0267082816429145E-002  0.25672106794784078        0.0000000000000000     
   9.0594814150071326E-002  0.26551423540945357        0.0000000000000000     
   8.0949993128294290E-002  0.23092413308745902        0.0000000000000000     
   8.1486887885597173E-002  0.23936341375527004        0.0000000000000000     
   8.1929163342620445E-002  0.24791913921322059        0.0000000000000000     
   8.2276819499364065E-002  0.25659130946131059        0.0000000000000000     
   8.2529856355828088E-002  0.26537992449954018        0.0000000000000000     
  0.11651138799682664       0.26597040660483245        0.0000000000000000     
  0.11731056152348004       0.27495804926150630        0.0000000000000000     
  0.11797130512260631       0.28438984305371451        0.0000000000000000     
  0.11849361879420534       0.29426578798145714        0.0000000000000000     
  0.11887750253827720       0.30458588404473425        0.0000000000000000     
  0.10758557997057061       0.26580947646209968        0.0000000000000000     
  0.10814357540973474       0.27481906654447680        0.0000000000000000     
  0.10860043641858272       0.28421741975996578        0.0000000000000000     
  0.10895616299711457       0.29400453610856675        0.0000000000000000     
  0.10921075514533024       0.30418041559027964        0.0000000000000000     
   9.8946722021652167E-002  0.26565741939697335        0.0000000000000000     
   9.9324043034390325E-002  0.27466496271624824        0.0000000000000000     
   9.9632985082721184E-002  0.28399699124302341        0.0000000000000000     
   9.9873548166644746E-002  0.29365350497729897        0.0000000000000000     
  0.10004573228616101       0.30363450391907471        0.0000000000000000     
   9.0594814150071326E-002  0.26551423540945357        0.0000000000000000     
   9.0851964397446819E-002  0.27449573777682085        0.0000000000000000     
   9.1068951115021668E-002  0.28372855750288750        0.0000000000000000     
   9.1245774302795915E-002  0.29321269458765375        0.0000000000000000     
   9.1382433960769532E-002  0.30294814903111955        0.0000000000000000     
   8.2529856355828088E-002  0.26537992449954018        0.0000000000000000     
   8.2727339498904207E-002  0.27431139172619423        0.0000000000000000     
   8.2908334515484211E-002  0.28341211853955783        0.0000000000000000     
   8.3072841405568074E-002  0.29268210493963115        0.0000000000000000     
   8.3220860169155780E-002  0.30212135092641407        0.0000000000000000     
   4.5885818057178562E-002   5.9280052465236655E-002   0.0000000000000000     
   4.8165478189517386E-002   6.4854396844181927E-002   0.0000000000000000     
   5.0375726725171016E-002   7.0587565685412523E-002   0.0000000000000000     
   5.2516563664139461E-002   7.6479558988928484E-002   0.0000000000000000     
   5.4587989006422727E-002   8.2530376754729781E-002   0.0000000000000000     
   4.1229291004569540E-002   5.8420933071100009E-002   0.0000000000000000     
   4.3375490104555242E-002   6.4078916848640324E-002   0.0000000000000000     
   4.5447067585462006E-002   6.9879048805010807E-002   0.0000000000000000     
   4.7444023447289860E-002   7.5821328940211541E-002   0.0000000000000000     
   4.9366357690038783E-002   8.1905757254242442E-002   0.0000000000000000     
   3.6882948378585509E-002   5.7839691317679118E-002   0.0000000000000000     
   3.8857176376055111E-002   6.3505503002638741E-002   0.0000000000000000     
   4.0759097677980138E-002   6.9316195622473889E-002   0.0000000000000000     
   4.2588712284360598E-002   7.5271769177184547E-002   0.0000000000000000     
   4.4346020195196498E-002   8.1372223666770688E-002   0.0000000000000000     
   3.2846790179226461E-002   5.7536327204973974E-002   0.0000000000000000     
   3.4610537004017006E-002   6.3134155306177206E-002   0.0000000000000000     
   3.6311817002725427E-002   6.8899006137801713E-002   0.0000000000000000     
   3.7950630175351704E-002   7.4830879699847488E-002   0.0000000000000000     
   3.9526976521895851E-002   8.0929775992314545E-002   0.0000000000000000     
   2.9120816406492406E-002   5.7510840732984597E-002   0.0000000000000000     
   3.0635571988440920E-002   6.2964873759255691E-002   0.0000000000000000     
   3.2105225559697831E-002   6.8627480350994294E-002   0.0000000000000000     
   3.3529777120263143E-002   7.4498660508200393E-002   0.0000000000000000     
   3.4909226670136850E-002   8.0578414230874001E-002   0.0000000000000000     
   5.4587989006422727E-002   8.2530376754729781E-002   0.0000000000000000     
   5.6590621195126846E-002   8.8738181473976843E-002   0.0000000000000000     
   5.8525078673357891E-002   9.5101135637830125E-002   0.0000000000000000     
   6.0391361441115836E-002  0.10161923924628959        0.0000000000000000     
   6.2189469498400707E-002  0.10829249229935527        0.0000000000000000     
   4.9366357690038783E-002   8.1905757254242442E-002   0.0000000000000000     
   5.1218370104490950E-002   8.8138805212305923E-002   0.0000000000000000     
   5.3004360481428550E-002   9.4526944279604397E-002   0.0000000000000000     
   5.4724328820851542E-002  0.10107017445613782        0.0000000000000000     
   5.6378275122759960E-002  0.10776849574190626        0.0000000000000000     
   4.4346020195196498E-002   8.1372223666770688E-002   0.0000000000000000     
   4.6036274193671664E-002   8.7623043608183765E-002   0.0000000000000000     
   4.7664727062969939E-002   9.4029713518375177E-002   0.0000000000000000     
   4.9231378803091343E-002  0.10059223339734492        0.0000000000000000     
   5.0736229414035855E-002  0.10731060324509301        0.0000000000000000     
   3.9526976521895851E-002   8.0929775992314545E-002   0.0000000000000000     
   4.1044333462668947E-002   8.7190896661610368E-002   0.0000000000000000     
   4.2506178417982078E-002   9.3609443354142480E-002   0.0000000000000000     
   4.3912511387835231E-002  0.10018541606991085        0.0000000000000000     
   4.5263332372228418E-002  0.10691881480891552        0.0000000000000000     
   3.4909226670136850E-002   8.0578414230874001E-002   0.0000000000000000     
   3.6242547911482834E-002   8.6842364372585759E-002   0.0000000000000000     
   3.7528714546464954E-002   9.3266133786906319E-002   0.0000000000000000     
   3.8767726575083220E-002   9.9849722473835667E-002   0.0000000000000000     
   3.9959583997337615E-002  0.10659313043337379        0.0000000000000000     
   6.2189469498400707E-002  0.10829249229935527        0.0000000000000000     
   6.3916021846201501E-002  0.11511080055188928        0.0000000000000000     
   6.5567637485507202E-002  0.12206406975875382        0.0000000000000000     
   6.7144316416317851E-002  0.12915229991994887        0.0000000000000000     
   6.8646058638633406E-002  0.13637549103547444        0.0000000000000000     
   5.6378275122759960E-002  0.10776849574190626        0.0000000000000000     
   5.7964453318663907E-002  0.11461137258586401        0.0000000000000000     
   5.9481117340073490E-002  0.12158826943696549        0.0000000000000000     
   6.0928267186988717E-002  0.12869918629521065        0.0000000000000000     
   6.2305902859409568E-002  0.13594412316059953        0.0000000000000000     
   5.0736229414035855E-002  0.10731060324509301        0.0000000000000000     
   5.2178337609377616E-002  0.11417378657927110        0.0000000000000000     
   5.3556762102690711E-002  0.12117074691753087        0.0000000000000000     
   5.4871502893975153E-002  0.12830148425987231        0.0000000000000000     
   5.6122559983230916E-002  0.13556599860629548        0.0000000000000000     
   4.5263332372228418E-002  0.10691881480891552        0.0000000000000000     
   4.6557674718342629E-002  0.11379804253211054        0.0000000000000000     
   4.7794571773358871E-002  0.12081150220045000        0.0000000000000000     
   4.8974023537277131E-002  0.12795919381393389        0.0000000000000000     
   5.0096030010097430E-002  0.13524111737256231        0.0000000000000000     
   3.9959583997337615E-002  0.10659313043337379        0.0000000000000000     
   4.1102464645558945E-002  0.11348414044438232        0.0000000000000000     
   4.2194546352077963E-002  0.12051053528572286        0.0000000000000000     
   4.3235829116894685E-002  0.12767231495739539        0.0000000000000000     
   4.4226312940009102E-002  0.13496947945939991        0.0000000000000000     
   6.8646058638633406E-002  0.13637549103547444        0.0000000000000000     
   7.0074170562248378E-002  0.14372008341979378        0.0000000000000000     
   7.1429958596957235E-002  0.15117251738737014        0.0000000000000000     
   7.2713422742759978E-002  0.15873279293820361        0.0000000000000000     
   7.3924562999656621E-002  0.16640091007229407        0.0000000000000000     
   6.2305902859409568E-002  0.13594412316059953        0.0000000000000000     
   6.3614797092385600E-002  0.14331090779088909        0.0000000000000000     
   6.4855722620966297E-002  0.15078736794383618        0.0000000000000000     
   6.6028679445151700E-002  0.15837350361944097        0.0000000000000000     
   6.7133667564941754E-002  0.16606931481770326        0.0000000000000000     
   5.6122559983230916E-002  0.13556599860629548        0.0000000000000000     
   5.7310207386774809E-002  0.14295271012352456        0.0000000000000000     
   5.8434719120923621E-002  0.15045003897828380        0.0000000000000000     
   5.9496095185677320E-002  0.15805798517057321        0.0000000000000000     
   6.0494335581035938E-002  0.16577654870039274        0.0000000000000000     
   5.0096030010097430E-002  0.13524111737256231        0.0000000000000000     
   5.1160401445416004E-002  0.14264549041770022        0.0000000000000000     
   5.2166948096829167E-002  0.15016053049071293        0.0000000000000000     
   5.3115669964336878E-002  0.15778623759160029        0.0000000000000000     
   5.4006567047939151E-002  0.16552261172036239        0.0000000000000000     
   4.4226312940009102E-002  0.13496947945939991        0.0000000000000000     
   4.5165379268309207E-002  0.14238924867341610        0.0000000000000000     
   4.6052409548682956E-002  0.14991884248112353        0.0000000000000000     
   4.6887403781130349E-002  0.15755826088252226        0.0000000000000000     
   4.7670361965651394E-002  0.16530750387761226        0.0000000000000000     
   7.3924562999656621E-002  0.16640091007229407        0.0000000000000000     
   7.5062264794571787E-002  0.17416760046411831        0.0000000000000000     
   7.6125413554430144E-002  0.18202359578815311        0.0000000000000000     
   7.7114009279231649E-002  0.18996889604439840        0.0000000000000000     
   7.8028051968976345E-002  0.19800350123285423        0.0000000000000000     
   6.7133667564941754E-002  0.16606931481770326        0.0000000000000000     
   6.8169043643389854E-002  0.17386352179145340        0.0000000000000000     
   6.9133164343549339E-002  0.18174484479352146        0.0000000000000000     
   7.0026029665420195E-002  0.18971328382390748        0.0000000000000000     
   7.0847639609002422E-002  0.19776883888261143        0.0000000000000000     
   6.0494335581035938E-002  0.16577654870039274        0.0000000000000000     
   6.1427468809247016E-002  0.17359359680307943        0.0000000000000000     
   6.2293523372558106E-002  0.18149699671397035        0.0000000000000000     
   6.3092499270969188E-002  0.18948674843306543        0.0000000000000000     
   6.3824396504480296E-002  0.19756285196036466        0.0000000000000000     
   5.4006567047939151E-002  0.16552261172036239        0.0000000000000000     
   5.4837540292143244E-002  0.17335782549899645        0.0000000000000000     
   5.5606490641456410E-002  0.18128005154949975        0.0000000000000000     
   5.6313418095878649E-002  0.18928928987187224        0.0000000000000000     
   5.6958322655409975E-002  0.19738554046611398        0.0000000000000000     
   4.7670361965651394E-002  0.16530750387761226        0.0000000000000000     
   4.8399258092078554E-002  0.17315620787920444        0.0000000000000000     
   4.9072066150244273E-002  0.18109400930010969        0.0000000000000000     
   4.9688786140148565E-002  0.18912090814032798        0.0000000000000000     
   5.0249418061791423E-002  0.19723690439985925        0.0000000000000000     
   7.8028051968976345E-002  0.19800350123285423        0.0000000000000000     
   7.8868247920595907E-002  0.20612048396468785        0.0000000000000000     
   7.9635303431022098E-002  0.21431291685106652        0.0000000000000000     
   8.0329218500254887E-002  0.22258079989199023        0.0000000000000000     
   8.0949993128294290E-002  0.23092413308745902        0.0000000000000000     
   7.0847639609002422E-002  0.19776883888261143        0.0000000000000000     
   7.1596782190908245E-002  0.20590646975407814        0.0000000000000000     
   7.2272245427749876E-002  0.21412113622275236        0.0000000000000000     
   7.2874029319527314E-002  0.22241283828863398        0.0000000000000000     
   7.3402133866240532E-002  0.23078157595172316        0.0000000000000000     
   6.3824396504480296E-002  0.19756285196036466        0.0000000000000000     
   6.4486860604253807E-002  0.20572062187057116        0.0000000000000000     
   6.5077537101452074E-002  0.21395537273838791        0.0000000000000000     
   6.5596425996075139E-002  0.22226710456381488        0.0000000000000000     
   6.6043527288122988E-002  0.23065581734685212        0.0000000000000000     
   5.6958322655409975E-002  0.19738554046611398        0.0000000000000000     
   5.7538483160632585E-002  0.20556294031416694        0.0000000000000000     
   5.8051178452128732E-002  0.21381562639797330        0.0000000000000000     
   5.8496408529898410E-002  0.22214359871753292        0.0000000000000000     
   5.8874173393941631E-002  0.23054685727284591        0.0000000000000000     
   5.0249418061791423E-002  0.19723690439985925        0.0000000000000000     
   5.0751649860044594E-002  0.20543342508486548        0.0000000000000000     
   5.1193169479779824E-002  0.21370189720150842        0.0000000000000000     
   5.1573976920997112E-002  0.22204232074978811        0.0000000000000000     
   5.1894072183696460E-002  0.23045469572970453        0.0000000000000000     
   8.0949993128294290E-002  0.23092413308745902        0.0000000000000000     
   8.1486887885597173E-002  0.23936341375527004        0.0000000000000000     
   8.1929163342620445E-002  0.24791913921322059        0.0000000000000000     
   8.2276819499364065E-002  0.25659130946131059        0.0000000000000000     
   8.2529856355828088E-002  0.26537992449954018        0.0000000000000000     
   7.3402133866240532E-002  0.23078157595172316        0.0000000000000000     
   7.3853217544305516E-002  0.23924061759508211        0.0000000000000000     
   7.4223938830138239E-002  0.24780323160177309        0.0000000000000000     
   7.4514297723738632E-002  0.25646941797179618        0.0000000000000000     
   7.4724294225106735E-002  0.26523917670515124        0.0000000000000000     
   6.6043527288122988E-002  0.23065581734685212        0.0000000000000000     
   6.6421123284691200E-002  0.23912752383806843        0.0000000000000000     
   6.6731496292875350E-002  0.24768823678803267        0.0000000000000000     
   6.6974646312675482E-002  0.25633795619674482        0.0000000000000000     
   6.7150573344091566E-002  0.26507668206420493        0.0000000000000000     
   5.8874173393941631E-002  0.23054685727284591        0.0000000000000000     
   5.9190605106754168E-002  0.23902413248422910        0.0000000000000000     
   5.9451835730831841E-002  0.24757415477199934        0.0000000000000000     
   5.9657865266174635E-002  0.25619692413615669        0.0000000000000000     
   5.9808693712782558E-002  0.26489244057670114        0.0000000000000000     
   5.1894072183696460E-002  0.23045469572970453        0.0000000000000000     
   5.2161663010494450E-002  0.23893044353356405        0.0000000000000000     
   5.2384957144007663E-002  0.24746098555367310        0.0000000000000000     
   5.2563954584236086E-002  0.25604632179003167        0.0000000000000000     
   5.2698655331179733E-002  0.26468645224263976        0.0000000000000000     
   8.2529856355828088E-002  0.26537992449954018        0.0000000000000000     
   8.2727339498904207E-002  0.27431139172619423        0.0000000000000000     
   8.2908334515484211E-002  0.28341211853955783        0.0000000000000000     
   8.3072841405568074E-002  0.29268210493963115        0.0000000000000000     
   8.3220860169155780E-002  0.30212135092641407        0.0000000000000000     
   7.4724294225106735E-002  0.26523917670515124        0.0000000000000000     
   7.4894945496112739E-002  0.27410626138381827        0.0000000000000000     
   7.5067268698626788E-002  0.28306442558977696        0.0000000000000000     
   7.5241263832648911E-002  0.29211366932302740        0.0000000000000000     
   7.5416930898179121E-002  0.30125399258356950        0.0000000000000000     
   6.7150573344091566E-002  0.26507668206420493        0.0000000000000000     
   6.7299559546422569E-002  0.27387468356914241        0.0000000000000000     
   6.7461887078967442E-002  0.28270222989028698        0.0000000000000000     
   6.7637555941726213E-002  0.29155932102763854        0.0000000000000000     
   6.7826566134698868E-002  0.30044595698119703        0.0000000000000000     
   5.9808693712782558E-002  0.26489244057670114        0.0000000000000000     
   5.9941181649833711E-002  0.27361665828216680        0.0000000000000000     
   6.0092189656506166E-002  0.28232553144108796        0.0000000000000000     
   6.0261717732799945E-002  0.29101906005346462        0.0000000000000000     
   6.0449765878715027E-002  0.29969724411929677        0.0000000000000000     
   5.2698655331179733E-002  0.26468645224263976        0.0000000000000000     
   5.2819811806346179E-002  0.27333218552289124        0.0000000000000000     
   5.2958176431242961E-002  0.28193433024217984        0.0000000000000000     
   5.3113749205870107E-002  0.29049288640050563        0.0000000000000000     
   5.3286530130227598E-002  0.29900785399786861        0.0000000000000000     
   2.9120816406492406E-002   5.7510840732984597E-002   0.0000000000000000     
   3.0635571988440920E-002   6.2964873759255691E-002   0.0000000000000000     
   3.2105225559697831E-002   6.8627480350994294E-002   0.0000000000000000     
   3.3529777120263143E-002   7.4498660508200393E-002   0.0000000000000000     
   3.4909226670136850E-002   8.0578414230874001E-002   0.0000000000000000     
   2.5514319136690514E-002   5.7518831736920392E-002   0.0000000000000000     
   2.6779088382223312E-002   6.2835376630317671E-002   0.0000000000000000     
   2.8016107349162898E-002   6.8400052136748032E-002   0.0000000000000000     
   2.9225376037509264E-002   7.4212858256211503E-002   0.0000000000000000     
   3.0406894447262418E-002   8.0273794988708055E-002   0.0000000000000000     
   2.1836590446127953E-002   5.7315900051990790E-002   0.0000000000000000     
   2.2887893238260636E-002   6.2583382187806610E-002   0.0000000000000000     
   2.3921246371386116E-002   6.8115155369759359E-002   0.0000000000000000     
   2.4936649845504383E-002   7.3911219597849048E-002   0.0000000000000000     
   2.5934103660615444E-002   7.9971574872075693E-002   0.0000000000000000     
   1.8087630334804736E-002   5.6902045678195803E-002   0.0000000000000000     
   1.8961986556552901E-002   6.2208890431722487E-002   0.0000000000000000     
   1.9820642626367492E-002   6.7772790050028231E-002   0.0000000000000000     
   2.0663598544248499E-002   7.3593744533113042E-002   0.0000000000000000     
   2.1490854310195935E-002   7.9671753880976928E-002   0.0000000000000000     
   1.4267438802720854E-002   5.6277268615535420E-002   0.0000000000000000     
   1.5001368337100101E-002   6.1711901362065308E-002   0.0000000000000000     
   1.5714296114107025E-002   6.7372956177554663E-002   0.0000000000000000     
   1.6406222133741620E-002   7.3260433062003485E-002   0.0000000000000000     
   1.7077146396003891E-002   7.9374332015411761E-002   0.0000000000000000     
   3.4909226670136850E-002   8.0578414230874001E-002   0.0000000000000000     
   3.6242547911482834E-002   8.6842364372585759E-002   0.0000000000000000     
   3.7528714546464954E-002   9.3266133786906319E-002   0.0000000000000000     
   3.8767726575083220E-002   9.9849722473835667E-002   0.0000000000000000     
   3.9959583997337615E-002  0.10659313043337379        0.0000000000000000     
   3.0406894447262418E-002   8.0273794988708055E-002   0.0000000000000000     
   3.1555350571890725E-002   8.6539787570129437E-002   0.0000000000000000     
   3.2665432404862561E-002   9.2967761236367352E-002   0.0000000000000000     
   3.3737139946177927E-002   9.9557715987421844E-002   0.0000000000000000     
   3.4770473195836829E-002  0.10630965182329288        0.0000000000000000     
   2.5934103660615444E-002   7.9971574872075693E-002   0.0000000000000000     
   2.6907174475670030E-002   8.6245507083260925E-002   0.0000000000000000     
   2.7849428949618883E-002   9.2682302122226362E-002   0.0000000000000000     
   2.8760867082462008E-002   9.9281959988971977E-002   0.0000000000000000     
   2.9641488874199404E-002  0.10604448068349782        0.0000000000000000     
   2.1490854310195935E-002   7.9671753880976928E-002   0.0000000000000000     
   2.2298019622820756E-002   8.5959522911980238E-002   0.0000000000000000     
   2.3080704180733928E-002   9.2409756444483279E-002   0.0000000000000000     
   2.3838907983935467E-002   9.9022454478486080E-002   0.0000000000000000     
   2.4572631032425352E-002  0.10579761701398861        0.0000000000000000     
   1.7077146396003891E-002   7.9374332015411761E-002   0.0000000000000000     
   1.7727886013342898E-002   8.5681835056287362E-002   0.0000000000000000     
   1.8359258098207695E-002   9.2150124203138145E-002   0.0000000000000000     
   1.8971262650598286E-002   9.8779199455964112E-002   0.0000000000000000     
   1.9563899670514667E-002  0.10556906081476525        0.0000000000000000     
   3.9959583997337615E-002  0.10659313043337379        0.0000000000000000     
   4.1102464645558945E-002  0.11348414044438232        0.0000000000000000     
   4.2194546352077963E-002  0.12051053528572286        0.0000000000000000     
   4.3235829116894685E-002  0.12767231495739539        0.0000000000000000     
   4.4226312940009102E-002  0.13496947945939991        0.0000000000000000     
   3.4770473195836829E-002  0.10630965182329288        0.0000000000000000     
   3.5762525107875684E-002  0.11321088127125463        0.0000000000000000     
   3.6710388636330901E-002  0.12024871685858118        0.0000000000000000     
   3.7614063781202522E-002  0.12742315858527256        0.0000000000000000     
   3.8473550542490506E-002  0.13473420645132880        0.0000000000000000     
   2.9641488874199404E-002  0.10604448068349782        0.0000000000000000     
   3.0487673822141972E-002  0.11295706596789550        0.0000000000000000     
   3.1295801423600618E-002  0.12000691760425664        0.0000000000000000     
   3.2065871678575351E-002  0.12719403559258122        0.0000000000000000     
   3.2797884587066166E-002  0.13451841993286925        0.0000000000000000     
   2.4572631032425352E-002  0.10579761701398861        0.0000000000000000     
   2.5277910788357824E-002  0.11272269453430499        0.0000000000000000     
   2.5950784713887096E-002  0.11978513752274919        0.0000000000000000     
   2.6591252809013189E-002  0.12698494597932133        0.0000000000000000     
   2.7199315073736081E-002  0.13432211990402132        0.0000000000000000     
   1.9563899670514667E-002  0.10556906081476525        0.0000000000000000     
   2.0133236006523222E-002  0.11250776697048301        0.0000000000000000     
   2.0675338507190340E-002  0.11958337661405892        0.0000000000000000     
   2.1190207172516014E-002  0.12679588974549291        0.0000000000000000     
   2.1677842002500253E-002  0.13414530636478500        0.0000000000000000     
   4.4226312940009102E-002  0.13496947945939991        0.0000000000000000     
   4.5165379268309207E-002  0.14238924867341610        0.0000000000000000     
   4.6052409548682956E-002  0.14991884248112353        0.0000000000000000     
   4.6887403781130349E-002  0.15755826088252226        0.0000000000000000     
   4.7670361965651394E-002  0.16530750387761226        0.0000000000000000     
   3.8473550542490506E-002  0.13473420645132880        0.0000000000000000     
   3.9287949429583857E-002  0.14216801132724313        0.0000000000000000     
   4.0056360951871553E-002  0.14971072408350888        0.0000000000000000     
   4.0778785109353601E-002  0.15736234472012606        0.0000000000000000     
   4.1455221902029993E-002  0.16512287323709465        0.0000000000000000     
   3.2797884587066166E-002  0.13451841993286925        0.0000000000000000     
   3.3490920503369430E-002  0.14196580481575238        0.0000000000000000     
   3.4144059781781547E-002  0.14952192443186216        0.0000000000000000     
   3.4757302422302488E-002  0.15718677878119866        0.0000000000000000     
   3.5330648424932269E-002  0.16496036786376189        0.0000000000000000     
   2.7199315073736081E-002  0.13432211990402132        0.0000000000000000     
   2.7774292489665942E-002  0.14178262913894385        0.0000000000000000     
   2.8315506038412916E-002  0.14935244352618343        0.0000000000000000     
   2.8822955719977013E-002  0.15703156306574012        0.0000000000000000     
   2.9296641534358230E-002  0.16481998775761392        0.0000000000000000     
   2.1677842002500253E-002  0.13414530636478500        0.0000000000000000     
   2.2138065388473363E-002  0.14161848429681750        0.0000000000000000     
   2.2570699721765668E-002  0.14920228136647259        0.0000000000000000     
   2.2975745002377167E-002  0.15689669757375038        0.0000000000000000     
   2.3353201230307860E-002  0.16470173291865073        0.0000000000000000     
   4.7670361965651394E-002  0.16530750387761226        0.0000000000000000     
   4.8399258092078554E-002  0.17315620787920444        0.0000000000000000     
   4.9072066150244273E-002  0.18109400930010969        0.0000000000000000     
   4.9688786140148565E-002  0.18912090814032798        0.0000000000000000     
   5.0249418061791423E-002  0.19723690439985925        0.0000000000000000     
   4.1455221902029993E-002  0.16512287323709465        0.0000000000000000     
   4.2083821680285807E-002  0.17298345422977512        0.0000000000000000     
   4.2662734794506087E-002  0.18093523229352790        0.0000000000000000     
   4.3191961244690852E-002  0.18897820742835295        0.0000000000000000     
   4.3671501030840096E-002  0.19711237963425032        0.0000000000000000     
   3.5330648424932269E-002  0.16496036786376189        0.0000000000000000     
   3.5862430527997868E-002  0.17283427483678021        0.0000000000000000     
   3.6350981469826259E-002  0.18080008285748220        0.0000000000000000     
   3.6796301250417433E-002  0.18885779192586774        0.0000000000000000     
   3.7198389869771399E-002  0.19700740204193690        0.0000000000000000     
   2.9296641534358230E-002  0.16481998775761392        0.0000000000000000     
   2.9735084635214761E-002  0.17270866970021972        0.0000000000000000     
   3.0136806176204789E-002  0.18068856099197247        0.0000000000000000     
   3.0501806157328323E-002  0.18875966163287222        0.0000000000000000     
   3.0830084578585361E-002  0.19692197162291888        0.0000000000000000     
   2.3353201230307860E-002  0.16470173291865073        0.0000000000000000     
   2.3701784001936455E-002  0.17260663882009361        0.0000000000000000     
   2.4020208913641674E-002  0.18060066669699884        0.0000000000000000     
   2.4308475965423501E-002  0.18868381654936645        0.0000000000000000     
   2.4566585157281953E-002  0.19685608837719637        0.0000000000000000     
   5.0249418061791423E-002  0.19723690439985925        0.0000000000000000     
   5.0751649860044594E-002  0.20543342508486548        0.0000000000000000     
   5.1193169479779824E-002  0.21370189720150842        0.0000000000000000     
   5.1573976920997112E-002  0.22204232074978811        0.0000000000000000     
   5.1894072183696460E-002  0.23045469572970453        0.0000000000000000     
   4.3671501030840096E-002  0.19711237963425032        0.0000000000000000     
   4.4099836457083784E-002  0.20532611047290442        0.0000000000000000     
   4.4475449827551916E-002  0.21360776150599953        0.0000000000000000     
   4.4798341142244465E-002  0.22195733273353571        0.0000000000000000     
   4.5068510401161457E-002  0.23037482415551302        0.0000000000000000     
   3.7198389869771399E-002  0.19700740204193690        0.0000000000000000     
   3.7556518706344126E-002  0.20523503076852129        0.0000000000000000     
   3.7869959138591563E-002  0.21352679566845273        0.0000000000000000     
   3.8138711166513718E-002  0.22188269674173111        0.0000000000000000     
   3.8362774790110597E-002  0.23030273398835649        0.0000000000000000     
   3.0830084578585361E-002  0.19692197162291888        0.0000000000000000     
   3.1121696607825607E-002  0.20516018597171623        0.0000000000000000     
   3.1376697412898773E-002  0.21345899968886803        0.0000000000000000     
   3.1595086993804852E-002  0.22181841277437425        0.0000000000000000     
   3.1776865350543852E-002  0.23023842522823493        0.0000000000000000     
   2.4566585157281953E-002  0.19685608837719637        0.0000000000000000     
   2.4795370161528232E-002  0.20510157608248922        0.0000000000000000     
   2.4995664650473537E-002  0.21340437356724548        0.0000000000000000     
   2.5167468624117877E-002  0.22176448083146522        0.0000000000000000     
   2.5310782082461243E-002  0.23018189787514837        0.0000000000000000     
   5.1894072183696460E-002  0.23045469572970453        0.0000000000000000     
   5.2161663010494450E-002  0.23893044353356405        0.0000000000000000     
   5.2384957144007663E-002  0.24746098555367310        0.0000000000000000     
   5.2563954584236086E-002  0.25604632179003167        0.0000000000000000     
   5.2698655331179733E-002  0.26468645224263976        0.0000000000000000     
   4.5068510401161457E-002  0.23037482415551302        0.0000000000000000     
   4.5294920299195712E-002  0.23884499031247369        0.0000000000000000     
   4.5486533531240041E-002  0.24735258574495994        0.0000000000000000     
   4.5643350097294443E-002  0.25589761045297194        0.0000000000000000     
   4.5765369997358925E-002  0.26448006443650957        0.0000000000000000     
   3.8362774790110597E-002  0.23030273398835649        0.0000000000000000     
   3.8551000276141605E-002  0.23876630614735825        0.0000000000000000     
   3.8712237891366172E-002  0.24725281195776594        0.0000000000000000     
   3.8846487635784292E-002  0.25576225141957942        0.0000000000000000     
   3.8953749509395966E-002  0.26429462453279884        0.0000000000000000     
   3.1776865350543852E-002  0.23023842522823493        0.0000000000000000     
   3.1929902941332147E-002  0.23869439103821788        0.0000000000000000     
   3.2062070224386070E-002  0.24716166419209099        0.0000000000000000     
   3.2173367199705642E-002  0.25564024468985425        0.0000000000000000     
   3.2263793867290856E-002  0.26413013253150774        0.0000000000000000     
   2.5310782082461243E-002  0.23018189787514837        0.0000000000000000     
   2.5431628294767306E-002  0.23862924498505250        0.0000000000000000     
   2.5536030530299725E-002  0.24707914244793516        0.0000000000000000     
   2.5623988789058486E-002  0.25553159026379640        0.0000000000000000     
   2.5695503071043610E-002  0.26398658843263623        0.0000000000000000     
   5.2698655331179733E-002  0.26468645224263976        0.0000000000000000     
   5.2819811806346179E-002  0.27333218552289124        0.0000000000000000     
   5.2958176431242961E-002  0.28193433024217984        0.0000000000000000     
   5.3113749205870107E-002  0.29049288640050563        0.0000000000000000     
   5.3286530130227598E-002  0.29900785399786861        0.0000000000000000     
   4.5765369997358925E-002  0.26448006443650957        0.0000000000000000     
   4.5876595341936416E-002  0.27304996195242054        0.0000000000000000     
   4.6001028241529816E-002  0.28155731725755268        0.0000000000000000     
   4.6138668696139147E-002  0.29000213035190581        0.0000000000000000     
   4.6289516705764394E-002  0.29838440123548021        0.0000000000000000     
   3.8953749509395966E-002  0.26429462453279884        0.0000000000000000     
   3.9052677582580887E-002  0.27279868423185938        0.0000000000000000     
   3.9161925925718738E-002  0.28122318345119629        0.0000000000000000     
   3.9281494538809504E-002  0.28956812219080963        0.0000000000000000     
   3.9411383421853213E-002  0.29783350045069928        0.0000000000000000     
   3.2263793867290856E-002  0.26413013253150774        0.0000000000000000     
   3.2348058528279600E-002  0.27257835236120770        0.0000000000000000     
   3.2440869483809698E-002  0.28093192882311085        0.0000000000000000     
   3.2542226733881192E-002  0.28919086191721677        0.0000000000000000     
   3.2652130278494049E-002  0.29735515164352572        0.0000000000000000     
   2.5695503071043610E-002  0.26398658843263623        0.0000000000000000     
   2.5762738179032532E-002  0.27238896634046572        0.0000000000000000     
   2.5837858915802724E-002  0.28068355337329615        0.0000000000000000     
   2.5920865281354184E-002  0.28887034953112739        0.0000000000000000     
   2.6011757275686907E-002  0.29694935481395962        0.0000000000000000     
   1.4267438802720854E-002   5.6277268615535420E-002   0.0000000000000000     
   1.5001368337100101E-002   6.1711901362065308E-002   0.0000000000000000     
   1.5714296114107025E-002   6.7372956177554663E-002   0.0000000000000000     
   1.6406222133741620E-002   7.3260433062003485E-002   0.0000000000000000     
   1.7077146396003891E-002   7.9374332015411761E-002   0.0000000000000000     
   1.0483868445846360E-002   5.5638310009366067E-002   0.0000000000000000     
   1.1080302324918970E-002   6.1223443351439082E-002   0.0000000000000000     
   1.1650239185185086E-002   6.6997959047309111E-002   0.0000000000000000     
   1.2193679026644706E-002   7.2961857096976154E-002   0.0000000000000000     
   1.2710621849297830E-002   7.9115137500440191E-002   0.0000000000000000     
   6.8447718601513047E-003   5.5181911005044174E-002   0.0000000000000000     
   7.2730522650262443E-003   6.0874544772447789E-002   0.0000000000000000     
   7.6765041901820513E-003   6.6730103954261988E-002   0.0000000000000000     
   8.0551276356187265E-003   7.2748588550486812E-002   0.0000000000000000     
   8.4089226013362665E-003   7.8929998561122247E-002   0.0000000000000000     
   3.3501490456356868E-003   5.4908071602569733E-002   0.0000000000000000     
   3.5796181574219233E-003   6.0665205625091416E-002   0.0000000000000000     
   3.7930911290979205E-003   6.6569390898413336E-002   0.0000000000000000     
   3.9905679606636784E-003   7.2620627422535500E-002   0.0000000000000000     
   4.1720486521191974E-003   7.8818915197457901E-002   0.0000000000000000     
   2.2995065053488251E-012   5.4816791801942752E-002   0.0000000000000000     
   2.1060076425827301E-012   6.0595425909369983E-002   0.0000000000000000     
   1.9326935885022323E-012   6.6515819879763127E-002   0.0000000000000000     
   1.7795672704531973E-012   7.2577973713122190E-002   0.0000000000000000     
   1.6466253274088904E-012   7.8781887409447166E-002   0.0000000000000000     
   1.7077146396003891E-002   7.9374332015411761E-002   0.0000000000000000     
   1.7727886013342898E-002   8.5681835056287362E-002   0.0000000000000000     
   1.8359258098207695E-002   9.2150124203138145E-002   0.0000000000000000     
   1.8971262650598286E-002   9.8779199455964112E-002   0.0000000000000000     
   1.9563899670514667E-002  0.10556906081476525        0.0000000000000000     
   1.2710621849297830E-002   7.9115137500440191E-002   0.0000000000000000     
   1.3206925896759961E-002   8.5442487820601820E-002   0.0000000000000000     
   1.3688449412646594E-002   9.1928595620361583E-002   0.0000000000000000     
   1.4155192396957731E-002   9.8573460899719523E-002   0.0000000000000000     
   1.4607154849693367E-002  0.10537708365867560        0.0000000000000000     
   8.4089226013362665E-003   7.8929998561122247E-002   0.0000000000000000     
   8.7452915225954483E-003   8.5271525509343096E-002   0.0000000000000000     
   9.0716368346570441E-003   9.1770360918324315E-002   0.0000000000000000     
   9.3879585375210520E-003   9.8426504788065791E-002   0.0000000000000000     
   9.6942566311874756E-003  0.10523995711856764        0.0000000000000000     
   4.1720486521191974E-003   7.8818915197457901E-002   0.0000000000000000     
   4.3429828908493600E-003   8.5168948122511232E-002   0.0000000000000000     
   4.5088203642390454E-003   9.1675420097026256E-002   0.0000000000000000     
   4.6695610722882535E-003   9.8338331121002917E-002   0.0000000000000000     
   4.8252050149969871E-003  0.10515768119444127        0.0000000000000000     
   1.6466253274088904E-012   7.8781887409447166E-002   0.0000000000000000     
   1.5216937952755583E-012   8.5134755660106198E-002   0.0000000000000000     
   1.3925977883876006E-012   9.1643773156467434E-002   0.0000000000000000     
   1.2593338779556471E-012   9.8308939898530887E-002   0.0000000000000000     
   1.1219050861932534E-012  0.10513025588629657        0.0000000000000000     
   1.9563899670514667E-002  0.10556906081476525        0.0000000000000000     
   2.0133236006523222E-002  0.11250776697048301        0.0000000000000000     
   2.0675338507190340E-002  0.11958337661405892        0.0000000000000000     
   2.1190207172516014E-002  0.12679588974549291        0.0000000000000000     
   2.1677842002500253E-002  0.13414530636478500        0.0000000000000000     
   1.4607154849693367E-002  0.10537708365867560        0.0000000000000000     
   1.5040810764282271E-002  0.11232821204514690        0.0000000000000000     
   1.5452634134153201E-002  0.11941559420705042        0.0000000000000000     
   1.5842624959306162E-002  0.12663923014438613        0.0000000000000000     
   1.6210783239741147E-002  0.13399911985715413        0.0000000000000000     
   9.6942566311874756E-003  0.10523995711856764        0.0000000000000000     
   9.9877963492790555E-003  0.11219995852701378        0.0000000000000000     
   1.0265842925418543E-002  0.11929574963058831        0.0000000000000000     
   1.0528396359605932E-002  0.12652733042929118        0.0000000000000000     
   1.0775456651841228E-002  0.13389470092312242        0.0000000000000000     
   4.8252050149969871E-003  0.10515768119444127        0.0000000000000000     
   4.9741927615135767E-003  0.11212300641608371        0.0000000000000000     
   5.1149648809863590E-003  0.11922384288467262        0.0000000000000000     
   5.2475213734153314E-003  0.12646019060020802        0.0000000000000000     
   5.3718622388004940E-003  0.13383204956268990        0.0000000000000000     
   1.1219050861932534E-012  0.10513025588629657        0.0000000000000000     
   9.8583684618458456E-013  0.11209735571235663        0.0000000000000000     
   8.5665459101380570E-013  0.11919987396930334        0.0000000000000000     
   7.3435777857983053E-013  0.12643781065713669        0.0000000000000000     
   6.1894760150504879E-013  0.13381116577585664        0.0000000000000000     
   2.1677842002500253E-002  0.13414530636478500        0.0000000000000000     
   2.2138065388473363E-002  0.14161848429681750        0.0000000000000000     
   2.2570699721765668E-002  0.14920228136647259        0.0000000000000000     
   2.2975745002377167E-002  0.15689669757375038        0.0000000000000000     
   2.3353201230307860E-002  0.16470173291865073        0.0000000000000000     
   1.6210783239741147E-002  0.13399911985715413        0.0000000000000000     
   1.6557416318023110E-002  0.14148318355012973        0.0000000000000000     
   1.6882831536717005E-002  0.14907934142808835        0.0000000000000000     
   1.7187028895822829E-002  0.15678759349102994        0.0000000000000000     
   1.7470008395340585E-002  0.16460793973895452        0.0000000000000000     
   1.0775456651841228E-002  0.13389470092312242        0.0000000000000000     
   1.1007522396546574E-002  0.14138654015963681        0.0000000000000000     
   1.1225092188144124E-002  0.14899152718638908        0.0000000000000000     
   1.1428166026633877E-002  0.15670966200337924        0.0000000000000000     
   1.1616743912015831E-002  0.16454094461060736        0.0000000000000000     
   5.3718622388004940E-003  0.13383204956268990        0.0000000000000000     
   5.4883836240437562E-003  0.14132855412533879        0.0000000000000000     
   5.5974816760470279E-003  0.14893883864137492        0.0000000000000000     
   5.6991563948103081E-003  0.15666290311079842        0.0000000000000000     
   5.7934077803335968E-003  0.16450074753360922        0.0000000000000000     
   6.1894760150504879E-013  0.13381116577585664        0.0000000000000000     
   5.1465559244845416E-013  0.14130922544723556        0.0000000000000000     
   4.2571382617012654E-013  0.14892127579304579        0.0000000000000000     
   3.5212211293468576E-013  0.15664731681328731        0.0000000000000000     
   2.9387950406523089E-013  0.16448734850796015        0.0000000000000000     
   2.3353201230307860E-002  0.16470173291865073        0.0000000000000000     
   2.3701784001936455E-002  0.17260663882009361        0.0000000000000000     
   2.4020208913641674E-002  0.18060066669699884        0.0000000000000000     
   2.4308475965423501E-002  0.18868381654936645        0.0000000000000000     
   2.4566585157281953E-002  0.19685608837719637        0.0000000000000000     
   1.7470008395340585E-002  0.16460793973895452        0.0000000000000000     
   1.7730713999186430E-002  0.17252767553717618        0.0000000000000000     
   1.7968089671276520E-002  0.18053409625100891        0.0000000000000000     
   1.8182135411610859E-002  0.18862720188045279        0.0000000000000000     
   1.8372851220189442E-002  0.19680699242550770        0.0000000000000000     
   1.1616743912015831E-002  0.16454094461060736        0.0000000000000000     
   1.1790059997988139E-002  0.17247127319224162        0.0000000000000000     
   1.1947348438248946E-002  0.18048654593245037        0.0000000000000000     
   1.2088609232798255E-002  0.18858676283123355        0.0000000000000000     
   1.2213842381636066E-002  0.19677192388859119        0.0000000000000000     
   5.7934077803335968E-003  0.16450074753360922        0.0000000000000000     
   5.8798219983415816E-003  0.17243743178528995        0.0000000000000000     
   5.9579852145589468E-003  0.18045801574132314        0.0000000000000000     
   6.0278974289856959E-003  0.18856249940170880        0.0000000000000000     
   6.0895586416218261E-003  0.19675088276644692        0.0000000000000000     
   2.9387950406523089E-013  0.16448734850796015        0.0000000000000000     
   2.4675704188292791E-013  0.17242615131632116        0.0000000000000000     
   2.0652392556524957E-013  0.18044850567762730        0.0000000000000000     
   1.7317806802301383E-013  0.18855441159187852        0.0000000000000000     
   1.4672334527898734E-013  0.19674386905907479        0.0000000000000000     
   2.4566585157281953E-002  0.19685608837719637        0.0000000000000000     
   2.4795370161528232E-002  0.20510157608248922        0.0000000000000000     
   2.4995664650473537E-002  0.21340437356724548        0.0000000000000000     
   2.5167468624117877E-002  0.22176448083146522        0.0000000000000000     
   2.5310782082461243E-002  0.23018189787514837        0.0000000000000000     
   1.8372851220189442E-002  0.19680699242550770        0.0000000000000000     
   1.8541600561300466E-002  0.20505739520148231        0.0000000000000000     
   1.8689746899232126E-002  0.21336233752368527        0.0000000000000000     
   1.8817290233984419E-002  0.22172181939211655        0.0000000000000000     
   1.8924230565557351E-002  0.23013584080677618        0.0000000000000000     
   1.2213842381636066E-002  0.19677192388859119        0.0000000000000000     
   1.2324449000990780E-002  0.20502583742933775        0.0000000000000000     
   1.2421830207090798E-002  0.21333231177828774        0.0000000000000000     
   1.2505985999936119E-002  0.22169134693544104        0.0000000000000000     
   1.2576916379526746E-002  0.23010294290079775        0.0000000000000000     
   6.0895586416218261E-003  0.19675088276644692        0.0000000000000000     
   6.1439154805991679E-003  0.20500690276605554        0.0000000000000000     
   6.1919145740495507E-003  0.21331429633105278        0.0000000000000000     
   6.2335559219729719E-003  0.22167306346143861        0.0000000000000000     
   6.2688395243694359E-003  0.23008320415721309        0.0000000000000000     
   1.4672334527898734E-013  0.19674386905907479        0.0000000000000000     
   1.2563431198153729E-013  0.20500059121163566        0.0000000000000000     
   1.0838519751837916E-013  0.21330829118198050        0.0000000000000000     
   9.4980582643691691E-014  0.22166696897010935        0.0000000000000000     
   8.5416916595359993E-014  0.23007662457602224        0.0000000000000000     
   2.5310782082461243E-002  0.23018189787514837        0.0000000000000000     
   2.5431628294767306E-002  0.23862924498505250        0.0000000000000000     
   2.5536030530299725E-002  0.24707914244793516        0.0000000000000000     
   2.5623988789058486E-002  0.25553159026379640        0.0000000000000000     
   2.5695503071043610E-002  0.26398658843263623        0.0000000000000000     
   1.8924230565557351E-002  0.23013584080677618        0.0000000000000000     
   1.9014504049517367E-002  0.23857520365052254        0.0000000000000000     
   1.9092046841430926E-002  0.24701070980621409        0.0000000000000000     
   1.9156858941298018E-002  0.25544235927385084        0.0000000000000000     
   1.9208940349118655E-002  0.26387015205343278        0.0000000000000000     
   1.2576916379526746E-002  0.23010294290079775        0.0000000000000000     
   1.2636857918652563E-002  0.23853660269728830        0.0000000000000000     
   1.2688047190103455E-002  0.24696182934784319        0.0000000000000000     
   1.2730484193879418E-002  0.25537862285246249        0.0000000000000000     
   1.2764168929980460E-002  0.26378698321114602        0.0000000000000000     
   6.2688395243694359E-003  0.23008320415721309        0.0000000000000000     
   6.2986899021728977E-003  0.23851344212534983        0.0000000000000000     
   6.3240315763173158E-003  0.24693250107282255        0.0000000000000000     
   6.3448645468026903E-003  0.25534038099963124        0.0000000000000000     
   6.3611888136290221E-003  0.26373708190577588        0.0000000000000000     
   8.5416916595359993E-014  0.23007662457602224        0.0000000000000000     
   7.8367434069859243E-014  0.23850572193470709        0.0000000000000000     
   7.2506020284968109E-014  0.24692272498115217        0.0000000000000000     
   6.7829368424060510E-014  0.25532763371535722        0.0000000000000000     
   6.4340026362241787E-014  0.26372044813732248        0.0000000000000000     
   2.5695503071043610E-002  0.26398658843263623        0.0000000000000000     
   2.5762738179032532E-002  0.27238896634046572        0.0000000000000000     
   2.5837858915802724E-002  0.28068355337329615        0.0000000000000000     
   2.5920865281354184E-002  0.28887034953112739        0.0000000000000000     
   2.6011757275686907E-002  0.29694935481395962        0.0000000000000000     
   1.9208940349118655E-002  0.26387015205343278        0.0000000000000000     
   1.9258313795306885E-002  0.27223679238165255        0.0000000000000000     
   1.9315002010276767E-002  0.28048498449520265        0.0000000000000000     
   1.9379004994028299E-002  0.28861472839408303        0.0000000000000000     
   1.9450322746561478E-002  0.29662602407829386        0.0000000000000000     
   1.2764168929980460E-002  0.26378698321114602        0.0000000000000000     
   1.2796382637569827E-002  0.27212809669678761        0.0000000000000000     
   1.2834406555810788E-002  0.28034314958228063        0.0000000000000000     
   1.2878240684703328E-002  0.28843214186762522        0.0000000000000000     
   1.2927885024247455E-002  0.29639507355282124        0.0000000000000000     
   6.3611888136290221E-003  0.26373708190577588        0.0000000000000000     
   6.3769447058213682E-003  0.27206287928587081        0.0000000000000000     
   6.3960725524047860E-003  0.28025804863453008        0.0000000000000000     
   6.4185723533792746E-003  0.28832258995175380        0.0000000000000000     
   6.4444441087448366E-003  0.29625650323754182        0.0000000000000000     
   6.4340026362241787E-014  0.26372044813732248        0.0000000000000000     
   6.1497898787288285E-014  0.27204114014890224        0.0000000000000000     
   5.8764841950886826E-014  0.28022968165195106        0.0000000000000000     
   5.6139825860973547E-014  0.28828607264646883        0.0000000000000000     
   5.3622904727657072E-014  0.29621031313245560        0.0000000000000000     
   2.2995065053488251E-012   5.4816791801942752E-002   0.0000000000000000     
   2.1060076425827301E-012   6.0595425909369983E-002   0.0000000000000000     
   1.9326935885022323E-012   6.6515819879763127E-002   0.0000000000000000     
   1.7795672704531973E-012   7.2577973713122190E-002   0.0000000000000000     
   1.6466253274088904E-012   7.8781887409447166E-002   0.0000000000000000     
  -3.3501490408982134E-003   5.4908071603058044E-002   0.0000000000000000     
  -3.5796181530836409E-003   6.0665205625226475E-002   0.0000000000000000     
  -3.7930911251207937E-003   6.6569390898290823E-002   0.0000000000000000     
  -3.9905679570096698E-003   7.2620627422251088E-002   0.0000000000000000     
  -4.1720486487502734E-003   7.8818915197107320E-002   0.0000000000000000     
  -6.8447718549984517E-003   5.5181911005810443E-002   0.0000000000000000     
  -7.2730522603091582E-003   6.0874544772603838E-002   0.0000000000000000     
  -7.6765041858697031E-003   6.6730103953975828E-002   0.0000000000000000     
  -8.0551276316800924E-003   7.2748588549926441E-002   0.0000000000000000     
  -8.4089225977403235E-003   7.8929998560455655E-002   0.0000000000000000     
  -1.0483868440001208E-002   5.5638310010199962E-002   0.0000000000000000     
  -1.1080302319570540E-002   6.1223443351502094E-002   0.0000000000000000     
  -1.1650239180314038E-002   6.6997959046818184E-002   0.0000000000000000     
  -1.2193679022231702E-002   7.2961857096148205E-002   0.0000000000000000     
  -1.2710621845323528E-002   7.9115137499492172E-002   0.0000000000000000     
  -1.4267438795906483E-002   5.6277268616226568E-002   0.0000000000000000     
  -1.5001368330867794E-002   6.1711901361921263E-002   0.0000000000000000     
  -1.5714296108453794E-002   6.7372956176817878E-002   0.0000000000000000     
  -1.6406222128664490E-002   7.3260433060916397E-002   0.0000000000000000     
  -1.7077146391499879E-002   7.9374332014216842E-002   0.0000000000000000     
   1.6466253274088904E-012   7.8781887409447166E-002   0.0000000000000000     
   1.5216937952755583E-012   8.5134755660106198E-002   0.0000000000000000     
   1.3925977883876006E-012   9.1643773156467434E-002   0.0000000000000000     
   1.2593338779556471E-012   9.8308939898530887E-002   0.0000000000000000     
   1.1219050861932534E-012  0.10513025588629657        0.0000000000000000     
  -4.1720486487502734E-003   7.8818915197107320E-002   0.0000000000000000     
  -4.3429828877497899E-003   8.5168948122151117E-002   0.0000000000000000     
  -4.5088203614154039E-003   9.1675420096674037E-002   0.0000000000000000     
  -4.6695610697471170E-003   9.8338331120676165E-002   0.0000000000000000     
  -4.8252050127449266E-003  0.10515768119415743        0.0000000000000000     
  -8.4089225977403235E-003   7.8929998560455655E-002   0.0000000000000000     
  -8.7452915193273369E-003   8.5271525508669080E-002   0.0000000000000000     
  -9.0716368317180617E-003   9.1770360917672239E-002   0.0000000000000000     
  -9.3879585349125050E-003   9.8426504787465174E-002   0.0000000000000000     
  -9.6942566289106649E-003  0.10523995711804787        0.0000000000000000     
  -1.2710621845323528E-002   7.9115137499492172E-002   0.0000000000000000     
  -1.3206925893210947E-002   8.5442487819660101E-002   0.0000000000000000     
  -1.3688449409515384E-002   9.1928595619462011E-002   0.0000000000000000     
  -1.4155192394236836E-002   9.8573460898897958E-002   0.0000000000000000     
  -1.4607154847375308E-002  0.10537708365796787        0.0000000000000000     
  -1.7077146391499879E-002   7.9374332014216842E-002   0.0000000000000000     
  -1.7727886009400617E-002   8.5681835055124181E-002   0.0000000000000000     
  -1.8359258094807360E-002   9.2150124202043396E-002   0.0000000000000000     
  -1.8971262647720106E-002   9.8779199454974459E-002   0.0000000000000000     
  -1.9563899668138856E-002  0.10556906081391740        0.0000000000000000     
   1.1219050861932534E-012  0.10513025588629657        0.0000000000000000     
   9.8583684618458456E-013  0.11209735571235663        0.0000000000000000     
   8.5665459101380570E-013  0.11919987396930334        0.0000000000000000     
   7.3435777857983053E-013  0.12643781065713669        0.0000000000000000     
   6.1894760150504879E-013  0.13381116577585664        0.0000000000000000     
  -4.8252050127449266E-003  0.10515768119415743        0.0000000000000000     
  -4.9741927595456509E-003  0.11212300641585229        0.0000000000000000     
  -5.1149648792861001E-003  0.11922384288449515        0.0000000000000000     
  -5.2475213719662787E-003  0.12646019060008601        0.0000000000000000     
  -5.3718622375861814E-003  0.13383204956262487        0.0000000000000000     
  -9.6942566289106649E-003  0.10523995711804787        0.0000000000000000     
  -9.9877963473223620E-003  0.11219995852659038        0.0000000000000000     
  -1.0265842923757431E-002  0.11929574963026274        0.0000000000000000     
  -1.0528396358215862E-002  0.12652733042906489        0.0000000000000000     
  -1.0775456650697662E-002  0.13389470092299693        0.0000000000000000     
  -1.4607154847375308E-002  0.10537708365796787        0.0000000000000000     
  -1.5040810762344302E-002  0.11232821204457086        0.0000000000000000     
  -1.5452634132557336E-002  0.11941559420660601        0.0000000000000000     
  -1.5842624958014397E-002  0.12663923014407333        0.0000000000000000     
  -1.6210783238715491E-002  0.13399911985697283        0.0000000000000000     
  -1.9563899668138856E-002  0.10556906081391740        0.0000000000000000     
  -2.0133236004611473E-002  0.11250776696979374        0.0000000000000000     
  -2.0675338505685814E-002  0.11958337661352507        0.0000000000000000     
  -2.1190207171361879E-002  0.12679588974511133        0.0000000000000000     
  -2.1677842001639670E-002  0.13414530636455252        0.0000000000000000     
   6.1894760150504879E-013  0.13381116577585664        0.0000000000000000     
   5.1465559244845416E-013  0.14130922544723556        0.0000000000000000     
   4.2571382617012654E-013  0.14892127579304579        0.0000000000000000     
   3.5212211293468576E-013  0.15664731681328731        0.0000000000000000     
   2.9387950406523089E-013  0.16448734850796015        0.0000000000000000     
  -5.3718622375861814E-003  0.13383204956262487        0.0000000000000000     
  -5.4883836230398223E-003  0.14132855412532377        0.0000000000000000     
  -5.5974816752212189E-003  0.14893883864139473        0.0000000000000000     
  -5.6991563941303650E-003  0.15666290311083778        0.0000000000000000     
  -5.7934077797672633E-003  0.16450074753365290        0.0000000000000000     
  -1.0775456650697662E-002  0.13389470092299693        0.0000000000000000     
  -1.1007522395618776E-002  0.14138654015959987        0.0000000000000000     
  -1.1225092187395168E-002  0.14899152718641473        0.0000000000000000     
  -1.1428166026026835E-002  0.15670966200344150        0.0000000000000000     
  -1.1616743911513778E-002  0.16454094461068028        0.0000000000000000     
  -1.6210783238715491E-002  0.13399911985697283        0.0000000000000000     
  -1.6557416317222212E-002  0.14148318355006384        0.0000000000000000     
  -1.6882831536096141E-002  0.14907934142810575        0.0000000000000000     
  -1.7187028895337294E-002  0.15678759349109855        0.0000000000000000     
  -1.7470008394945658E-002  0.16460793973904231        0.0000000000000000     
  -2.1677842001639670E-002  0.13414530636455252        0.0000000000000000     
  -2.2138065387850115E-002  0.14161848429671572        0.0000000000000000     
  -2.2570699721324135E-002  0.14920228136646779        0.0000000000000000     
  -2.2975745002061735E-002  0.15689669757380889        0.0000000000000000     
  -2.3353201230062910E-002  0.16470173291873891        0.0000000000000000     
   2.9387950406523089E-013  0.16448734850796015        0.0000000000000000     
   2.4675704188292791E-013  0.17242615131632116        0.0000000000000000     
   2.0652392556524957E-013  0.18044850567762730        0.0000000000000000     
   1.7317806802301383E-013  0.18855441159187852        0.0000000000000000     
   1.4672334527898734E-013  0.19674386905907479        0.0000000000000000     
  -5.7934077797672633E-003  0.16450074753365290        0.0000000000000000     
  -5.8798219978660349E-003  0.17243743178533003        0.0000000000000000     
  -5.9579852141608070E-003  0.18045801574135889        0.0000000000000000     
  -6.0278974286515716E-003  0.18856249940173966        0.0000000000000000     
  -6.0895586413383367E-003  0.19675088276647221        0.0000000000000000     
  -1.1616743911513778E-002  0.16454094461068028        0.0000000000000000     
  -1.1790059997566502E-002  0.17247127319231112        0.0000000000000000     
  -1.1947348437895520E-002  0.18048654593251406        0.0000000000000000     
  -1.2088609232500836E-002  0.18858676283128920        0.0000000000000000     
  -1.2213842381382449E-002  0.19677192388863649        0.0000000000000000     
  -1.7470008394945658E-002  0.16460793973904231        0.0000000000000000     
  -1.7730713998854637E-002  0.17252767553726447        0.0000000000000000     
  -1.7968089670997622E-002  0.18053409625109279        0.0000000000000000     
  -1.8182135411374614E-002  0.18862720188052712        0.0000000000000000     
  -1.8372851219985612E-002  0.19680699242556760        0.0000000000000000     
  -2.3353201230062910E-002  0.16470173291873891        0.0000000000000000     
  -2.3701784001730439E-002  0.17260663882019014        0.0000000000000000     
  -2.4020208913467105E-002  0.18060066669709504        0.0000000000000000     
  -2.4308475965272896E-002  0.18868381654945349        0.0000000000000000     
  -2.4566585157147828E-002  0.19685608837726554        0.0000000000000000     
   1.4672334527898734E-013  0.19674386905907479        0.0000000000000000     
   1.2563431198153729E-013  0.20500059121163566        0.0000000000000000     
   1.0838519751837916E-013  0.21330829118198050        0.0000000000000000     
   9.4980582643691691E-014  0.22166696897010935        0.0000000000000000     
   8.5416916595359993E-014  0.23007662457602224        0.0000000000000000     
  -6.0895586413383367E-003  0.19675088276647221        0.0000000000000000     
  -6.1439154803559527E-003  0.20500690276607553        0.0000000000000000     
  -6.1919145738392779E-003  0.21331429633106852        0.0000000000000000     
  -6.2335559217883097E-003  0.22167306346145121        0.0000000000000000     
  -6.2688395242030508E-003  0.23008320415722358        0.0000000000000000     
  -1.2213842381382449E-002  0.19677192388863649        0.0000000000000000     
  -1.2324449000771724E-002  0.20502583742937272        0.0000000000000000     
  -1.2421830206900025E-002  0.21333231177831466        0.0000000000000000     
  -1.2505985999767356E-002  0.22169134693546230        0.0000000000000000     
  -1.2576916379373713E-002  0.23010294290081570        0.0000000000000000     
  -1.8372851219985612E-002  0.19680699242556760        0.0000000000000000     
  -1.8541600561121675E-002  0.20505739520152713        0.0000000000000000     
  -1.8689746899073857E-002  0.21336233752371880        0.0000000000000000     
  -1.8817290233842151E-002  0.22172181939214258        0.0000000000000000     
  -1.8924230565426567E-002  0.23013584080679853        0.0000000000000000     
  -2.4566585157147828E-002  0.19685608837726554        0.0000000000000000     
  -2.4795370161405816E-002  0.20510157608253887        0.0000000000000000     
  -2.4995664650360769E-002  0.21340437356728106        0.0000000000000000     
  -2.5167468624012701E-002  0.22176448083149211        0.0000000000000000     
  -2.5310782082361611E-002  0.23018189787517207        0.0000000000000000     
   8.5416916595359993E-014  0.23007662457602224        0.0000000000000000     
   7.8367434069859243E-014  0.23850572193470709        0.0000000000000000     
   7.2506020284968109E-014  0.24692272498115217        0.0000000000000000     
   6.7829368424060510E-014  0.25532763371535722        0.0000000000000000     
   6.4340026362241787E-014  0.26372044813732248        0.0000000000000000     
  -6.2688395242030508E-003  0.23008320415722358        0.0000000000000000     
  -6.2986899020200000E-003  0.23851344212535910        0.0000000000000000     
  -6.3240315761756549E-003  0.24693250107283121        0.0000000000000000     
  -6.3448645466700196E-003  0.25534038099963990        0.0000000000000000     
  -6.3611888135030924E-003  0.26373708190578515        0.0000000000000000     
  -1.2576916379373713E-002  0.23010294290081570        0.0000000000000000     
  -1.2636857918511185E-002  0.23853660269730462        0.0000000000000000     
  -1.2688047189971848E-002  0.24696182934785893        0.0000000000000000     
  -1.2730484193755720E-002  0.25537862285247864        0.0000000000000000     
  -1.2764168929862785E-002  0.26378698321116367        0.0000000000000000     
  -1.8924230565426567E-002  0.23013584080679853        0.0000000000000000     
  -1.9014504049395180E-002  0.23857520365054372        0.0000000000000000     
  -1.9092046841316081E-002  0.24701070980623532        0.0000000000000000     
  -1.9156858941189264E-002  0.25544235927387338        0.0000000000000000     
  -1.9208940349014741E-002  0.26387015205345782        0.0000000000000000     
  -2.5310782082361611E-002  0.23018189787517207        0.0000000000000000     
  -2.5431628294671993E-002  0.23862924498507634        0.0000000000000000     
  -2.5536030530208344E-002  0.24707914244796036        0.0000000000000000     
  -2.5623988788970663E-002  0.25553159026382416        0.0000000000000000     
  -2.5695503070958955E-002  0.26398658843266776        0.0000000000000000     
   6.4340026362241787E-014  0.26372044813732248        0.0000000000000000     
   6.1497898787288285E-014  0.27204114014890224        0.0000000000000000     
   5.8764841950886826E-014  0.28022968165195106        0.0000000000000000     
   5.6139825860973547E-014  0.28828607264646883        0.0000000000000000     
   5.3622904727657072E-014  0.29621031313245560        0.0000000000000000     
  -6.3611888135030924E-003  0.26373708190578515        0.0000000000000000     
  -6.3769447057009619E-003  0.27206287928588141        0.0000000000000000     
  -6.3960725522897183E-003  0.28025804863454301        0.0000000000000000     
  -6.4185723532693547E-003  0.28832258995176979        0.0000000000000000     
  -6.4444441086398789E-003  0.29625650323756192        0.0000000000000000     
  -1.2764168929862785E-002  0.26378698321116367        0.0000000000000000     
  -1.2796382637457200E-002  0.27212809669680799        0.0000000000000000     
  -1.2834406555703096E-002  0.28034314958230550        0.0000000000000000     
  -1.2878240684600485E-002  0.28843214186765620        0.0000000000000000     
  -1.2927885024149360E-002  0.29639507355286004        0.0000000000000000     
  -1.9208940349014741E-002  0.26387015205345782        0.0000000000000000     
  -1.9258313795207208E-002  0.27223679238168186        0.0000000000000000     
  -1.9315002010181378E-002  0.28048498449523851        0.0000000000000000     
  -1.9379004993937247E-002  0.28861472839412788        0.0000000000000000     
  -1.9450322746474822E-002  0.29662602407834998        0.0000000000000000     
  -2.5695503070958955E-002  0.26398658843266776        0.0000000000000000     
  -2.5762738178950997E-002  0.27238896634050308        0.0000000000000000     
  -2.5837858915724557E-002  0.28068355337334222        0.0000000000000000     
  -2.5920865281279650E-002  0.28887034953118512        0.0000000000000000     
  -2.6011757275616266E-002  0.29694935481403173        0.0000000000000000     
  -1.4267438795906483E-002   5.6277268616226568E-002   0.0000000000000000     
  -1.5001368330867794E-002   6.1711901361921263E-002   0.0000000000000000     
  -1.5714296108453794E-002   6.7372956176817878E-002   0.0000000000000000     
  -1.6406222128664490E-002   7.3260433060916397E-002   0.0000000000000000     
  -1.7077146391499879E-002   7.9374332014216842E-002   0.0000000000000000     
  -1.8087630326751175E-002   5.6902045678549174E-002   0.0000000000000000     
  -1.8961986549219025E-002   6.2208890431272583E-002   0.0000000000000000     
  -1.9820642619759955E-002   6.7772790049020065E-002   0.0000000000000000     
  -2.0663598538373969E-002   7.3593744531791586E-002   0.0000000000000000     
  -2.1490854305061067E-002   7.9671753879587165E-002   0.0000000000000000     
  -2.1836590436572181E-002   5.7315900051826671E-002   0.0000000000000000     
  -2.2887893229642343E-002   6.2583382186967351E-002   0.0000000000000000     
  -2.3921246363703498E-002   6.8115155368469918E-002   0.0000000000000000     
  -2.4936649838755643E-002   7.3911219596334343E-002   0.0000000000000000     
  -2.5934103654798785E-002   7.9971574870560627E-002   0.0000000000000000     
  -2.5514319125369504E-002   5.7518831736059040E-002   0.0000000000000000     
  -2.6779088372137740E-002   6.2835376629005554E-002   0.0000000000000000     
  -2.8016107340284410E-002   6.8400052135167436E-002   0.0000000000000000     
  -2.9225376029809499E-002   7.4212858254544642E-002   0.0000000000000000     
  -3.0406894440713015E-002   8.0273794987137215E-002   0.0000000000000000     
  -2.9120816393143140E-002   5.7510840731246293E-002   0.0000000000000000     
  -3.0635571976705234E-002   6.2964873757387199E-002   0.0000000000000000     
  -3.2105225549502701E-002   6.8627480349112618E-002   0.0000000000000000     
  -3.3529777111535548E-002   7.4498660506422523E-002   0.0000000000000000     
  -3.4909226662803765E-002   8.0578414229316955E-002   0.0000000000000000     
  -1.7077146391499879E-002   7.9374332014216842E-002   0.0000000000000000     
  -1.7727886009400617E-002   8.5681835055124181E-002   0.0000000000000000     
  -1.8359258094807360E-002   9.2150124202043396E-002   0.0000000000000000     
  -1.8971262647720106E-002   9.8779199454974459E-002   0.0000000000000000     
  -1.9563899668138856E-002  0.10556906081391740        0.0000000000000000     
  -2.1490854305061067E-002   7.9671753879587165E-002   0.0000000000000000     
  -2.2298019618411265E-002   8.5959522910660321E-002   0.0000000000000000     
  -2.3080704177014563E-002   9.2409756443264504E-002   0.0000000000000000     
  -2.3838907980870981E-002   9.9022454477399713E-002   0.0000000000000000     
  -2.4572631029980491E-002  0.10579761701306599        0.0000000000000000     
  -2.5934103654798785E-002   7.9971574870560627E-002   0.0000000000000000     
  -2.6907174470757803E-002   8.6245507081867470E-002   0.0000000000000000     
  -2.7849428945557576E-002   9.2682302120973517E-002   0.0000000000000000     
  -2.8760867079198112E-002   9.9281959987878726E-002   0.0000000000000000     
  -2.9641488871679406E-002  0.10604448068258318        0.0000000000000000     
  -3.0406894440713015E-002   8.0273794987137215E-002   0.0000000000000000     
  -3.1555350566440224E-002   8.6539787568745641E-002   0.0000000000000000     
  -3.2665432400436387E-002   9.2967761235170393E-002   0.0000000000000000     
  -3.3737139942701506E-002   9.9557715986411499E-002   0.0000000000000000     
  -3.4770473193235583E-002  0.10630965182246892        0.0000000000000000     
  -3.4909226662803765E-002   8.0578414229316955E-002   0.0000000000000000     
  -3.6242547905458534E-002   8.6842364371294847E-002   0.0000000000000000     
  -3.7528714541651000E-002   9.3266133785855188E-002   0.0000000000000000     
  -3.8767726571381167E-002   9.9849722472997990E-002   0.0000000000000000     
  -3.9959583994649044E-002  0.10659313043272325        0.0000000000000000     
  -1.9563899668138856E-002  0.10556906081391740        0.0000000000000000     
  -2.0133236004611473E-002  0.11250776696979374        0.0000000000000000     
  -2.0675338505685814E-002  0.11958337661352507        0.0000000000000000     
  -2.1190207171361879E-002  0.12679588974511133        0.0000000000000000     
  -2.1677842001639670E-002  0.13414530636455252        0.0000000000000000     
  -2.4572631029980491E-002  0.10579761701306599        0.0000000000000000     
  -2.5277910786475573E-002  0.11272269453355796        0.0000000000000000     
  -2.5950784712488673E-002  0.11978513752217021        0.0000000000000000     
  -2.6591252808019782E-002  0.12698494597890275        0.0000000000000000     
  -2.7199315073068907E-002  0.13432211990375564        0.0000000000000000     
  -2.9641488871679406E-002  0.10604448068258318        0.0000000000000000     
  -3.0487673820288316E-002  0.11295706596716236        0.0000000000000000     
  -3.1295801422311711E-002  0.12000691760369184        0.0000000000000000     
  -3.2065871677749574E-002  0.12719403559217160        0.0000000000000000     
  -3.2797884586601919E-002  0.13451841993260166        0.0000000000000000     
  -3.4770473193235583E-002  0.10630965182246892        0.0000000000000000     
  -3.5762525106049693E-002  0.11321088127060697        0.0000000000000000     
  -3.6710388635154911E-002  0.12024871685808998        0.0000000000000000     
  -3.7614063780551245E-002  0.12742315858491784        0.0000000000000000     
  -3.8473550542238680E-002  0.13473420645109063        0.0000000000000000     
  -3.9959583994649044E-002  0.10659313043272325        0.0000000000000000     
  -4.1102464643759717E-002  0.11348414044389181        0.0000000000000000     
  -4.2194546351018318E-002  0.12051053528536454        0.0000000000000000     
  -4.3235829116424811E-002  0.12767231495714143        0.0000000000000000     
  -4.4226312939979216E-002  0.13496947945922252        0.0000000000000000     
  -2.1677842001639670E-002  0.13414530636455252        0.0000000000000000     
  -2.2138065387850115E-002  0.14161848429671572        0.0000000000000000     
  -2.2570699721324135E-002  0.14920228136646779        0.0000000000000000     
  -2.2975745002061735E-002  0.15689669757380889        0.0000000000000000     
  -2.3353201230062910E-002  0.16470173291873891        0.0000000000000000     
  -2.7199315073068907E-002  0.13432211990375564        0.0000000000000000     
  -2.7774292489251121E-002  0.14178262913881121        0.0000000000000000     
  -2.8315506038181469E-002  0.14935244352615196        0.0000000000000000     
  -2.8822955719859975E-002  0.15703156306577784        0.0000000000000000     
  -2.9296641534286613E-002  0.16481998775768891        0.0000000000000000     
  -3.2797884586601919E-002  0.13451841993260166        0.0000000000000000     
  -3.3490920503173843E-002  0.14196580481560614        0.0000000000000000     
  -3.4144059781770472E-002  0.14952192443180923        0.0000000000000000     
  -3.4757302422391813E-002  0.15718677878121090        0.0000000000000000     
  -3.5330648425037851E-002  0.16496036786381113        0.0000000000000000     
  -3.8473550542238680E-002  0.13473420645109063        0.0000000000000000     
  -3.9287949429618309E-002  0.14216801132710050        0.0000000000000000     
  -4.0056360952091155E-002  0.14971072408343963        0.0000000000000000     
  -4.0778785109657274E-002  0.15736234472010796        0.0000000000000000     
  -4.1455221902316625E-002  0.16512287323710556        0.0000000000000000     
  -4.4226312939979216E-002  0.13496947945922252        0.0000000000000000     
  -4.5165379268584473E-002  0.14238924867329425        0.0000000000000000     
  -4.6052409549143518E-002  0.14991884248104309        0.0000000000000000     
  -4.6887403781656331E-002  0.15755826088246908        0.0000000000000000     
  -4.7670361966122926E-002  0.16530750387757218        0.0000000000000000     
  -2.3353201230062910E-002  0.16470173291873891        0.0000000000000000     
  -2.3701784001730439E-002  0.17260663882019014        0.0000000000000000     
  -2.4020208913467105E-002  0.18060066669709504        0.0000000000000000     
  -2.4308475965272896E-002  0.18868381654945349        0.0000000000000000     
  -2.4566585157147828E-002  0.19685608837726554        0.0000000000000000     
  -2.9296641534286613E-002  0.16481998775768891        0.0000000000000000     
  -2.9735084635152287E-002  0.17270866970031024        0.0000000000000000     
  -3.0136806176147894E-002  0.18068856099206704        0.0000000000000000     
  -3.0501806157273412E-002  0.18875966163295921        0.0000000000000000     
  -3.0830084578528864E-002  0.19692197162298683        0.0000000000000000     
  -3.5330648425037851E-002  0.16496036786381113        0.0000000000000000     
  -3.5862430528078554E-002  0.17283427483684685        0.0000000000000000     
  -3.6350981469883900E-002  0.18080008285755483        0.0000000000000000     
  -3.6796301250453863E-002  0.18885779192593519        0.0000000000000000     
  -3.7198389869788469E-002  0.19700740204198783        0.0000000000000000     
  -4.1455221902316625E-002  0.16512287323710556        0.0000000000000000     
  -4.2083821680509240E-002  0.17298345422979985        0.0000000000000000     
  -4.2662734794675111E-002  0.18093523229355854        0.0000000000000000     
  -4.3191961244814260E-002  0.18897820742838142        0.0000000000000000     
  -4.3671501030926659E-002  0.19711237963426856        0.0000000000000000     
  -4.7670361966122926E-002  0.16530750387757218        0.0000000000000000     
  -4.8399258092444337E-002  0.17315620787916947        0.0000000000000000     
  -4.9072066150521551E-002  0.18109400930007802        0.0000000000000000     
  -4.9688786140354581E-002  0.18912090814029789        0.0000000000000000     
  -5.0249418061943427E-002  0.19723690439982899        0.0000000000000000     
  -2.4566585157147828E-002  0.19685608837726554        0.0000000000000000     
  -2.4795370161405816E-002  0.20510157608253887        0.0000000000000000     
  -2.4995664650360769E-002  0.21340437356728106        0.0000000000000000     
  -2.5167468624012701E-002  0.22176448083149211        0.0000000000000000     
  -2.5310782082361611E-002  0.23018189787517207        0.0000000000000000     
  -3.0830084578528864E-002  0.19692197162298683        0.0000000000000000     
  -3.1121696607766092E-002  0.20516018597176264        0.0000000000000000     
  -3.1376697412836968E-002  0.21345899968889956        0.0000000000000000     
  -3.1595086993741493E-002  0.22181841277439748        0.0000000000000000     
  -3.1776865350479674E-002  0.23023842522825647        0.0000000000000000     
  -3.7198389869788469E-002  0.19700740204198783        0.0000000000000000     
  -3.7556518706344480E-002  0.20523503076855343        0.0000000000000000     
  -3.7869959138578664E-002  0.21352679566847266        0.0000000000000000     
  -3.8138711166491035E-002  0.22188269674174549        0.0000000000000000     
  -3.8362774790081586E-002  0.23030273398837187        0.0000000000000000     
  -4.3671501030926659E-002  0.19711237963426856        0.0000000000000000     
  -4.4099836457140981E-002  0.20532611047291108        0.0000000000000000     
  -4.4475449827585861E-002  0.21360776150600028        0.0000000000000000     
  -4.4798341142261326E-002  0.22195733273353599        0.0000000000000000     
  -4.5068510401167348E-002  0.23037482415551830        0.0000000000000000     
  -5.0249418061943427E-002  0.19723690439982899        0.0000000000000000     
  -5.0751649860155582E-002  0.20543342508483572        0.0000000000000000     
  -5.1193169479858552E-002  0.21370189720148244        0.0000000000000000     
  -5.1573976921052339E-002  0.22204232074976910        0.0000000000000000     
  -5.1894072183736956E-002  0.23045469572969571        0.0000000000000000     
  -2.5310782082361611E-002  0.23018189787517207        0.0000000000000000     
  -2.5431628294671993E-002  0.23862924498507634        0.0000000000000000     
  -2.5536030530208344E-002  0.24707914244796036        0.0000000000000000     
  -2.5623988788970663E-002  0.25553159026382416        0.0000000000000000     
  -2.5695503070958955E-002  0.26398658843266776        0.0000000000000000     
  -3.1776865350479674E-002  0.23023842522825647        0.0000000000000000     
  -3.1929902941267754E-002  0.23869439103824158        0.0000000000000000     
  -3.2062070224322003E-002  0.24716166419211796        0.0000000000000000     
  -3.2173367199642429E-002  0.25564024468988555        0.0000000000000000     
  -3.2263793867229017E-002  0.26413013253154438        0.0000000000000000     
  -3.8362774790081586E-002  0.23030273398837187        0.0000000000000000     
  -3.8551000276108624E-002  0.23876630614737851        0.0000000000000000     
  -3.8712237891330464E-002  0.24725281195779186        0.0000000000000000     
  -3.8846487635747079E-002  0.25576225141961195        0.0000000000000000     
  -3.8953749509358510E-002  0.26429462453283875        0.0000000000000000     
  -4.5068510401167348E-002  0.23037482415551830        0.0000000000000000     
  -4.5294920299194588E-002  0.23884499031248699        0.0000000000000000     
  -4.5486533531233678E-002  0.24735258574498203        0.0000000000000000     
  -4.5643350097284645E-002  0.25589761045300330        0.0000000000000000     
  -4.5765369997347441E-002  0.26448006443655087        0.0000000000000000     
  -5.1894072183736956E-002  0.23045469572969571        0.0000000000000000     
  -5.2161663010525647E-002  0.23893044353356718        0.0000000000000000     
  -5.2384957144031685E-002  0.24746098555368851        0.0000000000000000     
  -5.2563954584255071E-002  0.25604632179005971        0.0000000000000000     
  -5.2698655331195811E-002  0.26468645224268067        0.0000000000000000     
  -2.5695503070958955E-002  0.26398658843266776        0.0000000000000000     
  -2.5762738178950997E-002  0.27238896634050308        0.0000000000000000     
  -2.5837858915724557E-002  0.28068355337334222        0.0000000000000000     
  -2.5920865281279650E-002  0.28887034953118512        0.0000000000000000     
  -2.6011757275616266E-002  0.29694935481403173        0.0000000000000000     
  -3.2263793867229017E-002  0.26413013253154438        0.0000000000000000     
  -3.2348058528219620E-002  0.27257835236125194        0.0000000000000000     
  -3.2440869483752084E-002  0.28093192882316581        0.0000000000000000     
  -3.2542226733826431E-002  0.28919086191728577        0.0000000000000000     
  -3.2652130278442631E-002  0.29735515164361198        0.0000000000000000     
  -3.8953749509358510E-002  0.26429462453283875        0.0000000000000000     
  -3.9052677582544153E-002  0.27279868423190889        0.0000000000000000     
  -3.9161925925683433E-002  0.28122318345125863        0.0000000000000000     
  -3.9281494538776322E-002  0.28956812219088812        0.0000000000000000     
  -3.9411383421822876E-002  0.29783350045079726        0.0000000000000000     
  -4.5765369997347441E-002  0.26448006443655087        0.0000000000000000     
  -4.5876595341924592E-002  0.27304996195247366        0.0000000000000000     
  -4.6001028241518568E-002  0.28155731725762073        0.0000000000000000     
  -4.6138668696129370E-002  0.29000213035199207        0.0000000000000000     
  -4.6289516705756983E-002  0.29838440123558774        0.0000000000000000     
  -5.2698655331195811E-002  0.26468645224268067        0.0000000000000000     
  -5.2819811806360945E-002  0.27333218552294652        0.0000000000000000     
  -5.2958176431257512E-002  0.28193433024225217        0.0000000000000000     
  -5.3113749205885512E-002  0.29049288640059773        0.0000000000000000     
  -5.3286530130244952E-002  0.29900785399798324        0.0000000000000000     
  -2.9120816393143140E-002   5.7510840731246293E-002   0.0000000000000000     
  -3.0635571976705234E-002   6.2964873757387199E-002   0.0000000000000000     
  -3.2105225549502701E-002   6.8627480349112618E-002   0.0000000000000000     
  -3.3529777111535548E-002   7.4498660506422523E-002   0.0000000000000000     
  -3.4909226662803765E-002   8.0578414229316955E-002   0.0000000000000000     
  -3.2846790164179206E-002   5.7536327202204904E-002   0.0000000000000000     
  -3.4610536990895717E-002   6.3134155303689404E-002   0.0000000000000000     
  -3.6311816991420158E-002   6.8899006135623872E-002   0.0000000000000000     
  -3.7950630165752564E-002   7.4830879698008279E-002   0.0000000000000000     
  -3.9526976513892913E-002   8.0929775990842653E-002   0.0000000000000000     
  -3.6882948362763818E-002   5.7839691313751322E-002   0.0000000000000000     
  -3.8857176362260083E-002   6.3505502999489330E-002   0.0000000000000000     
  -4.0759097666098580E-002   6.9316195620019630E-002   0.0000000000000000     
  -4.2588712274279322E-002   7.5271769175342257E-002   0.0000000000000000     
  -4.4346020186802310E-002   8.1372223665457225E-002   0.0000000000000000     
  -4.1229290988896966E-002   5.8420933065885576E-002   0.0000000000000000     
  -4.3375490090798337E-002   6.4078916844786935E-002   0.0000000000000000     
  -4.5447067573537968E-002   6.9879048802299906E-002   0.0000000000000000     
  -4.7444023437115845E-002   7.5821328938424470E-002   0.0000000000000000     
  -4.9366357681531969E-002   8.1905757253160655E-002   0.0000000000000000     
  -4.5885818042578658E-002   5.9280052458607652E-002   0.0000000000000000     
  -4.8165478176510484E-002   6.4854396839582246E-002   0.0000000000000000     
  -5.0375726713738286E-002   7.0587565682464659E-002   0.0000000000000000     
  -5.2516563654262084E-002   7.6479558987254906E-002   0.0000000000000000     
  -5.4587988998081871E-002   8.2530376753952917E-002   0.0000000000000000     
  -3.4909226662803765E-002   8.0578414229316955E-002   0.0000000000000000     
  -3.6242547905458534E-002   8.6842364371294847E-002   0.0000000000000000     
  -3.7528714541651000E-002   9.3266133785855188E-002   0.0000000000000000     
  -3.8767726571381167E-002   9.9849722472997990E-002   0.0000000000000000     
  -3.9959583994649044E-002  0.10659313043272325        0.0000000000000000     
  -3.9526976513892913E-002   8.0929775990842653E-002   0.0000000000000000     
  -4.1044333456147934E-002   8.7190896660491207E-002   0.0000000000000000     
  -4.2506178412824336E-002   9.3609443353318181E-002   0.0000000000000000     
  -4.3912511383922138E-002  0.10018541606932357        0.0000000000000000     
  -4.5263332369441321E-002  0.10691881480850739        0.0000000000000000     
  -4.4346020186802310E-002   8.1372223665457225E-002   0.0000000000000000     
  -4.6036274186843612E-002   8.7623043607310880E-002   0.0000000000000000     
  -4.7664727057579327E-002   9.4029713517849695E-002   0.0000000000000000     
  -4.9231378799009448E-002  0.10059223339707357        0.0000000000000000     
  -5.0736229411133982E-002  0.10731060324498258        0.0000000000000000     
  -4.9366357681531969E-002   8.1905757253160655E-002   0.0000000000000000     
  -5.1218370097545603E-002   8.8138805211753879E-002   0.0000000000000000     
  -5.3004360475915981E-002   9.4526944279449673E-002   0.0000000000000000     
  -5.4724328816643131E-002  0.10107017445624801        0.0000000000000000     
  -5.6378275119727018E-002  0.10776849574214888        0.0000000000000000     
  -5.4587988998081871E-002   8.2530376753952917E-002   0.0000000000000000     
  -5.6590621188253865E-002   8.8738181473820218E-002   0.0000000000000000     
  -5.8525078667834282E-002   9.5101135638118187E-002   0.0000000000000000     
  -6.0391361436823138E-002  0.10161923924684685        0.0000000000000000     
  -6.2189469495220431E-002  0.10829249230000623        0.0000000000000000     
  -3.9959583994649044E-002  0.10659313043272325        0.0000000000000000     
  -4.1102464643759717E-002  0.11348414044389181        0.0000000000000000     
  -4.2194546351018318E-002  0.12051053528536454        0.0000000000000000     
  -4.3235829116424811E-002  0.12767231495714143        0.0000000000000000     
  -4.4226312939979216E-002  0.13496947945922252        0.0000000000000000     
  -4.5263332369441321E-002  0.10691881480850739        0.0000000000000000     
  -4.6557674716537489E-002  0.11379804253183447        0.0000000000000000     
  -4.7794571772366193E-002  0.12081150220026972        0.0000000000000000     
  -4.8974023536927473E-002  0.12795919381381310        0.0000000000000000     
  -5.0096030010221303E-002  0.13524111737246464        0.0000000000000000     
  -5.0736229411133982E-002  0.10731060324498258        0.0000000000000000     
  -5.2178337607502061E-002  0.11417378657925265        0.0000000000000000     
  -5.3556762101662887E-002  0.12117074691755958        0.0000000000000000     
  -5.4871502893616426E-002  0.12830148425990345        0.0000000000000000     
  -5.6122559983362678E-002  0.13556599860628421        0.0000000000000000     
  -5.6378275119727018E-002  0.10776849574214888        0.0000000000000000     
  -5.7964453316653494E-002  0.11461137258614626        0.0000000000000000     
  -5.9481117338908381E-002  0.12158826943723412        0.0000000000000000     
  -6.0928267186491671E-002  0.12869918629541247        0.0000000000000000     
  -6.2305902859403378E-002  0.13594412316068133        0.0000000000000000     
  -6.2189469495220431E-002  0.10829249230000623        0.0000000000000000     
  -6.3916021843991727E-002  0.11511080055251535        0.0000000000000000     
  -6.5567637484102659E-002  0.12206406975929335        0.0000000000000000     
  -6.7144316415553212E-002  0.12915229992034019        0.0000000000000000     
  -6.8646058638343388E-002  0.13637549103565588        0.0000000000000000     
  -4.4226312939979216E-002  0.13496947945922252        0.0000000000000000     
  -4.5165379268584473E-002  0.14238924867329425        0.0000000000000000     
  -4.6052409549143518E-002  0.14991884248104309        0.0000000000000000     
  -4.6887403781656331E-002  0.15755826088246908        0.0000000000000000     
  -4.7670361966122926E-002  0.16530750387757218        0.0000000000000000     
  -5.0096030010221303E-002  0.13524111737246464        0.0000000000000000     
  -5.1160401445861536E-002  0.14264549041760621        0.0000000000000000     
  -5.2166948097462099E-002  0.15016053049061967        0.0000000000000000     
  -5.3115669965022941E-002  0.15778623759150506        0.0000000000000000     
  -5.4006567048544091E-002  0.16552261172026234        0.0000000000000000     
  -5.6122559983362678E-002  0.13556599860628421        0.0000000000000000     
  -5.7310207387238681E-002  0.14295271012345512        0.0000000000000000     
  -5.8434719121581484E-002  0.15045003897816930        0.0000000000000000     
  -5.9496095186391068E-002  0.15805798517042677        0.0000000000000000     
  -6.0494335581667433E-002  0.16577654870022748        0.0000000000000000     
  -6.2305902859403378E-002  0.13594412316068133        0.0000000000000000     
  -6.3614797092715919E-002  0.14331090779084102        0.0000000000000000     
  -6.4855722621501674E-002  0.15078736794369196        0.0000000000000000     
  -6.6028679445760685E-002  0.15837350361923416        0.0000000000000000     
  -6.7133667565492938E-002  0.16606931481746753        0.0000000000000000     
  -6.8646058638343388E-002  0.13637549103565588        0.0000000000000000     
  -7.0074170562293189E-002  0.14372008341976386        0.0000000000000000     
  -7.1429958597222676E-002  0.15117251738718765        0.0000000000000000     
  -7.2713422743131806E-002  0.15873279293792719        0.0000000000000000     
  -7.3924563000020621E-002  0.16640091007198252        0.0000000000000000     
  -4.7670361966122926E-002  0.16530750387757218        0.0000000000000000     
  -4.8399258092444337E-002  0.17315620787916947        0.0000000000000000     
  -4.9072066150521551E-002  0.18109400930007802        0.0000000000000000     
  -4.9688786140354581E-002  0.18912090814029789        0.0000000000000000     
  -5.0249418061943427E-002  0.19723690439982899        0.0000000000000000     
  -5.4006567048544091E-002  0.16552261172026234        0.0000000000000000     
  -5.4837540292611814E-002  0.17335782549889278        0.0000000000000000     
  -5.5606490641812362E-002  0.18128005154939750        0.0000000000000000     
  -5.6313418096145762E-002  0.18928928987177654        0.0000000000000000     
  -5.6958322655611987E-002  0.19738554046602988        0.0000000000000000     
  -6.0494335581667433E-002  0.16577654870022748        0.0000000000000000     
  -6.1427468809739628E-002  0.17359359680290704        0.0000000000000000     
  -6.2293523372936727E-002  0.18149699671380093        0.0000000000000000     
  -6.3092499271258720E-002  0.18948674843290922        0.0000000000000000     
  -6.3824396504705588E-002  0.19756285196023182        0.0000000000000000     
  -6.7133667565492938E-002  0.16606931481746753        0.0000000000000000     
  -6.8169043643827795E-002  0.17386352179121226        0.0000000000000000     
  -6.9133164343894646E-002  0.18174484479328840        0.0000000000000000     
  -7.0026029665693448E-002  0.18971328382369590        0.0000000000000000     
  -7.0847639609224217E-002  0.19776883888243482        0.0000000000000000     
  -7.3924563000020621E-002  0.16640091007198252        0.0000000000000000     
  -7.5062264794876307E-002  0.17416760046380847        0.0000000000000000     
  -7.6125413554686078E-002  0.18202359578785984        0.0000000000000000     
  -7.7114009279449919E-002  0.18996889604413664        0.0000000000000000     
  -7.8028051969167858E-002  0.19800350123263893        0.0000000000000000     
  -5.0249418061943427E-002  0.19723690439982899        0.0000000000000000     
  -5.0751649860155582E-002  0.20543342508483572        0.0000000000000000     
  -5.1193169479858552E-002  0.21370189720148244        0.0000000000000000     
  -5.1573976921052339E-002  0.22204232074976910        0.0000000000000000     
  -5.1894072183736956E-002  0.23045469572969571        0.0000000000000000     
  -5.6958322655611987E-002  0.19738554046602988        0.0000000000000000     
  -5.7538483160786608E-002  0.20556294031409725        0.0000000000000000     
  -5.8051178452245153E-002  0.21381562639791840        0.0000000000000000     
  -5.8496408529987616E-002  0.22214359871749326        0.0000000000000000     
  -5.8874173394014025E-002  0.23054685727282193        0.0000000000000000     
  -6.3824396504705588E-002  0.19756285196023182        0.0000000000000000     
  -6.4486860604432358E-002  0.20572062187046555        0.0000000000000000     
  -6.5077537101594057E-002  0.21395537273830736        0.0000000000000000     
  -6.5596425996190658E-002  0.22226710456375712        0.0000000000000000     
  -6.6043527288222159E-002  0.23065581734681481        0.0000000000000000     
  -7.0847639609224217E-002  0.19776883888243482        0.0000000000000000     
  -7.1596782191092848E-002  0.20590646975394078        0.0000000000000000     
  -7.2272245427905266E-002  0.21412113622264933        0.0000000000000000     
  -7.2874029319661443E-002  0.22241283828856057        0.0000000000000000     
  -7.3402133866361380E-002  0.23078157595167439        0.0000000000000000     
  -7.8028051969167858E-002  0.19800350123263893        0.0000000000000000     
  -7.8868247920768089E-002  0.20612048396452279        0.0000000000000000     
  -7.9635303431178792E-002  0.21431291685094433        0.0000000000000000     
  -8.0329218500399979E-002  0.22258079989190363        0.0000000000000000     
  -8.0949993128431680E-002  0.23092413308740062        0.0000000000000000     
  -5.1894072183736956E-002  0.23045469572969571        0.0000000000000000     
  -5.2161663010525647E-002  0.23893044353356718        0.0000000000000000     
  -5.2384957144031685E-002  0.24746098555368851        0.0000000000000000     
  -5.2563954584255071E-002  0.25604632179005971        0.0000000000000000     
  -5.2698655331195811E-002  0.26468645224268067        0.0000000000000000     
  -5.8874173394014025E-002  0.23054685727282193        0.0000000000000000     
  -5.9190605106816070E-002  0.23902413248422100        0.0000000000000000     
  -5.9451835730885506E-002  0.24757415477200714        0.0000000000000000     
  -5.9657865266222306E-002  0.25619692413618028        0.0000000000000000     
  -5.9808693712826488E-002  0.26489244057674055        0.0000000000000000     
  -6.6043527288222159E-002  0.23065581734681481        0.0000000000000000     
  -6.6421123284780156E-002  0.23912752383805039        0.0000000000000000     
  -6.6731496292956188E-002  0.24768823678803356        0.0000000000000000     
  -6.6974646312750269E-002  0.25633795619676436        0.0000000000000000     
  -6.7150573344162370E-002  0.26507668206424284        0.0000000000000000     
  -7.3402133866361380E-002  0.23078157595167439        0.0000000000000000     
  -7.3853217544417885E-002  0.23924061759505538        0.0000000000000000     
  -7.4223938830243724E-002  0.24780323160176784        0.0000000000000000     
  -7.4514297723838899E-002  0.25646941797181189        0.0000000000000000     
  -7.4724294225203450E-002  0.26523917670518754        0.0000000000000000     
  -8.0949993128431680E-002  0.23092413308740062        0.0000000000000000     
  -8.1486887885729262E-002  0.23936341375523587        0.0000000000000000     
  -8.1929163342748121E-002  0.24791913921320996        0.0000000000000000     
  -8.2276819499488285E-002  0.25659130946132291        0.0000000000000000     
  -8.2529856355949727E-002  0.26537992449957470        0.0000000000000000     
  -5.2698655331195811E-002  0.26468645224268067        0.0000000000000000     
  -5.2819811806360945E-002  0.27333218552294652        0.0000000000000000     
  -5.2958176431257512E-002  0.28193433024225217        0.0000000000000000     
  -5.3113749205885512E-002  0.29049288640059773        0.0000000000000000     
  -5.3286530130244952E-002  0.29900785399798324        0.0000000000000000     
  -5.9808693712826488E-002  0.26489244057674055        0.0000000000000000     
  -5.9941181649875608E-002  0.27361665828222309        0.0000000000000000     
  -6.0092189656547251E-002  0.28232553144116335        0.0000000000000000     
  -6.0261717732841377E-002  0.29101906005356121        0.0000000000000000     
  -6.0449765878758020E-002  0.29969724411941673        0.0000000000000000     
  -6.7150573344162370E-002  0.26507668206424284        0.0000000000000000     
  -6.7299559546491042E-002  0.27387468356919942        0.0000000000000000     
  -6.7461887079034763E-002  0.28270222989036470        0.0000000000000000     
  -6.7637555941793562E-002  0.29155932102773857        0.0000000000000000     
  -6.7826566134767396E-002  0.30044595698132109        0.0000000000000000     
  -7.4724294225203450E-002  0.26523917670518754        0.0000000000000000     
  -7.4894945496207205E-002  0.27410626138387539        0.0000000000000000     
  -7.5067268698720074E-002  0.28306442558985623        0.0000000000000000     
  -7.5241263832742045E-002  0.29211366932312988        0.0000000000000000     
  -7.5416930898273074E-002  0.30125399258369639        0.0000000000000000     
  -8.2529856355949727E-002  0.26537992449957470        0.0000000000000000     
  -8.2727339499024138E-002  0.27431139172625107        0.0000000000000000     
  -8.2908334515603171E-002  0.28341211853963788        0.0000000000000000     
  -8.3072841405686812E-002  0.29268210493973507        0.0000000000000000     
  -8.3220860169275074E-002  0.30212135092654258        0.0000000000000000     
  -4.5885818042578658E-002   5.9280052458607652E-002   0.0000000000000000     
  -4.8165478176510484E-002   6.4854396839582246E-002   0.0000000000000000     
  -5.0375726713738286E-002   7.0587565682464659E-002   0.0000000000000000     
  -5.2516563654262084E-002   7.6479558987254906E-002   0.0000000000000000     
  -5.4587988998081871E-002   8.2530376753952917E-002   0.0000000000000000     
  -5.0644049707333438E-002   6.0230685296562572E-002   0.0000000000000000     
  -5.3076829526398403E-002   6.5707566664667233E-002   0.0000000000000000     
  -5.5440891084177449E-002   7.1363092545612447E-002   0.0000000000000000     
  -5.7736234380670569E-002   7.7197262939398270E-002   0.0000000000000000     
  -5.9962859415877770E-002   8.3210077846024674E-002   0.0000000000000000     
  -5.5295506166685840E-002   6.1086467384395417E-002   0.0000000000000000     
  -5.7959233047463990E-002   6.6514050000833796E-002   0.0000000000000000     
  -6.0538376682333299E-002   7.2126975676841787E-002   0.0000000000000000     
  -6.3032937071293760E-002   7.7925244412419353E-002   0.0000000000000000     
  -6.5442914214345380E-002   8.3908856207566523E-002   0.0000000000000000     
  -5.9840187420635869E-002   6.1847398722106144E-002   0.0000000000000000     
  -6.2812688739707231E-002   6.7273846848081964E-002   0.0000000000000000     
  -6.5668183508205830E-002   7.2879215076152637E-002   0.0000000000000000     
  -6.8406671726131643E-002   7.8663503406318142E-002   0.0000000000000000     
  -7.1028153393484714E-002   8.4626711838578464E-002   0.0000000000000000     
  -6.4278093469183506E-002   6.2513479309694781E-002   0.0000000000000000     
  -6.7637196603128141E-002   6.7986957206411749E-002   0.0000000000000000     
  -7.0830311561795062E-002   7.3619810743545039E-002   0.0000000000000000     
  -7.3857438345184281E-002   7.9412039921094621E-002   0.0000000000000000     
  -7.6718576953295786E-002   8.5363644739060524E-002   0.0000000000000000     
  -5.4587988998081871E-002   8.2530376753952917E-002   0.0000000000000000     
  -5.6590621188253865E-002   8.8738181473820218E-002   0.0000000000000000     
  -5.8525078667834282E-002   9.5101135638118187E-002   0.0000000000000000     
  -6.0391361436823138E-002  0.10161923924684685        0.0000000000000000     
  -6.2189469495220431E-002  0.10829249230000623        0.0000000000000000     
  -5.9962859415877770E-002   8.3210077846024674E-002   0.0000000000000000     
  -6.2119575701763574E-002   8.9389965330084448E-002   0.0000000000000000     
  -6.4205192750292503E-002   9.5725353456170392E-002   0.0000000000000000     
  -6.6219710561464556E-002  0.10221624222428251        0.0000000000000000     
  -6.8163129135279749E-002  0.10886263163442078        0.0000000000000000     
  -6.5442914214345380E-002   8.3908856207566523E-002   0.0000000000000000     
  -6.7771781880869852E-002   9.0062949717121268E-002   0.0000000000000000     
  -7.0023013840248866E-002   9.6372663595921532E-002   0.0000000000000000     
  -7.2196610092482433E-002  0.10283799784396735        0.0000000000000000     
  -7.4292570637570512E-002  0.10945895246125868        0.0000000000000000     
  -7.1028153393484714E-002   8.4626711838578464E-002   0.0000000000000000     
  -7.3547239725572727E-002   9.0757134634930639E-002   0.0000000000000000     
  -7.5978541937703398E-002   9.7043066057371619E-002   0.0000000000000000     
  -7.8322060029876739E-002  0.10348450610590136        0.0000000000000000     
  -8.0577794002092709E-002  0.11008145478051994        0.0000000000000000     
  -7.6718576953295786E-002   8.5363644739060524E-002   0.0000000000000000     
  -7.9445949235872171E-002   9.1472520083512573E-002   0.0000000000000000     
  -8.2071777042656072E-002   9.7736560840520598E-002   0.0000000000000000     
  -8.4596060373647475E-002  0.10415576701008460        0.0000000000000000     
  -8.7018799228846366E-002  0.11073013859220457        0.0000000000000000     
  -6.2189469495220431E-002  0.10829249230000623        0.0000000000000000     
  -6.3916021843991727E-002  0.11511080055251535        0.0000000000000000     
  -6.5567637484102659E-002  0.12206406975929335        0.0000000000000000     
  -6.7144316415553212E-002  0.12915229992034019        0.0000000000000000     
  -6.8646058638343388E-002  0.13637549103565588        0.0000000000000000     
  -6.8163129135279749E-002  0.10886263163442078        0.0000000000000000     
  -7.0030717420991567E-002  0.11565470654421980        0.0000000000000000     
  -7.1817744367853528E-002  0.12258265181131414        0.0000000000000000     
  -7.3524209975865618E-002  0.12964646743570382        0.0000000000000000     
  -7.5150114245027821E-002  0.13684615341738887        0.0000000000000000     
  -7.4292570637570512E-002  0.10945895246125868        0.0000000000000000     
  -7.6306214279127746E-002  0.11622572662711946        0.0000000000000000     
  -7.8232859820768705E-002  0.12312851952087345        0.0000000000000000     
  -8.0072507262493403E-002  0.13016733114252074        0.0000000000000000     
  -8.1825156604301841E-002  0.13734216149206133        0.0000000000000000     
  -8.0577794002092709E-002  0.11008145478051994        0.0000000000000000     
  -8.2742512418400277E-002  0.11682386080121429        0.0000000000000000     
  -8.4812983842848230E-002  0.12370167288797122        0.0000000000000000     
  -8.6789208275436597E-002  0.13071489104079087        0.0000000000000000     
  -8.8671185716165404E-002  0.13786351525967316        0.0000000000000000     
  -8.7018799228846366E-002  0.11073013859220457        0.0000000000000000     
  -8.9339611838809105E-002  0.11744910906650430        0.0000000000000000     
  -9.1558116434092035E-002  0.12430211191260751        0.0000000000000000     
  -9.3674313014695185E-002  0.13128914713051423        0.0000000000000000     
  -9.5688201580618526E-002  0.13841021472022444        0.0000000000000000     
  -6.8646058638343388E-002  0.13637549103565588        0.0000000000000000     
  -7.0074170562293189E-002  0.14372008341976386        0.0000000000000000     
  -7.1429958597222676E-002  0.15117251738718765        0.0000000000000000     
  -7.2713422743131806E-002  0.15873279293792719        0.0000000000000000     
  -7.3924563000020621E-002  0.16640091007198252        0.0000000000000000     
  -7.5150114245027821E-002  0.13684615341738887        0.0000000000000000     
  -7.6697447716615144E-002  0.14416689629365981        0.0000000000000000     
  -7.8168200931902521E-002  0.15159388260180726        0.0000000000000000     
  -7.9562373890889965E-002  0.15912711234183113        0.0000000000000000     
  -8.0879966593577490E-002  0.16676658551373147        0.0000000000000000     
  -8.1825156604301841E-002  0.13734216149206133        0.0000000000000000     
  -8.3493748476326346E-002  0.14463800569596499        0.0000000000000000     
  -8.5081223508699302E-002  0.15203985888070151        0.0000000000000000     
  -8.6587581701420682E-002  0.15954772104627102        0.0000000000000000     
  -8.8012823054490527E-002  0.16716159219267340        0.0000000000000000     
  -8.8671185716165404E-002  0.13786351525967316        0.0000000000000000     
  -9.0463072841426809E-002  0.14513341162667931        0.0000000000000000     
  -9.2169026327612993E-002  0.15251044622387061        0.0000000000000000     
  -9.3789046174724000E-002  0.15999461905124690        0.0000000000000000     
  -9.5323132382759759E-002  0.16758593010880832        0.0000000000000000     
  -9.5688201580618526E-002  0.13841021472022444        0.0000000000000000     
  -9.7605420811916518E-002  0.14565311408580289        0.0000000000000000     
  -9.9431609388643635E-002  0.15300564463131433        0.0000000000000000     
 -0.10116676731079985       0.16046780635675878        0.0000000000000000     
 -0.10281089457838519       0.16803959926213624        0.0000000000000000     
  -7.3924563000020621E-002  0.16640091007198252        0.0000000000000000     
  -7.5062264794876307E-002  0.17416760046380847        0.0000000000000000     
  -7.6125413554686078E-002  0.18202359578785984        0.0000000000000000     
  -7.7114009279449919E-002  0.18996889604413664        0.0000000000000000     
  -7.8028051969167858E-002  0.19800350123263893        0.0000000000000000     
  -8.0879966593577490E-002  0.16676658551373147        0.0000000000000000     
  -8.2120508597866529E-002  0.17450488845423931        0.0000000000000000     
  -8.3283529461658609E-002  0.18233460750008576        0.0000000000000000     
  -8.4369029184953703E-002  0.19025574265127071        0.0000000000000000     
  -8.5377007767751825E-002  0.19826829390779421        0.0000000000000000     
  -8.8012823054490527E-002  0.16716159219267340        0.0000000000000000     
  -8.9357151387779887E-002  0.17487444139604863        0.0000000000000000     
  -9.0620770521159785E-002  0.18267923773253661        0.0000000000000000     
  -9.1803680454630304E-002  0.19057598120213728        0.0000000000000000     
  -9.2905881188191361E-002  0.19856467180485080        0.0000000000000000     
  -9.5323132382759759E-002  0.16758593010880832        0.0000000000000000     
  -9.6772193164616313E-002  0.17527625928923632        0.0000000000000000     
  -9.8137136733189620E-002  0.18305748648521236        0.0000000000000000     
  -9.9417963088479666E-002  0.19092961169673645        0.0000000000000000     
 -0.10061467223048647       0.19889263492380868        0.0000000000000000     
 -0.10281089457838519       0.16803959926213624        0.0000000000000000     
 -0.10436563392837585       0.17571034213380241        0.0000000000000000     
 -0.10583262809774809       0.18346935375811305        0.0000000000000000     
 -0.10721187708650184       0.19131663413506822        0.0000000000000000     
 -0.10850338089463718       0.19925218326466787        0.0000000000000000     
  -7.8028051969167858E-002  0.19800350123263893        0.0000000000000000     
  -7.8868247920768089E-002  0.20612048396452279        0.0000000000000000     
  -7.9635303431178792E-002  0.21431291685094433        0.0000000000000000     
  -8.0329218500399979E-002  0.22258079989190363        0.0000000000000000     
  -8.0949993128431680E-002  0.23092413308740062        0.0000000000000000     
  -8.5377007767751825E-002  0.19826829390779421        0.0000000000000000     
  -8.6310226851633282E-002  0.20636357503793870        0.0000000000000000     
  -8.7171448078178421E-002  0.21453289980998658        0.0000000000000000     
  -8.7960671447387284E-002  0.22277626822393787        0.0000000000000000     
  -8.8677896959259803E-002  0.23109368027979252        0.0000000000000000     
  -9.2905881188191361E-002  0.19856467180485080        0.0000000000000000     
  -9.3931688041863692E-002  0.20663665350991556        0.0000000000000000     
  -9.4885416335667980E-002  0.21478327028657021        0.0000000000000000     
  -9.5767066069604251E-002  0.22300452213481473        0.0000000000000000     
  -9.6576637243672492E-002  0.23130040905464913        0.0000000000000000     
 -0.10061467223048647       0.19889263492380868        0.0000000000000000     
 -0.10173263149145932       0.20693971938045344        0.0000000000000000     
 -0.10277720820364747       0.21506402828069535        0.0000000000000000     
 -0.10374840236705095       0.22326556162453434        0.0000000000000000     
 -0.10464621398166975       0.23154431941197043        0.0000000000000000     
 -0.10850338089463718       0.19925218326466787        0.0000000000000000     
 -0.10971305720042016       0.20727277264955229        0.0000000000000000     
 -0.11084682368211687       0.21537517379236187        0.0000000000000000     
 -0.11190468033972736       0.22355938669309658        0.0000000000000000     
 -0.11288662717325160       0.23182541135175644        0.0000000000000000     
  -8.0949993128431680E-002  0.23092413308740062        0.0000000000000000     
  -8.1486887885729262E-002  0.23936341375523587        0.0000000000000000     
  -8.1929163342748121E-002  0.24791913921320996        0.0000000000000000     
  -8.2276819499488285E-002  0.25659130946132291        0.0000000000000000     
  -8.2529856355949727E-002  0.26537992449957470        0.0000000000000000     
  -8.8677896959259803E-002  0.23109368027979252        0.0000000000000000     
  -8.9308624221097907E-002  0.23951079038300319        0.0000000000000000     
  -8.9838352840203597E-002  0.24805325293902242        0.0000000000000000     
  -9.0267082816576777E-002  0.25672106794785021        0.0000000000000000     
  -9.0594814150217487E-002  0.26551423540948654        0.0000000000000000     
  -9.6576637243672492E-002  0.23130040905464913        0.0000000000000000     
  -9.7304916462907551E-002  0.23969762554276838        0.0000000000000000     
  -9.7942690332344332E-002  0.24822286609586752        0.0000000000000000     
  -9.8489958851982806E-002  0.25687613071394649        0.0000000000000000     
  -9.8946722021823016E-002  0.26565741939700543        0.0000000000000000     
 -0.10464621398166975       0.23154431941197043        0.0000000000000000     
 -0.10547576461115812       0.23992391923453146        0.0000000000000000     
 -0.10624217581917035       0.24842797868374528        0.0000000000000000     
 -0.10694544760570639       0.25705649775961187        0.0000000000000000     
 -0.10758557997076630       0.26580947646213121        0.0000000000000000     
 -0.11288662717325160       0.23182541135175644        0.0000000000000000     
 -0.11382116866584965       0.24018967145829245        0.0000000000000000     
 -0.11473680930068166       0.24866859070265573        0.0000000000000000     
 -0.11563354907774755       0.25726216908484628        0.0000000000000000     
 -0.11651138799704736       0.26597040660486404        0.0000000000000000     
  -8.2529856355949727E-002  0.26537992449957470        0.0000000000000000     
  -8.2727339499024138E-002  0.27431139172625107        0.0000000000000000     
  -8.2908334515603171E-002  0.28341211853963788        0.0000000000000000     
  -8.3072841405686812E-002  0.29268210493973507        0.0000000000000000     
  -8.3220860169275074E-002  0.30212135092654258        0.0000000000000000     
  -9.0594814150217487E-002  0.26551423540948654        0.0000000000000000     
  -9.0851964397591911E-002  0.27449573777687719        0.0000000000000000     
  -9.1068951115166136E-002  0.28372855750296783        0.0000000000000000     
  -9.1245774302940202E-002  0.29321269458775834        0.0000000000000000     
  -9.1382433960914111E-002  0.30294814903124895        0.0000000000000000     
  -9.8946722021823016E-002  0.26565741939700543        0.0000000000000000     
  -9.9324043034560550E-002  0.27466496271630447        0.0000000000000000     
  -9.9632985082891048E-002  0.28399699124310407        0.0000000000000000     
  -9.9873548166814499E-002  0.29365350497740422        0.0000000000000000     
 -0.10004573228633093       0.30363450391920488        0.0000000000000000     
 -0.10758557997076630       0.26580947646213121        0.0000000000000000     
 -0.10814357540993012       0.27481906654453292        0.0000000000000000     
 -0.10860043641877791       0.28421741976004672        0.0000000000000000     
 -0.10895616299730973       0.29400453610867250        0.0000000000000000     
 -0.10921075514552549       0.30418041559041026        0.0000000000000000     
 -0.11651138799704736       0.26597040660486404        0.0000000000000000     
 -0.11731056152370059       0.27495804926156264        0.0000000000000000     
 -0.11797130512282675       0.28438984305379578        0.0000000000000000     
 -0.11849361879442584       0.29426578798156328        0.0000000000000000     
 -0.11887750253849785       0.30458588404486531        0.0000000000000000     
 </DataArray>
 <DataArray  type="Float64" Name="stress" NumberOfComponents="3" format="ascii">
   6870858526.6488943        873439551.53275919        745308278.54455078     
   6475630228.6455688        618336210.95823264        548774226.92383158     
   6096925670.4137421        418312002.95536828        394525062.29719329     
   5734744851.9534121        273366927.52415824        282560784.66465002     
   5389087773.2645798        183500984.66461015        212881394.02620548     
   5943460861.2787371        413106810.57981825        624512802.81310165     
   5682064798.0293188        290628522.43264461        499884108.52237272     
   5428886994.9254704        195544434.77072334        405312618.79577357     
   5183927451.9671965        127854547.59403801        340798333.63331634     
   4947186169.1544981        87558860.902606964        306341253.03499013     
   5197738525.2229328        7276668.4211838245        544129644.81260586     
   5035238461.2132435        6942562.0471053123        481716581.62163758     
   4872651177.7231960        6317724.0718576908        437133040.56483251     
   4709976674.7528076        5402154.4954624176        410379021.64221531     
   4547214952.3020687        4195853.3178999424        401454524.85376066     
   4633691518.4814720       -344050874.94314957        504158804.54306620     
   4535151218.1973324       -232721670.19838834        494271646.22161019     
   4428218218.8069315       -149368129.14118814        489986327.60436684     
   4312892520.3102503       -93990251.771569014        491302848.69133180     
   4189174122.7073045       -66588038.089505196        498221209.48251623     
   4251319841.0543585       -640875819.51317859        504600282.00449020     
   4181803068.9816098       -428364174.30382085        537549302.32230270     
   4095588118.1766605       -271513124.86845112        563872479.91436970     
   3992674988.6395273       -170322671.20703959        583569814.78069186     
   3873063680.3701944       -124792813.31962013        596641306.92126095     
   5389087773.2645798        183500984.66461015        212881394.02620548     
   5187806937.6397972        162449510.80730987        166982922.39221445     
   4986816601.4191532        142366368.29713440        132579584.82104306     
   4786116764.6026440        123251557.13408089        109671381.31269836     
   4585707427.1902685        105105077.31813574        98258311.867179722     
   4947186169.1544981        87558860.902606964        306341253.03499013     
   4776282126.6927681        79697086.730607510        274038226.42210239     
   4605522070.5123854        72315266.829755306        250563052.86751893     
   4434906000.6133289        65413401.199995041        235915732.37123716     
   4264433916.9956093        58991489.841357708        230096264.93325326     
   4547214952.3020687        4195853.3178999424        401454524.85376066     
   4399066900.1333275        7237537.9701886177        382576011.28538495     
   4250916321.1231251        10270799.817601681        369858069.77078408     
   4102763215.2714610        13295638.860143900        363300700.30996209     
   3954607582.5783319        16312055.097807884        362903902.90291685     
   4189174122.7073045       -66588038.089505196        498221209.48251623     
   4056161257.9614744       -54929135.473954201        492596276.98205638     
   3922999353.2513862       -43767032.739275694        490464635.53084183     
   3789688408.5770335       -33101729.885472298        491826285.12887937     
   3656228423.9384193       -22933226.912542820        496681225.77616829     
   3873063680.3701944       -124792813.31962013        596641306.92126095     
   3747565200.1772118       -106802933.60182142        604099023.51210535     
   3621771166.8971591       -89798230.840906858        612382750.14768600     
   3495681580.5300479       -73778705.036862612        621492486.82798517     
   3369296441.0758767       -58744356.189682245        631428233.55301166     
   4585707427.1902685        105105077.31813574        98258311.867179722     
   4384387535.0604944        88810063.906183481        80113181.039275482     
   4184178000.3304744        76216241.826723337        68220669.266318470     
   3985078823.0001984        67323611.079741716        62580776.548294581     
   3787090003.0696487        62132171.665205717        63193502.885210246     
   4264433916.9956093        58991489.841357708        230096264.93325326     
   4080712201.5460558        49766519.048944950        216672202.29288951     
   3897619135.0563221        42637044.789256573        208901031.28556326     
   3715154717.5264249        37603067.062359571        206782751.91125464     
   3533318948.9563422        34664585.868180275        210317364.16998222     
   3954607582.5783319        16312055.097807884        362903902.90291685     
   3786770536.8892450        13643074.848985434        353638915.27019185     
   3619080431.7200751        11463896.333196402        349427091.84859008     
   3451537267.0708027        9774519.5504233837        350268432.63810295     
   3284141042.9414501        8574944.5006922483        356162937.63873589     
   3656228423.9384193       -22933226.912542820        496681225.77616829     
   3502562541.0900702       -19560268.693678617        491013319.97117442     
   3348561890.3217111       -17303203.541509390        489798850.95539558     
   3194226471.6333423       -16162031.456051230        493037818.72882599     
   3039556285.0249605       -16136752.437288284        500730223.29146683     
   3369296441.0758767       -58744356.189682245        631428233.55301166     
   3228088214.1485214       -49843511.579058409        628795416.39584720     
   3086063510.8612390       -43664254.834860444        630016308.60598660     
   2943222331.2140269       -40206585.957093716        635090910.18343008     
   2799564675.2068853       -39470504.945747852        644019221.12816918     
   3787090003.0696487        62132171.665205717        63193502.885210246     
   3612445580.6390347        62580285.607328892        50846904.071387105     
   3435791614.5053778        56329920.539321661        42367719.552149907     
   3257128104.6686893        43381076.461208820        37755949.327471763     
   3076455051.1289515        23733753.372920394        37011593.397371881     
   3533318948.9563422        34664585.868180275        210317364.16998222     
   3368764582.5296578        36125320.676718235        197633955.29284018     
   3203063849.7978930        33764834.468293190        188611031.92421761     
   3036216750.7610369        27583127.242918372        183248594.06409019     
   2868223285.4190941        17580199.000576138        181546641.71248737     
   3284141042.9414501        8574944.5006922483        356162937.63873589     
   3129085507.4156756        10870932.644732475        344149758.99588025     
   2973746782.9827619        12222957.764964223        335590137.07547379     
   2818124869.6427240        12631019.861456394        330484071.87751645     
   2662219767.3955398        12095118.934129238        328831563.40201855     
   3039556285.0249605       -16136752.437288284        500730223.29146683     
   2893408355.2970676       -13182878.488664269        490394315.18050104     
   2747840414.0599952       -8295709.5706319809        483305035.00592893     
   2602852461.3137355       -1475245.6832351685        479462382.76775074     
   2458444497.0582943        7278513.1735718250        478866358.46596485     
   2799564675.2068853       -39470504.945747852        644019221.12816918     
   2661733126.1738486       -36036112.723424196        636367623.84671116     
   2525344743.0295782       -27791167.538549304        631755725.71558404     
   2390399525.7740746       -14735669.391111374        630183526.73479283     
   2256897474.4073439        3130381.7189029455        631651026.90433574     
   3076455051.1289515        23733753.372920394        37011593.397371881     
   2902791377.9642544        6423998.5996497869        23805777.812555209     
   2731292031.4932237       -3671333.8614422083        13360290.332525410     
   2561957011.7158761       -6552244.0102356672        5675130.9573016977     
   2394786318.6322060       -2218731.8467705250        750299.68685717066     
   2868223285.4190941        17580199.000576138        181546641.71248737     
   2704071169.0045772        8756642.5001482964        170981108.57722837     
   2541083199.3766789        3813575.2884324789        163013476.00511897     
   2379259376.5354118        2750997.3654921055        157643743.99614444     
   2218599700.4807720        5568908.7312971354        154871912.55033359     
   2662219767.3955398        12095118.934129238        328831563.40201855     
   2507115129.0407825        11618537.099404931        319739436.15809393     
   2352174457.5655956        11688511.529932499        313082781.93566942     
   2197397752.9699926        12305042.225733399        308861600.73474252     
   2042785015.2539670        13468129.186786532        307075892.55531710     
   2458444497.0582943        7278513.1735718250        478866358.46596485     
   2311923258.0728679        15009682.397442102        470080760.55515647     
   2164565806.0599823        19953474.863086700        463568208.12419659     
   2016372141.0196140        22109890.570480108        459328701.17308778     
   1867342262.9517889        21478929.519660830        457362239.70183480     
   2256897474.4073439        3130381.7189029455        631651026.90433574     
   2118495556.1008391        18930078.394235373        622005081.76841104     
   1978257244.8598275        28608465.287883520        614469754.57069099     
   1836182540.6842799        32165542.399748206        609045045.31118035     
   1692271443.5742211        29601309.729898274        605730953.98986924     
   2394786318.6322060       -2218731.8467705250        750299.68685717066     
   2251901123.2673788        7320157.7171013355       -6403624.4738829853     
   2105479993.3526990        5072598.7814859152       -11239578.054364698     
   1955522928.8881555       -8961408.6536808014       -13757561.054595657     
   1802029929.8737464       -34781864.588410020       -13957573.474568171     
   2218599700.4807720        5568908.7312971354        154871912.55033359     
   2080035408.7823162        13336248.590055227        144008934.74460882     
   1939199814.1561623        13532578.689796329        134560577.57242218     
   1796092916.6023593        6157899.0307180882        126526841.03375064     
   1650714716.1208482       -8787790.3873870373        119907725.12860446     
   2042785015.2539670        13468129.186786532        307075892.55531710     
   1905960627.3740761        18689619.386022568        293979264.66382569     
   1768129568.1886826        20555538.566918612        281393907.45912969     
   1629291837.6977727        19065886.729426801        269319820.94122857     
   1489447435.9013693        14220663.873628497        257757005.11011779     
   1867342262.9517889        21478929.519660830        457362239.70183480     
   1729676779.0426607        23380270.105054140        443507365.28377140     
   1592269255.4502175        26141478.412697911        429260411.60577631     
   1455119692.1744304        29762554.442561865        414621378.66785556     
   1318228089.2153213        34243498.194663167        399590266.46999168     
   1692271443.5742211        29601309.729898274        605730953.98986924     
   1551183863.7880740        27408200.747137427        592593236.60444999     
   1411618875.9407659        30290398.227162898        578160090.01236320     
   1273576480.0323112        38247902.170036137        562431514.21362424     
   1137056676.0627108        51280712.575762570        545407509.20821261     
   1802029929.8737464       -34781864.588410020       -13957573.474568171     
   1771140114.5461702       -16782425.972338915       -8191260.8933856552     
   1748427292.7429872        28473657.725053668       -41323322.271535046     
   1733891464.4641988        100986386.50375026       -113353757.60898817     
   1727532629.7098024        200755760.36376476       -224282566.90577832     
   1650714716.1208482       -8787790.3873870373        119907725.12860446     
   1527927626.7375839       -13985790.882924259        135657994.64549088     
   1409370316.4972520       -5084527.5686864257        124969682.48925357     
   1295042785.3998258        17915999.555236697        87842788.659858510     
   1184945033.4452982        55015790.488821447        24277313.157317925     
   1489447435.9013693        14220663.873628497        257757005.11011779     
   1310362478.9943640       -3494953.7738861442        278886148.11768436     
   1131560086.8487911       -20268688.883287609        286036501.73826867     
   953040259.46465433       -36100541.454570472        279208065.97187811     
   774802996.84195828       -50990511.487712711        258400840.81852514     
   1318228089.2153213        34243498.194663167        399590266.46999168     
   1118444671.3165014        14690085.354745746        421493199.52314281     
   914996603.79763687       -17078826.218648374        441877135.47550863     
   707883886.65871215       -61063236.525581807        460742074.32707328     
   497106519.89974034       -117263145.56598017        478088016.07784492     
   1137056676.0627108        51280712.575762570        545407509.20821261     
   952174203.70400262        40569326.503000140        563479148.86189890     
   759679867.34376621        4485060.4251491725        592491583.70097184     
   559573666.98200202       -56972085.657796890        632444813.72541988     
   351855602.61870712       -143802111.74584562        683338838.93525720     
   1727532629.7098024        200755760.36376476       -224282566.90577832     
   1456946456.8843794        184753387.11969966       -96734590.895813510     
   1154115018.6557822        61266795.865055263        60030994.612313680     
   819038315.02401280       -169704013.40012550        246014189.61866602     
   451716345.98910433       -508159040.67584676        461214994.12317818     
   1184945033.4452982        55015790.488821447        24277313.157317925     
   977860730.83221984        11995135.801942766        155603006.31743106     
   732904134.51163805       -157266497.90995857        312793670.47563493     
   450075244.48355973       -452769110.64684296        495849305.63197052     
   129374060.74796200       -874512702.40876985        704769911.78640699     
   774802996.84195828       -50990511.487712711        258400840.81852514     
   621641597.29815412       -123903137.76035276        386939384.77371442     
   424980875.74251860       -341813504.07243669        537990261.22694135     
   184820832.17505193       -704721610.42396986        711553470.17822659     
  -98838533.404265821       -1212627456.8149650        907629011.62752068     
   497106519.89974034       -117263145.56598017        478088016.07784492     
   388289056.28217900       -222941433.56721109        597274544.47305155     
   230345242.34842500       -492374222.62239450        735620766.86623001     
   23275078.098481655       -925561512.73150563        893126683.25736547     
  -232921436.46761924       -1522503303.8945248        1069792293.6464795     
   351855602.61870712       -143802111.74584562        683338838.93525720     
   277803107.78428245       -285119751.61865252        786608485.41543579     
   148997234.32933298       -608948653.55988693        905685187.39349401     
  -34562017.746117115       -1115288817.5694454        1040568944.8694502     
  -272874648.44209224       -1804140243.6474204        1191259757.8433104     
   4251319841.0543585       -640875819.51317859        504600282.00449020     
   4181803068.9816098       -428364174.30382085        537549302.32230270     
   4095588118.1766605       -271513124.86845112        563872479.91436970     
   3992674988.6395273       -170322671.20703959        583569814.78069186     
   3873063680.3701944       -124792813.31962013        596641306.92126095     
   4151115401.9689384       -137412081.06455398        801581426.82733834     
   4022619880.5410261       -88152123.719138861        793777447.55023360     
   3889711462.5262704       -53601821.663219452        784904508.69427836     
   3752390147.9246650       -33761174.896791935        774962610.25947881     
   3610655936.7362070       -28630183.419864178        763951752.24582303     
   3961720542.2199297        339294531.18499148        1035412286.6587086     
   3790123080.4279947        230065843.36380827        1001188136.9562596     
   3626398004.1945586        147078440.73761320        971451910.82185686     
   3470545313.5196161        90332323.306403041        946203608.25549865     
   3322565008.4031696        59827491.070176482        925443229.25719070     
   3683135261.8073287        789244017.23545885        1206092861.4986100     
   3484312668.6425052        526289726.94501805        1159781370.5403850     
   3305647743.1815195        330527662.33404911        1123514686.2970965     
   3147140485.4243751        201957823.40253866        1097292808.7687547     
   3008790895.3710694        140580210.15050197        1081115737.9553540     
   3315359560.7311430        1212436377.0868542        1313623151.3470385     
   3105188645.1845589        800519527.02449417        1269557148.3025994     
   2927460679.4871631        496745843.12608880        1241092835.1200030     
   2782175663.6389465        301115325.39162123        1228230211.7992432     
   2669333597.6399159        213627973.82110465        1230969278.3403201     
   3873063680.3701944       -124792813.31962013        596641306.92126095     
   3747565200.1772118       -106802933.60182142        604099023.51210535     
   3621771166.8971591       -89798230.840906858        612382750.14768600     
   3495681580.5300479       -73778705.036862612        621492486.82798517     
   3369296441.0758767       -58744356.189682245        631428233.55301166     
   3610655936.7362070       -28630183.419864178        763951752.24582303     
   3484970301.5228119       -25041260.704516411        763140931.90403342     
   3359506370.6627927       -20713323.477903605        764683433.88699710     
   3234264144.1561527       -15646371.740033269        768579258.19471824     
   3109243622.0028896       -9840405.4909036160        774828404.82718587     
   3322565008.4031696        59827491.070176482        925443229.25719070     
   3201055967.5408673        50324581.594535828        916967338.99661076     
   3080285888.4723825        43284878.098287344        912372083.34080768     
   2960254771.1977167        38708380.581427097        911657462.28978813     
   2840962615.7168636        36595089.043956637        914823475.84354508     
   3008790895.3710694        140580210.15050197        1081115737.9553540     
   2895822198.2313695        119294593.29531491        1065578244.7898262     
   2784109720.3259311        102196373.88766372        1055448698.5091068     
   2673653461.6547441        89285551.927521586        1050727099.1131928     
   2564453422.2178173        80562127.414909124        1051413446.6020917     
   2669333597.6399159        213627973.82110465        1230969278.3403201     
   2569268993.5943251        181868774.39783680        1208973649.2836928     
   2470977866.2234340        156021163.89022815        1193913279.3919005     
   2374460215.5272341        136085142.29826438        1185788168.6649404     
   2279716041.5057340        122060709.62195718        1184598317.1028199     
   3369296441.0758767       -58744356.189682245        631428233.55301166     
   3228088214.1485214       -49843511.579058409        628795416.39584720     
   3086063510.8612390       -43664254.834860444        630016308.60598660     
   2943222331.2140269       -40206585.957093716        635090910.18343008     
   2799564675.2068853       -39470504.945747852        644019221.12816918     
   3109243622.0028896       -9840405.4909036160        774828404.82718587     
   2976778576.3812580       -6499840.7990961075        768771492.27151108     
   2843938830.0215397       -4408278.5675818920        766869535.94959724     
   2710724382.9237347       -3565718.7963629961        769122535.86142552     
   2577135235.0878377       -3972161.4854319096        775530492.00701284     
   2840962615.7168636        36595089.043956637        914823475.84354508     
   2718101456.7336802        34633585.416766524        905857872.78150928     
   2595307372.6342487        32895664.735415578        901348472.81967688     
   2472580363.4185662        31381326.999897957        901295275.95804870     
   2349920429.0866380        30090572.210226774        905698282.19662333     
   2564453422.2178173        80562127.414909124        1051413446.6020917     
   2452056855.2057953        73556767.068546295        1040054557.9258323     
   2340169138.6993666        68247575.074139476        1033453119.2162367     
   2228790272.6985273        64634551.431707978        1031609130.4732898     
   2117920257.2032762        62717696.141235948        1034522591.6970048     
   2279716041.5057340        122060709.62195718        1184598317.1028199     
   2178644771.7975965        110269704.15621853        1171361547.7044859     
   2078524128.2168891        101647452.44857943        1163183475.1392682     
   1979354110.7636127        96193954.499038219        1160064099.4071589     
   1881134719.4377675        93909210.307610989        1162003420.5081530     
   2799564675.2068853       -39470504.945747852        644019221.12816918     
   2661733126.1738486       -36036112.723424196        636367623.84671116     
   2525344743.0295782       -27791167.538549304        631755725.71558404     
   2390399525.7740746       -14735669.391111374        630183526.73479283     
   2256897474.4073439        3130381.7189029455        631651026.90433574     
   2577135235.0878377       -3972161.4854319096        775530492.00701284     
   2447058749.1966243       -2560739.6594465971        767734747.48176157     
   2317860743.7786603        1778950.4106959105        763331576.31442952     
   2189541218.8339429        9046908.7250052691        762320978.50500953     
   2062100174.3624742        19243135.283462524        764702954.05350494     
   2349920429.0866380        30090572.210226774        905698282.19662333     
   2228607218.3589058        29781487.246379614        897099590.77614510     
   2107607802.6889007        30518385.808288336        892246346.92116129     
   1986922182.0766175        32301267.895943522        891138550.63167024     
   1866550356.5220652        35130133.509360552        893776201.90767777     
   2117920257.2032762        62717696.141235948        1034522591.6970048     
   2006378533.6606827        60990567.994056225        1024462153.7298570     
   1894585919.7602961        58427138.654225945        1018500037.5357763     
   1782542415.5021067        55027408.121729791        1016636243.1147752     
   1670248020.8861332        50791376.396604836        1018870770.4668425     
   1881134719.4377675        93909210.307610989        1162003420.5081530     
   1780372695.1019697        91066502.583589017        1149822436.3428853     
   1678795094.9928517        85505208.948512256        1142092648.1582744     
   1576401919.1104167        77225329.402371585        1138814055.9543252     
   1473193167.4546692        66226863.945189714        1139986659.7310183     
   2256897474.4073439        3130381.7189029455        631651026.90433574     
   2118495556.1008391        18930078.394235373        622005081.76841104     
   1978257244.8598275        28608465.287883520        614469754.57069099     
   1836182540.6842799        32165542.399748206        609045045.31118035     
   1692271443.5742211        29601309.729898274        605730953.98986924     
   2062100174.3624742        19243135.283462524        764702954.05350494     
   1927696541.8506320        27265447.957858205        753501781.10525227     
   1792358294.2686605        32172377.065138817        745060375.59952176     
   1656085431.6165500        33963922.605297089        739378737.53631651     
   1518877953.8942976        32640084.578311682        736456866.91564000     
   1866550356.5220652        35130133.509360552        893776201.90767777     
   1737999722.6743729        35931476.043650687        882071875.32220948     
   1609416251.6209273        36623361.225438535        873776465.68358648     
   1480799943.3617253        37205789.054697990        868889972.99180329     
   1352150797.8967676        37678759.531446576        867412397.24686301     
   1670248020.8861332        50791376.396604836        1018870770.4668425     
   1549405098.5720625        44928162.651631832        1007715364.4192804     
   1429431116.9166193        41961417.768748641        1000618024.8228734     
   1310326075.9198101        41891141.747991562        997578751.67762935     
   1192089975.5816259        44717334.589293003        998597544.98354590     
   1473193167.4546692        66226863.945189714        1139986659.7310183     
   1361912669.5437016        54255507.781797886        1130432248.3964629     
   1252402890.1557477        48186546.695114791        1125585053.0173903     
   1144663829.2908046        48019980.685135961        1125445073.5937970     
   1038695486.9488710        53755809.751855433        1130012310.1256764     
   1692271443.5742211        29601309.729898274        605730953.98986924     
   1551183863.7880740        27408200.747137427        592593236.60444999     
   1411618875.9407659        30290398.227162898        578160090.01236320     
   1273576480.0323112        38247902.170036137        562431514.21362424     
   1137056676.0627108        51280712.575762570        545407509.20821261     
   1518877953.8942976        32640084.578311682        736456866.91564000     
   1376331102.0790615        29031720.271701813        727720624.17185140     
   1234268724.2009385        27038269.088818491        719483891.07169461     
   1092690820.2599306        26659731.029641628        711746667.61517310     
   951597390.25604653        27896106.094216287        704508953.80229044     
   1352150797.8967676        37678759.531446576        867412397.24686301     
   1213273070.7675729        34193658.915541649        861866491.47602510     
   1073841699.5737600        28863078.084241271        858615034.19910944     
   933856684.31533611        21687017.037582815        857658025.41612589     
   793318024.99230242        12665475.775536060        858995465.12707019     
   1192089975.5816259        44717334.589293003        998597544.98354590     
   1062009769.8536012        42894016.678614080        995030838.51695919     
   930337802.05923593        35764825.213470697        995553519.39460170     
   797074072.19852853        23329760.193840146        1000165587.6164731     
   662218580.27146626        5588821.6197166145        1008867043.1825658     
   1038695486.9488710        53755809.751855433        1130012310.1256764     
   922541199.33716047        55132793.560975790        1127213665.2946668     
   803757031.65736973        47743510.476500899        1130299346.6581829     
   682342983.90950537        31587960.498442054        1139269354.2162113     
   558299056.09356797        6666143.6268117428        1154123687.9687743     
   1137056676.0627108        51280712.575762570        545407509.20821261     
   952174203.70400262        40569326.503000140        563479148.86189890     
   759679867.34376621        4485060.4251491725        592491583.70097184     
   559573666.98200202       -56972085.657796890        632444813.72541988     
   351855602.61870712       -143802111.74584562        683338838.93525720     
   951597390.25604653        27896106.094216287        704508953.80229044     
   792303812.29418850        11236823.174704939        722175156.60700357     
   624326454.72709584       -34368391.762258947        749956920.72700691     
   447665317.55475712       -108919538.71671861        787854246.16230249     
   262320400.77716431       -212416617.68866992        835867132.91288960     
   793318024.99230242        12665475.775536060        858995465.12707019     
   657255530.36990380       -10649047.307911485        875005662.87847483     
   511437340.53854674       -66482554.421230644        900306188.07508159     
   355863455.49823129       -154835045.56441128        934897040.71688783     
   190533875.24894172       -275706520.73749483        978778220.80390000     
   662218580.27146626        5588821.6197166145        1008867043.1825658     
   547029357.93113434       -25088284.944889992        1021970667.6763204     
   421012524.77811813       -91857427.551766187        1043539385.7451893     
   284168080.81242561       -194718606.20090795        1073573197.3891779     
   136496026.03404415       -333671820.89232397        1112072102.6082656     
   558299056.09356797        6666143.6268117428        1154123687.9687743     
   461625294.97788286       -32080889.736216456        1163070171.0005507     
   353052007.44581211       -110493011.15386333        1179656513.7373383     
   232579193.49734443       -228570220.62616676        1203882716.1791523     
   100206853.13247332       -386312518.15314835        1235748778.3259966     
   351855602.61870712       -143802111.74584562        683338838.93525720     
   277803107.78428245       -285119751.61865252        786608485.41543579     
   148997234.32933298       -608948653.55988693        905685187.39349401     
  -34562017.746117115       -1115288817.5694454        1040568944.8694502     
  -272874648.44209224       -1804140243.6474204        1191259757.8433104     
   262320400.77716431       -212416617.68866992        835867132.91288960     
   223608291.59159157       -352157343.29220682        885219298.02241302     
   140678760.53266352       -639289475.14027798        945585416.37871790     
   13531807.600390971       -1073813013.2328088        1016965487.9817939     
  -157832567.20523793       -1655727957.5698771        1099359512.8316436     
   190533875.24894172       -275706520.73749483        978778220.80390000     
   173467573.85188574       -417978705.42987561        986504854.08112550     
   122719807.32864383       -672522440.54287338        1000452338.3540161     
   38290575.679209709       -1039337726.0764952        1020620673.6225679     
  -79820121.096400261       -1518424562.0307391        1047009859.8867717     
   136496026.03404415       -333671820.89232397        1112072102.6082656     
   127380954.56517410       -482583838.03162116        1090465153.5915661     
   95120374.717287749       -708647549.76765668        1070285953.3193941     
   39714286.490366936       -1011862956.1004653        1051534501.7917777     
  -38837310.115573049       -1392230057.0300038        1034210799.0087004     
   100206853.13247332       -386312518.15314835        1235748778.3259966     
   85348433.731447488       -545972741.09749115        1197100196.5537174     
   57880462.698564887       -747664802.81469500        1155086261.2748561     
   17802940.033823013       -991388703.30476034        1109706972.4894259     
  -34884134.262777925       -1277144442.5676785        1060962330.1974227     
   3315359560.7311430        1212436377.0868542        1313623151.3470385     
   3105188645.1845589        800519527.02449417        1269557148.3025994     
   2927460679.4871631        496745843.12608880        1241092835.1200030     
   2782175663.6389465        301115325.39162123        1228230211.7992432     
   2669333597.6399159        213627973.82110465        1230969278.3403201     
   2636103629.3914847        603688035.06340003        1144886109.5619767     
   2518513309.2265425        389322084.17683583        1156999993.7159491     
   2418556653.2734652        233735013.99649441        1179139361.5687792     
   2336233661.5322542        136926824.52238882        1211304213.1204610     
   2271544334.0029149        98897515.754500031        1253494548.3709960     
   2041866646.8450522        20445377.677913785        1050086556.4094386     
   2000924904.4532096       -1149279.3154200315        1101102827.8516250     
   1962807540.6359212       -13329341.060243368        1156568376.8296800     
   1927514555.3931844       -16094807.556561947        1216483203.3435979     
   1895045948.7250004       -9445678.8043752909        1280847307.3933868     
   1532648613.0918324       -537291595.06960976        1029224491.8894209     
   1552423430.8645673       -370894563.45226490        1101865650.7096190     
   1560213341.5745349       -244447222.04413915        1173379880.9026973     
   1556018345.2217371       -157949570.84522486        1243767182.4686551     
   1539838441.8061795       -111401609.85552424        1313027555.4074934     
   1108449528.1318378       -1069522883.1791639        1082299916.0019326     
   1173008888.4606078       -719913768.23371160        1159288462.2899368     
   1210774056.0893025       -459618628.95518702        1229573873.7878366     
   1221745031.0179148       -288637465.34359843        1293156150.4956305     
   1205921813.2464461       -206970277.39894694        1350035292.4133174     
   2669333597.6399159        213627973.82110465        1230969278.3403201     
   2569268993.5943251        181868774.39783680        1208973649.2836928     
   2470977866.2234340        156021163.89022815        1193913279.3919005     
   2374460215.5272341        136085142.29826438        1185788168.6649404     
   2279716041.5057340        122060709.62195718        1184598317.1028199     
   2271544334.0029149        98897515.754500031        1253494548.3709960     
   2193737956.0116339        85138389.051645279        1240095807.4510138     
   2116894813.0636139        74590045.826324344        1232729656.7801929     
   2041014905.1588519        67252486.078531027        1231396096.3585210     
   1966098232.2973506        63125709.808265328        1236095126.1860077     
   1895045948.7250004       -9445678.8043752909        1280847307.3933868     
   1836918742.7432303       -5978449.0002599955        1275100172.7067142     
   1778944530.1732788       -2001241.1567406654        1274482959.3535151     
   1721123311.0151570        2485944.7262036800        1278995667.3337879     
   1663455085.2688546        7483108.6485480070        1288638296.6475389     
   1539838441.8061795       -111401609.85552424        1313027555.4074934     
   1498811353.7891145       -91481739.757879138        1313986745.0507843     
   1457127017.5524352       -73752697.058948278        1319173187.1118684     
   1414785433.0961444       -58214481.758721292        1328586881.5907469     
   1371786600.4202411       -44867093.857208848        1342227828.4874198     
   1205921813.2464461       -206970277.39894694        1350035292.4133174     
   1179415789.1492877       -171371483.22120965        1356755524.4832299     
   1151442275.2010732       -140664321.88032621        1366800340.0552552     
   1122001271.4018209       -114848793.37623662        1380169739.1293941     
   1091092777.7515118       -93924897.709000289        1396863721.7056460     
   2279716041.5057340        122060709.62195718        1184598317.1028199     
   2178644771.7975965        110269704.15621853        1171361547.7044859     
   2078524128.2168891        101647452.44857943        1163183475.1392682     
   1979354110.7636127        96193954.499038219        1160064099.4071589     
   1881134719.4377675        93909210.307610989        1162003420.5081530     
   1966098232.2973506        63125709.808265328        1236095126.1860077     
   1879693817.1935234        57916647.730683804        1227424324.3832614     
   1793884872.6719658        54692487.593998730        1223458111.5842242     
   1708671398.7326665        53453229.398177147        1224196487.7889013     
   1624053395.3756359        54198873.143247604        1229639452.9972827     
   1663455085.2688546        7483108.6485480070        1288638296.6475389     
   1590705788.1139195        8552468.9625064135        1284119114.3043506     
   1518196805.9960840        10422879.400131285        1283950413.1354723     
   1445928138.9153445        13094339.961410224        1288132193.1409066     
   1373899786.8717070        16566850.646359980        1296664454.3206589     
   1371786600.4202411       -44867093.857208848        1342227828.4874198     
   1311680684.5587742       -37822832.148341596        1341445917.4677620     
   1251459928.1892371       -31161372.133037865        1344660379.7930167     
   1191124331.3116381       -24882713.811275363        1351871215.4631865     
   1130673893.9259725       -18986857.183070183        1363078424.4782722     
   1091092777.7515118       -93924897.709000289        1396863721.7056460     
   1042618506.5280918       -81209255.601849258        1399404733.8734908     
   993674239.25143993       -70060267.005470335        1405588011.5568531     
   944259975.92155254       -60477931.919876993        1415413554.7557313     
   894375716.53843594       -52462250.345047534        1428881363.4701257     
   1881134719.4377675        93909210.307610989        1162003420.5081530     
   1780372695.1019697        91066502.583589017        1149822436.3428853     
   1678795094.9928517        85505208.948512256        1142092648.1582744     
   1576401919.1104167        77225329.402371585        1138814055.9543252     
   1473193167.4546692        66226863.945189714        1139986659.7310183     
   1624053395.3756359        54198873.143247604        1229639452.9972827     
   1535765013.1853399        54223400.598438799        1219221735.5964296     
   1447131708.1227336        53098185.145927608        1213286261.9008744     
   1358153480.1878216        50823226.785727680        1211833031.9106178     
   1268830329.3805897        47398525.517801583        1214862045.6256652     
   1373899786.8717070        16566850.646359980        1296664454.3206589     
   1298173754.6116180        19485225.616169155        1288559098.7353861     
   1222573452.3802226        22822700.681631505        1284967034.5800614     
   1147098880.1775267        26579275.842756987        1285888261.8546855     
   1071750038.0035256        30754951.099528134        1291322780.5592601     
   1130673893.9259725       -18986857.183070183        1363078424.4782722     
   1067598919.3807938       -13148022.363235235        1357834525.7597616     
   1005120327.7653159       -5321244.4443865418        1357134966.1958425     
   943238119.07954395        4493476.5734783411        1360979745.7865188     
   881952293.32347620        16296140.690357447        1369368864.5317869     
   894375716.53843594       -52462250.345047534        1428881363.4701257     
   844040507.49287117       -43676343.339765906        1427048016.6695528     
   794772334.27801573       -31333650.232119262        1429790056.7482154     
   746571196.89387619       -15434171.022088349        1437107483.7061186     
   699437095.34044015        4022094.2902907729        1449000297.5432596     
   1473193167.4546692        66226863.945189714        1139986659.7310183     
   1361912669.5437016        54255507.781797886        1130432248.3964629     
   1252402890.1557477        48186546.695114791        1125585053.0173903     
   1144663829.2908046        48019980.685135961        1125445073.5937970     
   1038695486.9488710        53755809.751855433        1130012310.1256764     
   1268830329.3805897        47398525.517801583        1214862045.6256652     
   1171973253.3613968        42536255.281164229        1209427012.5609400     
   1076003479.5078309        40631658.929952085        1208739145.1667018     
   980921007.81988454        41684736.464141369        1212798443.4429462     
   886725838.29757178        45695487.883767962        1221604907.3896699     
   1071750038.0035256        30754951.099528134        1291322780.5592601     
   989430525.91897285        33036009.402498126        1288976473.3474131     
   907114899.64266169        35330020.399601251        1291417281.5210567     
   824803159.17459619        37636984.090856642        1298645205.0801868     
   742495304.51477122        39956900.476246774        1310660244.0247993     
   881952293.32347620        16296140.690357447        1369368864.5317869     
   814284487.21643400        25754770.145792723        1369080630.7558796     
   745737150.56024790        32281631.104086548        1373619462.0804589     
   676310283.35491872        35876723.565238327        1382985358.5055237     
   606003885.60045362        36540047.529262125        1397178320.0310886     
   699437095.34044015        4022094.2902907729        1449000297.5432596     
   646535137.25377727        20692537.511058509        1449739484.7863309     
   591870232.26058507        31486491.043395489        1455345686.8449016     
   535442380.36087078        36403954.887326807        1465818903.7189605     
   477251581.55462545        35444929.042824358        1481159135.4085171     
   1038695486.9488710        53755809.751855433        1130012310.1256764     
   922541199.33716047        55132793.560975790        1127213665.2946668     
   803757031.65736973        47743510.476500899        1130299346.6581829     
   682342983.90950537        31587960.498442054        1139269354.2162113     
   558299056.09356797        6666143.6268117428        1154123687.9687743     
   886725838.29757178        45695487.883767962        1221604907.3896699     
   785333276.63322592        45141439.299583972        1218554111.2795258     
   681467314.54309964        36342722.629470557        1221419785.6405187     
   575127952.02720821        19299337.873469025        1230201930.4726436     
   466315189.08554190       -5988714.9684401751        1244900545.7759054     
   742495304.51477122        39956900.476246774        1310660244.0247993     
   655956309.58809865        37499371.735819280        1307539856.2182176     
   567100393.87796617        27318773.717182845        1310368083.1593790     
   475927557.38436580        9415106.4203195572        1319144924.8482890     
   382437800.10729802       -16211630.154764161        1333870381.2849562     
   606003885.60045362        36540047.529262125        1397178320.0310886     
   534410298.20178926        32206590.869714200        1394170900.1107464     
   460656269.66196793        20671663.739631519        1397144239.2147660     
   384741799.98098481        1935266.1390082985        1406098337.3431461     
   306666889.15883887       -24002601.932149380        1421033194.4958944     
   477251581.55462545        35444929.042824358        1481159135.4085171     
   420695242.47429323        29263096.701243117        1478447242.9571080     
   362134941.89510745        16401392.696824864        1481748253.8066776     
   301570679.81705976       -3140182.9704703689        1491062167.9572167     
   239002456.24016398       -29361630.300592646        1506388985.4087396     
   558299056.09356797        6666143.6268117428        1154123687.9687743     
   461625294.97788286       -32080889.736216456        1163070171.0005507     
   353052007.44581211       -110493011.15386333        1179656513.7373383     
   232579193.49734443       -228570220.62616676        1203882716.1791523     
   100206853.13247332       -386312518.15314835        1235748778.3259966     
   466315189.08554190       -5988714.9684401751        1244900545.7759054     
   389044656.75622338       -40858493.730685949        1243236500.3424363     
   301690780.82803768       -109339417.82248338        1247963404.7471128     
   204253561.30098552       -211431487.24383855        1259081258.9899461     
   96732998.175056040       -347134701.99477929        1276590063.0709369     
   382437800.10729802       -16211630.154764161        1333870381.2849562     
   321002182.65900052       -48274648.487842768        1323714687.3400111     
   251299404.42936397       -107894869.42538737        1318701033.3663578     
   173329465.41838008       -195072292.96741778        1318829419.3639872     
   87092365.626067653       -309806919.11388481        1324099845.3329060     
   306666889.15883887       -24002601.932149380        1421033194.4958944     
   257497872.68622380       -54329354.007669911        1404504731.9932747     
   201877878.24979550       -106159365.96255937        1391869399.5950630     
   139806905.84955972       -179492637.79681140        1383127197.3012719     
   71284955.485495880       -274329169.51049030        1378278125.1118963     
   239002456.24016398       -29361630.300592646        1506388985.4087396     
   198531726.83789021       -59022610.290154085        1485606634.3022099     
   153426202.28933728       -104132907.43398497        1467468503.4332347     
   103685882.59449190       -164692521.73212257        1451974592.8018041     
   49310767.753369018       -240701453.18451577        1439124902.4079254     
   100206853.13247332       -386312518.15314835        1235748778.3259966     
   85348433.731447488       -545972741.09749115        1197100196.5537174     
   57880462.698564887       -747664802.81469500        1155086261.2748561     
   17802940.033823013       -991388703.30476034        1109706972.4894259     
  -34884134.262777925       -1277144442.5676785        1060962330.1974227     
   96732998.175056040       -347134701.99477929        1276590063.0709369     
   79762134.710856259       -488232598.97732925        1222197635.9179688     
   51406751.902593315       -667278893.77342892        1165261991.6164129     
   11666849.750249743       -884273586.38314581        1105783130.1662667     
  -39457571.746175826       -1139216676.8064332        1043761051.5675428     
   87092365.626067653       -309806919.11388481        1324099845.3329060     
   70358019.121519148       -431637801.82778114        1255392777.1350000     
   43464185.560682356       -587333641.39597857        1184964628.1464915     
   6410864.9435543716       -776894437.81847811        1112815398.3673904     
  -40801942.729865432       -1000320191.0952750        1038945087.7976782     
   71284955.485495880       -274329169.51049030        1378278125.1118963     
   57136086.963423550       -376188349.64887220        1296685620.2048099     
   34052763.672841251       -507829045.68229038        1214194170.8650982     
   2034985.6137510538       -669251257.61074412        1130803777.0927818     
  -38917247.213847727       -860454985.43420494        1046514438.8878505     
   49310767.753369018       -240701453.18451577        1439124902.4079254     
   40096338.236579746       -321884242.44058108        1346076165.1273966     
   23172486.239066154       -428765106.63239402        1252950619.7722301     
  -1460788.2391701639       -561344045.75994539        1159748266.3424485     
  -33803485.198123574       -719621059.82322288        1066469104.8380355     
   1108449528.1318378       -1069522883.1791639        1082299916.0019326     
   1173008888.4606078       -719913768.23371160        1159288462.2899368     
   1210774056.0893025       -459618628.95518702        1229573873.7878366     
   1221745031.0179148       -288637465.34359843        1293156150.4956305     
   1205921813.2464461       -206970277.39894694        1350035292.4133174     
   939700213.24413943       -769633242.09835422        1313803343.1801121     
   965447485.66519570       -514228080.33326948        1340799864.3209276     
   971099113.56969011       -325808400.29005128        1366383441.8260026     
   956655096.95762432       -204374201.96870607        1390554075.6953287     
   922115435.82899129       -149925485.36924762        1413311765.9289150     
   698708853.55264342       -491416214.45869082        1509645312.0686600     
   700758869.93559194       -325680556.31307971        1494464780.9430604     
   689411789.98549485       -204601885.94428796        1483161497.3360736     
   664667613.70235300       -128180203.35231307        1475735461.2477076     
   626526341.08616495       -96415508.537156373        1472186672.6779568     
   385475449.05735505       -234871800.26016161        1669825822.6675756     
   378943041.27179945       -154271196.17315006        1620283212.1563213     
   365712085.33671463       -95999085.917902991        1579908040.3180518     
   345782581.25210178       -60055469.494414821        1548700307.1527605     
   319154529.01796293       -46440346.902679458        1526660012.6604481     
 -0.24172907265606314       0.49722886064939276        1794344874.9768503     
 -0.32618312812664790        8.6524240153603882E-002   1718255157.9607215     
 -0.37665090826475067      -0.21089279590057841        1656623070.7719374     
 -0.39312639682060202      -0.39500358112603678        1609448613.4104879     
 -0.37561236172660545      -0.46581456640655444        1576731785.8763850     
   1205921813.2464461       -206970277.39894694        1350035292.4133174     
   1179415789.1492877       -171371483.22120965        1356755524.4832299     
   1151442275.2010732       -140664321.88032621        1366800340.0552552     
   1122001271.4018209       -114848793.37623662        1380169739.1293941     
   1091092777.7515118       -93924897.709000289        1396863721.7056460     
   922115435.82899129       -149925485.36924762        1413311765.9289150     
   901698144.28007495       -123387721.78245461        1414472724.6180766     
   880180235.34447396       -100518682.81794465        1419083747.2862968     
   857561709.02219379       -81318368.475699544        1427144833.9335811     
   833842565.31322658       -65786778.755741596        1438655984.5599236     
   626526341.08616495       -96415508.537156373        1472186672.6779568     
   612556297.73391080       -78831220.846784264        1468216375.8614640     
   597852509.45933926       -63692749.564137042        1467821623.5009782     
   582414976.26245260       -51000094.689206719        1471002415.5964987     
   566243698.14325082       -40753256.221993446        1477758752.1480291     
   319154529.01796293       -46440346.902679458        1526660012.6604481     
   311990249.51079327       -37701980.414198622        1517986478.2133918     
   304459097.54567468       -30186522.118881732        1513013968.6992888     
   296561073.12260592       -23893972.016730502        1511742484.1181426     
   288296176.24158752       -18824330.107746586        1514172024.4699528     
 -0.37561236172660545      -0.46581456640655444        1576731785.8763850     
 -0.38927638585123070      -0.48469861366287520        1563783031.6738610     
 -0.39652191786442559      -0.48218768721442778        1554660782.8812387     
 -0.39735288091005105      -0.45829503767976332        1549365039.4985206     
 -0.39176738776146836      -0.41301385388637668        1547895801.5257030     
   1091092777.7515118       -93924897.709000289        1396863721.7056460     
   1042618506.5280918       -81209255.601849258        1399404733.8734908     
   993674239.25143993       -70060267.005470335        1405588011.5568531     
   944259975.92155254       -60477931.919876993        1415413554.7557313     
   894375716.53843594       -52462250.345047534        1428881363.4701257     
   833842565.31322658       -65786778.755741596        1438655984.5599236     
   794517891.60692060       -57140738.248401076        1437441559.8020766     
   754840720.86087286       -49669687.873536766        1440562160.2956762     
   714811053.07508314       -43373627.631140441        1448017786.0407295     
   674428888.24954939       -38252557.521231025        1459808437.0372312     
   566243698.14325082       -40753256.221993446        1477758752.1480291     
   538047935.48530328       -35583023.255070955        1472925972.6468859     
   509617174.80109733       -31196117.042344838        1473120978.1331298     
   480951416.09063601       -27592537.583803654        1478343768.6067553     
   452050659.35391796       -24772284.879447907        1488594344.0677621     
   288296176.24158752       -18824330.107746586        1514172024.4699528     
   273208638.16323179       -16536110.621885002        1505857972.4079235     
   258003601.07210800       -14639554.511917517        1503264465.0692089     
   242681064.96821117       -13134661.777860269        1506391502.4538119     
   227241029.85154995       -12021432.419684142        1515239084.5617311     
 -0.39176738776146836      -0.41301385388637668        1547895801.5257030     
 -0.35929116824563934      -0.34883286735367036        1536237559.0851855     
 -0.32610201169439540      -0.28227473014685744        1530992621.1039169     
 -0.29218934963855991      -0.21330421403534888        1532160987.5818994     
 -0.25755871794293977      -0.14194254745939577        1539742658.5191309     
   894375716.53843594       -52462250.345047534        1428881363.4701257     
   844040507.49287117       -43676343.339765906        1427048016.6695528     
   794772334.27801573       -31333650.232119262        1429790056.7482154     
   746571196.89387619       -15434171.022088349        1437107483.7061186     
   699437095.34044015        4022094.2902907729        1449000297.5432596     
   674428888.24954939       -38252557.521231025        1459808437.0372312     
   635567531.41624177       -31996112.268609852        1458342859.9411981     
   597506451.45458412       -23072077.443822891        1461711658.0721211     
   560245648.36457288       -11480453.046884000        1469914831.4299994     
   523785122.14620072        2778760.9221911728        1482952380.0148373     
   452050659.35391796       -24772284.879447907        1488594344.0677621     
   425403121.44064033       -20823311.367137074        1487185317.8906963     
   399289101.43994385       -15095944.812889129        1490869655.2883019     
   373708599.35182422       -7590185.2167166173        1499647356.2605839     
   348661615.17628789        1693967.4213995039        1513518420.8075390     
   227241029.85154995       -12021432.419684142        1515239084.5617311     
   213547277.56606385       -10157940.635361031        1513575390.5180497     
   200120284.23409230       -7405252.3393221051        1517264048.3967636     
   186960049.85563606       -3763367.5315660834        1526305058.1978705     
   174066574.43069163        767713.78789785504        1540698419.9213693     
 -0.25755871794293977      -0.14194254745939577        1539742658.5191309     
 -0.20749061809370201       -7.3288353408007781E-002   1537513077.8232613     
 -0.16296634371641192       -2.3112189817664375E-002   1540894837.3975055     
 -0.12400028348447234        8.5362463434820110E-003   1549887937.2418594     
  -9.0581480045641649E-002   2.1693132638208393E-002   1564492377.3563232     
   699437095.34044015        4022094.2902907729        1449000297.5432596     
   646535137.25377727        20692537.511058509        1449739484.7863309     
   591870232.26058507        31486491.043395489        1455345686.8449016     
   535442380.36087078        36403954.887326807        1465818903.7189605     
   477251581.55462545        35444929.042824358        1481159135.4085171     
   523785122.14620072        2778760.9221911728        1482952380.0148373     
   482607389.09573400        14831213.990788817        1482252002.9930129     
   440107445.86536694        22476299.793053716        1486768935.8340390     
   396285292.45509088        25714018.328956500        1496503178.5379183     
   351140928.86491197        24544369.598512426        1511454731.1046457     
   348661615.17628789        1693967.4213995039        1513518420.8075390     
   320208950.15445864        9428683.2355628461        1511892672.3685503     
   290874811.67934763        14225154.205452397        1515834528.8397608     
   260659199.75095645        16083380.331073388        1525343990.2211792     
   229562114.36928368        15003361.612426050        1540421056.5127978     
   174066574.43069163        767713.78789785504        1540698419.9213693     
   159339820.42994598        4484945.2453656793        1538661492.9129364     
   144172329.70253485        6733054.2806159481        1542542465.8620601     
   128564102.24847129        7512040.8936916143        1552341338.7687452     
   112515138.06775144        6821905.0845784917        1568058111.6329858     
  -9.0581480045641649E-002   2.1693132638208393E-002   1564492377.3563232     
  -7.7807174622659986E-002   2.0183031070606639E-002   1562558464.6261771     
  -6.5068463437857924E-002   1.8555669821186990E-002   1566892746.9009399     
  -5.2369395450205775E-002   1.6796511525962853E-002   1577495224.1806188     
  -3.9698189790383143E-002   1.4942397136469094E-002   1594365896.4652107     
   477251581.55462545        35444929.042824358        1481159135.4085171     
   420695242.47429323        29263096.701243117        1478447242.9571080     
   362134941.89510745        16401392.696824864        1481748253.8066776     
   301570679.81705976       -3140182.9704703689        1491062167.9572167     
   239002456.24016398       -29361630.300592646        1506388985.4087396     
   351140928.86491197        24544369.598512426        1511454731.1046457     
   310337494.25645047        20392141.251581296        1508094992.3594348     
   268031088.52391195        11230009.157718763        1510371598.9851630     
   224221711.66731989       -2942026.6829849333        1518284550.9818263     
   178909363.68665692       -22123966.270591609        1531833848.3494129     
   229562114.36928368        15003361.612426050        1540421056.5127978     
   203435704.43255851        12557973.320056476        1536997960.2443883     
   176307313.74655673        6772649.1967664137        1538834651.4168675     
   148176942.31128311       -2352610.7574281245        1545931130.0302377     
   119044590.12674077       -14817806.542523302        1558287396.0844944     
   112515138.06775144        6821905.0845784917        1568058111.6329858     
   99989873.002635211        5760592.9067330547        1565156146.6119628     
   86963617.563044548        3029312.8139727972        1567137411.1017883     
   73436371.748971686       -1371935.1937272809        1574001905.1024611     
   59408135.560415700       -7443151.1163726784        1585749628.6139686     
  -3.9698189790383143E-002   1.4942397136469094E-002   1594365896.4652107     
  -3.3313278875384336E-002   1.1635381303131999E-002   1592569551.4621665     
  -2.6632130566795649E-002   9.3165173378182420E-003   1595279878.0399256     
  -1.9630016476781507E-002   8.0664984765037653E-003   1602496876.1984873     
  -1.2314325383575846E-002   7.8631240712751273E-003   1614220545.9378407     
   239002456.24016398       -29361630.300592646        1506388985.4087396     
   198531726.83789021       -59022610.290154085        1485606634.3022099     
   153426202.28933728       -104132907.43398497        1467468503.4332347     
   103685882.59449190       -164692521.73212257        1451974592.8018041     
   49310767.753369018       -240701453.18451577        1439124902.4079254     
   178909363.68665692       -22123966.270591609        1531833848.3494129     
   147717193.36542350       -44621438.244023308        1506497953.2270133     
   113048926.68454039       -78705898.082952648        1484002073.7718372     
   74904563.643991351       -124377345.78743364        1464346209.9838855     
   33284104.243785128       -181635781.35744286        1447530361.8631396     
   119044590.12674077       -14817806.542523302        1558287396.0844944     
   97690394.399897322       -29983945.845808700        1529749772.1972837     
   74018801.100030228       -52874743.725840986        1504247959.4069712     
   48029810.227127060       -83490200.182660505        1481781957.7135499     
   19723421.781194709       -121830315.21624191        1462351767.1170161     
   59408135.560415700       -7443151.1163726784        1585749628.6139686     
   48451329.941311941       -15110133.095509354        1555362091.2130234     
   36335825.535805464       -26639444.362653680        1528206160.3386390     
   23061622.343900371       -42031084.917792752        1504281835.9908204     
   8628720.3655916974       -61285054.760946378        1483589118.1695671     
  -1.2314325383575846E-002   7.8631240712751273E-003   1614220545.9378407     
  -1.0334590326367885E-002   6.8683154401989154E-003   1583334910.2742205     
  -8.1215254301933784E-003   6.6512729390112062E-003   1555876676.5668299     
  -5.6933395726814729E-003   7.1519941983385427E-003   1531845844.8156774     
  -3.0316408724077488E-003   8.4297038214244911E-003   1511242415.0207689     
   49310767.753369018       -240701453.18451577        1439124902.4079254     
   40096338.236579746       -321884242.44058108        1346076165.1273966     
   23172486.239066154       -428765106.63239402        1252950619.7722301     
  -1460788.2391701639       -561344045.75994539        1159748266.3424485     
  -33803485.198123574       -719621059.82322288        1066469104.8380355     
   33284104.243785128       -181635781.35744286        1447530361.8631396     
   29328282.782947004       -241636373.09612930        1347129932.4210937     
   19590394.461637393       -320910521.03639293        1245963194.7465463     
   4070439.2798635960       -419458225.17819971        1144030148.8395061     
  -17231582.762374103       -537279485.52155554        1041330794.6999649     
   19723421.781194709       -121830315.21624191        1462351767.1170161     
   19056207.925242066       -161239709.57290247        1356848227.0704262     
   14534282.829080075       -213498141.39692467        1249888878.6334605     
   6157646.4927072972       -278605610.68831795        1141473721.8061223     
  -6073701.0838753581       -356562117.44707680        1031602756.5884293     
   8628720.3655916974       -61285054.760946378        1483589118.1695671     
   9280113.6634670049       -80694251.870888352        1375231049.0753789     
   8004151.3413931057       -106527967.71399155        1264727671.4329581     
   4800833.3993625119       -138786202.29028937        1152078985.2422936     
  -329840.16262637079       -177468955.59977299        1037284990.5033979     
  -3.0316408724077488E-003   8.4297038214244911E-003   1511242415.0207689     
  -2.3834414295689074E-003   9.8964792404965737E-003   1402278398.4359632     
  -1.4277956106800221E-003   1.2388075913068801E-002   1290479573.1450560     
  -1.7152030711482368E-004   1.5882464757285799E-002   1175845939.1480322     
   1.3838746998157308E-003   2.0372531500606531E-002   1058377496.4449066     
 -0.24172907265606314       0.49722886064939276        1794344874.9768503     
 -0.32618312812664790        8.6524240153603882E-002   1718255157.9607215     
 -0.37665090826475067      -0.21089279590057841        1656623070.7719374     
 -0.39312639682060202      -0.39500358112603678        1609448613.4104879     
 -0.37561236172660545      -0.46581456640655444        1576731785.8763850     
  -385475449.69721603        234871800.80382487        1669825822.5758545     
  -378943042.02453625        154271196.09713256        1620283212.1172731     
  -365712086.14915574        95999085.399444148        1579908040.3282142     
  -345782582.07107520        60055468.710754901        1548700307.2086866     
  -319154529.79029340        46440346.031070545        1526660012.7586849     
  -698708854.39542174        491416214.53760689        1509645311.9649825     
  -700758870.84507370        325680555.97109139        1494464780.9274383     
  -689411790.92331421        204601885.30928126        1483161497.4016116     
  -664667614.63014448        128180202.55217212        1475735461.3874960     
  -626526341.96556103        96415507.699776322        1472186672.8850975     
  -939700214.33634782        769633241.69857383        1313803343.1442406     
  -965447486.78780007        514228079.70838976        1340799864.3912337     
  -971099114.69912720        325808399.51862061        1366383441.9921281     
  -956655098.07033062        204374201.12926340        1390554075.9469240     
  -922115436.90141296        149925484.54031014        1413311766.2556207     
  -1108449529.5199950        1069522882.2867208        1082299916.1136267     
  -1173008889.8527074        719913767.30903888        1159288462.5086529     
  -1210774057.4765904        459618628.02746809        1229573874.0997653     
  -1221745032.3916402        288637464.44200283        1293156150.8869667     
  -1205921814.5978515        206970276.55266470        1350035292.8702583     
 -0.37561236172660545      -0.46581456640655444        1576731785.8763850     
 -0.38927638585123070      -0.48469861366287520        1563783031.6738610     
 -0.39652191786442559      -0.48218768721442778        1554660782.8812387     
 -0.39735288091005105      -0.45829503767976332        1549365039.4985206     
 -0.39176738776146836      -0.41301385388637668        1547895801.5257030     
  -319154529.79029340        46440346.031070545        1526660012.7586849     
  -311990250.29935765        37701979.530553162        1517986478.2957628     
  -304459098.34115481        30186521.254261747        1513013968.7683914     
  -296561073.91567993        23893971.202208713        1511742484.1765723     
  -288296177.02293742        18824329.374382421        1514172024.5203018     
  -626526341.96556103        96415507.699776322        1472186672.8850975     
  -612556298.61103106        78831220.025323957        1468216376.0327723     
  -597852510.32838142        63692748.777939737        1467821623.6416471     
  -582414977.11761022        51000093.957624793        1471002415.7117219     
  -566243698.97871602        40753255.564389467        1477758752.2429914     
  -922115436.90141296        149925484.54031014        1413311766.2556207     
  -901698145.32429457        123387720.99961936        1414472724.8848889     
  -880180236.35820556        100518682.08883178        1419083747.5010021     
  -857561710.00313878        81318367.807968140        1427144834.1039629     
  -833842566.25909996        65786778.157013237        1438655984.6937706     
  -1205921814.5978515        206970276.55266470        1350035292.8702583     
  -1179415790.4391487        171371482.45343596        1356755524.8521123     
  -1151442276.4306247        140664321.18694621        1366800340.3464594     
  -1122001272.5722697        114848792.75322759        1380169739.3533025     
  -1091092778.8640878        93924897.152262449        1396863721.8726432     
 -0.39176738776146836      -0.41301385388637668        1547895801.5257030     
 -0.35929116824563934      -0.34883286735367036        1536237559.0851855     
 -0.32610201169439540      -0.28227473014685744        1530992621.1039169     
 -0.29218934963855991      -0.21330421403534888        1532160987.5818994     
 -0.25755871794293977      -0.14194254745939577        1539742658.5191309     
  -288296177.02293742        18824329.374382421        1514172024.5203018     
  -273208638.87935710        16536110.000566334        1505857972.4416683     
  -258003601.72253138        14639554.004235134        1503264465.0903249     
  -242681065.55247447        13134661.385342032        1506391502.4662738     
  -227241030.36917639        12021432.143917575        1515239084.5695174     
  -566243698.97871602        40753255.564389467        1477758752.2429914     
  -538047936.24390292        35583022.696640760        1472925972.7075169     
  -509617175.48333222        31196116.581419379        1473120978.1673708     
  -480951416.69700325        27592537.218724996        1478343768.6225619     
  -452050659.88491809        24772284.608550489        1488594344.0730817     
  -833842566.25909996        65786778.157013237        1438655984.6937706     
  -794517892.45293713        57140737.739360690        1437441559.8827240     
  -754840721.60849917        49669687.449294209        1440562160.3350494     
  -714811053.72578394        43373627.286817431        1448017786.0507503     
  -674428888.80478764        38252557.251943350        1459808437.0298281     
  -1091092778.8640878        93924897.152262449        1396863721.8726432     
  -1042618507.5064580        81209255.128732920        1399404733.9672978     
  -993674240.09803128        70060266.607865334        1405588011.5933673     
  -944259976.63880754        60477931.589653552        1415413554.7508535     
  -894375717.12878788        52462250.074090362        1428881363.4397576     
 -0.25755871794293977      -0.14194254745939577        1539742658.5191309     
 -0.20749061809370201       -7.3288353408007781E-002   1537513077.8232613     
 -0.16296634371641192       -2.3112189817664375E-002   1540894837.3975055     
 -0.12400028348447234        8.5362463434820110E-003   1549887937.2418594     
  -9.0581480045641649E-002   2.1693132638208393E-002   1564492377.3563232     
  -227241030.36917639        12021432.143917575        1515239084.5695174     
  -213547277.98760557        10157940.473432720        1513575390.5119135     
  -200120284.56776518        7405252.2638463750        1517264048.3790028     
  -186960050.10965979        3763367.5151451007        1526305058.1707847     
  -174066574.61328390       -767713.77265653759        1540698419.8872631     
  -452050659.88491809        24772284.608550489        1488594344.0730817     
  -425403121.87304145        20823311.188559145        1487185317.8715348     
  -399289101.77908200        15095944.708843693        1490869655.2492645     
  -373708599.60302711        7590185.1694451571        1499647356.2062652     
  -348661615.34489024       -1693967.4296773821        1513518420.7425449     
  -674428888.80478764        38252557.251943350        1459808437.0298281     
  -635567531.86380625        31996112.072066128        1458342859.9021268     
  -597506451.79691184        23072077.311893374        1461711658.0082850     
  -560245648.60411108        11480452.971411765        1469914831.3482943     
  -523785122.28539765       -2778760.9493619204        1482952379.9221666     
  -894375717.12878788        52462250.074090362        1428881363.4397576     
  -844040507.95988154        43676343.124009967        1427048016.6036901     
  -794772334.62125659        31333650.072991967        1429790056.6560624     
  -746571197.11289418        15434170.921099454        1437107483.5968752     
  -699437095.43481326       -4022094.3317322135        1449000297.4261277     
  -9.0581480045641649E-002   2.1693132638208393E-002   1564492377.3563232     
  -7.7807174622659986E-002   2.0183031070606639E-002   1562558464.6261771     
  -6.5068463437857924E-002   1.8555669821186990E-002   1566892746.9009399     
  -5.2369395450205775E-002   1.6796511525962853E-002   1577495224.1806188     
  -3.9698189790383143E-002   1.4942397136469094E-002   1594365896.4652107     
  -174066574.61328390       -767713.77265653759        1540698419.8872631     
  -159339820.58538970       -4484945.2252954915        1538661492.8834710     
  -144172329.83156767       -6733054.2581734657        1542542465.8366535     
  -128564102.35181524       -7512040.8712830395        1552341338.7468150     
  -112515138.14613375       -6821905.0646312833        1568058111.6139576     
  -348661615.34489024       -1693967.4296773821        1513518420.7425449     
  -320208950.29598004       -9428683.2316829860        1511892672.3120646     
  -290874811.79517365       -14225154.194034621        1515834528.7906260     
  -260659199.84247595       -16083380.316747040        1525343990.1782274     
  -229562114.43788090       -15003361.599801771        1540421056.4748774     
  -523785122.28539765       -2778760.9493619204        1482952379.9221666     
  -482607389.20957327       -14831213.998964727        1482252002.9119589     
  -440107445.95588696       -22476299.789028004        1486768935.7628565     
  -396285292.52434045       -25714018.319555521        1496503178.4748626     
  -351140928.91493505       -24544369.590556026        1511454731.0479753     
  -699437095.43481326       -4022094.3317322135        1449000297.4261277     
  -646535137.32617295       -20692537.527155042        1449739484.6831508     
  -591870232.31370580       -31486491.043149680        1455345686.7533479     
  -535442380.39741915       -36403954.879747421        1465818903.6367147     
  -477251581.57730407       -35444929.036918074        1481159135.3332517     
  -3.9698189790383143E-002   1.4942397136469094E-002   1594365896.4652107     
  -3.3313278875384336E-002   1.1635381303131999E-002   1592569551.4621665     
  -2.6632130566795649E-002   9.3165173378182420E-003   1595279878.0399256     
  -1.9630016476781507E-002   8.0664984765037653E-003   1602496876.1984873     
  -1.2314325383575846E-002   7.8631240712751273E-003   1614220545.9378407     
  -112515138.14613375       -6821905.0646312833        1568058111.6139576     
  -99989873.068823412       -5760592.8930654973        1565156146.5965495     
  -86963617.616290718       -3029312.8040914983        1567137411.0894554     
  -73436371.788533092        1371935.2022964694        1574001905.0926969     
  -59408135.585556857        7443151.1260815300        1585749628.6062593     
  -229562114.43788090       -15003361.599801771        1540421056.4748774     
  -203435704.49099830       -12557973.313749149        1536997960.2138302     
  -176307313.79398540       -6772649.1939303204        1538834651.3926299     
  -148176942.34683689        2352610.7596729174        1545931130.0112770     
  -119044590.14955211        14817806.547064133        1558287396.0697761     
  -351140928.91493505       -24544369.590556026        1511454731.0479753     
  -310337494.29984754       -20392141.250450090        1508094992.3140202     
  -268031088.55970913       -11230009.160174534        1510371598.9494369     
  -224221711.69452566        2942026.6802505255        1518284550.9542282     
  -178909363.70429620        22123966.270830400        1531833848.3283834     
  -477251581.57730407       -35444929.036918074        1481159135.3332517     
  -420695242.49536204       -29263096.703133970        1478447242.8971176     
  -362134941.91346020       -16401392.702816963        1481748253.7598829     
  -301570679.83160603        3140182.9640064985        1491062167.9215415     
  -239002456.24979216        29361630.297364458        1506388985.3820994     
  -1.2314325383575846E-002   7.8631240712751273E-003   1614220545.9378407     
  -1.0334590326367885E-002   6.8683154401989154E-003   1583334910.2742205     
  -8.1215254301933784E-003   6.6512729390112062E-003   1555876676.5668299     
  -5.6933395726814729E-003   7.1519941983385427E-003   1531845844.8156774     
  -3.0316408724077488E-003   8.4297038214244911E-003   1511242415.0207689     
  -59408135.585556857        7443151.1260815300        1585749628.6062593     
  -48451329.962223597        15110133.104922477        1555362091.2066660     
  -36335825.552159041        26639444.372870505        1528206160.3334556     
  -23061622.355375409        42031084.929880723        1504281835.9866264     
  -8628720.3718686365        61285054.775968120        1483589118.1661756     
  -119044590.14955211        14817806.547064133        1558287396.0697761     
  -97690394.418733448        29983945.851602048        1529749772.1851306     
  -74018801.114694133        52874743.733539626        1504247959.3970039     
  -48029810.237428412        83490200.192897990        1481781957.7054040     
  -19723421.786944233        121830315.22965492        1462351767.1103258     
  -178909363.70429620        22123966.270830400        1531833848.3283834     
  -147717193.37986332        44621438.246903092        1506497953.2095990     
  -113048926.69572139        78705898.088678181        1484002073.7574773     
  -74904563.651848406        124377345.79621856        1464346209.9720283     
  -33284104.248264849        181635781.36946493        1447530361.8532441     
  -239002456.24979216        29361630.297364458        1506388985.3820994     
  -198531726.84562722        59022610.290787295        1485606634.2800815     
  -153426202.29525378        104132907.43823852        1467468503.4148738     
  -103685882.59864393        164692521.73981151        1451974592.7864842     
  -49310767.755832985        240701453.19538730        1439124902.3949025     
  -3.0316408724077488E-003   8.4297038214244911E-003   1511242415.0207689     
  -2.3834414295689074E-003   9.8964792404965737E-003   1402278398.4359632     
  -1.4277956106800221E-003   1.2388075913068801E-002   1290479573.1450560     
  -1.7152030711482368E-004   1.5882464757285799E-002   1175845939.1480322     
   1.3838746998157308E-003   2.0372531500606531E-002   1058377496.4449066     
  -8628720.3718686365        61285054.775968120        1483589118.1661756     
  -9280113.6684688404        80694251.888963819        1375231049.0728917     
  -8004151.3445849866        106527967.73690532        1264727671.4313238     
  -4800833.4002114385        138786202.31981266        1152078985.2414799     
   329840.16463790834        177468955.63764000        1037284990.5033544     
  -19723421.786944233        121830315.22965492        1462351767.1103258     
  -19056207.929863662        161239709.58944830        1356848227.0654435     
  -14534282.832118601        213498141.41812295        1249888878.6301041     
  -6157646.4936996996        278605610.71571165        1141473721.8042994     
   6073701.0853763968        356562117.48215282        1031602756.5880553     
  -33284104.248264849        181635781.36946493        1447530361.8532441     
  -29328282.786576241        241636373.11131915        1347129932.4136298     
  -19590394.464027181        320910521.05604142        1245963194.7413981     
  -4070439.2806428671        419458225.20354587        1144030148.8365321     
   17231582.763598263        537279485.55391061        1041330794.6990317     
  -49310767.755832985        240701453.19538730        1439124902.3949025     
  -40096338.238596156        321884242.45461112        1346076165.1174507     
  -23172486.240329891        428765106.65059835        1252950619.7651987     
   1460788.2389855981        561344045.78341734        1159748266.3381333     
   33803485.199304491        719621059.85291374        1066469104.8362728     
  -1108449529.5199950        1069522882.2867208        1082299916.1136267     
  -1173008889.8527074        719913767.30903888        1159288462.5086529     
  -1210774057.4765904        459618628.02746809        1229573874.0997653     
  -1221745032.3916402        288637464.44200283        1293156150.8869667     
  -1205921814.5978515        206970276.55266470        1350035292.8702583     
  -1532648614.8739386        537291593.71391034        1029224492.2179968     
  -1552423432.6100585        370894562.26123011        1101865651.0878787     
  -1560213343.2889690        244447220.99926960        1173379881.3302033     
  -1556018346.9106655        157949569.92801780        1243767182.9449699     
  -1539838443.4751413        111401609.04749149        1313027555.9321799     
  -2041866649.2093508       -20445379.553337216        1050086557.0342814     
  -2000924906.7021604        1149277.8130018711        1101102828.4521308     
  -1962807542.7893693        13329339.864663124        1156568377.4187784     
  -1927514557.4709835        16094806.601641536        1216483203.9342241     
  -1895045950.7470012        9445678.0239474773        1280847307.9984648     
  -2636103632.5262423       -603688037.51503181        1144886110.5624852     
  -2518513312.1290035       -389322086.03565323        1156999994.6014152     
  -2418556655.9777894       -233735015.37635195        1179139362.3654945     
  -2336233664.0725985       -136926825.53712046        1211304213.8547275     
  -2271544336.4134254       -98897516.517967701        1253494549.0691099     
  -3315359564.8246088       -1212436380.1711659        1313623152.8026011     
  -3105188648.8905997       -800519529.28473103        1269557149.5357208     
  -2927460682.8542318       -496745844.72376859        1241092836.1703467     
  -2782175666.7155070       -301115326.48827934        1228230212.7064774     
  -2669333600.4744215       -213627974.57825434        1230969279.1441169     
  -1205921814.5978515        206970276.55266470        1350035292.8702583     
  -1179415790.4391487        171371482.45343596        1356755524.8521123     
  -1151442276.4306247        140664321.18694621        1366800340.3464594     
  -1122001272.5722697        114848792.75322759        1380169739.3533025     
  -1091092778.8640878        93924897.152262449        1396863721.8726432     
  -1539838443.4751413        111401609.04749149        1313027555.9321799     
  -1498811355.3552651        91481739.066969037        1313986745.4720492     
  -1457127019.0213761        73752696.466491044        1319173187.4421637     
  -1414785434.4734724        58214481.246060967        1328586881.8425231     
  -1371786601.7115545        44867093.405678511        1342227828.6731279     
  -1895045950.7470012        9445678.0239474773        1280847307.9984648     
  -1836918744.6152389        5978448.3773473501        1275100173.1879032     
  -1778944531.9052753        2001240.6580811739        1274482959.7253375     
  -1721123312.6171074       -2485945.1338355541        1278995667.6107640     
  -1663455086.7507362       -7483108.9984148741        1288638296.8441851     
  -2271544336.4134254       -98897516.517967701        1253494549.0691099     
  -2193737958.2190647       -85138389.615432739        1240095807.9996696     
  -2116894815.0823121       -74590046.238261461        1232729657.1959743     
  -2041014907.0031736       -67252486.386464953        1231396096.6580203     
  -1966098233.9816391       -63125710.060022235        1236095126.3858094     
  -2669333600.4744215       -213627974.57825434        1230969279.1441169     
  -2569268996.1667457       -181868774.91136289        1208973649.9073496     
  -2470977868.5525007       -156021164.22256553        1193913279.8540783     
  -2374460217.6316690       -136085142.51181483        1185788168.9842958     
  -2279716043.4042630       -122060709.77915251        1184598317.2980075     
  -1091092778.8640878        93924897.152262449        1396863721.8726432     
  -1042618507.5064580        81209255.128732920        1399404733.9672978     
  -993674240.09803128        70060266.607865334        1405588011.5933673     
  -944259976.63880754        60477931.589653552        1415413554.7508535     
  -894375717.12878788        52462250.074090362        1428881363.4397576     
  -1371786601.7115545        44867093.405678511        1342227828.6731279     
  -1311680685.6765792        37822831.770893753        1341445917.5731823     
  -1251459929.1367111        31161371.819093108        1344660379.8346808     
  -1191124332.0919428        24882713.550291896        1351871215.4576244     
  -1130673894.5422773        18986856.964481473        1363078424.4420166     
  -1663455086.7507362       -7483108.9984148741        1288638296.8441851     
  -1590705789.3811958       -8552469.2472881675        1284119114.4127536     
  -1518196807.0526567       -10422879.632841647        1283950413.1727984     
  -1445928139.7651224       -13094340.155076265        1288132193.1243148     
  -1373899787.5185907       -16566850.813981295        1296664454.2673070     
  -1966098233.9816391       -63125710.060022235        1236095126.3858094     
  -1879693818.6203048       -57916647.925822496        1227424324.4860129     
  -1793884873.8458774       -54692487.747970879        1223458111.6077228     
  -1708671399.6583505       -53453229.526455700        1224196487.7509303     
  -1624053396.0577269       -54198873.261290789        1229639452.9156430     
  -2279716043.4042630       -122060709.77915251        1184598317.2980075     
  -2178644773.3939099       -110269704.26470065        1171361547.7929652     
  -2078524129.5163684       -101647452.52627957        1163183475.1394489     
  -1979354111.7716258       -96193954.563857079        1160064099.3374646     
  -1881134720.1596847       -93909210.377443671        1162003420.3870139     
  -894375717.12878788        52462250.074090362        1428881363.4397576     
  -844040507.95988154        43676343.124009967        1427048016.6036901     
  -794772334.62125659        31333650.072991967        1429790056.6560624     
  -746571197.11289418        15434170.921099454        1437107483.5968752     
  -699437095.43481326       -4022094.3317322135        1449000297.4261277     
  -1130673894.5422773        18986856.964481473        1363078424.4420166     
  -1067598919.8545170        13148022.178478181        1357834525.6883461     
  -1005120328.0946951        5321244.2993416190        1357134966.0997984     
  -943238119.26280665       -4493476.6729027629        1360979745.6763778     
  -881952293.35887003       -16296140.738317430        1369368864.4180753     
  -1373899787.5185907       -16566850.813981295        1296664454.2673070     
  -1298173755.0928693       -19485225.770153582        1288559098.6487577     
  -1222573452.6927578       -22822700.811692595        1284967034.4720156     
  -1147098880.3182523       -26579275.938581705        1285888261.7370818     
  -1071750037.9693507       -30754951.150823116        1291322780.4439569     
  -1624053396.0577269       -54198873.261290789        1229639452.9156430     
  -1535765013.6749511       -54223400.721918285        1219221735.4849329     
  -1447131708.4154456       -53098185.260109246        1213286261.7727146     
  -1358153480.2792211       -50823226.875912428        1211833031.7789898     
  -1268830329.2662685       -47398525.569276631        1214862045.5037522     
  -1881134720.1596847       -93909210.377443671        1162003420.3870139     
  -1780372695.6007531       -91066502.676789105        1149822436.1968637     
  -1678795095.2627618       -85505209.045932114        1142092648.0018930     
  -1576401919.1457143       -77225329.484888256        1138814055.8020971     
  -1473193167.2496037       -66226863.993635356        1139986659.5974762     
  -699437095.43481326       -4022094.3317322135        1449000297.4261277     
  -646535137.32617295       -20692537.527155042        1449739484.6831508     
  -591870232.31370580       -31486491.043149680        1455345686.7533479     
  -535442380.39741915       -36403954.879747421        1465818903.6367147     
  -477251581.57730407       -35444929.036918074        1481159135.3332517     
  -881952293.35887003       -16296140.738317430        1369368864.4180753     
  -814284487.24143946       -25754770.182046324        1369080630.6572242     
  -745737150.57566929       -32281631.131304473        1373619461.9934156     
  -676310283.36155033       -35876723.586070985        1382985358.4266522     
  -606003885.59908915       -36540047.546360433        1397178319.9569368     
  -1071750037.9693507       -30754951.150823116        1291322780.4439569     
  -989430525.88920629       -33036009.456687689        1288976473.2504966     
  -907114899.61620033       -35330020.453016222        1291417281.4379535     
  -824803159.15032983       -37636984.139795691        1298645205.0063293     
  -742495304.49159467       -39956900.517025650        1310660243.9556277     
  -1268830329.2662685       -47398525.569276631        1214862045.5037522     
  -1171973253.2694745       -42536255.351086199        1209427012.4629588     
  -1076003479.4353099       -40631659.008314908        1208739145.0869555     
  -980921007.76375079       -41684736.540906191        1212798443.3757513     
  -886725838.25481498       -45695487.948898584        1221604907.3293421     
  -1473193167.2496037       -66226863.993635356        1139986659.5974762     
  -1361912669.3822417       -54255507.865227640        1130432248.2946160     
  -1252402890.0329840       -48186546.797162890        1125585052.9404263     
  -1144663829.2018251       -48019980.789427698        1125445073.5349083     
  -1038695486.8887579       -53755809.842001677        1130012310.0780554     
  -477251581.57730407       -35444929.036918074        1481159135.3332517     
  -420695242.49536204       -29263096.703133970        1478447242.8971176     
  -362134941.91346020       -16401392.702816963        1481748253.7598829     
  -301570679.83160603        3140182.9640064985        1491062167.9215415     
  -239002456.24979216        29361630.297364458        1506388985.3820994     
  -606003885.59908915       -36540047.546360433        1397178319.9569368     
  -534410298.20175046       -32206590.886541575        1394170900.0519676     
  -460656269.66286671       -20671663.754916653        1397144239.1693261     
  -384741799.98244983       -1935266.1515125185        1406098337.3090119     
  -306666889.16049850        24002601.923674524        1421033194.4710143     
  -742495304.49159467       -39956900.517025650        1310660243.9556277     
  -655956309.56905770       -37499371.768219858        1307539856.1636715     
  -567100393.86340034       -27318773.742346138        1310368083.1174657     
  -475927557.37463486       -9415106.4394468069        1319144924.8170114     
  -382437800.10275167        16211630.140513852        1333870381.2623096     
  -886725838.25481498       -45695487.948898584        1221604907.3293421     
  -785333276.59729528       -45141439.348186404        1218554111.2322297     
  -681467314.51506889       -36342722.665126920        1221419785.6043034     
  -575127952.00815523       -19299337.899775237        1230201930.4455576     
  -466315189.07654822        5988714.9478935599        1244900545.7559834     
  -1038695486.8887579       -53755809.842001677        1130012310.0780554     
  -922541199.28644991       -55132793.626411438        1127213665.2576425     
  -803757031.61786497       -47743510.523234308        1130299346.6298337     
  -682342983.88301682       -31587960.532513112        1139269354.1946304     
  -558299056.08188891       -6666143.6541900635        1154123687.9520416     
  -239002456.24979216        29361630.297364458        1506388985.3820994     
  -198531726.84562722        59022610.290787295        1485606634.2800815     
  -153426202.29525378        104132907.43823852        1467468503.4148738     
  -103685882.59864393        164692521.73981151        1451974592.7864842     
  -49310767.755832985        240701453.19538730        1439124902.3949025     
  -306666889.16049850        24002601.923674524        1421033194.4710143     
  -257497872.68750426        54329354.003794372        1404504731.9722443     
  -201877878.25080520        106159365.96292467        1391869399.5772963     
  -139806905.85039514        179492637.80109766        1383127197.2861662     
  -71284955.486279249        274329169.51828390        1378278125.0988452     
  -382437800.10275167        16211630.140513852        1333870381.2623096     
  -321002182.65520096        48274648.479048908        1323714687.3205326     
  -251299404.42645761        107894869.42155388        1318701033.3495779     
  -173329465.41650695        195072292.96808898        1318829419.3494401     
  -87092365.625365019        309806919.11858863        1324099845.3201308     
  -466315189.07654822        5988714.9478935599        1244900545.7559834     
  -389044656.74871838        40858493.716543868        1243236500.3249345     
  -301690780.82219398        109339417.81417122        1247963404.7317088     
  -204253561.29698336        211431487.24075764        1259081258.9763150     
  -96732998.173089787        347134701.99628174        1276590063.0587423     
  -558299056.08188891       -6666143.6541900635        1154123687.9520416     
  -461625294.96804440        32080889.716322929        1163070170.9854550     
  -353052007.43802440        110493011.14075366        1179656513.7237043     
  -232579193.49182308        228570220.61912224        1203882716.1667845     
  -100206853.12944093        386312518.15142679        1235748778.3146901     
  -49310767.755832985        240701453.19538730        1439124902.3949025     
  -40096338.238596156        321884242.45461112        1346076165.1174507     
  -23172486.240329891        428765106.65059835        1252950619.7651987     
   1460788.2389855981        561344045.78341734        1159748266.3381333     
   33803485.199304491        719621059.85291374        1066469104.8362728     
  -71284955.486279249        274329169.51828390        1378278125.0988452     
  -57136086.964061409        376188349.66029656        1296685620.1950278     
  -34052763.673203051        507829045.69778144        1214194170.8584373     
  -2034985.6136879325        669251257.63077760        1130803777.0890610     
   38917247.214466542        860454985.45925069        1046514438.8869115     
  -87092365.625365019        309806919.11858863        1324099845.3201308     
  -70358019.120951980        431637801.83654773        1255392777.1254954     
  -43464185.560283154        587333641.40870416        1184964628.1401064     
  -6410864.9433449805        776894437.83507991        1112815398.3639660     
   40801942.729851007        1000320191.1156543        1038945087.7970735     
  -96732998.173089787        347134701.99628174        1276590063.0587423     
  -79762134.709268123        488232598.98336118        1222197635.9088385     
  -51406751.901572585        667278893.78335655        1165261991.6102195     
  -11666849.749991953        884273586.39628661        1105783130.1628740     
   39457571.745456278        1139216676.8221312        1043761051.5667999     
  -100206853.12944093        386312518.15142679        1235748778.3146901     
  -85348433.728999019        545972741.10077024        1197100196.5450859     
  -57880462.697065026        747664802.82175136        1155086261.2687750     
  -17802940.033638656        991388703.31437755        1109706972.4857655     
   34884134.261286855        1277144442.5786619        1060962330.1960392     
  -3315359564.8246088       -1212436380.1711659        1313623152.8026011     
  -3105188648.8905997       -800519529.28473103        1269557149.5357208     
  -2927460682.8542318       -496745844.72376859        1241092836.1703467     
  -2782175666.7155070       -301115326.48827934        1228230212.7064774     
  -2669333600.4744215       -213627974.57825434        1230969279.1441169     
  -3683135266.6797943       -789244020.79910731        1206092862.6086342     
  -3484312672.9955034       -526289729.48061228        1159781371.5190620     
  -3305647747.0784144       -330527664.05277991        1123514687.1592612     
  -3147140488.9285183       -201957824.51559961        1097292809.5292339     
  -3008790898.5458179       -140580210.86907029        1081115738.6289804     
  -3961720547.3892775       -339294535.08333290        1035412287.4951036     
  -3790123085.0167985       -230065846.05141401        1001188137.7350194     
  -3626398008.2810798       -147078442.47533846        971451911.53298008     
  -3470545317.1821051       -90332324.355093956        946203608.88898134     
  -3322565011.7198858       -59827491.690696001        925443229.80302107     
  -4151115406.9530573        137412076.97615075        801581427.46200359     
  -4022619884.9544935        88152121.002867460        793777448.18360245     
  -3889711466.4622359        53601820.008555174        784904509.29150510     
  -3752390151.4762750        33761173.993234158        774962610.78571761     
  -3610655939.9966307        28630182.956880808        763951752.66624057     
  -4251319845.3711457        640875815.37934017        504600282.50934273     
  -4181803072.8085771        428364171.68223262        537549302.86480069     
  -4095588121.6218677        271513123.39891100        563872480.43483794     
  -3992674991.8110204        170322670.52939177        583569815.21944857     
  -3873063683.3760386        124792813.07365561        596641307.21863461     
  -2669333600.4744215       -213627974.57825434        1230969279.1441169     
  -2569268996.1667457       -181868774.91136289        1208973649.9073496     
  -2470977868.5525007       -156021164.22256553        1193913279.8540783     
  -2374460217.6316690       -136085142.51181483        1185788168.9842958     
  -2279716043.4042630       -122060709.77915251        1184598317.2980075     
  -3008790898.5458179       -140580210.86907029        1081115738.6289804     
  -2895822201.1005964       -119294593.75476098        1065578245.3257027     
  -2784109722.9107943       -102196374.15852141        1055448698.9184109     
  -2673653463.9764152       -89285552.080358624        1050727099.4071059     
  -2564453424.2974553       -80562127.520256996        1051413446.7917877     
  -3322565011.7198858       -59827491.690696001        925443229.80302107     
  -3201055970.5299840       -50324581.946815372        916967339.44423091     
  -3080285891.1575069       -43284878.261017084        912372083.69392109     
  -2960254773.6024480       -38708380.633281827        911657462.55209327     
  -2840962617.8648100       -36595089.063615203        914823476.01874757     
  -3610655939.9966307        28630182.956880808        763951752.66624057     
  -3484970304.4549212        25041260.512456179        763140932.26293719     
  -3359506373.2926340        20713323.469971657        764683434.18060970     
  -3234264146.5097704        15646371.829405189        768579258.41926086     
  -3109243624.1063237        9840405.5907828808        774828404.97888589     
  -3873063683.3760386        124792813.07365561        596641307.21863461     
  -3747565202.8753958        106802933.62308168        604099023.78182232     
  -3621771169.3161802        89798231.034422636        612382750.37847841     
  -3495681582.6983776        73778705.307717562        621492487.00860763     
  -3369296443.0220008        58744356.442929029        631428233.67220354     
  -2279716043.4042630       -122060709.77915251        1184598317.2980075     
  -2178644773.3939099       -110269704.26470065        1171361547.7929652     
  -2078524129.5163684       -101647452.52627957        1163183475.1394489     
  -1979354111.7716258       -96193954.563857079        1160064099.3374646     
  -1881134720.1596847       -93909210.377443671        1162003420.3870139     
  -2564453424.2974553       -80562127.520256996        1051413446.7917877     
  -2452056856.9494162       -73556767.138444185        1040054558.0381464     
  -2340169140.1123276       -68247575.126476407        1033453119.2618035     
  -2228790273.7861919       -64634551.484350085        1031609130.4627610     
  -2117920257.9710143       -62717696.212072372        1034522591.6410162     
  -2840962617.8648100       -36595089.063615203        914823476.01874757     
  -2718101458.5340214       -34633585.420904994        905857872.90866470     
  -2595307374.0923371       -32895664.741875648        901348472.90165186     
  -2472580364.5397568       -31381327.026532650        901295275.99771023     
  -2349920429.8762918       -30090572.274883986        905698282.19683146     
  -3109243624.1063237        9840405.5907828808        774828404.97888589     
  -2976778578.1477342        6499840.8879071474        768771492.40451944     
  -2843938831.4563999        4408278.6275010109        766869536.05899215     
  -2710724384.0323238        3565718.8095724583        769122535.94230008     
  -2577135235.8755083        3972161.4341218472        775530492.05444765     
  -3369296443.0220008        58744356.442929029        631428233.67220354     
  -3228088215.7905588        49843511.787963986        628795416.52570999     
  -3086063512.2045169        43664254.981666565        630016308.73382413     
  -2943222332.2638903        40206586.023983240        635090910.29654348     
  -2799564675.9686708        39470504.914943933        644019221.21387112     
  -1881134720.1596847       -93909210.377443671        1162003420.3870139     
  -1780372695.6007531       -91066502.676789105        1149822436.1968637     
  -1678795095.2627618       -85505209.045932114        1142092648.0018930     
  -1576401919.1457143       -77225329.484888256        1138814055.8020971     
  -1473193167.2496037       -66226863.993635356        1139986659.5974762     
  -2117920257.9710143       -62717696.212072372        1034522591.6410162     
  -2006378534.1811423       -60990568.099910855        1024462153.6618428     
  -1894585920.0248370       -58427138.766310096        1018500037.4624839     
  -1782542415.5020962       -55027408.211260021        1016636243.0429370     
  -1670248020.6129289       -50791376.434777498        1018870770.4032061     
  -2349920429.8762918       -30090572.274883986        905698282.19683146     
  -2228607218.8993750       -29781487.364400625        897099590.78056884     
  -2107607802.9686451       -30518385.941214323        892246346.92875814     
  -1986922182.0841117       -32301268.005334973        891138550.64139903     
  -1866550356.2457635       -35130133.556762457        893776201.91848958     
  -2577135235.8755083        3972161.4341218472        775530492.05444765     
  -2447058749.7554402        2560739.5297638178        767734747.55303323     
  -2317860744.0941787       -1778950.5706261396        763331576.40071177     
  -2189541218.8917441       -9046908.8671016693        762320978.59747851     
  -2062100174.1481204       -19243135.359612346        764702954.14333892     
  -2799564675.9686708        39470504.914943933        644019221.21387112     
  -2661733126.7493382        36036112.582588792        636367623.97924745     
  -2525344743.4014482        27791167.345424414        631755725.87835193     
  -2390399525.9249921        14735669.203476071        630183526.91118157     
  -2256897474.3199854       -3130381.8433014154        631651027.07774067     
  -1473193167.2496037       -66226863.993635356        1139986659.5974762     
  -1361912669.3822417       -54255507.865227640        1130432248.2946160     
  -1252402890.0329840       -48186546.797162890        1125585052.9404263     
  -1144663829.2018251       -48019980.789427698        1125445073.5349083     
  -1038695486.8887579       -53755809.842001677        1130012310.0780554     
  -1670248020.6129289       -50791376.434777498        1018870770.4032061     
  -1549405098.3528819       -44928162.717794597        1007715364.3716329     
  -1429431116.7476835       -41961417.850309193        1000618024.7883965     
  -1310326075.7973404       -41891141.832339644        997578751.65350759     
  -1192089975.5018442       -44717334.663851380        998597544.96695042     
  -1866550356.2457635       -35130133.556762457        893776201.91848958     
  -1737999722.4511130       -35931476.108622015        882071875.33198881     
  -1609416251.4480662       -36623361.299167216        873776465.69350290     
  -1480799943.2366152       -37205789.128369510        868889973.00302291     
  -1352150797.8167753       -37678759.596271276        867412397.26056230     
  -2062100174.1481204       -19243135.359612346        764702954.14333892     
  -1927696541.6769431       -27265448.037727594        753501781.17569804     
  -1792358294.1341221       -32172377.143703938        745060375.65574038     
  -1656085431.5196609       -33963922.677542329        739378737.58346713     
  -1518877953.8335574       -32640084.639237940        736456866.95887220     
  -2256897474.3199854       -3130381.8433014154        631651027.07774067     
  -2118495556.0303707       -18930078.505119205        622005081.90275109     
  -1978257244.8058643       -28608465.383966446        614469754.67511511     
  -1836182540.6464679       -32165542.479841828        609045045.39483202     
  -1692271443.5521841       -29601309.792764723        605730954.06190383     
  -1038695486.8887579       -53755809.842001677        1130012310.0780554     
  -922541199.28644991       -55132793.626411438        1127213665.2576425     
  -803757031.61786497       -47743510.523234308        1130299346.6298337     
  -682342983.88301682       -31587960.532513112        1139269354.1946304     
  -558299056.08188891       -6666143.6541900635        1154123687.9520416     
  -1192089975.5018442       -44717334.663851380        998597544.96695042     
  -1062009769.7872854       -42894016.731520236        995030838.50278783     
  -930337802.00812745       -35764825.250509232        995553519.38234901     
  -797074072.16437185       -23329760.220839143        1000165587.6056283     
  -662218580.25599122       -5588821.6424238384        1008867043.1726241     
  -1352150797.8167753       -37678759.596271276        867412397.26056230     
  -1213273070.7010880       -34193658.960547566        861866491.48404622     
  -1073841699.5224667       -28863078.115033031        858615034.20235741     
  -933856684.28089440       -21687017.059688568        857658025.41550112     
  -793318024.97638476       -12665475.794551760        858995465.12347567     
  -1518877953.8335574       -32640084.639237940        736456866.95887220     
  -1376331102.0278561       -29031720.313463628        727720624.20139527     
  -1234268724.1608715       -27038269.116760194        719483891.08985794     
  -1092690820.2326114       -26659731.049129665        711746667.62426603     
  -951597390.24306965       -27896106.110563695        704508953.80461097     
  -1692271443.5521841       -29601309.792764723        605730954.06190383     
  -1551183863.7675674       -27408200.790242672        592593236.65485573     
  -1411618875.9233472       -30290398.255720317        578160090.04485381     
  -1273576480.0194972       -38247902.189092696        562431514.23191023     
  -1137056676.0560465       -51280712.590463221        545407509.21601415     
  -558299056.08188891       -6666143.6541900635        1154123687.9520416     
  -461625294.96804440        32080889.716322929        1163070170.9854550     
  -353052007.43802440        110493011.14075366        1179656513.7237043     
  -232579193.49182308        228570220.61912224        1203882716.1667845     
  -100206853.12944093        386312518.15142679        1235748778.3146901     
  -662218580.25599122       -5588821.6424238384        1008867043.1726241     
  -547029357.91809499        25088284.928424776        1021970667.6667101     
  -421012524.76771164        91857427.540914327        1043539385.7359284     
  -284168080.80482203        194718606.19507593        1073573197.3802755     
  -136496026.02945256        333671820.89086199        1112072102.5997508     
  -793318024.97638476       -12665475.794551760        858995465.12347567     
  -657255530.35644794        10649047.294039249        875005662.87393808     
  -511437340.52770126        66482554.411997616        900306188.06982815     
  -355863455.49014366        154835045.55931944        934897040.71113980     
  -190533875.24378109        275706520.73600215        978778220.79788744     
  -951597390.24306965       -27896106.110563695        704508953.80461097     
  -792303812.28309894       -11236823.186837316        722175156.60714841     
  -624326454.71799850        34368391.753988594        749956920.72541177     
  -447665317.54778200        108919538.71186796        787854246.15939569     
  -262320400.77243415        212416617.68685156        835867132.90910840     
  -1137056676.0560465       -51280712.590463221        545407509.21601415     
  -952174203.69804549       -40569326.514195979        563479148.86633134     
  -759679867.33860660       -4485060.4331303537        592491583.70266795     
  -559573666.97772276        56972085.652751565        632444813.72502148     
  -351855602.61540574        143802111.74340546        683338838.93340480     
  -100206853.12944093        386312518.15142679        1235748778.3146901     
  -85348433.728999019        545972741.10077024        1197100196.5450859     
  -57880462.697065026        747664802.82175136        1155086261.2687750     
  -17802940.033638656        991388703.31437755        1109706972.4857655     
   34884134.261286855        1277144442.5786619        1060962330.1960392     
  -136496026.02945256        333671820.89086199        1112072102.5997508     
  -127380954.56162214        482583838.03433704        1090465153.5850027     
  -95120374.715093315        708647549.77346206        1070285953.3147681     
  -39714286.489880085        1011862956.1082215        1051534501.7890359     
   38837310.114019036        1392230057.0385838        1034210799.0078132     
  -190533875.24378109        275706520.73600215        978778220.79788744     
  -173467573.84795117        417978705.43182200        986504854.07640231     
  -122719807.32623649        672522440.54725003        1000452338.3506396     
  -38290575.678639770        1039337726.0822893        1020620673.6205908     
   79820121.094834626        1518424562.0369308        1047009859.8862746     
  -262320400.77243415        212416617.68685156        835867132.90910840     
  -223608291.58799860        352157343.29318976        885219298.01927137     
  -140678760.53049192        639289475.14309859        945585416.37637341     
  -13531807.599906802        1073813013.2366018        1016965487.9804059     
   157832567.20376348        1655727957.5737114        1099359512.8313713     
  -351855602.61540574        143802111.74340546        683338838.93340480     
  -277803107.78177059        285119751.61842692        786608485.41362190     
  -148997234.32786182        608948653.56101608        905685187.39197850     
   34562017.746319473        1115288817.5711801        1040568944.8684812     
   272874648.44076866        1804140243.6489153        1191259757.8431361     
  -4251319845.3711457        640875815.37934017        504600282.50934273     
  -4181803072.8085771        428364171.68223262        537549302.86480069     
  -4095588121.6218677        271513123.39891100        563872480.43483794     
  -3992674991.8110204        170322670.52939177        583569815.21944857     
  -3873063683.3760386        124792813.07365561        596641307.21863461     
  -4633691521.7718010        344050872.22471404        504158805.88117790     
  -4535151221.2415447        232721668.42901850        494271647.29712164     
  -4428218221.6710634        149368128.10070682        489986328.41946292     
  -4312892523.0603800        93990251.239766359        491302849.24820304     
  -4189174125.4094758        66588037.846215010        498221209.78334260     
  -5197738528.1428452       -7276669.9210283756        544129646.77098227     
  -5035238463.9539690       -6942563.1080305576        481716583.06616735     
  -4872651180.3088007       -6317724.7740571499        437133041.55957299     
  -4709976677.2073469       -5402154.9191365242        410379022.25119787     
  -4547214954.6496048       -4195853.5432336330        401454525.14104271     
  -5943460864.4842491       -413106811.05788398        624512805.17876041     
  -5682064800.9458427       -290628522.92891216        499884110.17194200     
  -5428886997.5350628       -195544435.22538853        405312619.85516053     
  -5183927454.2519331       -127854547.94732761        340798334.22842824     
  -4947186171.0964251       -87558861.094694138        306341253.29173583     
  -6870858530.7960482       -873439551.18585134        745308281.10451066     
  -6475630232.2171860       -618336211.03364134        548774228.61443949     
  -6096925673.3498774       -418312003.25327682        394525063.30623549     
  -5734744854.1941252       -273366927.84478736        282560785.17990017     
  -5389087774.7499352       -183500984.80815148        212881394.23542786     
  -3873063683.3760386        124792813.07365561        596641307.21863461     
  -3747565202.8753958        106802933.62308168        604099023.78182232     
  -3621771169.3161802        89798231.034422636        612382750.37847841     
  -3495681582.6983776        73778705.307717562        621492487.00860763     
  -3369296443.0220008        58744356.442929029        631428233.67220354     
  -4189174125.4094758        66588037.846215010        498221209.78334260     
  -4056161260.4037805        54929135.447879553        492596277.24174684     
  -3922999355.4566884        43767032.854208231        490464635.73543477     
  -3789688410.5681911        33101730.065220118        491826285.26440436     
  -3656228425.7382998        22933227.080878735        496681225.82865930     
  -4547214954.6496048       -4195853.5432336330        401454525.14104271     
  -4399066902.2765360       -7237538.0306296349        382576011.52462488     
  -4250916323.0792465       -10270799.770614147        369858069.94530231     
  -4102763217.0577369       -13295638.763203144        363300700.40307128     
  -3954607584.2120085       -16312055.008391142        362903902.89793909     
  -4947186171.0964251       -87558861.094694138        306341253.29173583     
  -4776282128.4936609       -79697086.812439919        274038226.63045180     
  -4605522072.1838608       -72315266.840070009        250563053.00807124     
  -4434906002.1670160       -65413401.177543402        235915732.42460454     
  -4264433918.4431248       -58991489.824881554        230096264.88004294     
  -5389087774.7499352       -183500984.80815148        212881394.23542786     
  -5187806939.0551548       -162449510.89758110        166982922.55922830     
  -4986816602.7705164       -142366368.35411549        132579584.92375834     
  -4786116765.8960152       -123251557.17780423        109671381.32900071     
  -4585707428.4316568       -105105077.36860967        98258311.774971440     
  -3369296443.0220008        58744356.442929029        631428233.67220354     
  -3228088215.7905588        49843511.787963986        628795416.52570999     
  -3086063512.2045169        43664254.981666565        630016308.73382413     
  -2943222332.2638903        40206586.023983240        635090910.29654348     
  -2799564675.9686708        39470504.914943933        644019221.21387112     
  -3656228425.7382998        22933227.080878735        496681225.82865930     
  -3502562542.6207089        19560268.833704472        491013320.03349221     
  -3348561891.5868154        17303203.640867472        489798851.00972950     
  -3194226472.6366262        16162031.502353907        493037818.75736976     
  -3039556285.7701349        16136752.418189168        500730223.27641284     
  -3954607584.2120085       -16312055.008391142        362903902.89793909     
  -3786770538.3031387       -13643074.776250124        353638915.27608967     
  -3619080432.9162545       -11463896.284074306        349427091.84244817     
  -3451537268.0513611       -9774519.5318586826        350268432.59700060     
  -3284141043.7084608       -8574944.5196243525        356162937.53975487     
  -4264433918.4431248       -58991489.824881554        230096264.88004294     
  -4080712202.8378386       -49766519.041886806        216672202.25350738     
  -3897619136.1928358       -42637044.793168306        208901031.23197269     
  -3715154718.5081062       -37603067.078696012        206782751.81543738     
  -3533318949.7836580       -34664585.898492575        210317364.00389764     
  -4585707428.4316568       -105105077.36860967        98258311.774971440     
  -4384387536.2248154       -88810063.963190079        80113180.965744555     
  -4184178001.4165540       -76216241.886389971        68220669.178322181     
  -3985078824.0068545       -67323611.138111115        62580776.412680626     
  -3787090003.9957299       -62132171.718436480        63193502.668839738     
  -2799564675.9686708        39470504.914943933        644019221.21387112     
  -2661733126.7493382        36036112.582588792        636367623.97924745     
  -2525344743.4014482        27791167.345424414        631755725.87835193     
  -2390399525.9249921        14735669.203476071        630183526.91118157     
  -2256897474.3199854       -3130381.8433014154        631651027.07774067     
  -3039556285.7701349        16136752.418189168        500730223.27641284     
  -2893408355.8832912        13182878.388078809        490394315.21914756     
  -2747840414.4745493        8295709.4309638739        483305035.08725524     
  -2602852461.5438943        1475245.5468952656        479462382.88074160     
  -2458444497.0913324       -7278513.2641553879        478866358.59960729     
  -3284141043.7084608       -8574944.5196243525        356162937.53975487     
  -3129085508.0351167       -10870932.711804867        344149758.95208198     
  -2973746783.4465203       -12222957.853144169        335590137.08143276     
  -2818124869.9426742       -12631019.943645358        330484071.92781788     
  -2662219767.5235677       -12095118.983292341        328831563.49122030     
  -3533318949.7836580       -34664585.898492575        210317364.00389764     
  -3368764583.2048120       -36125320.717036724        197633955.17805722     
  -3203063850.3173742       -33764834.506923795        188611031.86089262     
  -3036216751.1213360       -27583127.268142343        183248594.05240190     
  -2868223285.6166954       -17580199.000702143        181546641.75258285     
  -3787090003.9957299       -62132171.718436480        63193502.668839738     
  -3612445581.3923998       -62580285.627649546        50846903.897068851     
  -3435791615.0871081       -56329920.530370831        42367719.425615229     
  -3257128105.0798855       -43381076.426619887        37755949.254499361     
  -3076455051.3706951       -23733753.316333532        37011593.383695640     
  -2256897474.3199854       -3130381.8433014154        631651027.07774067     
  -2118495556.0303707       -18930078.505119205        622005081.90275109     
  -1978257244.8058643       -28608465.383966446        614469754.67511511     
  -1836182540.6464679       -32165542.479841828        609045045.39483202     
  -1692271443.5521841       -29601309.792764723        605730954.06190383     
  -2458444497.0913324       -7278513.2641553879        478866358.59960729     
  -2311923258.1018915       -15009682.480026722        470080760.65872157     
  -2164565806.0843692       -19953474.935630560        463568208.20590305     
  -2016372141.0387790       -22109890.631009102        459328701.24115014     
  -1867342262.9651151       -21478929.566148043        457362239.76445621     
  -2662219767.5235677       -12095118.983292341        328831563.49122030     
  -2507115129.1465459       -11618537.146867990        319739436.22649050     
  -2352174457.6482735       -11688511.572941184        313082781.99053419     
  -2197397753.0287409       -12305042.261481762        308861600.78335041     
  -2042785015.2879517       -13468129.212499499        307075892.60494852     
  -2868223285.6166954       -17580199.000702143        181546641.75258285     
  -2704071169.1643376       -8756642.5056270361        170981108.60604683     
  -2541083199.4975729       -3813575.2958505154        163013476.02900323     
  -2379259376.6163573       -2750997.3712453842        157643744.02144960     
  -2218599700.5206971       -5568908.7318189144        154871912.58337367     
  -3076455051.3706951       -23733753.316333532        37011593.383695640     
  -2902791378.1552806       -6423998.5563715696        23805777.797412194     
  -2731292031.6322660        3671333.8956254721        13360290.321317708     
  -2561957011.8016143        6552244.0397324562        5675130.9554285165     
  -2394786318.6633444        2218731.8758914471        750299.69973661180     
  -1692271443.5521841       -29601309.792764723        605730954.06190383     
  -1551183863.7675674       -27408200.790242672        592593236.65485573     
  -1411618875.9233472       -30290398.255720317        578160090.04485381     
  -1273576480.0194972       -38247902.189092696        562431514.23191023     
  -1137056676.0560465       -51280712.590463221        545407509.21601415     
  -1867342262.9651151       -21478929.566148043        457362239.76445621     
  -1729676779.0510147       -23380270.138215780        443507365.32803220     
  -1592269255.4544725       -26141478.435481489        429260411.63444585     
  -1455119692.1754973       -29762554.457965970        414621378.68369597     
  -1318228089.2140779       -34243498.205651164        399590266.47579283     
  -2042785015.2879517       -13468129.212499499        307075892.60494852     
  -1905960627.3992567       -18689619.405617118        293979264.69910771     
  -1768129568.2052937       -20555538.581171989        281393907.48188937     
  -1629291837.7060738       -19065886.739198983        269319820.95330417     
  -1489447435.9015906       -14220663.879683375        257757005.11334214     
  -2218599700.5206971       -5568908.7318189144        154871912.58337367     
  -2080035408.8122826       -13336248.592405319        144008934.76807034     
  -1939199814.1758094       -13532578.692787290        134560577.58719376     
  -1796092916.6112187       -6157899.0327758789        126526841.04073316     
  -1650714716.1185608        8787790.3874469995        119907725.12867749     
  -2394786318.6633444        2218731.8758914471        750299.69973661180     
  -2251901123.2901311       -7320157.6987270117       -6403624.4650541497     
  -2105479993.3659940       -5072598.7702466249       -11239578.049640272     
  -1955522928.8909674        8961408.6612006426       -13757561.054024318     
  -1802029929.8650033        34781864.595749140       -13957573.478193477     
  -1137056676.0560465       -51280712.590463221        545407509.21601415     
  -952174203.69804549       -40569326.514195979        563479148.86633134     
  -759679867.33860660       -4485060.4331303537        592491583.70266795     
  -559573666.97772276        56972085.652751565        632444813.72502148     
  -351855602.61540574        143802111.74340546        683338838.93340480     
  -1318228089.2140779       -34243498.205651164        399590266.47579283     
  -1118444671.3150384       -14690085.363329709        421493199.52673930     
  -914996603.79597342        17078826.212411165        441877135.47722167     
  -707883886.65688515        61063236.521559864        460742074.32724702     
  -497106519.89776492        117263145.56413144        478088016.07680440     
  -1489447435.9015906       -14220663.879683375        257757005.11334214     
  -1310362478.9943080        3494953.7688769698        278886148.11993700     
  -1131560086.8484266        20268688.879428446        286036501.73958170     
  -953040259.46392846        36100541.452044189        279208065.97228736     
  -774802996.84084153        50990511.486622185        258400840.81804219     
  -1650714716.1185608        8787790.3874469995        119907725.12867749     
  -1527927626.7358673        13985790.882355034        135657994.64593139     
  -1409370316.4959829        5084527.5678839684        124969682.48976004     
  -1295042785.3989015       -17915999.555930495        87842788.660150990     
  -1184945033.4446259       -55015790.489082754        24277313.157102391     
  -1802029929.8650033        34781864.595749140       -13957573.478193477     
  -1771140114.5396934        16782425.977186322       -8191260.8952713264     
  -1748427292.7386060       -28473657.722117186       -41323322.272269718     
  -1733891464.4617364       -100986386.50215298       -113353757.60916862     
  -1727532629.7091172       -200755760.36301303       -224282566.90599865     
  -351855602.61540574        143802111.74340546        683338838.93340480     
  -277803107.78177059        285119751.61842692        786608485.41362190     
  -148997234.32786182        608948653.56101608        905685187.39197850     
   34562017.746319473        1115288817.5711801        1040568944.8684812     
   272874648.44076866        1804140243.6489153        1191259757.8431361     
  -497106519.89776492        117263145.56413144        478088016.07680440     
  -388289056.28056514        222941433.56709245        597274544.47193742     
  -230345242.34736401        492374222.62337148        735620766.86522138     
  -23275078.098175347        925561512.73297441        893126683.25665390     
   232921436.46701768        1522503303.8959031        1069792293.6462425     
  -774802996.84084153        50990511.486622185        258400840.81804219     
  -621641597.29719937        123903137.76037273        386939384.77309567     
  -424980875.74181783        341813504.07325971        537990261.22631228     
  -184820832.17473704        704721610.42514169        711553470.17769527     
   98838533.404088676        1212627456.8161509        907629011.62721324     
  -1184945033.4446259       -55015790.489082754        24277313.157102391     
  -977860730.83165574       -11995135.801663578        155603006.31709370     
  -732904134.51120901        157266497.91067764        312793670.47526473     
  -450075244.48336160        452769110.64772034        495849305.63159734     
  -129374060.74802881        874512702.40964913        704769911.78608358     
  -1727532629.7091172       -200755760.36301303       -224282566.90599865     
  -1456946456.8839371       -184753387.11904746       -96734590.896051779     
  -1154115018.6555705       -61266795.864448786        60030994.612072848     
  -819038315.02406490        169704013.40064526        246014189.61836562     
  -451716345.98935020        508159040.67635918        461214994.12283486     
 </DataArray>
 <DataArray  type="Float64" Name="VM" NumberOfComponents="1" format="ascii">
   6605813140.2156267     
   6262225588.8135080     
   5938351660.8270712     
   5624398652.7314701     
   5312531617.8120041     
   5848944247.3768892     
   5609688723.6545630     
   5379804638.4277878     
   5155103532.0437298     
   4932614159.9242249     
   5278915392.1798744     
   5100477399.2281990     
   4928005806.9391308     
   4760640530.6989660     
   4597999476.6481247     
   4893487714.7839413     
   4733930427.7284937     
   4584007188.6796303     
   4442902359.9917784     
   4310131761.7861977     
   4687523293.5874062     
   4508789765.5133667     
   4348956640.3541279     
   4203827735.8534670     
   4070315537.9739923     
   5312531617.8120041     
   5116700485.2458115     
   4922538478.1673212     
   4729512841.9870844     
   4537261579.2927151     
   4932614159.9242249     
   4760657271.5454922     
   4590354998.5552092     
   4421485786.4942923     
   4253956298.7425399     
   4597999476.6481247     
   4445120557.7930622     
   4293846727.9664207     
   4144183407.2704248     
   3996220360.1374178     
   4310131761.7861977     
   4172075750.5160480     
   4035493054.8837166     
   3900507465.0494366     
   3767287891.4568844     
   4070315537.9739923     
   3943438809.4749336     
   3817794736.3580279     
   3693494091.4474998     
   3570663999.8545828     
   4537261579.2927151     
   4342881291.6306334     
   4148278475.5599408     
   3953333385.6521444     
   3758003622.7156978     
   4253956298.7425399     
   4073382681.0763745     
   3893326187.2760172     
   3713807301.5821829     
   3534934733.6939368     
   3996220360.1374178     
   3829273493.2168946     
   3663698091.6610546     
   3499647389.8699121     
   3337371826.2837362     
   3767287891.4568844     
   3613878839.1347847     
   3462775725.5298767     
   3314246222.6193910     
   3168659596.9679642     
   3570663999.8545828     
   3430756210.1222725     
   3294117009.3247795     
   3161096736.0640678     
   3032144916.4466400     
   3758003622.7156978     
   3582648142.3674307     
   3408765800.1978998     
   3236316458.5364413     
   3065327506.3779192     
   3534934733.6939368     
   3368287352.8435841     
   3203018815.6393218     
   3039138821.3137751     
   2876711228.4052248     
   3337371826.2837362     
   3180030720.2848568     
   3024042587.1623831     
   2869503562.9277878     
   2716569731.9167790     
   3168659596.9679642     
   3021851899.5209136     
   2876498273.3432016     
   2732825550.2396111     
   2591147905.6632905     
   3032144916.4466400     
   2897745953.2206798     
   2765079852.3568330     
   2634548348.7690077     
   2506687080.2013836     
   3065327506.3779192     
   2899877871.4225688     
   2733227509.1884904     
   2565258242.4778123     
   2395896807.5021973     
   2876711228.4052248     
   2715898120.2870293     
   2554828357.7363315     
   2393510405.7857943     
   2231998295.7801657     
   2716569731.9167790     
   2561900109.6128545     
   2408200649.2175555     
   2255627560.5493932     
   2104406407.5006056     
   2591147905.6632905     
   2444062391.2423649     
   2299399728.4667435     
   2157455041.9690838     
   2018628399.0570006     
   2506687080.2013836     
   2368322074.2477932     
   2233930282.0931864     
   2103888480.6756945     
   1978710537.4436736     
   2395896807.5021973     
   2248277340.8802257     
   2103038388.3235886     
   1960163841.0623460     
   1819830774.7815592     
   2231998295.7801657     
   2088348871.2104273     
   1946472790.1871259     
   1806365037.9879911     
   1668105518.7934067     
   2104406407.5006056     
   1963844433.8693075     
   1824255310.5319479     
   1685672270.8326447     
   1548157285.7112391     
   2018628399.0570006     
   1882016056.2237451     
   1745615647.6420915     
   1609560098.9361255     
   1474033349.1289682     
   1978710537.4436736     
   1848758410.9932489     
   1718614014.3409507     
   1588627063.9893608     
   1459324012.2658346     
   1819830774.7815592     
   1779647232.8245897     
   1735842008.3039758     
   1697063832.1251166     
   1681894094.4227815     
   1668105518.7934067     
   1552848024.0191147     
   1428414781.6013646     
   1295146277.3168089     
   1159180290.3739383     
   1548157285.7112391     
   1398203900.7902293     
   1244678645.3664958     
   1085295207.2868087     
   918008878.44040191     
   1474033349.1289682     
   1329538937.1697898     
   1199543141.2922390     
   1088532853.9898810     
   1002428184.4558289     
   1459324012.2658346     
   1349881021.3870134     
   1275486274.6321931     
   1244270032.3625789     
   1263303169.2808626     
   1681894094.4227815     
   1384096724.4907615     
   1129529693.3910410     
   1010042695.7860358     
   1153245344.7995780     
   1159180290.3739383     
   1008594470.8603047     
   985221867.98525286     
   1161441932.7323139     
   1544263986.3162203     
   918008878.44040191     
   963317118.07329679     
   1144993441.9635670     
   1476469960.9076922     
   1957485977.8689477     
   1002428184.4558289     
   1165009715.5397420     
   1425594999.7619295     
   1808804626.4433882     
   2334740179.1210647     
   1263303169.2808626     
   1447043095.6024530     
   1715968321.3075786     
   2110655877.8828480     
   2663527339.7800436     
   4687523293.5874062     
   4508789765.5133667     
   4348956640.3541279     
   4203827735.8534670     
   4070315537.9739923     
   4443945647.5201807     
   4293494135.8225598     
   4146016075.7569919     
   4001244541.5318146     
   3859002016.3125391     
   4205044129.3252087     
   4068552377.7960916     
   3933215736.9922476     
   3798058199.3097081     
   3662454415.7049270     
   3955436635.4593310     
   3823471742.9238553     
   3705509852.5697188     
   3594696799.3947992     
   3486551692.9694118     
   3690361202.1218920     
   3554235494.1934204     
   3461721077.0532608     
   3393974733.5250549     
   3338651004.7360172     
   4070315537.9739923     
   3943438809.4749336     
   3817794736.3580279     
   3693494091.4474998     
   3570663999.8545828     
   3859002016.3125391     
   3738992559.8941317     
   3620845329.5685854     
   3504776182.6697454     
   3391042040.9274659     
   3662454415.7049270     
   3551152963.6125298     
   3442959975.3094158     
   3338169852.8490944     
   3237151290.9367743     
   3486551692.9694118     
   3385399896.5666671     
   3289240182.9723711     
   3198399354.0905895     
   3113314069.4178362     
   3338651004.7360172     
   3248353654.3254943     
   3165570427.6540065     
   3090587722.0363193     
   3023831974.1046691     
   3570663999.8545828     
   3430756210.1222725     
   3294117009.3247795     
   3161096736.0640678     
   3032144916.4466400     
   3391042040.9274659     
   3263989943.2384253     
   3140829672.5417576     
   3021978408.4141760     
   2907958257.5098281     
   3237151290.9367743     
   3123599345.6914530     
   3014733044.6252842     
   2911021317.6344628     
   2813039130.6088672     
   3113314069.4178362     
   3013763178.2528968     
   2919831246.6815910     
   2832009717.4322519     
   2750890696.5441351     
   3023831974.1046691     
   2938482186.6416059     
   2859773673.5962353     
   2788178655.9707260     
   2724258934.8826809     
   3032144916.4466400     
   2897745953.2206798     
   2765079852.3568330     
   2634548348.7690077     
   2506687080.2013836     
   2907958257.5098281     
   2786147750.4375224     
   2667655059.9897022     
   2552991155.2491493     
   2442797162.7935967     
   2813039130.6088672     
   2704730829.5957031     
   2601332709.3155408     
   2503419016.6869559     
   2411675743.9125209     
   2750890696.5441351     
   2656213962.8828912     
   2567917693.9770169     
   2486572850.7647076     
   2412833802.8179412     
   2724258934.8826809     
   2642378215.1826162     
   2568120954.5661640     
   2501991400.2090216     
   2444550653.1408153     
   2506687080.2013836     
   2368322074.2477932     
   2233930282.0931864     
   2103888480.6756945     
   1978710537.4436736     
   2442797162.7935967     
   2316784982.4187870     
   2195737639.1240702     
   2080280774.3154578     
   1971188844.2129960     
   2411675743.9125209     
   2300790644.8199596     
   2196150187.2074461     
   2098563262.8470929     
   2008979070.3492002     
   2412833802.8179412     
   2319382146.6197610     
   2233553764.0995693     
   2156225483.3402753     
   2088387472.2229688     
   2444550653.1408153     
   2370124410.4037666     
   2304628192.7750878     
   2248882901.9510579     
   2203797982.5315657     
   1978710537.4436736     
   1848758410.9932489     
   1718614014.3409507     
   1588627063.9893608     
   1459324012.2658346     
   1971188844.2129960     
   1855776065.2380726     
   1744634365.7563531     
   1638689440.7288146     
   1539080414.4301784     
   2008979070.3492002     
   1913153431.4827313     
   1826098033.2537630     
   1749010558.4035444     
   1683177287.2021198     
   2088387472.2229688     
   2013556528.1237230     
   1951131622.8588371     
   1902174917.1086614     
   1867699599.4873621     
   2203797982.5315657     
   2148276415.5449929     
   2107761956.5874927     
   2082988216.0217626     
   2074614430.0093749     
   1459324012.2658346     
   1349881021.3870134     
   1275486274.6321931     
   1244270032.3625789     
   1263303169.2808626     
   1539080414.4301784     
   1477693977.0441713     
   1449043806.6004195     
   1457110202.3975782     
   1505216135.9984324     
   1683177287.2021198     
   1654086488.0213740     
   1652768417.2393208     
   1681609423.9937034     
   1743235237.0182905     
   1867699599.4873621     
   1856573916.0231068     
   1868498276.5081713     
   1905696165.9281609     
   1971199130.2074831     
   2074614430.0093749     
   2070539329.4142156     
   2085817028.4281318     
   2123087112.5604794     
   2186141593.3715110     
   1263303169.2808626     
   1447043095.6024530     
   1715968321.3075786     
   2110655877.8828480     
   2663527339.7800436     
   1505216135.9984324     
   1613567594.2401731     
   1789081143.1231368     
   2066505393.0578225     
   2476043701.1435523     
   1743235237.0182905     
   1787981663.9720986     
   1884832367.1950746     
   2060700268.1529517     
   2340827313.1509290     
   1971199130.2074831     
   1969245493.0388675     
   2003789440.4285247     
   2093514678.0433190     
   2257103969.3014426     
   2186141593.3715110     
   2156644418.8232565     
   2146695321.4227347     
   2166833365.4723496     
   2228157523.6259923     
   3690361202.1218920     
   3554235494.1934204     
   3461721077.0532608     
   3393974733.5250549     
   3338651004.7360172     
   3107151425.3287849     
   3087056053.8772159     
   3083805420.3628969     
   3091701361.7269697     
   3107859397.8478951     
   2726891272.1374621     
   2764648933.9908895     
   2809253508.4791493     
   2861134133.8646984     
   2920770076.2896361     
   2576641692.4883461     
   2601094083.8848057     
   2646860587.0838866     
   2707911372.2590523     
   2779780083.1460123     
   2659355375.6087365     
   2602026162.7353144     
   2601782685.7600431     
   2635407441.9262238     
   2685974675.9572744     
   3338651004.7360172     
   3248353654.3254943     
   3165570427.6540065     
   3090587722.0363193     
   3023831974.1046691     
   3107859397.8478951     
   3040801914.6818619     
   2981237203.4966154     
   2929506861.5468512     
   2886036945.4941883     
   2920770076.2896361     
   2874531176.6660328     
   2835688308.7632213     
   2804546802.1408734     
   2781448719.8664699     
   2779780083.1460123     
   2751654366.3180594     
   2730710410.4777079     
   2717130297.6081285     
   2711104247.7291417     
   2685974675.9572744     
   2672987968.8701172     
   2666833725.6231890     
   2667497538.3268647     
   2674971193.2401333     
   3023831974.1046691     
   2938482186.6416059     
   2859773673.5962353     
   2788178655.9707260     
   2724258934.8826809     
   2886036945.4941883     
   2819122032.8483644     
   2759248345.2673426     
   2706852843.1522880     
   2662424578.8434415     
   2781448719.8664699     
   2731977175.2978697     
   2689756900.9316416     
   2655145911.4431915     
   2628522401.2038336     
   2711104247.7291417     
   2677681779.3967533     
   2651500481.3244543     
   2632812579.2643547     
   2621869613.9836006     
   2674971193.2401333     
   2655808613.9073992     
   2643661663.6741290     
   2638669734.1414084     
   2640963276.0425153     
   2724258934.8826809     
   2642378215.1826162     
   2568120954.5661640     
   2501991400.2090216     
   2444550653.1408153     
   2662424578.8434415     
   2595716639.5841289     
   2536998263.7959685     
   2486715911.6961541     
   2445343678.9003172     
   2628522401.2038336     
   2577109469.0531468     
   2533914981.6121984     
   2499315727.7904482     
   2473696820.9022450     
   2621869613.9836006     
   2585560081.6182551     
   2557555401.0233536     
   2538164204.2130666     
   2527695839.0385861     
   2640963276.0425153     
   2619269884.8907876     
   2605848575.4999700     
   2600954292.6341696     
   2604845640.8153114     
   2444550653.1408153     
   2370124410.4037666     
   2304628192.7750878     
   2248882901.9510579     
   2203797982.5315657     
   2445343678.9003172     
   2390318050.4393978     
   2344966007.5166426     
   2309912206.2074676     
   2285783688.2331820     
   2473696820.9022450     
   2435520140.3210697     
   2407349797.7277217     
   2389584021.6676183     
   2382586587.2905889     
   2527695839.0385861     
   2503177210.0747886     
   2488691155.9404249     
   2484424369.3674979     
   2490532924.4055810     
   2604845640.8153114     
   2590422964.2045283     
   2585876845.2580400     
   2591217232.4716620     
   2606454760.7544966     
   2203797982.5315657     
   2148276415.5449929     
   2107761956.5874927     
   2082988216.0217626     
   2074614430.0093749     
   2285783688.2331820     
   2244539462.0815067     
   2217329699.1984768     
   2204594159.0675082     
   2206719387.6093960     
   2382586587.2905889     
   2352885114.1249523     
   2336247038.4972205     
   2332926225.5297771     
   2343150018.7319522     
   2490532924.4055810     
   2469930685.9982233     
   2461533071.1708221     
   2465486366.4127922     
   2481932216.7717924     
   2606454760.7544966     
   2592864963.8824611     
   2590792324.2533202     
   2600327073.4519901     
   2621569207.0334730     
   2074614430.0093749     
   2070539329.4142156     
   2085817028.4281318     
   2123087112.5604794     
   2186141593.3715110     
   2206719387.6093960     
   2192220775.2597971     
   2192760157.5704894     
   2210308864.2907166     
   2247773503.3036304     
   2343150018.7319522     
   2318950372.6749201     
   2306257543.3257575     
   2306478092.5609555     
   2321695162.1576014     
   2481932216.7717924     
   2449723893.1766806     
   2425975472.4342208     
   2411634387.7136617     
   2408079182.9268622     
   2621569207.0334730     
   2583737136.6836648     
   2551617409.4456754     
   2525795188.2253413     
   2507085832.0028267     
   2186141593.3715110     
   2156644418.8232565     
   2146695321.4227347     
   2166833365.4723496     
   2228157523.6259923     
   2247773503.3036304     
   2182882664.4824653     
   2134411615.4285378     
   2112027833.8386955     
   2126671627.5040245     
   2321695162.1576014     
   2224783966.6323056     
   2141214942.5017188     
   2079341473.7723067     
   2049319634.0423806     
   2408079182.9268622     
   2282642532.2513809     
   2167751223.3924627     
   2070124356.2943599     
   1998496486.6386452     
   2507085832.0028267     
   2356668557.1589584     
   2214490415.6667886     
   2085506506.9870181     
   1976547621.5438797     
   2659355375.6087365     
   2602026162.7353144     
   2601782685.7600431     
   2635407441.9262238     
   2685974675.9572744     
   2716032771.0628281     
   2661994064.9606524     
   2639429480.2247410     
   2636929146.4246864     
   2646388780.1265626     
   2812494928.4292078     
   2743288045.6841063     
   2693976536.9926248     
   2660224781.0803952     
   2638984437.1994357     
   2942660060.4218540     
   2846367946.9707227     
   2768826001.6376500     
   2709124639.4912901     
   2666629023.5099206     
   3107896489.7607298     
   2976105233.9552565     
   2869355327.5677676     
   2787646770.5982456     
   2730979563.0467105     
   2685974675.9572744     
   2672987968.8701172     
   2666833725.6231890     
   2667497538.3268647     
   2674971193.2401333     
   2646388780.1265626     
   2634718546.4691358     
   2629580167.1791787     
   2630967010.8056202     
   2638876705.3575716     
   2638984437.1994357     
   2626158052.9558263     
   2619745066.7624698     
   2619743451.7988782     
   2626153425.9719977     
   2666629023.5099206     
   2650164306.1345320     
   2640157369.9148760     
   2636607939.9174781     
   2639516391.7074289     
   2730979563.0467105     
   2708551662.8732181     
   2692751464.4851127     
   2683578967.8823981     
   2681034173.0650682     
   2674971193.2401333     
   2655808613.9073992     
   2643661663.6741290     
   2638669734.1414084     
   2640963276.0425153     
   2638876705.3575716     
   2622715729.2523608     
   2614460232.5890994     
   2614212422.0663066     
   2622067549.0611291     
   2626153425.9719977     
   2611214251.5155683     
   2605155885.5950222     
   2608035118.1166325     
   2619904799.0347877     
   2639516391.7074289     
   2623405975.1358604     
   2617244617.5938721     
   2621049451.7153869     
   2634836468.0410762     
   2681034173.0650682     
   2660841504.8311362     
   2651757005.7650313     
   2653780675.8667574     
   2666912515.1363106     
   2640963276.0425153     
   2619269884.8907876     
   2605848575.4999700     
   2600954292.6341696     
   2604845640.8153114     
   2622067549.0611291     
   2608753959.2120867     
   2604061233.8116045     
   2608138741.7367244     
   2621134560.8800664     
   2619904799.0347877     
   2612550523.3260078     
   2614146955.9870996     
   2624762622.6090164     
   2644464255.8327389     
   2634836468.0410762     
   2630704508.7633443     
   2635878503.4214158     
   2650376051.5443354     
   2674214088.6349964     
   2666912515.1363106     
   2663050768.0914898     
   2668908147.4930630     
   2684484653.3410239     
   2709780285.6353722     
   2604845640.8153114     
   2590422964.2045283     
   2585876845.2580400     
   2591217232.4716620     
   2606454760.7544966     
   2621134560.8800664     
   2610973995.3870516     
   2610699784.8751855     
   2620320294.6593056     
   2639842809.2975020     
   2644464255.8327389     
   2637624287.3751993     
   2640821033.0311337     
   2654059622.1642990     
   2677343974.1361189     
   2674214088.6349964     
   2669668936.7892914     
   2675476042.0369244     
   2691637099.7039728     
   2718153298.0067420     
   2709780285.6353722     
   2706430650.5293550     
   2713937847.6435895     
   2732301876.9780879     
   2761522738.5328450     
   2606454760.7544966     
   2592864963.8824611     
   2590792324.2533202     
   2600327073.4519901     
   2621569207.0334730     
   2639842809.2975020     
   2629343695.9983888     
   2629186925.0787997     
   2639414259.0758491     
   2660075380.8629031     
   2677343974.1361189     
   2669471340.5034900     
   2670949704.3700871     
   2681794123.3562813     
   2702024053.9127312     
   2718153298.0067420     
   2712673302.8531432     
   2715707532.7323427     
   2727258976.4529629     
   2747331899.2702432     
   2761522738.5328450     
   2758411377.7196503     
   2763105801.0574331     
   2775606008.5461931     
   2795912000.1859107     
   2621569207.0334730     
   2583737136.6836648     
   2551617409.4456754     
   2525795188.2253413     
   2507085832.0028267     
   2660075380.8629031     
   2615150291.0577817     
   2575783135.3584356     
   2542307282.1151538     
   2515189340.4856501     
   2702024053.9127312     
   2652126446.8864903     
   2607771849.0541935     
   2569108951.6180105     
   2536346313.5258112     
   2747331899.2702432     
   2694580052.2320657     
   2647496954.4660387     
   2606119583.1748242     
   2570499783.8952994     
   2795912000.1859107     
   2742416509.9924593     
   2694857454.1251583     
   2653234832.5840230     
   2617548645.3690634     
   2507085832.0028267     
   2356668557.1589584     
   2214490415.6667886     
   2085506506.9870181     
   1976547621.5438797     
   2515189340.4856501     
   2347469324.4703836     
   2183329328.7431617     
   2025853917.4241638     
   1879579066.9873121     
   2536346313.5258112     
   2356383953.0831022     
   2176134731.7945805     
   1997063176.3919251     
   1821433645.2164626     
   2570499783.8952994     
   2383511663.4174166     
   2193370280.8655767     
   2000452176.9073997     
   1805357930.4885592     
   2617548645.3690634     
   2428817432.4474020     
   2235176186.8170342     
   2036624908.4779341     
   1833163597.4301269     
   3107896489.7607298     
   2976105233.9552565     
   2869355327.5677676     
   2787646770.5982456     
   2730979563.0467105     
   2942660060.4540682     
   2846367947.0154710     
   2768826001.7242241     
   2709124639.6334267     
   2666629023.7104669     
   2812494928.5688477     
   2743288045.8606033     
   2693976537.2469993     
   2660224781.4286861     
   2638984437.6409507     
   2716032771.3609624     
   2661994065.3484354     
   2639429480.7308550     
   2636929147.0521822     
   2646388780.8626728     
   2659355376.0579405     
   2602026163.3835392     
   2601782686.5906644     
   2635407442.9066334     
   2685974677.0499015     
   2730979563.0467105     
   2708551662.8732181     
   2692751464.4851127     
   2683578967.8823981     
   2681034173.0650682     
   2666629023.7104669     
   2650164306.3099341     
   2640157370.0702214     
   2636607940.0575910     
   2639516391.8369250     
   2638984437.6409507     
   2626158053.3404408     
   2619745067.0989814     
   2619743452.0958505     
   2626153426.2378292     
   2646388780.8626728     
   2634718547.1100607     
   2629580167.7355814     
   2630967011.2883224     
   2638876705.7776332     
   2685974677.0499015     
   2672987969.8237009     
   2666833726.4479728     
   2667497539.0340786     
   2674971193.8419986     
   2681034173.0650682     
   2660841504.8311362     
   2651757005.7650313     
   2653780675.8667574     
   2666912515.1363106     
   2639516391.8369250     
   2623405975.2345371     
   2617244617.6683311     
   2621049451.7722955     
   2634836468.0871825     
   2626153426.2378292     
   2611214251.7145071     
   2605155885.7400489     
   2608035118.2210159     
   2619904799.1120548     
   2638876705.7776332     
   2622715729.5622749     
   2614460232.8078351     
   2614212422.2134914     
   2622067549.1570678     
   2674971193.8419986     
   2655808614.3473969     
   2643661663.9765363     
   2638669734.3317971     
   2640963276.1477499     
   2666912515.1363106     
   2663050768.0914898     
   2668908147.4930630     
   2684484653.3410239     
   2709780285.6353722     
   2634836468.0871825     
   2630704508.7805877     
   2635878503.4134698     
   2650376051.5150375     
   2674214088.5883980     
   2619904799.1120548     
   2612550523.3494544     
   2614146955.9645419     
   2624762622.5485392     
   2644464255.7427788     
   2622067549.1570678     
   2608753959.2319932     
   2604061233.7678666     
   2608138741.6421242     
   2621134560.7478328     
   2640963276.1477499     
   2619269884.8991599     
   2605848575.4288516     
   2600954292.5015121     
   2604845640.6396079     
   2709780285.6353722     
   2706430650.5293550     
   2713937847.6435895     
   2732301876.9780879     
   2761522738.5328450     
   2674214088.5883980     
   2669668936.7480569     
   2675476042.0003185     
   2691637099.6712937     
   2718153297.9773197     
   2644464255.7427788     
   2637624287.2952161     
   2640821032.9595361     
   2654059622.0995708     
   2677343974.0768256     
   2621134560.7478328     
   2610973995.2690177     
   2610699784.7687469     
   2620320294.5620213     
   2639842809.2070374     
   2604845640.6396079     
   2590422964.0471926     
   2585876845.1153197     
   2591217232.3400578     
   2606454760.6306434     
   2761522738.5328450     
   2758411377.7196503     
   2763105801.0574331     
   2775606008.5461931     
   2795912000.1859107     
   2718153297.9773197     
   2712673302.8290563     
   2715707532.7128148     
   2727258976.4372516     
   2747331899.2576027     
   2677343974.0768256     
   2669471340.4552336     
   2670949704.3313513     
   2681794123.3255353     
   2702024053.8884592     
   2639842809.2070374     
   2629343695.9252563     
   2629186925.0206876     
   2639414259.0304298     
   2660075380.8278432     
   2606454760.6306434     
   2592864963.7830091     
   2590792324.1751566     
   2600327073.3919334     
   2621569206.9882979     
   2795912000.1859107     
   2742416509.9924593     
   2694857454.1251583     
   2653234832.5840230     
   2617548645.3690634     
   2747331899.2576027     
   2694580052.2216291     
   2647496954.4575424     
   2606119583.1680040     
   2570499783.8899069     
   2702024053.8884592     
   2652126446.8664327     
   2607771849.0377755     
   2569108951.6047044     
   2536346313.5151186     
   2660075380.8278432     
   2615150291.0287552     
   2575783135.3345776     
   2542307282.0956473     
   2515189340.4697332     
   2621569206.9882979     
   2583737136.6462159     
   2551617409.4147749     
   2525795188.1998858     
   2507085831.9817181     
   2617548645.3690634     
   2428817432.4474020     
   2235176186.8170342     
   2036624908.4779341     
   1833163597.4301269     
   2570499783.8899069     
   2383511663.4138632     
   2193370280.8639941     
   2000452176.9081089     
   1805357930.4921048     
   2536346313.5151186     
   2356383953.0758891     
   2176134731.7911172     
   1997063176.3927352     
   1821433645.2224932     
   2515189340.4697332     
   2347469324.4594245     
   2183329328.7375212     
   2025853917.4244814     
   1879579066.9946980     
   2507085831.9817181     
   2356668557.1441231     
   2214490415.6586089     
   2085506506.9861536     
   1976547621.5513878     
   2659355376.0579405     
   2602026163.3835392     
   2601782686.5906644     
   2635407442.9066334     
   2685974677.0499015     
   2576641693.4420381     
   2601094085.0064759     
   2646860588.3377428     
   2707911373.6181045     
   2779780084.5912852     
   2726891273.9327269     
   2764648935.7922363     
   2809253510.2931080     
   2861134135.6966605     
   2920770078.1451492     
   3107151428.2260966     
   3087056056.5338874     
   3083805422.8587475     
   3091701364.1149096     
   3107859400.1613879     
   3690361206.3092031     
   3554235497.8570113     
   3461721080.3425102     
   3393974736.5433097     
   3338651007.5464425     
   2685974677.0499015     
   2672987969.8237009     
   2666833726.4479728     
   2667497539.0340786     
   2674971193.8419986     
   2779780084.5912852     
   2751654367.5895247     
   2730710411.5859962     
   2717130298.5649238     
   2711104248.5473328     
   2920770078.1451492     
   2874531178.3042727     
   2835688310.1949587     
   2804546803.3774858     
   2781448720.9203596     
   3107859400.1613879     
   3040801916.7271490     
   2981237205.2846098     
   2929506863.0881133     
   2886036946.7996607     
   3338651007.5464425     
   3248353656.8101292     
   3165570429.8242421     
   3090587723.9017563     
   3023831975.6741686     
   2674971193.8419986     
   2655808614.3473969     
   2643661663.9765363     
   2638669734.3317971     
   2640963276.1477499     
   2711104248.5473328     
   2677681780.0128713     
   2651500481.7628222     
   2632812579.5509930     
   2621869614.1463494     
   2781448720.9203596     
   2731977176.1046062     
   2689756901.5146422     
   2655145911.8279381     
   2628522401.4182076     
   2886036946.7996607     
   2819122033.8582020     
   2759248346.0031681     
   2706852843.6380038     
   2662424579.1058521     
   3023831975.6741686     
   2938482187.8648567     
   2859773674.4923668     
   2788178656.5611715     
   2724258935.1920166     
   2640963276.1477499     
   2619269884.8991599     
   2605848575.4288516     
   2600954292.5015121     
   2604845640.6396079     
   2621869614.1463494     
   2585560081.6634665     
   2557555400.9714451     
   2538164204.0855355     
   2527695838.8579555     
   2628522401.4182076     
   2577109469.1261873     
   2533914981.5670066     
   2499315727.6517973     
   2473696820.6966047     
   2662424579.1058521     
   2595716639.6776342     
   2536998263.7458239     
   2486715911.5299187     
   2445343678.6480484     
   2724258935.1920166     
   2642378215.2912812     
   2568120954.5008769     
   2501991399.9994020     
   2444550652.8198991     
   2604845640.6396079     
   2590422964.0471926     
   2585876845.1153197     
   2591217232.3400578     
   2606454760.6306434     
   2527695838.8579555     
   2503177209.9153953     
   2488691155.7970915     
   2484424369.2350063     
   2490532924.2786331     
   2473696820.6966047     
   2435520140.1450300     
   2407349797.5749240     
   2389584021.5313420     
   2382586587.1637363     
   2445343678.6480484     
   2390318050.2305231     
   2344966007.3440552     
   2309912206.0633821     
   2285783688.1089673     
   2444550652.8198991     
   2370124410.1450491     
   2304628192.5712957     
   2248882901.7939916     
   2203797982.4116673     
   2606454760.6306434     
   2592864963.7830091     
   2590792324.1751566     
   2600327073.3919334     
   2621569206.9882979     
   2490532924.2786331     
   2469930685.8970795     
   2461533071.0923109     
   2465486366.3536530     
   2481932216.7286644     
   2382586587.1637363     
   2352885114.0248590     
   2336247038.4204845     
   2332926225.4728804     
   2343150018.6912575     
   2285783688.1089673     
   2244539461.9847403     
   2217329699.1253490     
   2204594159.0140762     
   2206719387.5715399     
   2203797982.4116673     
   2148276415.4532156     
   2107761956.5194168     
   2082988215.9728124     
   2074614429.9747293     
   2621569206.9882979     
   2583737136.6462159     
   2551617409.4147749     
   2525795188.1998858     
   2507085831.9817181     
   2481932216.7286644     
   2449723893.1403675     
   2425975472.4037776     
   2411634387.6881938     
   2408079182.9055238     
   2343150018.6912575     
   2318950372.6402063     
   2306257543.2962008     
   2306478092.5358634     
   2321695162.1363864     
   2206719387.5715399     
   2192220775.2270999     
   2192760157.5422525     
   2210308864.2664242     
   2247773503.2828808     
   2074614429.9747293     
   2070539329.3839812     
   2085817028.4016712     
   2123087112.5373938     
   2186141593.3515868     
   2507085831.9817181     
   2356668557.1441231     
   2214490415.6586089     
   2085506506.9861536     
   1976547621.5513878     
   2408079182.9055238     
   2282642532.2368050     
   2167751223.3850689     
   2070124356.2947390     
   1998496486.6475887     
   2321695162.1363864     
   2224783966.6179829     
   2141214942.4946749     
   2079341473.7729974     
   2049319634.0512090     
   2247773503.2828808     
   2182882664.4683528     
   2134411615.4214332     
   2112027833.8388495     
   2126671627.5113735     
   2186141593.3515868     
   2156644418.8093715     
   2146695321.4151695     
   2166833365.4711213     
   2228157523.6306295     
   3690361206.3092031     
   3554235497.8570113     
   3461721080.3425102     
   3393974736.5433097     
   3338651007.5464425     
   3955436639.5775700     
   3823471746.6754065     
   3705509856.0432057     
   3594696802.6359363     
   3486551695.9906802     
   4205044133.0828872     
   4068552381.4161677     
   3933215740.4743953     
   3798058202.6320877     
   3662454418.8291869     
   4443945650.5604486     
   4293494139.0259600     
   4146016079.0166941     
   4001244544.7519798     
   3859002019.4048891     
   4687523295.5208664     
   4508789767.9738216     
   4348956643.1249018     
   4203827738.7633700     
   4070315540.8864555     
   3338651007.5464425     
   3248353656.8101292     
   3165570429.8242421     
   3090587723.9017563     
   3023831975.6741686     
   3486551695.9906802     
   3385399899.2961102     
   3289240185.4079156     
   3198399356.2290015     
   3113314071.2554660     
   3662454418.8291869     
   3551152966.4787455     
   3442959977.9047894     
   3338169855.1601601     
   3237151292.9498301     
   3859002019.4048891     
   3738992562.7658238     
   3620845332.1984344     
   3504776185.0363150     
   3391042043.0092211     
   4070315540.8864555     
   3943438812.2102680     
   3817794738.8886948     
   3693494093.7461195     
   3570664001.8938456     
   3023831975.6741686     
   2938482187.8648567     
   2859773674.4923668     
   2788178656.5611715     
   2724258935.1920166     
   3113314071.2554660     
   3013763179.7398129     
   2919831247.8261638     
   2832009718.2448120     
   2750890697.0376472     
   3237151292.9498301     
   3123599347.3569698     
   3014733045.9433770     
   2911021318.6065578     
   2813039131.2381811     
   3391042043.0092211     
   3263989944.9858789     
   3140829673.9493341     
   3021978409.4769278     
   2907958258.2235727     
   3570664001.8938456     
   3430756211.8519578     
   3294117010.7361817     
   3161096737.1484141     
   3032144917.1949382     
   2724258935.1920166     
   2642378215.2912812     
   2568120954.5008769     
   2501991399.9994020     
   2444550652.8198991     
   2750890697.0376472     
   2656213963.1538024     
   2567917694.0431776     
   2486572850.6464777     
   2412833802.5386710     
   2813039131.2381811     
   2704730829.9951348     
   2601332709.4960780     
   2503419016.6612453     
   2411675743.6950531     
   2907958258.2235727     
   2786147750.9304328     
   2667655060.2684374     
   2552991155.3210225     
   2442797162.6663179     
   3032144917.1949382     
   2897745953.7737598     
   2765079852.7197647     
   2634548348.9467649     
   2506687080.1980257     
   2444550652.8198991     
   2370124410.1450491     
   2304628192.5712957     
   2248882901.7939916     
   2203797982.4116673     
   2412833802.5386710     
   2319382146.3925433     
   2233553763.9221382     
   2156225483.2095709     
   2088387472.1347928     
   2411675743.6950531     
   2300790644.6407766     
   2196150187.0682588     
   2098563262.7491708     
   2008979070.2932565     
   2442797162.6663179     
   2316784982.3117366     
   2195737639.0415468     
   2080280774.2618146     
   1971188844.1926880     
   2506687080.1980257     
   2368322074.2421799     
   2233930282.0906014     
   2103888480.6819041     
   1978710537.4652038     
   2203797982.4116673     
   2148276415.4532156     
   2107761956.5194168     
   2082988215.9728124     
   2074614429.9747293     
   2088387472.1347928     
   2013556528.0556185     
   1951131622.8080292     
   1902174917.0721257     
   1867699599.4618304     
   2008979070.2932565     
   1913153431.4385364     
   1826098033.2200196     
   1749010558.3788218     
   1683177287.1848359     
   1971188844.1926880     
   1855776065.2204196     
   1744634365.7413383     
   1638689440.7164884     
   1539080414.4207017     
   1978710537.4652038     
   1848758411.0072210     
   1718614014.3483627     
   1588627063.9914842     
   1459324012.2642958     
   2074614429.9747293     
   2070539329.3839812     
   2085817028.4016712     
   2123087112.5373938     
   2186141593.3515868     
   1867699599.4618304     
   1856573916.0006583     
   1868498276.4882982     
   1905696165.9105623     
   1971199130.1920671     
   1683177287.1848359     
   1654086488.0059388     
   1652768417.2253616     
   1681609423.9810250     
   1743235237.0068731     
   1539080414.4207017     
   1477693977.0353198     
   1449043806.5919375     
   1457110202.3893518     
   1505216135.9905598     
   1459324012.2642958     
   1349881021.3848395     
   1275486274.6291442     
   1244270032.3585835     
   1263303169.2761314     
   2186141593.3515868     
   2156644418.8093715     
   2146695321.4151695     
   2166833365.4711213     
   2228157523.6306295     
   1971199130.1920671     
   1969245493.0280523     
   2003789440.4228108     
   2093514678.0428829     
   2257103969.3058944     
   1743235237.0068731     
   1787981663.9639888     
   1884832367.1908159     
   2060700268.1528361     
   2340827313.1546268     
   1505216135.9905598     
   1613567594.2343953     
   1789081143.1199794     
   2066505393.0576277     
   2476043701.1460299     
   1263303169.2761314     
   1447043095.5986991     
   1715968321.3052399     
   2110655877.8822672     
   2663527339.7810583     
   4687523295.5208664     
   4508789767.9738216     
   4348956643.1249018     
   4203827738.7633700     
   4070315540.8864555     
   4893487716.9506521     
   4733930430.1220694     
   4584007191.2180014     
   4442902362.6058912     
   4310131764.4157391     
   5278915394.9221354     
   5100477401.8190575     
   4928005809.4124908     
   4760640533.0743761     
   4597999478.9326925     
   5848944251.0696392     
   5609688726.7485256     
   5379804641.0403233     
   5155103534.2620649     
   4932614161.8095713     
   6605813145.2560387     
   6262225592.7434216     
   5938351663.8073626     
   5624398654.8914709     
   5312531619.2504158     
   4070315540.8864555     
   3943438812.2102680     
   3817794738.8886948     
   3693494093.7461195     
   3570664001.8938456     
   4310131764.4157391     
   4172075752.9855423     
   4035493057.1712108     
   3900507467.1325836     
   3767287893.3126559     
   4597999478.9326925     
   4445120559.9442844     
   4293846729.9688888     
   4144183409.1081443     
   3996220361.7932706     
   4932614161.8095713     
   4760657273.3335209     
   4590355000.2370453     
   4421485788.0606728     
   4253956300.1829801     
   5312531619.2504158     
   5116700486.6318254     
   4922538479.4978733     
   4729512843.2592335     
   4537261580.5026522     
   3570664001.8938456     
   3430756211.8519578     
   3294117010.7361817     
   3161096737.1484141     
   3032144917.1949382     
   3767287893.3126559     
   3613878840.7164340     
   3462775726.8280082     
   3314246223.6240668     
   3168659597.6682801     
   3996220361.7932706     
   3829273494.6499152     
   3663698092.8631463     
   3499647390.8323832     
   3337371826.9965715     
   4253956300.1829801     
   4073382682.3597555     
   3893326188.3970194     
   3713807302.5352392     
   3534934734.4723220     
   4537261580.5026522     
   4342881292.7624979     
   4148278476.6121054     
   3953333386.6234469     
   3758003623.6044345     
   3032144917.1949382     
   2897745953.7737598     
   2765079852.7197647     
   2634548348.9467649     
   2506687080.1980257     
   3168659597.6682801     
   3021851900.0537195     
   2876498273.7136912     
   2732825550.4533563     
   2591147905.7259669     
   3337371826.9965715     
   3180030720.8463264     
   3024042587.5764747     
   2869503563.1990900     
   2716569732.0504823     
   3534934734.4723220     
   3368287353.4752789     
   3203018816.1259775     
   3039138821.6576076     
   2876711228.6091681     
   3758003623.6044345     
   3582648143.1031694     
   3408765800.7790809     
   3236316458.9619136     
   3065327506.6470675     
   2506687080.1980257     
   2368322074.2421799     
   2233930282.0906014     
   2103888480.6819041     
   1978710537.4652038     
   2591147905.7259669     
   2444062391.2909355     
   2299399728.5054960     
   2157455042.0027041     
   2018628399.0908146     
   2716569732.0504823     
   2561900109.7187166     
   2408200649.2987118     
   2255627560.6092143     
   2104406407.5428977     
   2876711228.6091681     
   2715898120.4485693     
   2554828357.8573785     
   2393510405.8683581     
   2231998295.8264208     
   3065327506.6470675     
   2899877871.6347671     
   2733227509.3444891     
   2565258242.5783420     
   2395896807.5479288     
   1978710537.4652038     
   1848758411.0072210     
   1718614014.3483627     
   1588627063.9914842     
   1459324012.2642958     
   2018628399.0908146     
   1882016056.2478352     
   1745615647.6570413     
   1609560098.9426434     
   1474033349.1279304     
   2104406407.5428977     
   1963844433.9001486     
   1824255310.5517397     
   1685672270.8417971     
   1548157285.7102046     
   2231998295.8264208     
   2088348871.2438769     
   1946472790.2082257     
   1806365037.9972363     
   1668105518.7911830     
   2395896807.5479288     
   2248277340.9120445     
   2103038388.3424060     
   1960163841.0689313     
   1819830774.7766757     
   1459324012.2642958     
   1349881021.3848395     
   1275486274.6291442     
   1244270032.3585835     
   1263303169.2761314     
   1474033349.1279304     
   1329538937.1684721     
   1199543141.2903838     
   1088532853.9873288     
   1002428184.4525704     
   1548157285.7102046     
   1398203900.7891650     
   1244678645.3652496     
   1085295207.2852819     
   918008878.43849969     
   1668105518.7911830     
   1552848024.0172482     
   1428414781.5998445     
   1295146277.3156133     
   1159180290.3731325     
   1819830774.7766757     
   1779647232.8205969     
   1735842008.3010819     
   1697063832.1234310     
   1681894094.4225028     
   1263303169.2761314     
   1447043095.5986991     
   1715968321.3052399     
   2110655877.8822672     
   2663527339.7810583     
   1002428184.4525704     
   1165009715.5372937     
   1425594999.7604299     
   1808804626.4430130     
   2334740179.1217051     
   918008878.43849969     
   963317118.07188284     
   1144993441.9627140     
   1476469960.9074421     
   1957485977.8692708     
   1159180290.3731325     
   1008594470.8597370     
   985221867.98492920     
   1161441932.7322328     
   1544263986.3163366     
   1681894094.4225028     
   1384096724.4906318     
   1129529693.3910692     
   1010042695.7861608     
   1153245344.7996426     
 </DataArray>
 <DataArray  type="Float64" Name="strain" NumberOfComponents="3" format="ascii">
  0.11014711101981778       -1.9796966774365155E-002   3.2296692070263866E-002
  0.10483548942263499       -2.2072547627257300E-002   2.3780216500032703E-002
   9.9523867825452195E-002  -2.3512761636145907E-002   1.7096086032878377E-002
   9.4212246228269403E-002  -2.4117608801031087E-002   1.2244300668801500E-002
   8.8900624631086611E-002  -2.3887089121912730E-002   9.2248604078022378E-003
   9.6992146968413184E-002  -2.2832190796730045E-002   2.7062221455234403E-002
   9.3247937354992094E-002  -2.3566515282935852E-002   2.1661644702636151E-002
   8.9503727741570893E-002  -2.3885361061781962E-002   1.7563546814483522E-002
   8.5759518128149748E-002  -2.3788728133268683E-002   1.4767927790777041E-002
   8.2015308514728602E-002  -2.3276616497395708E-002   1.3274787631516238E-002
   8.6592592078276298E-002  -2.5867414819094936E-002   2.3578951275212923E-002
   8.3885928209985194E-002  -2.5060482938614459E-002   2.0874385203604295E-002
   8.1179264341693980E-002  -2.4257960487418351E-002   1.8942431757809408E-002
   7.8472600473402820E-002  -2.3459847465506334E-002   1.7783090937829329E-002
   7.5765936605111661E-002  -2.2666143872878686E-002   1.7396362743662963E-002
   7.8948446349406953E-002  -2.8902638841459855E-002   2.1846881530199536E-002
   7.6749461987614148E-002  -2.6554450594293136E-002   2.1418438002936441E-002
   7.4550477625821468E-002  -2.4630559913054462E-002   2.1232740862855898E-002
   7.2351493264028677E-002  -2.3130966797744068E-002   2.1289790109957712E-002
   7.0152508902235927E-002  -2.2055671248361608E-002   2.1589585744242371E-002
   7.4059709781805205E-002  -3.1937862863824773E-002   2.1866012220194575E-002
   7.1838538687879261E-002  -2.8048418249971729E-002   2.3293803100633115E-002
   6.9617367593953261E-002  -2.5003159338690822E-002   2.4434474129622685E-002
   6.7396196500027317E-002  -2.2802086129981629E-002   2.5288025307163314E-002
   6.5175025406101345E-002  -2.1445198623844641E-002   2.5854456633254641E-002
   8.8900624631086611E-002  -2.3887089121912730E-002   9.2248604078022378E-003
   8.5651201406626742E-002  -2.3231542841410491E-002   7.2359266369959596E-003
   8.2401778182166874E-002  -2.2561310202143525E-002   5.7451153422451995E-003
   7.9152354957707005E-002  -2.1876391204111875E-002   4.7524265235502627E-003
   7.5902931733247136E-002  -2.1176785847315749E-002   4.2578601809111216E-003
   8.2015308514728602E-002  -2.3276616497395708E-002   1.3274787631516238E-002
   7.9206216677893099E-002  -2.2553125854620382E-002   1.1874989811624437E-002
   7.6397124841057651E-002  -2.1822355905399340E-002   1.0857732290925820E-002
   7.3588033004222175E-002  -2.1084306649733393E-002   1.0223015069420277E-002
   7.0778941167386700E-002  -2.0338978087622084E-002   9.9708381471076413E-003
   7.5765936605111661E-002  -2.2666143872878686E-002   1.7396362743662963E-002
   7.3281593979037857E-002  -2.1874708867830162E-002   1.6578293822366683E-002
   7.0797251352964080E-002  -2.1083401608655600E-002   1.6027183023400643E-002
   6.8312908726890303E-002  -2.0292222095354910E-002   1.5743030346765025E-002
   6.5828566100816499E-002  -1.9501170327928197E-002   1.5725835792459730E-002
   7.0152508902235927E-002  -2.2055671248361608E-002   2.1589585744242371E-002
   6.7877333310061017E-002  -2.1196291881039941E-002   2.1345838669222444E-002
   6.5602157717886148E-002  -2.0344447311911526E-002   2.1253467539669814E-002
   6.3326982125711251E-002  -1.9500137540976372E-002   2.1312472355584772E-002
   6.1051806533536368E-002  -1.8663362568234476E-002   2.1522853116967292E-002
   6.5175025406101345E-002  -2.1445198623844641E-002   2.5854456633254641E-002
   6.2993434670962634E-002  -2.0517874894249749E-002   2.6177624352191231E-002
   6.0811843935823853E-002  -1.9605493015167577E-002   2.6536585839733062E-002
   5.8630253200685108E-002  -1.8708052986597948E-002   2.6931341095879358E-002
   5.6448662465546362E-002  -1.7825554808540756E-002   2.7361890120630505E-002
   7.5902931733247136E-002  -2.1176785847315749E-002   4.2578601809111216E-003
   7.2629075264810661E-002  -2.0441769943532750E-002   3.4715711783686043E-003
   6.9355218796374296E-002  -1.9650619304540318E-002   2.9562290015404669E-003
   6.6081362327937931E-002  -1.8803333930338631E-002   2.7118336504260987E-003
   6.2807505859501456E-002  -1.7899913820928148E-002   2.7383851250257774E-003
   7.0778941167386700E-002  -2.0338978087622084E-002   9.9708381471076413E-003
   6.7763037430522866E-002  -1.9574119023581193E-002   9.3891287660252121E-003
   6.4747133693659087E-002  -1.8777478262127334E-002   9.0523780223744077E-003
   6.1731229956795280E-002  -1.7949055803259464E-002   8.9605859161543677E-003
   5.8715326219931474E-002  -1.7088851646978709E-002   9.1137524473658971E-003
   6.5828566100816499E-002  -1.9501170327928197E-002   1.5725835792459730E-002
   6.3044626907242496E-002  -1.8706468103629803E-002   1.5324352995041646E-002
   6.0260687713668604E-002  -1.7904337219713767E-002   1.5141840646772237E-002
   5.7476748520094600E-002  -1.7094777676180291E-002   1.5178298747651128E-002
   5.4692809326520708E-002  -1.6277789473029047E-002   1.5433727297678557E-002
   6.1051806533536368E-002  -1.8663362568234476E-002   2.1522853116967292E-002
   5.8473843694969566E-002  -1.7838817183678329E-002   2.1277243865417558E-002
   5.5895880856402735E-002  -1.7031196177300381E-002   2.1224616874733808E-002
   5.3317918017835961E-002  -1.6240499549100899E-002   2.1364972144915794E-002
   5.0739955179269117E-002  -1.5466727299079608E-002   2.1698309675963562E-002
   5.6448662465546362E-002  -1.7825554808540756E-002   2.7361890120630505E-002
   5.4050687793703978E-002  -1.6971166263726911E-002   2.7247801377153380E-002
   5.1652713121861621E-002  -1.6158055134887203E-002   2.7300706706259420E-002
   4.9254738450019250E-002  -1.5386221422021697E-002   2.7520606107948639E-002
   4.6856763778176824E-002  -1.4655665125130224E-002   2.7907499582220663E-002
   6.2807505859501456E-002  -1.7899913820928148E-002   2.7383851250257774E-003
   5.9894524915947267E-002  -1.7019223143073026E-002   2.2033658430934411E-003
   5.6981543972393023E-002  -1.6240126063538196E-002   1.8359345139264960E-003
   5.4068563028838779E-002  -1.5562622582323299E-002   1.6360911375237763E-003
   5.1155582085284590E-002  -1.4986712699429416E-002   1.6038357138861148E-003
   5.8715326219931474E-002  -1.7088851646978709E-002   9.1137524473658971E-003
   5.5965449772110709E-002  -1.6241734234702987E-002   8.5641380626897412E-003
   5.3215573324290083E-002  -1.5452572007851245E-002   8.1731447167160964E-003
   5.0465696876469360E-002  -1.4721364966423213E-002   7.9407724094439081E-003
   4.7715820428648692E-002  -1.4048113110419203E-002   7.8670211408744528E-003
   5.4692809326520708E-002  -1.6277789473029047E-002   1.5433727297678557E-002
   5.2097070460370931E-002  -1.5464245326332837E-002   1.4913156223154811E-002
   4.9501331594221210E-002  -1.4665017952164405E-002   1.4542239273270530E-002
   4.6905592728071460E-002  -1.3880107350522683E-002   1.4320976448025713E-002
   4.4309853861921683E-002  -1.3109513521408878E-002   1.4249367747420805E-002
   5.0739955179269117E-002  -1.5466727299079608E-002   2.1698309675963562E-002
   4.8289386980727780E-002  -1.4686756417963076E-002   2.1250420324488380E-002
   4.5838818782186416E-002  -1.3877463896477177E-002   2.0943218183590254E-002
   4.3388250583645101E-002  -1.3038849734622597E-002   2.0776703253269198E-002
   4.0937682385103716E-002  -1.2170913932398608E-002   2.0750875533525143E-002
   4.6856763778176824E-002  -1.4655665125130224E-002   2.7907499582220663E-002
   4.4542399333181271E-002  -1.3909267509592982E-002   2.7575930366690815E-002
   4.2228034888185717E-002  -1.3089909840790379E-002   2.7376081447675310E-002
   3.9913670443190136E-002  -1.2197592118722230E-002   2.7307952825174356E-002
   3.7599305998194554E-002  -1.1232314343388339E-002   2.7371544499187883E-002
   5.1155582085284590E-002  -1.4986712699429416E-002   1.6038357138861148E-003
   4.8347736306405986E-002  -1.4406890246493775E-002   1.0315837052107257E-003
   4.5539890527527604E-002  -1.3717649055156822E-002   5.7894591440943444E-004
   4.2732044748649112E-002  -1.2918989125416641E-002   2.4592234148307357E-004
   3.9924198969770619E-002  -1.2010910457273871E-002   3.2512986430477397E-005
   4.7715820428648692E-002  -1.4048113110419203E-002   7.8670211408744528E-003
   4.5024069604242212E-002  -1.3374411803353747E-002   7.4091813716798960E-003
   4.2332318779835815E-002  -1.2641856408742852E-002   7.0639172935551553E-003
   3.9640567955429404E-002  -1.1850446926585524E-002   6.8312289064995924E-003
   3.6948817131023048E-002  -1.1000183356882243E-002   6.7111162105144562E-003
   4.4309853861921683E-002  -1.3109513521408878E-002   1.4249367747420805E-002
   4.1727159465182684E-002  -1.2341933360213830E-002   1.3855375566850736E-002
   3.9144465068443601E-002  -1.1566063762329104E-002   1.3566920550545675E-002
   3.6561770671704547E-002  -1.0781904727754407E-002   1.3384002698505509E-002
   3.3979076274965520E-002  -9.9894562564900591E-003   1.3306622010730407E-002
   4.0937682385103716E-002  -1.2170913932398608E-002   2.0750875533525143E-002
   3.8457005889227250E-002  -1.1309454917073636E-002   2.0370166290723447E-002
   3.5976329393350943E-002  -1.0490271115915134E-002   2.0087955685381853E-002
   3.3495652897474498E-002  -9.7133625289234013E-003   1.9904243717500471E-002
   3.1014976401598178E-002  -8.9787291560979310E-003   1.9819030387079509E-002
   3.7599305998194554E-002  -1.1232314343388339E-002   2.7371544499187883E-002
   3.5213608876376146E-002  -1.0276976473933608E-002   2.6953553543297815E-002
   3.2827911754557709E-002  -9.4144784695010808E-003   2.6627022698063274E-002
   3.0442214632739259E-002  -8.6448203300922635E-003   2.6391951963484483E-002
   2.8056517510920864E-002  -7.9680020557061360E-003   2.6248341339560999E-002
   3.9924198969770619E-002  -1.2010910457273871E-002   3.2512986430477397E-005
   3.7495084599204143E-002  -1.1137502987718539E-002  -2.7749039386826269E-004
   3.5065970228637555E-002  -1.0442856653738730E-002  -4.8704838235580361E-004
   3.2636855858070996E-002  -9.9269714553354566E-003  -5.9616097903247844E-004
   3.0207741487504491E-002  -9.5898473925088989E-003  -6.0482818389795412E-004
   3.6948817131023048E-002  -1.1000183356882243E-002   6.7111162105144562E-003
   3.4600575570088332E-002  -1.0177906234077327E-002   6.2403871722663817E-003
   3.2252334009153727E-002  -9.4704560926175407E-003   5.8309583614716276E-003
   2.9904092448219066E-002  -8.8778329324998295E-003   5.4828297781291946E-003
   2.7555850887284405E-002  -8.4000367537273579E-003   5.1960014222395268E-003
   3.3979076274965520E-002  -9.9894562564900591E-003   1.3306622010730407E-002
   3.1672562359304490E-002  -9.2183094804366705E-003   1.2739101468765779E-002
   2.9366048443643447E-002  -8.4980555314947692E-003   1.2193735989895621E-002
   2.7059534527982411E-002  -7.8286944096650837E-003   1.1670525574119905E-002
   2.4753020612321347E-002  -7.2102261149463720E-003   1.1169470221438438E-002
   3.1014976401598178E-002  -8.9787291560979310E-003   1.9819030387079509E-002
   2.8711044966852409E-002  -8.2587127267957361E-003   1.9218652495630095E-002
   2.6407113532106802E-002  -7.5256549703727887E-003   1.8601284502916975E-002
   2.4103182097361030E-002  -6.7795558868294532E-003   1.7966926408940407E-002
   2.1799250662615371E-002  -6.0204154761655526E-003   1.7315578213699639E-002
   2.8056517510920864E-002  -7.9680020557061360E-003   2.6248341339560999E-002
   2.5716023392732212E-002  -7.2991159731547461E-003   2.5679040252859497E-002
   2.3375529274543616E-002  -6.5532544092511136E-003   2.5053603900535737E-002
   2.1035035156355006E-002  -5.7304173639942876E-003   2.4372032282590383E-002
   1.8694541038166368E-002  -4.8306048373841781E-003   2.3634325399022549E-002
   3.0207741487504491E-002  -9.5898473925088989E-003  -6.0482818389795412E-004
   2.9602914038964534E-002  -9.1354076722698352E-003  -3.5495463871337840E-004
   2.8998086590424521E-002  -8.2675755016307084E-003  -1.7906772984331853E-003
   2.8393259141884564E-002  -6.9863508805918240E-003  -4.9119961630561537E-003
   2.7788431693344551E-002  -5.2917338091529320E-003  -9.7189112325837268E-003
   2.7555850887284405E-002  -8.4000367537273579E-003   5.1960014222395268E-003
   2.5535389400041020E-002  -7.8727346484033234E-003   5.8785131013046055E-003
   2.3514927912797634E-002  -7.1315937086310344E-003   5.4153529078676543E-003
   2.1494466425554248E-002  -6.1766139344118509E-003   3.8065208419272023E-003
   1.9474004938310863E-002  -5.0077953257461338E-003   1.0520169034837767E-003
   2.4753020612321347E-002  -7.2102261149463720E-003   1.1169470221438438E-002
   2.1856849418775498E-002  -6.6100616245365895E-003   1.2085066418432988E-002
   1.8960678225229621E-002  -5.9956119156320820E-003   1.2394915075324975E-002
   1.6064507031683758E-002  -5.3668769882327799E-003   1.2099016192114717E-002
   1.3168335838137868E-002  -4.7238568423383365E-003   1.1197369768802756E-002
   2.1799250662615371E-002  -6.0204154761655526E-003   1.7315578213699639E-002
   1.8567294095167962E-002  -5.3473886006700777E-003   1.8264705312669521E-002
   1.5335337527720524E-002  -4.8596301226323246E-003   1.9148009203938707E-002
   1.2103380960273111E-002  -4.5571400420532579E-003   1.9965489887506509E-002
   8.8714243928255734E-003  -4.4399183589317048E-003   2.0717147363373281E-002
   1.8694541038166368E-002  -4.8306048373841781E-003   2.3634325399022549E-002
   1.5666723429218377E-002  -4.0847155768033439E-003   2.4417429784015621E-002
   1.2638905820270357E-002  -3.7236483296330114E-003   2.5674635293708781E-002
   9.6110882113223522E-003  -3.7474030958732918E-003   2.7405941928101529E-002
   6.5832706023743470E-003  -4.1559798755242960E-003   2.9611349687194477E-002
   2.7788431693344551E-002  -5.2917338091529320E-003  -9.7189112325837268E-003
   2.3358674012474490E-002  -4.2055091657602350E-003  -4.1918322721519186E-003
   1.8928916331604428E-002  -4.7494618288613233E-003   2.6013430998669262E-003
   1.4499158650734173E-002  -6.9235917984554890E-003   1.0660614883475528E-002
   1.0069400969864306E-002  -1.0727899074542968E-002   1.9985983078671055E-002
   1.9474004938310863E-002  -5.0077953257461338E-003   1.0520169034837767E-003
   1.6237703168193951E-002  -4.6893847241287201E-003   6.7427969404220134E-003
   1.3001401398077095E-002  -6.2856289710574997E-003   1.3554392387277514E-002
   9.7650996279602109E-003  -9.7965280665318483E-003   2.1486803244052055E-002
   6.5287978578432160E-003  -1.5222082010552640E-002   3.0540029510744304E-002
   1.3168335838137868E-002  -4.7238568423383365E-003   1.1197369768802756E-002
   1.0980208977104333E-002  -5.1732602824966500E-003   1.6767373340194291E-002
   8.7920821160708262E-003  -7.8217961132532043E-003   2.3312911319834123E-002
   6.6039552550373817E-003  -1.2669464334608090E-002   3.0833983707723153E-002
   4.4158283940037291E-003  -1.9716264946561424E-002   3.9330590503859231E-002
   8.8714243928255734E-003  -4.4399183589317048E-003   2.0717147363373281E-002
   7.5861914392057056E-003  -5.6571358408644135E-003   2.5881896927165568E-002
   6.3009584855857233E-003  -9.3579632554487008E-003   3.1876899897536635E-002
   5.0157255319655553E-003  -1.5542400602684168E-002   3.8702156274485838E-002
   3.7304925783456372E-003  -2.4210447882570652E-002   4.6357666058014113E-002
   6.5832706023743470E-003  -4.1559798755242960E-003   2.9611349687194477E-002
   6.0556505544979711E-003  -6.1410113992322879E-003   3.4086367701335551E-002
   5.5280305066216506E-003  -1.0894130397644780E-002   3.9246358120384739E-002
   5.0004104587452747E-003  -1.8415336870760170E-002   4.5091320944342844E-002
   4.4727904108688987E-003  -2.8704630818579879E-002   5.1621256173210117E-002
   7.4059709781805205E-002  -3.1937862863824773E-002   2.1866012220194575E-002
   7.1838538687879261E-002  -2.8048418249971729E-002   2.3293803100633115E-002
   6.9617367593953261E-002  -2.5003159338690822E-002   2.4434474129622685E-002
   6.7396196500027317E-002  -2.2802086129981629E-002   2.5288025307163314E-002
   6.5175025406101345E-002  -2.1445198623844641E-002   2.5854456633254641E-002
   6.9872317104805071E-002  -2.3045778360920588E-002   3.4735195162517996E-002
   6.7484425294279476E-002  -2.1582301464690784E-002   3.4397022727176790E-002
   6.5096533483753938E-002  -2.0341921007018343E-002   3.4012528710085393E-002
   6.2708641673228371E-002  -1.9324636987903189E-002   3.3581713111244083E-002
   6.0320749862702777E-002  -1.8530449407345440E-002   3.3104575930652330E-002
   6.4332203047740538E-002  -1.4153693858016458E-002   4.4867865755210706E-002
   6.2018388790314211E-002  -1.5116184679409839E-002   4.3384819268104585E-002
   5.9704574532887911E-002  -1.5680682675345906E-002   4.2096249468947133E-002
   5.7390760275461590E-002  -1.5847187845824697E-002   4.1002156357738274E-002
   5.5076946018035276E-002  -1.5615700190846238E-002   4.0102539934478265E-002
   5.7439367610611518E-002  -5.2616093551123289E-003   5.2264023998273103E-002
   5.5440429175983331E-002  -8.6500678941288933E-003   5.0257192723416687E-002
   5.3441490741355083E-002  -1.1019444343673447E-002   4.8685636406207516E-002
   5.1442552306726889E-002  -1.2369738703746231E-002   4.7549355046646036E-002
   4.9443613872098648E-002  -1.2700950974346981E-002   4.6848348644732002E-002
   4.9193810793418113E-002   3.6304751477918562E-003   5.6923669891704998E-002
   4.7750546451286846E-002  -2.1839511088478925E-003   5.5014143093112644E-002
   4.6307282109155606E-002  -6.3582060120010025E-003   5.3780689521866792E-002
   4.4864017767024339E-002  -8.8922895616677135E-003   5.3223309177967207E-002
   4.3420753424893072E-002  -9.7862017578478344E-003   5.3342002061413873E-002
   6.5175025406101345E-002  -2.1445198623844641E-002   2.5854456633254641E-002
   6.2993434670962634E-002  -2.0517874894249749E-002   2.6177624352191231E-002
   6.0811843935823853E-002  -1.9605493015167577E-002   2.6536585839733062E-002
   5.8630253200685108E-002  -1.8708052986597948E-002   2.6931341095879358E-002
   5.6448662465546362E-002  -1.7825554808540756E-002   2.7361890120630505E-002
   6.0320749862702777E-002  -1.8530449407345440E-002   3.3104575930652330E-002
   5.8208044662236114E-002  -1.7842205852689336E-002   3.3069440382508114E-002
   5.6095339461769395E-002  -1.7142753911279021E-002   3.3136282135103209E-002
   5.3982634261302717E-002  -1.6432093583114652E-002   3.3305101188437790E-002
   5.1869929060836012E-002  -1.5710224868196176E-002   3.3575897542511390E-002
   5.5076946018035276E-002  -1.5615700190846238E-002   4.0102539934478265E-002
   5.3099309884375112E-002  -1.5166536811128742E-002   3.9735251356519799E-002
   5.1121673750714941E-002  -1.4680014807390458E-002   3.9536123611434999E-002
   4.9144037617054805E-002  -1.4156134179631465E-002   3.9505156699224150E-002
   4.7166401483394613E-002  -1.3594894927851708E-002   3.9642350619886954E-002
   4.9443613872098648E-002  -1.2700950974346981E-002   4.6848348644732002E-002
   4.7667230337379587E-002  -1.2490867769568266E-002   4.6175057274225800E-002
   4.5890846802660534E-002  -1.2217275703501927E-002   4.5736110268727960E-002
   4.4114463267941460E-002  -1.1880174776148361E-002   4.5531507628238356E-002
   4.2338079733222414E-002  -1.1479564987507268E-002   4.5561249352757308E-002
   4.3420753424893072E-002  -9.7862017578478344E-003   5.3342002061413873E-002
   4.1911806021249567E-002  -9.8151987280076791E-003   5.2388858135626687E-002
   4.0402858617606091E-002  -9.7545365996133671E-003   5.1736242106982355E-002
   3.8893911213962587E-002  -9.6042153726650994E-003   5.1384153975480754E-002
   3.7384963810319111E-002  -9.3642350471627167E-003   5.1332593741122201E-002
   5.6448662465546362E-002  -1.7825554808540756E-002   2.7361890120630505E-002
   5.4050687793703978E-002  -1.6971166263726911E-002   2.7247801377153380E-002
   5.1652713121861621E-002  -1.6158055134887203E-002   2.7300706706259420E-002
   4.9254738450019250E-002  -1.5386221422021697E-002   2.7520606107948639E-002
   4.6856763778176824E-002  -1.4655665125130224E-002   2.7907499582220663E-002
   5.1869929060836012E-002  -1.5710224868196176E-002   3.3575897542511390E-002
   4.9645475477016449E-002  -1.4992223561891227E-002   3.3313431331765481E-002
   4.7421021893196899E-002  -1.4293165459567395E-002   3.3231013224482547E-002
   4.5196568309377398E-002  -1.3613050561224724E-002   3.3328643220661772E-002
   4.2972114725557786E-002  -1.2951878866863054E-002   3.3606321320303889E-002
   4.7166401483394613E-002  -1.3594894927851708E-002   3.9642350619886954E-002
   4.5128523018477501E-002  -1.3013280860055626E-002   3.9253841153865404E-002
   4.3090644553560396E-002  -1.2428275784247649E-002   3.9058433822185996E-002
   4.1052766088643278E-002  -1.1839879700427864E-002   3.9056128624848779E-002
   3.9014887623726166E-002  -1.1248092608596078E-002   3.9246925561853677E-002
   4.2338079733222414E-002  -1.1479564987507268E-002   4.5561249352757308E-002
   4.0499830418087190E-002  -1.1034338158219872E-002   4.5069030843452734E-002
   3.8661581102952085E-002  -1.0563386108927843E-002   4.4782968499370260E-002
   3.6823331787816917E-002  -1.0066708839630838E-002   4.4703062320509225E-002
   3.4985082472681756E-002  -9.5443063503291153E-003   4.4829312306870206E-002
   3.7384963810319111E-002  -9.3642350471627167E-003   5.1332593741122201E-002
   3.5759397675845517E-002  -9.0553954563843408E-003   5.0759000400527721E-002
   3.4133831541371923E-002  -8.6984964336081216E-003   5.0404617256034956E-002
   3.2508265406898357E-002  -8.2935379788340938E-003   5.0269444307643546E-002
   3.0882699272424735E-002  -7.8405200920619866E-003   5.0353481555353297E-002
   4.6856763778176824E-002  -1.4655665125130224E-002   2.7907499582220663E-002
   4.4542399333181271E-002  -1.3909267509592982E-002   2.7575930366690815E-002
   4.2228034888185717E-002  -1.3089909840790379E-002   2.7376081447675310E-002
   3.9913670443190136E-002  -1.2197592118722230E-002   2.7307952825174356E-002
   3.7599305998194554E-002  -1.1232314343388339E-002   2.7371544499187883E-002
   4.2972114725557786E-002  -1.2951878866863054E-002   3.3606321320303889E-002
   4.0797116184907639E-002  -1.2277972740307230E-002   3.3268505724209668E-002
   3.8622117644257520E-002  -1.1559654545381701E-002   3.3077701640291945E-002
   3.6447119103607359E-002  -1.0796924282086295E-002   3.3033909068550416E-002
   3.4272120562957253E-002  -9.9897819504213281E-003   3.3137128008985217E-002
   3.9014887623726166E-002  -1.1248092608596078E-002   3.9246925561853677E-002
   3.6994546203083192E-002  -1.0646677971021534E-002   3.8874315600299622E-002
   3.4974204782440232E-002  -1.0029399249973030E-002   3.8664008366583659E-002
   3.2953863361797238E-002  -9.3962564454506941E-003   3.8616003860705711E-002
   3.0933521941154285E-002  -8.7472495574543174E-003   3.8730302082666035E-002
   3.4985082472681756E-002  -9.5443063503291153E-003   4.4829312306870206E-002
   3.3134689387707764E-002  -9.0153832017358104E-003   4.4393359994960468E-002
   3.1284296302733806E-002  -8.4991439545643831E-003   4.4135001626550305E-002
   2.9433903217759797E-002  -7.9955886088150380E-003   4.4054237201640256E-002
   2.7583510132785861E-002  -7.5047171644872512E-003   4.4151066720229844E-002
   3.0882699272424735E-002  -7.8405200920619866E-003   5.0353481555353297E-002
   2.9217545738781547E-002  -7.3840884324500311E-003   4.9825638908191694E-002
   2.7552392205138304E-002  -6.9688886591557225E-003   4.9490681420191890E-002
   2.5887238671495089E-002  -6.5949207721792240E-003   4.9348609091354093E-002
   2.4222085137851873E-002  -6.2621847715201850E-003   4.9399421921677455E-002
   3.7599305998194554E-002  -1.1232314343388339E-002   2.7371544499187883E-002
   3.5213608876376146E-002  -1.0276976473933608E-002   2.6953553543297815E-002
   3.2827911754557709E-002  -9.4144784695010808E-003   2.6627022698063274E-002
   3.0442214632739259E-002  -8.6448203300922635E-003   2.6391951963484483E-002
   2.8056517510920864E-002  -7.9680020557061360E-003   2.6248341339560999E-002
   3.4272120562957253E-002  -9.9897819504213281E-003   3.3137128008985217E-002
   3.1991948457721242E-002  -9.1840585766221894E-003   3.2651743847894266E-002
   2.9711776352485314E-002  -8.4255851869243226E-003   3.2285949609312609E-002
   2.7431604247249344E-002  -7.7143617813277970E-003   3.2039745293240385E-002
   2.5151432142013402E-002  -7.0503883598329598E-003   3.1913130899677733E-002
   3.0933521941154285E-002  -8.7472495574543174E-003   3.8730302082666035E-002
   2.8787004664354632E-002  -8.0911406793110208E-003   3.8223114597295743E-002
   2.6640487387554930E-002  -7.4366919043473284E-003   3.7863646846288748E-002
   2.4493970110755266E-002  -6.7839032325636602E-003   3.7651898829644807E-002
   2.2347452833955561E-002  -6.1327746639597280E-003   3.7587870547364066E-002
   2.7583510132785861E-002  -7.5047171644872512E-003   4.4151066720229844E-002
   2.5598777496276218E-002  -6.9982227819997828E-003   4.3667665791502150E-002
   2.3614044859766578E-002  -6.4477986217706187E-003   4.3360114408991179E-002
   2.1629312223256879E-002  -5.8534446837991919E-003   4.3228412572697272E-002
   1.9644579586747302E-002  -5.2151609680865796E-003   4.3272560282620325E-002
   2.4222085137851873E-002  -6.2621847715201850E-003   4.9399421921677455E-002
   2.2427266953486041E-002  -5.9053048846885448E-003   4.8985397430513389E-002
   2.0632448769120224E-002  -5.4589053391934927E-003   4.8775352297420249E-002
   1.8837630584754399E-002  -4.9229861350350915E-003   4.8769286522397870E-002
   1.7042812400388574E-002  -4.2975472722134311E-003   4.8967200105445974E-002
   2.8056517510920864E-002  -7.9680020557061360E-003   2.6248341339560999E-002
   2.5716023392732212E-002  -7.2991159731547461E-003   2.5679040252859497E-002
   2.3375529274543616E-002  -6.5532544092511136E-003   2.5053603900535737E-002
   2.1035035156355006E-002  -5.7304173639942876E-003   2.4372032282590383E-002
   1.8694541038166368E-002  -4.8306048373841781E-003   2.3634325399022549E-002
   2.5151432142013402E-002  -7.0503883598329598E-003   3.1913130899677733E-002
   2.2793693099959184E-002  -6.3977935058669444E-003   3.1534560380780230E-002
   2.0435954057904882E-002  -5.7207058028577173E-003   3.1177635279773436E-002
   1.8078215015850635E-002  -5.0191252508056255E-003   3.0842355596657503E-002
   1.5720475973796361E-002  -4.2930518497099612E-003   3.0528721331432584E-002
   2.2347452833955561E-002  -6.1327746639597280E-003   3.7587870547364066E-002
   2.0050249551548507E-002  -5.4964710385788373E-003   3.7347547963961086E-002
   1.7753046269141461E-002  -4.8881571964647791E-003   3.7206651481961409E-002
   1.5455842986734355E-002  -4.3078331376169669E-003   3.7165181101365456E-002
   1.3158639704327360E-002  -3.7554988620359109E-003   3.7223136822173042E-002
   1.9644579586747302E-002  -5.2151609680865796E-003   4.3272560282620325E-002
   1.7485692747500284E-002  -4.5951485712911050E-003   4.3118003002401567E-002
   1.5326805908253244E-002  -4.0556085900716674E-003   4.3140652507099406E-002
   1.3167919069006273E-002  -3.5965410244286396E-003   4.3340508796713834E-002
   1.1009032229759189E-002  -3.2179458743620548E-003   4.3717571871244518E-002
   1.7042812400388574E-002  -4.2975472722134311E-003   4.8967200105445974E-002
   1.5100022687814463E-002  -3.6938261040028730E-003   4.8845925496102227E-002
   1.3157232975240324E-002  -3.2230599836785001E-003   4.8979638355187927E-002
   1.1214443262666213E-002  -2.8852489112401597E-003   4.9368338682702489E-002
   9.2716535500920738E-003  -2.6803928866876436E-003   5.0012026478646887E-002
   1.8694541038166368E-002  -4.8306048373841781E-003   2.3634325399022549E-002
   1.5666723429218377E-002  -4.0847155768033439E-003   2.4417429784015621E-002
   1.2638905820270357E-002  -3.7236483296330114E-003   2.5674635293708781E-002
   9.6110882113223522E-003  -3.7474030958732918E-003   2.7405941928101529E-002
   6.5832706023743470E-003  -4.1559798755242960E-003   2.9611349687194477E-002
   1.5720475973796361E-002  -4.2930518497099612E-003   3.0528721331432584E-002
   1.3148879422362952E-002  -3.7742386752258605E-003   3.1294256786303487E-002
   1.0577282870929558E-002  -3.6944388030064612E-003   3.2498133231503634E-002
   8.0056863194962122E-003  -4.0536522330524294E-003   3.4140350667033109E-002
   5.4340897680627553E-003  -4.8518789653636540E-003   3.6220909092891884E-002
   1.3158639704327360E-002  -3.7554988620359109E-003   3.7223136822173042E-002
   1.1007504076037955E-002  -3.4637617736480442E-003   3.7916912058067243E-002
   8.8563684477485985E-003  -3.6652292763799110E-003   3.9013268149920205E-002
   6.7052328194592455E-003  -4.3599013702313449E-003   4.0512205097731804E-002
   4.5540971911698369E-003  -5.5477780552029565E-003   4.2413722901502332E-002
   1.1009032229759189E-002  -3.2179458743620548E-003   4.3717571871244518E-002
   9.2425973902433567E-003  -3.1532848720705053E-003   4.4285395599307220E-002
   7.4761625507274668E-003  -3.6360197497533608E-003   4.5220040048958202E-002
   5.7097277112116334E-003  -4.6661505074105936E-003   4.6521505220197712E-002
   3.9432928716956889E-003  -6.2436771450422868E-003   4.8189791113024842E-002
   9.2716535500920738E-003  -2.6803928866876436E-003   5.0012026478646887E-002
   7.8541593649791297E-003  -2.8428079704930220E-003   5.0399707410023864E-002
   6.4366651798661856E-003  -3.6068102231267829E-003   5.1118448928617999E-002
   5.0191709947532415E-003  -4.9723996445895022E-003   5.2168251034429930E-002
   3.6016768096402973E-003  -6.9395762348815060E-003   5.3549113727459852E-002
   6.5832706023743470E-003  -4.1559798755242960E-003   2.9611349687194477E-002
   6.0556505544979711E-003  -6.1410113992322879E-003   3.4086367701335551E-002
   5.5280305066216506E-003  -1.0894130397644780E-002   3.9246358120384739E-002
   5.0004104587452747E-003  -1.8415336870760170E-002   4.5091320944342844E-002
   4.4727904108688987E-003  -2.8704630818579879E-002   5.1621256173210117E-002
   5.4340897680627553E-003  -4.8518789653636540E-003   3.6220909092891884E-002
   5.4875915763208938E-003  -6.9873305128280716E-003   3.8359502914304566E-002
   5.5410933845791155E-003  -1.1358218388334618E-002   4.0975368043077776E-002
   5.5945951928372262E-003  -1.7964542591882099E-002   4.4068504479211068E-002
   5.6480970010954201E-003  -2.6806303123471764E-002   4.7638912222704555E-002
   4.5540971911698369E-003  -5.5477780552029565E-003   4.2413722901502332E-002
   4.9810197580141408E-003  -7.8336496264240219E-003   4.2748543676848771E-002
   5.4079423248584307E-003  -1.1822306379024441E-002   4.3352934662007361E-002
   5.8348648917026374E-003  -1.7513748313004302E-002   4.4226895856977942E-002
   6.2617874585470246E-003  -2.4907975428363649E-002   4.5370427261760105E-002
   3.9432928716956889E-003  -6.2436771450422868E-003   4.8189791113024842E-002
   4.5359350995776739E-003  -8.6799687400195558E-003   4.7253489988967862E-002
   5.1285773274597456E-003  -1.2286394369714050E-002   4.6379057977173746E-002
   5.7212195553417756E-003  -1.7062954034126256E-002   4.5566495077643702E-002
   6.3138617832238023E-003  -2.3009647733255534E-002   4.4815801290377016E-002
   3.6016768096402973E-003  -6.9395762348815060E-003   5.3549113727459852E-002
   4.1523376010115798E-003  -9.5262878536154227E-003   5.1874341850661088E-002
   4.7029983923828900E-003  -1.2750482360404408E-002   5.0053737988577096E-002
   5.2536591837541863E-003  -1.6612159755248455E-002   4.8087302141208460E-002
   5.8043199751254271E-003  -2.1111320038147419E-002   4.5975034308554985E-002
   4.9193810793418113E-002   3.6304751477918562E-003   5.6923669891704998E-002
   4.7750546451286846E-002  -2.1839511088478925E-003   5.5014143093112644E-002
   4.6307282109155606E-002  -6.3582060120010025E-003   5.3780689521866792E-002
   4.4864017767024339E-002  -8.8922895616677135E-003   5.3223309177967207E-002
   4.3420753424893072E-002  -9.7862017578478344E-003   5.3342002061413873E-002
   4.0916620314541075E-002  -3.1190508959007546E-003   4.9611731414352322E-002
   4.0028611399558198E-002  -6.1038651431854496E-003   5.0136666394357793E-002
   3.9140602484575279E-002  -8.1971996997590862E-003   5.1096039001313764E-002
   3.8252593569592298E-002  -9.3990545656214598E-003   5.2489849235219974E-002
   3.7364584654609415E-002  -9.7094297407729069E-003   5.4318097096076490E-002
   3.3928883892361303E-002  -9.8685769395933653E-003   4.5503750777742338E-002
   3.3354494804130594E-002  -1.0023779177523048E-002   4.7714455873570413E-002
   3.2780105715899906E-002  -1.0036193387516996E-002   5.0117962995952801E-002
   3.2205716627669217E-002  -9.9058195695752877E-003   5.2714272144889246E-002
   3.1631327539438550E-002  -9.6326577236979238E-003   5.5503383320380101E-002
   2.8230601526878587E-002  -1.6618102983285990E-002   4.4599727981874907E-002
   2.7728196665004111E-002  -1.3943693211860585E-002   4.7747511530750159E-002
   2.7225791803129611E-002  -1.1875187075274993E-002   5.0846461505783550E-002
   2.6723386941255079E-002  -1.0412584573529102E-002   5.3896577906975052E-002
   2.6220982079380614E-002  -9.5558857066229685E-003   5.6897860734324714E-002
   2.3821773218093117E-002  -2.3367629026978587E-002   4.6899663026750416E-002
   2.3149716982178686E-002  -1.7863607246198232E-002   5.0235833365897264E-002
   2.2477660746264311E-002  -1.3714180763032963E-002   5.3281534530806252E-002
   2.1805604510349907E-002  -1.0919349577482883E-002   5.6036766521477321E-002
   2.1133548274435504E-002  -9.4791136895480133E-003   5.8501529337910418E-002
   4.3420753424893072E-002  -9.7862017578478344E-003   5.3342002061413873E-002
   4.1911806021249567E-002  -9.8151987280076791E-003   5.2388858135626687E-002
   4.0402858617606091E-002  -9.7545365996133671E-003   5.1736242106982355E-002
   3.8893911213962587E-002  -9.6042153726650994E-003   5.1384153975480754E-002
   3.7384963810319111E-002  -9.3642350471627167E-003   5.1332593741122201E-002
   3.7364584654609415E-002  -9.7094297407729069E-003   5.4318097096076490E-002
   3.6136607321602343E-002  -9.5497166291974162E-003   5.3737484989543935E-002
   3.4908629988595279E-002  -9.3413066348793303E-003   5.3418285127141696E-002
   3.3680652655588214E-002  -9.0841997578187447E-003   5.3360497508869245E-002
   3.2452675322581184E-002  -8.7783959980156645E-003   5.3564122134726999E-002
   3.1631327539438550E-002  -9.6326577236979238E-003   5.5503383320380101E-002
   3.0645204624055140E-002  -9.2842345303871532E-003   5.5254340817290949E-002
   2.9659081708671681E-002  -8.9280766701454045E-003   5.5227594905318991E-002
   2.8672958793288263E-002  -8.5641841429723899E-003   5.5423145584464144E-002
   2.7686835877904839E-002  -8.1925569488684735E-003   5.5840992854726684E-002
   2.6220982079380614E-002  -9.5558857066229685E-003   5.6897860734324714E-002
   2.5437597928607968E-002  -9.0187524315768902E-003   5.6939425618867327E-002
   2.4654213777835325E-002  -8.5148467054113122E-003   5.7164171441514297E-002
   2.3870829627062679E-002  -8.0441685281260767E-003   5.7572098202265699E-002
   2.3087445476290061E-002  -7.6067178997213519E-003   5.8163205901121527E-002
   2.1133548274435504E-002  -9.4791136895480133E-003   5.8501529337910418E-002
   2.0513787235260844E-002  -8.7532703327665995E-003   5.8792739394273291E-002
   1.9894026196086184E-002  -8.1016167406774697E-003   5.9228014735727724E-002
   1.9274265156911531E-002  -7.5241529132797150E-003   5.9807355362273745E-002
   1.8654504117736864E-002  -7.0208788505742303E-003   6.0530761273911327E-002
   3.7384963810319111E-002  -9.3642350471627167E-003   5.1332593741122201E-002
   3.5759397675845517E-002  -9.0553954563843408E-003   5.0759000400527721E-002
   3.4133831541371923E-002  -8.6984964336081216E-003   5.0404617256034956E-002
   3.2508265406898357E-002  -8.2935379788340938E-003   5.0269444307643546E-002
   3.0882699272424735E-002  -7.8405200920619866E-003   5.0353481555353297E-002
   3.2452675322581184E-002  -8.7783959980156645E-003   5.3564122134726999E-002
   3.1038647047905307E-002  -8.4331916237895543E-003   5.3188387389941333E-002
   2.9624618773229437E-002  -8.0578829034598509E-003   5.3016518168649718E-002
   2.8210590498553557E-002  -7.6524698370270469E-003   5.3048514470852390E-002
   2.6796562223877690E-002  -7.2169524244907191E-003   5.3284376296548919E-002
   2.7686835877904839E-002  -8.1925569488684735E-003   5.5840992854726684E-002
   2.6469000790419459E-002  -7.8109877911944903E-003   5.5645161619855193E-002
   2.5251165702934078E-002  -7.4172693733115663E-003   5.5637851235870464E-002
   2.4033330615448691E-002  -7.0114016952198856E-003   5.5819061702772614E-002
   2.2815495527963317E-002  -6.5933847569192017E-003   5.6188793020561886E-002
   2.3087445476290061E-002  -7.6067178997213519E-003   5.8163205901121527E-002
   2.2050458903387946E-002  -7.1887839585995650E-003   5.8129323090269684E-002
   2.1013472330485807E-002  -6.7766558431634830E-003   5.8268616457697389E-002
   1.9976485757583682E-002  -6.3703335534127815E-003   5.8581086003404753E-002
   1.8939499184681557E-002  -5.9698170893476982E-003   5.9066731727391797E-002
   1.8654504117736864E-002  -7.0208788505742303E-003   6.0530761273911327E-002
   1.7783021386810774E-002  -6.5665801260046119E-003   6.0640871801184604E-002
   1.6911538655884684E-002  -6.1360423130150388E-003   6.0908813834130299E-002
   1.6040055924958593E-002  -5.7292654116057121E-003   6.1334587372748356E-002
   1.5168573194032503E-002  -5.3462494217763057E-003   6.1918192417038775E-002
   3.0882699272424735E-002  -7.8405200920619866E-003   5.0353481555353297E-002
   2.9217545738781547E-002  -7.3840884324500311E-003   4.9825638908191694E-002
   2.7552392205138304E-002  -6.9688886591557225E-003   4.9490681420191890E-002
   2.5887238671495089E-002  -6.5949207721792240E-003   4.9348609091354093E-002
   2.4222085137851873E-002  -6.2621847715201850E-003   4.9399421921677455E-002
   2.6796562223877690E-002  -7.2169524244907191E-003   5.3284376296548919E-002
   2.5324966550096806E-002  -6.7751017226193866E-003   5.2832941875845280E-002
   2.3853370876315921E-002  -6.3506887881815410E-003   5.2575738015704560E-002
   2.2381775202535058E-002  -5.9437136211769812E-003   5.2512764716126772E-002
   2.0910179528754153E-002  -5.5541762216062551E-003   5.2644021977112154E-002
   2.2815495527963317E-002  -6.5933847569192017E-003   5.6188793020561886E-002
   2.1538803115446120E-002  -6.1661150127886033E-003   5.5837560945200065E-002
   2.0262110702928889E-002  -5.7324889172072555E-003   5.5681904831802666E-002
   1.8985418290411660E-002  -5.2925064701750176E-003   5.5721824680369708E-002
   1.7708725877894453E-002  -4.8461676716921587E-003   5.5957320490901269E-002
   1.8939499184681557E-002  -5.9698170893476982E-003   5.9066731727391797E-002
   1.7859055434829407E-002  -5.5571283029578894E-003   5.8839496116256336E-002
   1.6778611684977199E-002  -5.1142890462330219E-003   5.8809181868486514E-002
   1.5698167935125008E-002  -4.6412993191730810E-003   5.8975788984082483E-002
   1.4617724185272815E-002  -4.1381591217780900E-003   5.9339317463044099E-002
   1.5168573194032503E-002  -5.3462494217763057E-003   6.1918192417038775E-002
   1.4285723508246681E-002  -4.9481415931271200E-003   6.1838747389013959E-002
   1.3402873822460859E-002  -4.4960891752587329E-003   6.1957569125756007E-002
   1.2520024136675044E-002  -3.9900921681708529E-003   6.2274657627265140E-002
   1.1637174450889215E-002  -3.4301505718640213E-003   6.2790012893541247E-002
   2.4222085137851873E-002  -6.2621847715201850E-003   4.9399421921677455E-002
   2.2427266953486041E-002  -5.9053048846885448E-003   4.8985397430513389E-002
   2.0632448769120224E-002  -5.4589053391934927E-003   4.8775352297420249E-002
   1.8837630584754399E-002  -4.9229861350350915E-003   4.8769286522397870E-002
   1.7042812400388574E-002  -4.2975472722134311E-003   4.8967200105445974E-002
   2.0910179528754153E-002  -5.5541762216062551E-003   5.2644021977112154E-002
   1.9320206279617461E-002  -5.1509286787875808E-003   5.2408503877640733E-002
   1.7730233030480755E-002  -4.7028230820399530E-003   5.2378696290557081E-002
   1.6140259781344035E-002  -4.2098594313637328E-003   5.2554599215861003E-002
   1.4550286532207357E-002  -3.6720377267583926E-003   5.2936212653552361E-002
   1.7708725877894453E-002  -4.8461676716921587E-003   5.5957320490901269E-002
   1.6325328718303722E-002  -4.3965524728865613E-003   5.5855647178387896E-002
   1.4941931558713022E-002  -3.9467408248866215E-003   5.5961415532579120E-002
   1.3558534399122321E-002  -3.4967327276920375E-003   5.6274625553474768E-002
   1.2175137239531619E-002  -3.0465281813030765E-003   5.6795277241074638E-002
   1.4617724185272815E-002  -4.1381591217780900E-003   5.9339317463044099E-002
   1.3442634269544937E-002  -3.6421762669856250E-003   5.9326827332754781E-002
   1.2267544353817033E-002  -3.1906585677331303E-003   5.9523510023486548E-002
   1.1092454438089120E-002  -2.7836060240206215E-003   5.9929365535239358E-002
   9.9173645223612494E-003  -2.4210186358478991E-003   6.0544393868013843E-002
   1.1637174450889215E-002  -3.4301505718640213E-003   6.2790012893541247E-002
   1.0672122933340994E-002  -2.8878000610845778E-003   6.2822044340741012E-002
   9.7070714157927729E-003  -2.4345763105796669E-003   6.3064979763279072E-002
   8.7420198982445449E-003  -2.0704793203489072E-003   6.3518819161154955E-002
   7.7769683806963030E-003  -1.7955090903927218E-003   6.4183562534369076E-002
   1.7042812400388574E-002  -4.2975472722134311E-003   4.8967200105445974E-002
   1.5100022687814463E-002  -3.6938261040028730E-003   4.8845925496102227E-002
   1.3157232975240324E-002  -3.2230599836785001E-003   4.8979638355187927E-002
   1.1214443262666213E-002  -2.8852489112401597E-003   4.9368338682702489E-002
   9.2716535500920738E-003  -2.6803928866876436E-003   5.0012026478646887E-002
   1.4550286532207357E-002  -3.6720377267583926E-003   5.2936212653552361E-002
   1.2863180747389180E-002  -3.1743090615063974E-003   5.2804011488779445E-002
   1.1176074962570975E-002  -2.8016245288909891E-003   5.2928190711089146E-002
   9.4889691777527915E-003  -2.5539841289115572E-003   5.3308750320481227E-002
   7.8018633929345660E-003  -2.4313878615683793E-003   5.3945690316955897E-002
   1.2175137239531619E-002  -3.0465281813030765E-003   5.6795277241074638E-002
   1.0745108301122547E-002  -2.6547920190101715E-003   5.6660060436122761E-002
   9.3150793627135228E-003  -2.3801890741034504E-003   5.6782616936906422E-002
   7.8850504243044989E-003  -2.2227193465831699E-003   5.7162946743425855E-002
   6.4550214858954541E-003  -2.1823828364492259E-003   5.7801049855681436E-002
   9.9173645223612494E-003  -2.4210186358478991E-003   6.0544393868013843E-002
   8.7458053490145835E-003  -2.1352749765137097E-003   6.0414072338132341E-002
   7.5742461756679747E-003  -1.9587536193159810E-003   6.0542917032639858E-002
   6.4026870023213729E-003  -1.8914545642547860E-003   6.0930927951536332E-002
   5.2311278289747278E-003  -1.9333778113300171E-003   6.1578105094822096E-002
   7.7769683806963030E-003  -1.7955090903927218E-003   6.4183562534369076E-002
   6.8652718910653387E-003  -1.6157579340174144E-003   6.4066047194808018E-002
   5.9535754014343328E-003  -1.5373181645284562E-003   6.4209090998289364E-002
   5.0418789118033477E-003  -1.5601897819264715E-003   6.4612693944812727E-002
   4.1301824221723626E-003  -1.6843727862106972E-003   6.5276856034378716E-002
   9.2716535500920738E-003  -2.6803928866876436E-003   5.0012026478646887E-002
   7.8541593649791297E-003  -2.8428079704930220E-003   5.0399707410023864E-002
   6.4366651798661856E-003  -3.6068102231267829E-003   5.1118448928617999E-002
   5.0191709947532415E-003  -4.9723996445895022E-003   5.2168251034429930E-002
   3.6016768096402973E-003  -6.9395762348815060E-003   5.3549113727459852E-002
   7.8018633929345660E-003  -2.4313878615683793E-003   5.3945690316955897E-002
   6.6883700812571528E-003  -2.6261981792925493E-003   5.3873581681505578E-002
   5.5748767695797119E-003  -3.3307775345149115E-003   5.4078414205708220E-002
   4.4613834579022849E-003  -4.5451259272355701E-003   5.4560187889564335E-002
   3.3478901462248301E-003  -6.2692433574549344E-003   5.5318902733073938E-002
   6.4550214858954541E-003  -2.1823828364492259E-003   5.7801049855681436E-002
   5.5914096200892216E-003  -2.4095883880923818E-003   5.7360969784733817E-002
   4.7277977542830030E-003  -3.0547448459032761E-003   5.7143711445875503E-002
   3.8641858884767566E-003  -4.1178522098821967E-003   5.7149274839106111E-002
   3.0005740226705518E-003  -5.5989104800284184E-003   5.7377659964425926E-002
   5.2311278289747278E-003  -1.9333778113300171E-003   6.1578105094822096E-002
   4.5632779814754124E-003  -2.1929785968922838E-003   6.0861871719708575E-002
   3.8954281339760553E-003  -2.7787121572916337E-003   6.0314340649119391E-002
   3.2275782864767191E-003  -3.6905784925279888E-003   5.9935511883055112E-002
   2.5597284389773829E-003  -4.9285776026023187E-003   5.9725385421515502E-002
   4.1301824221723626E-003  -1.6843727862106972E-003   6.5276856034378716E-002
   3.6039751654156071E-003  -1.9763688056920192E-003   6.4376287486429096E-002
   3.0777679086588794E-003  -2.5026794686797693E-003   6.3590301815440176E-002
   2.5515606519021447E-003  -3.2633047751745026E-003   6.2918899021411512E-002
   2.0253533951453961E-003  -4.2582447251754418E-003   6.2362079104343437E-002
   3.6016768096402973E-003  -6.9395762348815060E-003   5.3549113727459852E-002
   4.1523376010115798E-003  -9.5262878536154227E-003   5.1874341850661088E-002
   4.7029983923828900E-003  -1.2750482360404408E-002   5.0053737988577096E-002
   5.2536591837541863E-003  -1.6612159755248455E-002   4.8087302141208460E-002
   5.8043199751254271E-003  -2.1111320038147419E-002   4.5975034308554985E-002
   3.3478901462248301E-003  -6.2692433574549344E-003   5.5318902733073938E-002
   3.7705319067342508E-003  -8.5360206565097685E-003   5.2961897556445314E-002
   4.1931736672436992E-003  -1.1378348655736781E-002   5.0494686303377889E-002
   4.6158154277532240E-003  -1.4796227355137012E-002   4.7917268973871552E-002
   5.0384571882625684E-003  -1.8789656754709672E-002   4.5229645567926857E-002
   3.0005740226705518E-003  -5.5989104800284184E-003   5.7377659964425926E-002
   3.3308226611642247E-003  -7.5457534594039477E-003   5.4400353675849999E-002
   3.6610712996579323E-003  -1.0006214951069722E-002   5.1348467219681296E-002
   3.9913199381516294E-003  -1.2980294955025739E-002   4.8222000595920252E-002
   4.3215685766452849E-003  -1.6467993471271924E-002   4.5020953804566055E-002
   2.5597284389773829E-003  -4.9285776026023187E-003   5.9725385421515502E-002
   2.8332098643014201E-003  -6.5554862622983212E-003   5.6189710208875102E-002
   3.1066912896254729E-003  -8.6340812464023795E-003   5.2615080737487593E-002
   3.3801727149495716E-003  -1.1164362554914492E-002   4.9001497007353879E-002
   3.6536541402735628E-003  -1.4146330187834177E-002   4.5348959018473523E-002
   2.0253533951453961E-003  -4.2582447251754418E-003   6.2362079104343437E-002
   2.2776935161459011E-003  -5.5652190651925837E-003   5.8329967155520523E-002
   2.5300336371464061E-003  -7.2619475417352308E-003   5.4294526856796643E-002
   2.7823737581468902E-003  -9.3484301548032375E-003   5.0255758208172768E-002
   3.0347138791473882E-003  -1.1824666904396430E-002   4.6213661209648205E-002
   2.3821773218093117E-002  -2.3367629026978587E-002   4.6899663026750416E-002
   2.3149716982178686E-002  -1.7863607246198232E-002   5.0235833365897264E-002
   2.2477660746264311E-002  -1.3714180763032963E-002   5.3281534530806252E-002
   2.1805604510349907E-002  -1.0919349577482883E-002   5.6036766521477321E-002
   2.1133548274435504E-002  -9.4791136895480133E-003   5.8501529337910418E-002
   1.9509836431227431E-002  -1.7525721767859936E-002   5.6931478204471531E-002
   1.8661931829419609E-002  -1.3397705433880469E-002   5.8101327453906865E-002
   1.7814027227611759E-002  -1.0285635572682639E-002   5.9209949145793445E-002
   1.6966122625803937E-002  -8.1895121842665564E-003   6.0257343280130909E-002
   1.6118218023996093E-002  -7.1093352686324163E-003   6.1243509856919648E-002
   1.4102228631504177E-002  -1.1683814508741397E-002   6.5417963522975270E-002
   1.3307717280491932E-002  -8.9318036215626229E-003   6.4760140507532621E-002
   1.2513205929479687E-002  -6.8570903823322732E-003   6.4270331551229853E-002
   1.1718694578467449E-002  -5.4596747910503167E-003   6.3948536654067328E-002
   1.0924183227455198E-002  -4.7395568477167638E-003   6.3794755816044796E-002
   7.5989498189233916E-003  -5.8419072496228019E-003   7.2359118982261605E-002
   7.0870733353957417E-003  -4.4659018092448322E-003   7.0212272526773922E-002
   6.5751968518680919E-003  -3.4285451919819562E-003   6.8462681747115575E-002
   6.0633203683404368E-003  -2.7298373978340892E-003   6.7110346643286287E-002
   5.5514438848127800E-003  -2.3697784268011390E-003   6.6155267215286084E-002
  -6.5149621808480163E-012   9.4957930407701951E-012   7.7754944582330177E-002
  -5.8690066695454846E-012   3.0729863098599708E-012   7.4457723511631269E-002
  -5.2230511582429529E-012  -1.6316253903525535E-012   7.1786999733450624E-002
  -4.5770887080465172E-012  -4.6177610346642695E-012   6.9742773247787812E-002
  -3.9311331967439855E-012  -5.8855142981428799E-012   6.8325044054643347E-002
   2.1133548274435504E-002  -9.4791136895480133E-003   5.8501529337910418E-002
   2.0513787235260844E-002  -8.7532703327665995E-003   5.8792739394273291E-002
   1.9894026196086184E-002  -8.1016167406774697E-003   5.9228014735727724E-002
   1.9274265156911531E-002  -7.5241529132797150E-003   5.9807355362273745E-002
   1.8654504117736864E-002  -7.0208788505742303E-003   6.0530761273911327E-002
   1.6118218023996093E-002  -7.1093352686324163E-003   6.1243509856919648E-002
   1.5645241013580190E-002  -6.5649527511079525E-003   6.1293818066783315E-002
   1.5172264003164290E-002  -6.0762125570214473E-003   6.1493629049072865E-002
   1.4699286992748395E-002  -5.6431146863726283E-003   6.1842942803788513E-002
   1.4226309982332486E-002  -5.2656591391618268E-003   6.2341759330930030E-002
   1.0924183227455198E-002  -4.7395568477167638E-003   6.3794755816044796E-002
   1.0603427733132435E-002  -4.3766351694492917E-003   6.3622709620663437E-002
   1.0282672238809673E-002  -4.0508083733656469E-003   6.3605603685042394E-002
   9.9619167444869091E-003  -3.7620764594657082E-003   6.3743438009181613E-002
   9.6411612501641486E-003  -3.5104394277494788E-003   6.4036212593081260E-002
   5.5514438848127800E-003  -2.3697784268011390E-003   6.6155267215286084E-002
   5.3883473939175478E-003  -2.1883175877906100E-003   6.5779414055913643E-002
   5.2252509030223200E-003  -2.0254041897097355E-003   6.5563938643635855E-002
   5.0621544121270852E-003  -1.8810382325585382E-003   6.5508840978452845E-002
   4.8990579212318582E-003  -1.7552197163370475E-003   6.5614121060364627E-002
  -3.9311331967439855E-012  -5.8855142981428799E-012   6.8325044054643347E-002
  -4.0644466958728032E-012  -6.1319282984584333E-012   6.7763931372533975E-002
  -4.1977601950016208E-012  -6.0538518642516692E-012   6.7368633924853677E-002
  -4.3310728267687004E-012  -5.6514862234458008E-012   6.7139151711602563E-002
  -4.4643871932592560E-012  -4.9247272926322694E-012   6.7075484732780466E-002
   1.8654504117736864E-002  -7.0208788505742303E-003   6.0530761273911327E-002
   1.7783021386810774E-002  -6.5665801260046119E-003   6.0640871801184604E-002
   1.6911538655884684E-002  -6.1360423130150388E-003   6.0908813834130299E-002
   1.6040055924958593E-002  -5.7292654116057121E-003   6.1334587372748356E-002
   1.5168573194032503E-002  -5.3462494217763057E-003   6.1918192417038775E-002
   1.4226309982332486E-002  -5.2656591391618268E-003   6.2341759330930030E-002
   1.3527668551357348E-002  -4.9249350955079541E-003   6.2289134258089990E-002
   1.2829027120382232E-002  -4.6020317355299767E-003   6.2424360279479299E-002
   1.2130385689407087E-002  -4.2969490592277559E-003   6.2747437395098277E-002
   1.1431744258431978E-002  -4.0096870666015971E-003   6.3258365604946687E-002
   9.6411612501641486E-003  -3.5104394277494788E-003   6.4036212593081260E-002
   9.1453807076970761E-003  -3.2832900650110325E-003   6.3826792148031719E-002
   8.6496001652300140E-003  -3.0680211580445677E-003   6.3835242385768959E-002
   8.1538196227629520E-003  -2.8646327068499074E-003   6.4061563306292729E-002
   7.6580390802958725E-003  -2.6731247114270551E-003   6.4505754909603030E-002
   4.8990579212318582E-003  -1.7552197163370475E-003   6.5614121060364627E-002
   4.6361578558299556E-003  -1.6416450345142428E-003   6.5253845471010014E-002
   4.3732577904280548E-003  -1.5340105805591656E-003   6.5141460152999056E-002
   4.1103577250261548E-003  -1.4323163544720605E-003   6.5276965106331852E-002
   3.8474576596242531E-003  -1.3365623562524853E-003   6.5660360331008347E-002
  -4.4643871932592560E-012  -4.9247272926322694E-012   6.7075484732780466E-002
  -4.2440218006589703E-012  -4.0174252813329758E-012   6.6570294227024707E-002
  -4.0236598775056365E-012  -3.0740687773089803E-012   6.6343013581169730E-002
  -3.8033014237992546E-012  -2.0941234857296820E-012   6.6393642795215646E-002
  -3.5829325617520169E-012  -1.0779155346085645E-012   6.6722181869162345E-002
   1.5168573194032503E-002  -5.3462494217763057E-003   6.1918192417038775E-002
   1.4285723508246681E-002  -4.9481415931271200E-003   6.1838747389013959E-002
   1.3402873822460859E-002  -4.4960891752587329E-003   6.1957569125756007E-002
   1.2520024136675044E-002  -3.9900921681708529E-003   6.2274657627265140E-002
   1.1637174450889215E-002  -3.4301505718640213E-003   6.2790012893541247E-002
   1.1431744258431978E-002  -4.0096870666015971E-003   6.3258365604946687E-002
   1.0752772751613744E-002  -3.7111061948913726E-003   6.3194857264118581E-002
   1.0073801244795517E-002  -3.3720668813366356E-003   6.3340838516458581E-002
   9.3948297379773012E-003  -2.9925691259375976E-003   6.3696309361966644E-002
   8.7158582311590571E-003  -2.5726129286944843E-003   6.4261269800642951E-002
   7.6580390802958725E-003  -2.6731247114270551E-003   6.4505754909603030E-002
   7.1941685808463579E-003  -2.4740707966554865E-003   6.4444697108596835E-002
   6.7302980813968433E-003  -2.2480445874145383E-003   6.4604351729159751E-002
   6.2664275819473200E-003  -1.9950460837043979E-003   6.4984718771291972E-002
   5.8025570824978001E-003  -1.7150752855247808E-003   6.5585798234993359E-002
   3.8474576596242531E-003  -1.3365623562524853E-003   6.5660360331008347E-002
   3.6099109959445361E-003  -1.2370353984196697E-003   6.5588266922448818E-002
   3.3723643322648156E-003  -1.1240222934924965E-003   6.5748108763859753E-002
   3.1348176685850981E-003  -9.9752304147094836E-004   6.6139885855241054E-002
   2.8972710049053711E-003  -8.5753764235516061E-004   6.6763598196592666E-002
  -3.5829325617520169E-012  -1.0779155346085645E-012   6.6722181869162345E-002
  -3.0917352011883281E-012  -1.8401946633161970E-013   6.6625566705674655E-002
  -2.6005447795185432E-012   4.2962855495431995E-013   6.6772109620558573E-002
  -2.1093526231252824E-012   7.6227218981372857E-013   6.7161810613813905E-002
  -1.6181569972850696E-012   8.1445961086501484E-013   6.7794669685440678E-002
   1.1637174450889215E-002  -3.4301505718640213E-003   6.2790012893541247E-002
   1.0672122933340994E-002  -2.8878000610845778E-003   6.2822044340741012E-002
   9.7070714157927729E-003  -2.4345763105796669E-003   6.3064979763279072E-002
   8.7420198982445449E-003  -2.0704793203489072E-003   6.3518819161154955E-002
   7.7769683806963030E-003  -1.7955090903927218E-003   6.4183562534369076E-002
   8.7158582311590571E-003  -2.5726129286944843E-003   6.4261269800642951E-002
   7.9693004149749558E-003  -2.1658500456321894E-003   6.4230920129697222E-002
   7.2227425987908475E-003  -1.8259322327759397E-003   6.4426653886141688E-002
   6.4761847826067323E-003  -1.5528594901261794E-003   6.4848471069976460E-002
   5.7296269664226379E-003  -1.3466318176826864E-003   6.5496371681201315E-002
   5.8025570824978001E-003  -1.7150752855247808E-003   6.5585798234993359E-002
   5.2896724197298295E-003  -1.4439000301795790E-003   6.5515349135970513E-002
   4.7767877569618658E-003  -1.2172881549725317E-003   6.5686162916389637E-002
   4.2639030941939073E-003  -1.0352396599035592E-003   6.6098239576251105E-002
   3.7510184314259315E-003  -8.9775454497265095E-004   6.6751579115554571E-002
   2.8972710049053711E-003  -8.5753764235516061E-004   6.6763598196592666E-002
   2.6332389476056046E-003  -7.2195001472696863E-004   6.6675331359560580E-002
   2.3692068903058347E-003  -6.0864407716907515E-004   6.6843506854022600E-002
   2.1051748330060635E-003  -5.1761982968082966E-004   6.7268124679978961E-002
   1.8411427757062983E-003  -4.4887727226244900E-004   6.7949184837429386E-002
  -1.6181569972850696E-012   8.1445961086501484E-013   6.7794669685440678E-002
  -1.3977013990640330E-012   7.2541972429007728E-013   6.7710866800467673E-002
  -1.1772527397369004E-012   6.3460348087573948E-013   6.7898685699040728E-002
  -9.5680581513324370E-013   5.4178883601707639E-013   6.8358126381160150E-002
  -7.3634848218873117E-013   4.4753090122640060E-013   6.9089188846825800E-002
   7.7769683806963030E-003  -1.7955090903927218E-003   6.4183562534369076E-002
   6.8652718910653387E-003  -1.6157579340174144E-003   6.4066047194808018E-002
   5.9535754014343328E-003  -1.5373181645284562E-003   6.4209090998289364E-002
   5.0418789118033477E-003  -1.5601897819264715E-003   6.4612693944812727E-002
   4.1301824221723626E-003  -1.6843727862106972E-003   6.5276856034378716E-002
   5.7296269664226379E-003  -1.3466318176826864E-003   6.5496371681201315E-002
   5.0703308646829343E-003  -1.2118184504225638E-003   6.5350783002242174E-002
   4.4110347629432722E-003  -1.1529886233242470E-003   6.5449435956023733E-002
   3.7517386612035894E-003  -1.1701423363863483E-003   6.5792330542545810E-002
   3.0924425594639066E-003  -1.2632795896098115E-003   6.6379466761807893E-002
   3.7510184314259315E-003  -8.9775454497265095E-004   6.6751579115554571E-002
   3.3278052072756928E-003  -8.0787896682851801E-004   6.6603244943923501E-002
   2.9045919831254471E-003  -7.6865908212001011E-004   6.6682834894730925E-002
   2.4813787589751928E-003  -7.8009489084688438E-004   6.6990348967976968E-002
   2.0581655348249628E-003  -8.4218639300909226E-004   6.7525787163661422E-002
   1.8411427757062983E-003  -4.4887727226244900E-004   6.7949184837429386E-002
   1.6376949188435883E-003  -4.0393948323429185E-004   6.7823433019851720E-002
   1.4342470619808784E-003  -3.8432954091567606E-004   6.7909287814410829E-002
   1.2307992051181645E-003  -3.9004744530697980E-004   6.8206749221106644E-002
   1.0273513482554585E-003  -4.2109319640828979E-004   6.8715817239938637E-002
  -7.3634848218873117E-013   4.4753090122640060E-013   6.9089188846825800E-002
  -6.1339822110539899E-013   3.6048941609578833E-013   6.9011347230027220E-002
  -4.9045142946901876E-013   2.8843594179761567E-013   6.9128794715063446E-002
  -3.6749943366221061E-013   2.3259172365897030E-013   6.9441531301934450E-002
  -2.4455437674930636E-013   1.9262369477246466E-013   6.9949556990639761E-002
   4.1301824221723626E-003  -1.6843727862106972E-003   6.5276856034378716E-002
   3.6039751654156071E-003  -1.9763688056920192E-003   6.4376287486429096E-002
   3.0777679086588794E-003  -2.5026794686797693E-003   6.3590301815440176E-002
   2.5515606519021447E-003  -3.2633047751745026E-003   6.2918899021411512E-002
   2.0253533951453961E-003  -4.2582447251754418E-003   6.2362079104343437E-002
   3.0924425594639066E-003  -1.2632795896098115E-003   6.6379466761807893E-002
   2.6850604139771750E-003  -1.4822766042275060E-003   6.5281577973170579E-002
   2.2776782684904365E-003  -1.8770096014719129E-003   6.4306756530112946E-002
   1.8702961230036910E-003  -2.4474785813438510E-003   6.3455002432635035E-002
   1.4629139775169664E-003  -3.1936835438429734E-003   6.2726315680736056E-002
   2.0581655348249628E-003  -8.4218639300909226E-004   6.7525787163661422E-002
   1.7780929692273323E-003  -9.8818440276296493E-004   6.6289156795215631E-002
   1.4980204036297087E-003  -1.2513397342641674E-003   6.5184078240968751E-002
   1.2179478380320869E-003  -1.6316523875133104E-003   6.4210551500920490E-002
   9.3787527243445468E-004  -2.1291223625100053E-003   6.3368576575070695E-002
   1.0273513482554585E-003  -4.2109319640828979E-004   6.8715817239938637E-002
   8.8307283116607904E-004  -4.9409220129838227E-004   6.7399023952564349E-002
   7.3879431407669269E-004  -6.2566986705658856E-004   6.6222266948007688E-002
   5.9451579698730330E-004  -8.1582619368271436E-004   6.5185546226268890E-002
   4.5023727989792692E-004  -1.0645611811770650E-003   6.4288861787347912E-002
  -2.4455437674930636E-013   1.9262369477246466E-013   6.9949556990639761E-002
  -2.0658474930712600E-013   1.6614487563515468E-013   6.8611179445216219E-002
  -1.6861512186494565E-013   1.5146217613448698E-013   6.7421322651229298E-002
  -1.3064896386971725E-013   1.4766660116904973E-013   6.6379986608679359E-002
  -9.2675866980584942E-014   1.5565326805244695E-013   6.5487171317566650E-002
   2.0253533951453961E-003  -4.2582447251754418E-003   6.2362079104343437E-002
   2.2776935161459011E-003  -5.5652190651925837E-003   5.8329967155520523E-002
   2.5300336371464061E-003  -7.2619475417352308E-003   5.4294526856796643E-002
   2.7823737581468902E-003  -9.3484301548032375E-003   5.0255758208172768E-002
   3.0347138791473882E-003  -1.1824666904396430E-002   4.6213661209648205E-002
   1.4629139775169664E-003  -3.1936835438429734E-003   6.2726315680736056E-002
   1.6969865785297633E-003  -4.1739142988502231E-003   5.8375630404914058E-002
   1.9310591795425880E-003  -5.4464606562480700E-003   5.3991738439017001E-002
   2.1651317805553918E-003  -7.0113226160359796E-003   4.9574639783045271E-002
   2.3992043815682096E-003  -8.8685001782140560E-003   4.5124334436998481E-002
   9.3787527243445468E-004  -2.1291223625100053E-003   6.3368576575070695E-002
   1.1238020132852133E-003  -2.7826095325079181E-003   5.8796756506385134E-002
   1.3097287541359581E-003  -3.6309737707608120E-003   5.4161851407449960E-002
   1.4956554949867116E-003  -4.6742150772688361E-003   4.9463861278265304E-002
   1.6815822358374616E-003  -5.9123334520319037E-003   4.4702786118831939E-002
   4.5023727989792692E-004  -1.0645611811770650E-003   6.4288861787347912E-002
   5.5813982041222517E-004  -1.3913047661654743E-003   5.9593345459933091E-002
   6.6604236092650954E-004  -1.8154868852734915E-003   5.4804865762094854E-002
   7.7394490144082210E-004  -2.3371075385016354E-003   4.9923422693832722E-002
   8.8184744195509215E-004  -2.9561667258497515E-003   4.4949016255147245E-002
  -9.2675866980584942E-014   1.5565326805244695E-013   6.5487171317566650E-002
  -8.9206420028631328E-014   1.7685852782278744E-013   6.0765397265558407E-002
  -8.5736973076677714E-014   2.1360690993788012E-013   5.5920781502952432E-002
  -8.2270995571676053E-014   2.6556534749033744E-013   5.0953324029748059E-002
  -7.8798079172770485E-014   3.3262281817769690E-013   4.5863024845945954E-002
  -6.5149621808480163E-012   9.4957930407701951E-012   7.7754944582330177E-002
  -5.8690066695454846E-012   3.0729863098599708E-012   7.4457723511631269E-002
  -5.2230511582429529E-012  -1.6316253903525535E-012   7.1786999733450624E-002
  -4.5770887080465172E-012  -4.6177610346642695E-012   6.9742773247787812E-002
  -3.9311331967439855E-012  -5.8855142981428799E-012   6.8325044054643347E-002
  -7.5989498323060581E-003   5.8419072618831613E-003   7.2359118978287035E-002
  -7.0870733475612673E-003   4.4659018117415572E-003   7.0212272525081831E-002
  -6.5751968628164834E-003   3.4285451874031814E-003   6.8462681747555945E-002
  -6.0633203780716943E-003   2.7298373888679575E-003   6.7110346645709751E-002
  -5.5514438933269086E-003   2.3697784161359758E-003   6.6155267219543012E-002
  -1.4102228645945064E-002   1.1683814514270557E-002   6.5417963518482572E-002
  -1.3307717293940018E-002   8.9318036204102252E-003   6.4760140506855662E-002
  -1.2513205941934977E-002   6.8570903764379257E-003   6.4270331554069832E-002
  -1.1718694589929935E-002   5.4596747823535911E-003   6.3948536660124830E-002
  -1.0924183237924899E-002   4.7395568381574105E-003   6.3794755825020893E-002
  -1.9509836447431997E-002   1.7525721766657967E-002   5.6931478202917093E-002
  -1.8661931845005284E-002   1.3397705429078831E-002   5.8101327456953462E-002
  -1.7814027242578558E-002   1.0285635565472646E-002   5.9209949152992221E-002
  -1.6966122640151828E-002   8.1895121758393773E-003   6.0257343291033369E-002
  -1.6118218037725101E-002   7.1093352601789006E-003   6.1243509871076900E-002
  -2.3821773236766854E-002   2.3367629019045322E-002   4.6899663031590488E-002
  -2.3149717000756985E-002   1.7863607237747520E-002   5.0235833375374961E-002
  -2.2477660764747182E-002   1.3714180754507421E-002   5.3281534544323161E-002
  -2.1805604528737352E-002   1.0919349569324915E-002   5.6036766538435229E-002
  -2.1133548292727514E-002   9.4791136822003352E-003   5.8501529357711191E-002
  -3.9311331967439855E-012  -5.8855142981428799E-012   6.8325044054643347E-002
  -4.0644466958728032E-012  -6.1319282984584333E-012   6.7763931372533975E-002
  -4.1977601950016208E-012  -6.0538518642516692E-012   6.7368633924853677E-002
  -4.3310728267687004E-012  -5.6514862234458008E-012   6.7139151711602563E-002
  -4.4643871932592560E-012  -4.9247272926322694E-012   6.7075484732780466E-002
  -5.5514438933269086E-003   2.3697784161359758E-003   6.6155267219543012E-002
  -5.3883474026420602E-003   2.1883175770060076E-003   6.5779414059483052E-002
  -5.2252509119572223E-003   2.0254041792768032E-003   6.5563938646630293E-002
  -5.0621544212723756E-003   1.8810382229485448E-003   6.5508840980984806E-002
  -4.8990579305875359E-003   1.7552197080210608E-003   6.5614121062546410E-002
  -1.0924183237924899E-002   4.7395568381574105E-003   6.3794755825020893E-002
  -1.0603427743643805E-002   4.3766351601438880E-003   6.3622709628086804E-002
  -1.0282672249362723E-002   4.0508083646075693E-003   6.3605603691138046E-002
  -9.9619167550816286E-003   3.7620764515484649E-003   6.3743438014174619E-002
  -9.6411612608005483E-003   3.5104394209667378E-003   6.4036212597196301E-002
  -1.6118218037725101E-002   7.1093352601789006E-003   6.1243509871076900E-002
  -1.5645241027069674E-002   6.5649527432817961E-003   6.1293818078345184E-002
  -1.5172264016414251E-002   6.0762125499382244E-003   6.1493629058376756E-002
  -1.4699287005758821E-002   5.6431146801484960E-003   6.1842942811171725E-002
  -1.4226309995103398E-002   5.2656591339123870E-003   6.2341759336730064E-002
  -2.1133548292727514E-002   9.4791136822003352E-003   5.8501529357711191E-002
  -2.0513787252919656E-002   8.7532703264196765E-003   5.8792739410258199E-002
  -1.9894026213111808E-002   8.1016167352688934E-003   5.9228014748346575E-002
  -1.9274265173303964E-002   7.5241529087484750E-003   5.9807355371976442E-002
  -1.8654504133496112E-002   7.0208788468581473E-003   6.0530761281147871E-002
  -4.4643871932592560E-012  -4.9247272926322694E-012   6.7075484732780466E-002
  -4.2440218006589703E-012  -4.0174252813329758E-012   6.6570294227024707E-002
  -4.0236598775056365E-012  -3.0740687773089803E-012   6.6343013581169730E-002
  -3.8033014237992546E-012  -2.0941234857296820E-012   6.6393642795215646E-002
  -3.5829325617520169E-012  -1.0779155346085645E-012   6.6722181869162345E-002
  -4.8990579305875359E-003   1.7552197080210608E-003   6.5614121062546410E-002
  -4.6361578646587839E-003   1.6416450277395578E-003   6.5253845472472288E-002
  -4.3732577987300320E-003   1.5340105753499089E-003   6.5141460153914074E-002
  -4.1103577328012852E-003   1.4323163508514064E-003   6.5276965106871865E-002
  -3.8474576668725280E-003   1.3365623542445082E-003   6.5660360331345757E-002
  -9.6411612608005483E-003   3.5104394209667378E-003   6.4036212597196301E-002
  -9.1453807175482515E-003   3.2832900594968600E-003   6.3826792150659062E-002
  -8.6496001742959669E-003   3.0680211537736507E-003   6.3835242387252730E-002
  -8.1538196310436788E-003   2.8646327037970994E-003   6.4061563306977681E-002
  -7.6580390877913872E-003   2.6731247095670985E-003   6.4505754909833540E-002
  -1.4226309995103398E-002   5.2656591339123870E-003   6.2341759336730064E-002
  -1.3527668562912423E-002   4.9249350912540305E-003   6.2289134261584708E-002
  -1.2829027130721458E-002   4.6020317321973994E-003   6.2424360281185476E-002
  -1.2130385698530487E-002   4.2969490567425443E-003   6.2747437395532513E-002
  -1.1431744266339512E-002   4.0096870648896610E-003   6.3258365604625888E-002
  -1.8654504133496112E-002   7.0208788468581473E-003   6.0530761281147871E-002
  -1.7783021400751300E-002   6.5665801230111731E-003   6.0640871805249574E-002
  -1.6911538668006515E-002   6.1360423106212453E-003   6.0908813835712589E-002
  -1.6040055935261727E-002   5.7292654096882632E-003   6.1334587372536983E-002
  -1.5168573202516918E-002   5.3462494202121125E-003   6.1918192415722828E-002
  -3.5829325617520169E-012  -1.0779155346085645E-012   6.6722181869162345E-002
  -3.0917352011883281E-012  -1.8401946633161970E-013   6.6625566705674655E-002
  -2.6005447795185432E-012   4.2962855495431995E-013   6.6772109620558573E-002
  -2.1093526231252824E-012   7.6227218981372857E-013   6.7161810613813905E-002
  -1.6181569972850696E-012   8.1445961086501484E-013   6.7794669685440678E-002
  -3.8474576668725280E-003   1.3365623542445082E-003   6.5660360331345757E-002
  -3.6099110021605898E-003   1.2370353978285731E-003   6.5588266922182920E-002
  -3.3723643374486516E-003   1.1240222939029321E-003   6.5748108763090118E-002
  -3.1348176727367220E-003   9.9752304246738394E-004   6.6139885854067340E-002
  -2.8972710080247821E-003   8.5753764352214379E-004   6.6763598195114737E-002
  -7.6580390877913872E-003   2.6731247095670985E-003   6.4505754909833540E-002
  -7.1941685871601537E-003   2.4740707958411934E-003   6.4444697107766513E-002
  -6.7302980865289186E-003   2.2480445873761384E-003   6.4604351727468132E-002
  -6.2664275858976774E-003   1.9950460841725547E-003   6.4984718768938160E-002
  -5.8025570852664500E-003   1.7150752862298280E-003   6.5585798232176945E-002
  -1.1431744266339512E-002   4.0096870648896610E-003   6.3258365604625888E-002
  -1.0752772758090435E-002   3.7111061938534667E-003   6.3194857262425491E-002
  -1.0073801249841332E-002   3.3720668808494489E-003   6.3340838513692349E-002
  -9.3948297415922446E-003   2.9925691258774183E-003   6.3696309358426087E-002
  -8.7158582333431520E-003   2.5726129289376232E-003   6.4261269796627218E-002
  -1.5168573202516918E-002   5.3462494202121125E-003   6.1918192415722828E-002
  -1.4285723514951408E-002   4.9481415918662397E-003   6.1838747386159909E-002
  -1.3402873827385902E-002   4.4960891743228149E-003   6.1957569121762701E-002
  -1.2520024139820401E-002   3.9900921675827955E-003   6.2274657622531260E-002
  -1.1637174452254893E-002   3.4301505716451963E-003   6.2790012888465530E-002
  -1.6181569972850696E-012   8.1445961086501484E-013   6.7794669685440678E-002
  -1.3977013990640330E-012   7.2541972429007728E-013   6.7710866800467673E-002
  -1.1772527397369004E-012   6.3460348087573948E-013   6.7898685699040728E-002
  -9.5680581513324370E-013   5.4178883601707639E-013   6.8358126381160150E-002
  -7.3634848218873117E-013   4.4753090122640060E-013   6.9089188846825800E-002
  -2.8972710080247821E-003   8.5753764352214379E-004   6.6763598195114737E-002
  -2.6332389502966846E-003   7.2195001583869045E-004   6.6675331358283740E-002
  -2.3692068925685941E-003   6.0864407818828070E-004   6.6843506852921647E-002
  -2.1051748348405053E-003   5.1761983057102556E-004   6.7268124679028651E-002
  -1.8411427771124061E-003   4.4887727298681401E-004   6.7949184836604837E-002
  -5.8025570852664500E-003   1.7150752862298280E-003   6.5585798232176945E-002
  -5.2896724221079185E-003   1.4439000309518502E-003   6.5515349133522804E-002
  -4.7767877589493879E-003   1.2172881557419579E-003   6.5686162914260465E-002
  -4.2639030957908643E-003   1.0352396605999292E-003   6.6098239574389858E-002
  -3.7510184326323397E-003   8.9775454552604161E-004   6.6751579113911358E-002
  -8.7158582333431520E-003   2.5726129289376232E-003   6.4261269796627218E-002
  -7.9693004168313979E-003   2.1658500460651209E-003   6.4230920126184893E-002
  -7.2227426003196437E-003   1.8259322332956351E-003   6.4426653883057114E-002
  -6.4761847838078973E-003   1.5528594906291104E-003   6.4848471067244048E-002
  -5.7296269672961371E-003   1.3466318180654080E-003   6.5496371678745599E-002
  -1.1637174452254893E-002   3.4301505716451963E-003   6.2790012888465530E-002
  -1.0672122934467107E-002   2.8878000611782806E-003   6.2822044336269867E-002
  -9.7070714166793484E-003   2.4345763108493679E-003   6.3064979759311746E-002
  -8.7420198988915829E-003   2.0704793206579725E-003   6.3518819157590972E-002
  -7.7769683811038104E-003   1.7955090906045523E-003   6.4183562531107574E-002
  -7.3634848218873117E-013   4.4753090122640060E-013   6.9089188846825800E-002
  -6.1339822110539899E-013   3.6048941609578833E-013   6.9011347230027220E-002
  -4.9045142946901876E-013   2.8843594179761567E-013   6.9128794715063446E-002
  -3.6749943366221061E-013   2.3259172365897030E-013   6.9441531301934450E-002
  -2.4455437674930636E-013   1.9262369477246466E-013   6.9949556990639761E-002
  -1.8411427771124061E-003   4.4887727298681401E-004   6.7949184836604837E-002
  -1.6376949200150627E-003   4.0393948379302547E-004   6.7823433019183810E-002
  -1.4342470629177210E-003   3.8432954134659525E-004   6.7909287813876396E-002
  -1.2307992058203671E-003   3.9004744564760663E-004   6.8206749220683538E-002
  -1.0273513487230219E-003   4.2109319669580980E-004   6.8715817239604571E-002
  -3.7510184326323397E-003   8.9775454552604161E-004   6.6751579113911358E-002
  -3.3278052082812261E-003   8.0787896722583907E-004   6.6603244942599310E-002
  -2.9045919839301047E-003   7.6865908240442149E-004   6.6682834893680626E-002
  -2.4813787595789794E-003   7.8009489106206642E-004   6.6990348967155333E-002
  -2.0581655352278558E-003   8.4218639319882937E-004   6.7525787163023626E-002
  -5.7296269672961371E-003   1.3466318180654080E-003   6.5496371678745599E-002
  -5.0703308654118755E-003   1.2118184506584029E-003   6.5350783000274207E-002
  -4.4110347635276130E-003   1.1529886234623032E-003   6.5449435954475596E-002
  -3.7517386616433470E-003   1.1701423364768038E-003   6.5792330541349892E-002
  -3.0924425597590888E-003   1.2632795897019877E-003   6.6379466760896622E-002
  -7.7769683811038104E-003   1.7955090906045523E-003   6.4183562531107574E-002
  -6.8652718914070307E-003   1.6157579340912442E-003   6.4066047192208431E-002
  -5.9535754017102510E-003   1.5373181645203515E-003   6.4209090996261597E-002
  -5.0418789120134661E-003   1.5601897818914717E-003   6.4612693943266797E-002
  -4.1301824223166916E-003   1.6843727862050351E-003   6.5276856033224306E-002
  -2.4455437674930636E-013   1.9262369477246466E-013   6.9949556990639761E-002
  -2.0658474930712600E-013   1.6614487563515468E-013   6.8611179445216219E-002
  -1.6861512186494565E-013   1.5146217613448698E-013   6.7421322651229298E-002
  -1.3064896386971725E-013   1.4766660116904973E-013   6.6379986608679359E-002
  -9.2675866980584942E-014   1.5565326805244695E-013   6.5487171317566650E-002
  -1.0273513487230219E-003   4.2109319669580980E-004   6.8715817239604571E-002
  -8.8307283156167232E-004   4.9409220155982592E-004   6.7399023952288861E-002
  -7.3879431440033658E-004   6.2566986730863694E-004   6.6222266947783076E-002
  -5.9451579723899389E-004   8.1582619394155592E-004   6.5185546226087146E-002
  -4.5023728007765121E-004   1.0645611814588118E-003   6.4288861787200946E-002
  -2.0581655352278558E-003   8.4218639319882937E-004   6.7525787163023626E-002
  -1.7780929695702342E-003   9.8818440295370125E-004   6.6289156794688997E-002
  -1.4980204039126005E-003   1.2513397344657978E-003   6.5184078240536833E-002
  -1.2179478382549633E-003   1.6316523877354418E-003   6.4210551500567509E-002
  -9.3787527259734521E-004   2.1291223627623035E-003   6.3368576574780788E-002
  -3.0924425597590888E-003   1.2632795897019877E-003   6.6379466760896622E-002
  -2.6850604142322375E-003   1.4822766043477015E-003   6.5281577972415961E-002
  -2.2776782687054138E-003   1.8770096016232432E-003   6.4306756529490680E-002
  -1.8702961231785661E-003   2.4474785815295514E-003   6.3455002432121224E-002
  -1.4629139776517388E-003   3.1936835440657396E-003   6.2726315680307246E-002
  -4.1301824223166916E-003   1.6843727862050351E-003   6.5276856033224306E-002
  -3.6039751655477237E-003   1.9763688057412576E-003   6.4376287485470196E-002
  -3.0777679087787557E-003   2.5026794687802445E-003   6.3590301814644534E-002
  -2.5515606520097895E-003   3.2633047753234112E-003   6.2918899020747654E-002
  -2.0253533952408198E-003   4.2582447253689537E-003   6.2362079103779111E-002
  -9.2675866980584942E-014   1.5565326805244695E-013   6.5487171317566650E-002
  -8.9206420028631328E-014   1.7685852782278744E-013   6.0765397265558407E-002
  -8.5736973076677714E-014   2.1360690993788012E-013   5.5920781502952432E-002
  -8.2270995571676053E-014   2.6556534749033744E-013   5.0953324029748059E-002
  -7.8798079172770485E-014   3.3262281817769690E-013   4.5863024845945954E-002
  -4.5023728007765121E-004   1.0645611814588118E-003   6.4288861787200946E-002
  -5.5813982058596640E-004   1.3913047664917411E-003   5.9593345459825309E-002
  -6.6604236109427638E-004   1.8154868856713469E-003   5.4804865762024035E-002
  -7.7394490160258723E-004   2.3371075389979346E-003   4.9923422693797459E-002
  -8.8184744211090155E-004   2.9561667264708102E-003   4.4949016255145358E-002
  -9.3787527259734521E-004   2.1291223627623035E-003   6.3368576574780788E-002
  -1.1238020134449692E-003   2.7826095328067901E-003   5.8796756506169223E-002
  -1.3097287542925915E-003   3.6309737711293089E-003   5.4161851407304507E-002
  -1.4956554951402199E-003   4.6742150777303593E-003   4.9463861278186305E-002
  -1.6815822359878239E-003   5.9123334526089977E-003   4.4702786118815729E-002
  -1.4629139776517388E-003   3.1936835440657396E-003   6.2726315680307246E-002
  -1.6969865786661997E-003   4.1739142991215339E-003   5.8375630404590623E-002
  -1.9310591796806603E-003   5.4464606565874929E-003   5.3991738438793915E-002
  -2.1651317806951108E-003   7.0113226164623121E-003   4.9574639782916388E-002
  -2.3992043817095817E-003   8.8685001787471851E-003   4.5124334436958041E-002
  -2.0253533952408198E-003   4.2582447253689537E-003   6.2362079103779111E-002
  -2.2776935162496584E-003   5.5652190654364997E-003   5.8329967155089535E-002
  -2.5300336372584900E-003   7.2619475420449553E-003   5.4294526856491943E-002
  -2.7823737582673268E-003   9.3484301551953614E-003   5.0255758207985779E-002
  -3.0347138792761602E-003   1.1824666904885373E-002   4.6213661209571821E-002
  -2.3821773236766854E-002   2.3367629019045322E-002   4.6899663031590488E-002
  -2.3149717000756985E-002   1.7863607237747520E-002   5.0235833375374961E-002
  -2.2477660764747182E-002   1.3714180754507421E-002   5.3281534544323161E-002
  -2.1805604528737352E-002   1.0919349569324915E-002   5.6036766538435229E-002
  -2.1133548292727514E-002   9.4791136822003352E-003   5.8501529357711191E-002
  -2.8230601549801861E-002   1.6618102969601534E-002   4.4599727996113198E-002
  -2.7728196688140461E-002   1.3943693200737461E-002   4.7747511547141408E-002
  -2.7225791826479169E-002   1.1875187066432674E-002   5.0846461524308814E-002
  -2.6723386964817845E-002   1.0412584566686957E-002   5.3896577927615368E-002
  -2.6220982103156480E-002   9.5558857015005660E-003   5.6897860757061131E-002
  -3.3928883922389165E-002   9.8685769201578011E-003   4.5503750804818860E-002
  -3.3354494834101016E-002   1.0023779163727500E-002   4.7714455899592334E-002
  -3.2780105745812804E-002   1.0036193378357899E-002   5.0117963021480402E-002
  -3.2205716657524600E-002   9.9058195640489427E-003   5.2714272170483051E-002
  -3.1631327569236423E-002   9.6326577208007969E-003   5.5503383346600141E-002
  -4.0916620354528872E-002   3.1190508707140130E-003   4.9611731457707697E-002
  -4.0028611438638458E-002   6.1038651267174629E-003   5.0136666432727996E-002
  -3.9140602522748071E-002   8.1971996902830829E-003   5.1096039035838092E-002
  -3.8252593606857704E-002   9.3990545614109841E-003   5.2489849267038188E-002
  -3.7364584690967255E-002   9.7094297401009999E-003   5.4318097126328097E-002
  -4.9193810846220987E-002  -3.6304751787297196E-003   5.6923669954779377E-002
  -4.7750546501753005E-002   2.1839510897074810E-003   5.5014143146547900E-002
  -4.6307282157285024E-002   6.3582060022083497E-003   5.3780689567381690E-002
  -4.4864017812817056E-002   8.8922895587728798E-003   5.3223309217280690E-002
  -4.3420753468349088E-002   9.7862017594012030E-003   5.3342002096245067E-002
  -2.1133548292727514E-002   9.4791136822003352E-003   5.8501529357711191E-002
  -2.0513787252919656E-002   8.7532703264196765E-003   5.8792739410258199E-002
  -1.9894026213111808E-002   8.1016167352688934E-003   5.9228014748346575E-002
  -1.9274265173303964E-002   7.5241529087484750E-003   5.9807355371976442E-002
  -1.8654504133496112E-002   7.0208788468581473E-003   6.0530761281147871E-002
  -2.6220982103156480E-002   9.5558857015005660E-003   5.6897860757061131E-002
  -2.5437597951255931E-002   9.0187524278924763E-003   5.6939425637122135E-002
  -2.4654213799355389E-002   8.5148467028817315E-003   5.7164171455827098E-002
  -2.3870829647454843E-002   8.0441685264683767E-003   5.7572098213176000E-002
  -2.3087445495554304E-002   7.6067178986524153E-003   5.8163205909168875E-002
  -3.1631327569236423E-002   9.6326577208007969E-003   5.5503383346600141E-002
  -3.0645204652140719E-002   9.2842345293653178E-003   5.5254340838142471E-002
  -2.9659081735044994E-002   8.9280766704943962E-003   5.5227594921431290E-002
  -2.8672958817949276E-002   8.5641841441882766E-003   5.5423145596466439E-002
  -2.7686835900853527E-002   8.1925569504467666E-003   5.5840992863248021E-002
  -3.7364584690967255E-002   9.7094297401009999E-003   5.4318097126328097E-002
  -3.6136607355573912E-002   9.5497166308381107E-003   5.3737485013319014E-002
  -3.4908630020180562E-002   9.3413066381072031E-003   5.3418285145158888E-002
  -3.3680652684787239E-002   9.0841997619081211E-003   5.3360497521847544E-002
  -3.2452675349393875E-002   8.7783960022411595E-003   5.3564122143385073E-002
  -4.3420753468349088E-002   9.7862017594012030E-003   5.3342002096245067E-002
  -4.1911806061555618E-002   9.8151987323110146E-003   5.2388858162651819E-002
  -4.0402858654762189E-002   9.7545366057197463E-003   5.1736242127010057E-002
  -3.8893911247968739E-002   9.6042153796280956E-003   5.1384153989319489E-002
  -3.7384963841175289E-002   9.3642350540354413E-003   5.1332593749580324E-002
  -1.8654504133496112E-002   7.0208788468581473E-003   6.0530761281147871E-002
  -1.7783021400751300E-002   6.5665801230111731E-003   6.0640871805249574E-002
  -1.6911538668006515E-002   6.1360423106212453E-003   6.0908813835712589E-002
  -1.6040055935261727E-002   5.7292654096882632E-003   6.1334587372536983E-002
  -1.5168573202516918E-002   5.3462494202121125E-003   6.1918192415722828E-002
  -2.3087445495554304E-002   7.6067178986524153E-003   5.8163205909168875E-002
  -2.2050458920130793E-002   7.1887839578977930E-003   5.8129323094837898E-002
  -2.1013472344707320E-002   6.7766558426684415E-003   5.8268616459502834E-002
  -1.9976485769283840E-002   6.3703335529645792E-003   5.8581086003163731E-002
  -1.8939499193860364E-002   5.9698170887860780E-003   5.9066731725820720E-002
  -2.7686835900853527E-002   8.1925569504467666E-003   5.5840992863248021E-002
  -2.6469000810116824E-002   7.8109877927845101E-003   5.5645161624552658E-002
  -2.5251165719380068E-002   7.4172693747159221E-003   5.5637851237487927E-002
  -2.4033330628643327E-002   7.0114016962410080E-003   5.5819061702053641E-002
  -2.2815495537906606E-002   6.5933847573599325E-003   5.6188793018249972E-002
  -3.2452675349393875E-002   8.7783960022411595E-003   5.3564122143385073E-002
  -3.1038647070709302E-002   8.4331916276711508E-003   5.3188387394393896E-002
  -2.9624618792024771E-002   8.0578829067632050E-003   5.3016518169667987E-002
  -2.8210590513340232E-002   7.6524698395174914E-003   5.3048514469206977E-002
  -2.6796562234655659E-002   7.2169524259337869E-003   5.3284376293011193E-002
  -3.7384963841175289E-002   9.3642350540354413E-003   5.1332593749580324E-002
  -3.5759397701908335E-002   9.0553954625578748E-003   5.0759000404361820E-002
  -3.4133831562641409E-002   8.6984964388105157E-003   5.0404617256042783E-002
  -3.2508265423374476E-002   8.2935379827938430E-003   5.0269444304623462E-002
  -3.0882699284107529E-002   7.8405200945076969E-003   5.0353481550103940E-002
  -1.5168573202516918E-002   5.3462494202121125E-003   6.1918192415722828E-002
  -1.4285723514951408E-002   4.9481415918662397E-003   6.1838747386159909E-002
  -1.3402873827385902E-002   4.4960891743228149E-003   6.1957569121762701E-002
  -1.2520024139820401E-002   3.9900921675827955E-003   6.2274657622531260E-002
  -1.1637174452254893E-002   3.4301505716451963E-003   6.2790012888465530E-002
  -1.8939499193860364E-002   5.9698170887860780E-003   5.9066731725820720E-002
  -1.7859055441801008E-002   5.5571283022472218E-003   5.8839496113161666E-002
  -1.6778611689741627E-002   5.1142890454625028E-003   5.8809181864324600E-002
  -1.5698167937682264E-002   4.6412993184323202E-003   5.8975788979309704E-002
  -1.4617724185622915E-002   4.1381591211557267E-003   5.9339317458116603E-002
  -2.2815495537906606E-002   6.5933847573599325E-003   5.6188793018249972E-002
  -2.1538803122697056E-002   6.1661150126284536E-003   5.5837560941446165E-002
  -2.0262110707487502E-002   5.7324889166022464E-003   5.5681904827120682E-002
  -1.8985418292277966E-002   5.2925064692815674E-003   5.5721824675273549E-002
  -1.7708725877068395E-002   4.8461676706663681E-003   5.5957320485904793E-002
  -2.6796562234655659E-002   7.2169524259337869E-003   5.3284376293011193E-002
  -2.5324966557639592E-002   6.7751017230094496E-003   5.2832941871013755E-002
  -2.3853370880623545E-002   6.3506887877420731E-003   5.2575738010150967E-002
  -2.2381775203607453E-002   5.9437136201308978E-003   5.2512764710422891E-002
  -2.0910179526591424E-002   5.5541762201767320E-003   5.2644021971829269E-002
  -3.0882699284107529E-002   7.8405200945076969E-003   5.0353481550103940E-002
  -2.9217545746628604E-002   7.3840884333906120E-003   4.9825638901864089E-002
  -2.7552392209149706E-002   6.9688886588816085E-003   4.9490681413415366E-002
  -2.5887238671670795E-002   6.5949207709804329E-003   4.9348609084757536E-002
  -2.4222085134191884E-002   6.2621847696874289E-003   4.9399421915890640E-002
  -1.1637174452254893E-002   3.4301505716451963E-003   6.2790012888465530E-002
  -1.0672122934467107E-002   2.8878000611782806E-003   6.2822044336269867E-002
  -9.7070714166793484E-003   2.4345763108493679E-003   6.3064979759311746E-002
  -8.7420198988915829E-003   2.0704793206579725E-003   6.3518819157590972E-002
  -7.7769683811038104E-003   1.7955090906045523E-003   6.4183562531107574E-002
  -1.4617724185622915E-002   4.1381591211557267E-003   5.9339317458116603E-002
  -1.3442634269780426E-002   3.6421762665064250E-003   5.9326827328479714E-002
  -1.2267544353937966E-002   3.1906585673566051E-003   5.9523510019714676E-002
  -1.1092454438095485E-002   2.7836060237065689E-003   5.9929365531821599E-002
  -9.9173645222530166E-003   2.4210186355561047E-003   6.0544393864800594E-002
  -1.7708725877068395E-002   4.8461676706663681E-003   5.5957320485904793E-002
  -1.6325328717536666E-002   4.3965524718345694E-003   5.5855647174188186E-002
  -1.4941931558004924E-002   3.9467408238640644E-003   5.5961415528977987E-002
  -1.3558534398473186E-002   3.4967327267550544E-003   5.6274625550274265E-002
  -1.2175137238941451E-002   3.0465281805075461E-003   5.6795277238077202E-002
  -2.0910179526591424E-002   5.5541762201767320E-003   5.2644021971829269E-002
  -1.9320206277735813E-002   5.1509286771626028E-003   5.2408503873394879E-002
  -1.7730233028880257E-002   4.7028230803713017E-003   5.2378696287101408E-002
  -1.6140259780024650E-002   4.2098594298036508E-003   5.2554599212949221E-002
  -1.4550286531169090E-002   3.6720377254590986E-003   5.2936212650938161E-002
  -2.4222085134191884E-002   6.2621847696874289E-003   4.9399421915890640E-002
  -2.2427266950377889E-002   5.9053048824907473E-003   4.8985397426100030E-002
  -2.0632448766563921E-002   5.4589053368788720E-003   4.8775352294085139E-002
  -1.8837630582749947E-002   4.9229861328519975E-003   4.8769286519846022E-002
  -1.7042812398935958E-002   4.2975472704104289E-003   4.8967200103382402E-002
  -7.7769683811038104E-003   1.7955090906045523E-003   6.4183562531107574E-002
  -6.8652718914070307E-003   1.6157579340912442E-003   6.4066047192208431E-002
  -5.9535754017102510E-003   1.5373181645203515E-003   6.4209090996261597E-002
  -5.0418789120134661E-003   1.5601897818914717E-003   6.4612693943266797E-002
  -4.1301824223166916E-003   1.6843727862050351E-003   6.5276856033224306E-002
  -9.9173645222530166E-003   2.4210186355561047E-003   6.0544393864800594E-002
  -8.7458053489298006E-003   2.1352749762330592E-003   6.0414072335585267E-002
  -7.5742461756065291E-003   1.9587536190657229E-003   6.0542917030670801E-002
  -6.4026870022832680E-003   1.8914545640537073E-003   6.0930927950057182E-002
  -5.2311278289600138E-003   1.9333778111970679E-003   6.1578105093743951E-002
  -1.2175137238941451E-002   3.0465281805075461E-003   5.6795277238077202E-002
  -1.0745108300643196E-002   2.6547920183749574E-003   5.6660060433759096E-002
  -9.3150793623449427E-003   2.3801890736112330E-003   5.6782616935090180E-002
  -7.8850504240466808E-003   2.2227193462157277E-003   5.7162946742070495E-002
  -6.4550214857484311E-003   2.1823828361889896E-003   5.7801049854700082E-002
  -1.4550286531169090E-002   3.6720377254590986E-003   5.2936212650938161E-002
  -1.2863180746547322E-002   3.1743090605167029E-003   5.2804011486729960E-002
  -1.1176074961925514E-002   2.8016245281565627E-003   5.2928190709519811E-002
  -9.4889691773037115E-003   2.5539841283778557E-003   5.3308750319307499E-002
  -7.8018633926819382E-003   2.4313878611809669E-003   5.3945690316092615E-002
  -1.7042812398935958E-002   4.2975472704104289E-003   4.8967200103382402E-002
  -1.5100022686642109E-002   3.6938261026587260E-003   4.8845925494497844E-002
  -1.3157232974348246E-002   3.2230599827020867E-003   4.8979638353959465E-002
  -1.1214443262054383E-002   2.8852489105398657E-003   4.9368338681767321E-002
  -9.2716535497605335E-003   2.6803928861729442E-003   5.0012026477921800E-002
  -4.1301824223166916E-003   1.6843727862050351E-003   6.5276856033224306E-002
  -3.6039751655477237E-003   1.9763688057412576E-003   6.4376287485470196E-002
  -3.0777679087787557E-003   2.5026794687802445E-003   6.3590301814644534E-002
  -2.5515606520097895E-003   3.2633047753234112E-003   6.2918899020747654E-002
  -2.0253533952408198E-003   4.2582447253689537E-003   6.2362079103779111E-002
  -5.2311278289600138E-003   1.9333778111970679E-003   6.1578105093743951E-002
  -4.5632779814773761E-003   2.1929785968340942E-003   6.0861871718797256E-002
  -3.8954281339947106E-003   2.7787121573027707E-003   6.0314340648349507E-002
  -3.2275782865120745E-003   3.6905784926036037E-003   5.9935511882400538E-002
  -2.5597284390294073E-003   4.9285776027361283E-003   5.9725385420949961E-002
  -6.4550214857484311E-003   2.1823828361889896E-003   5.7801049854700082E-002
  -5.5914096199819272E-003   2.4095883879268198E-003   5.7360969783889743E-002
  -4.7277977542153965E-003   3.0547448458248527E-003   5.7143711445148376E-002
  -3.8641858884488939E-003   4.1178522098840181E-003   5.7149274838475733E-002
  -3.0005740226823601E-003   5.5989104801033029E-003   5.7377659963872341E-002
  -7.8018633926819382E-003   2.4313878611809669E-003   5.3945690316092615E-002
  -6.6883700810613598E-003   2.6261981790193234E-003   5.3873581680747164E-002
  -5.5748767694407553E-003   3.3307775343471568E-003   5.4078414205040712E-002
  -4.4613834578201778E-003   4.5451259271642105E-003   5.4560187888973648E-002
  -3.3478901461995720E-003   6.2692433574701445E-003   5.5318902732545500E-002
  -9.2716535497605335E-003   2.6803928861729442E-003   5.0012026477921800E-002
  -7.8541593647156877E-003   2.8428079701122710E-003   5.0399707409369721E-002
  -6.4366651796708418E-003   3.6068102228693499E-003   5.1118448928027194E-002
  -5.0191709946259960E-003   4.9723996444444862E-003   5.2168251033893998E-002
  -3.6016768095811502E-003   6.9395762348376522E-003   5.3549113726969910E-002
  -2.0253533952408198E-003   4.2582447253689537E-003   6.2362079103779111E-002
  -2.2776935162496584E-003   5.5652190654364997E-003   5.8329967155089535E-002
  -2.5300336372584900E-003   7.2619475420449553E-003   5.4294526856491943E-002
  -2.7823737582673268E-003   9.3484301551953614E-003   5.0255758207985779E-002
  -3.0347138792761602E-003   1.1824666904885373E-002   4.6213661209571821E-002
  -2.5597284390294073E-003   4.9285776027361283E-003   5.9725385420949961E-002
  -2.8332098643691732E-003   6.5554862624919163E-003   5.6189710208451205E-002
  -3.1066912897089582E-003   8.6340812466623729E-003   5.2615080737198949E-002
  -3.3801727150486868E-003   1.1164362555248067E-002   4.9001497007192640E-002
  -3.6536541403884779E-003   1.4146330188248513E-002   4.5348959018432833E-002
  -3.0005740226823601E-003   5.5989104801033029E-003   5.7377659963872341E-002
  -3.3308226611986052E-003   7.5457534595472220E-003   5.4400353675438134E-002
  -3.6610712997149067E-003   1.0006214951279818E-002   5.1348467219404614E-002
  -3.9913199382311491E-003   1.2980294955301390E-002   4.8222000595771863E-002
  -4.3215685767474220E-003   1.6467993471611653E-002   4.5020953804539854E-002
  -3.3478901461995720E-003   6.2692433574701445E-003   5.5318902732545500E-002
  -3.7705319067379418E-003   8.5360206566023611E-003   5.2961897556049672E-002
  -4.1931736672763259E-003   1.1378348655897139E-002   5.0494686303109514E-002
  -4.6158154278146324E-003   1.4796227355354737E-002   4.7917268973724544E-002
  -5.0384571883530507E-003   1.8789656754974904E-002   4.5229645567894661E-002
  -3.6016768095811502E-003   6.9395762348376522E-003   5.3549113726969910E-002
  -4.1523376009871688E-003   9.5262878536578333E-003   5.1874341850287053E-002
  -4.7029983923931734E-003   1.2750482360514515E-002   5.0053737988313585E-002
  -5.2536591837991989E-003   1.6612159755407821E-002   4.8087302141049837E-002
  -5.8043199752051966E-003   2.1111320038337933E-002   4.5975034308495033E-002
  -4.9193810846220987E-002  -3.6304751787297196E-003   5.6923669954779377E-002
  -4.7750546501753005E-002   2.1839510897074810E-003   5.5014143146547900E-002
  -4.6307282157285024E-002   6.3582060022083497E-003   5.3780689567381690E-002
  -4.4864017812817056E-002   8.8922895587728798E-003   5.3223309217280690E-002
  -4.3420753468349088E-002   9.7862017594012030E-003   5.3342002096245067E-002
  -5.7439367674001041E-002   5.2616093200805181E-003   5.2264024046374147E-002
  -5.5440429235855335E-002   8.6500678736339820E-003   5.0257192765826020E-002
  -5.3441490797709670E-002   1.1019444334512407E-002   4.8685636443567992E-002
  -5.1442552359563978E-002   1.2369738702715932E-002   4.7549355079600134E-002
  -4.9443613921418279E-002   1.2700950978244585E-002   4.6848348673922485E-002
  -6.4332203114404629E-002   1.4153693818890839E-002   4.4867865791454492E-002
  -6.2018388853356241E-002   1.5116184657560428E-002   4.3384819301850841E-002
  -5.9704574592307970E-002   1.5680682666816423E-002   4.2096249499762470E-002
  -5.7390760331259616E-002   1.5847187846658960E-002   4.1002156385189191E-002
  -5.5076946070211290E-002   1.5615700197087828E-002   4.0102539958130914E-002
  -6.9872317167431711E-002   2.3045778317701132E-002   3.4735195190020156E-002
  -6.7484425354255903E-002   2.1582301441486929E-002   3.4397022754622773E-002
  -6.5096533541080040E-002   2.0341920999120432E-002   3.4012528735965220E-002
  -6.2708641727904094E-002   1.9324636990601947E-002   3.3581713134047765E-002
  -6.0320749914728251E-002   1.8530449415931169E-002   3.3104575948870424E-002
  -7.4059709833082465E-002   3.1937862816511398E-002   2.1866012242071520E-002
  -7.1838538738554114E-002   2.8048418225413430E-002   2.3293803124141366E-002
  -6.9617367644025679E-002   2.5003159331424524E-002   2.4434474152176311E-002
  -6.7396196549497300E-002   2.2802086134544965E-002   2.5288025326176106E-002
  -6.5175025454968921E-002   2.1445198634774454E-002   2.5854456646140833E-002
  -4.3420753468349088E-002   9.7862017594012030E-003   5.3342002096245067E-002
  -4.1911806061555618E-002   9.8151987323110146E-003   5.2388858162651819E-002
  -4.0402858654762189E-002   9.7545366057197463E-003   5.1736242127010057E-002
  -3.8893911247968739E-002   9.6042153796280956E-003   5.1384153989319489E-002
  -3.7384963841175289E-002   9.3642350540354413E-003   5.1332593749580324E-002
  -4.9443613921418279E-002   1.2700950978244585E-002   4.6848348673922485E-002
  -4.7667230382902798E-002   1.2490867776256964E-002   4.6175057297447114E-002
  -4.5890846844387295E-002   1.2217275711911946E-002   4.5736110286464474E-002
  -4.4114463305871793E-002   1.1880174785209432E-002   4.5531507640974592E-002
  -4.2338079767356304E-002   1.1479564996149660E-002   4.5561249360977468E-002
  -5.5076946070211290E-002   1.5615700197087828E-002   4.0102539958130914E-002
  -5.3099309932432323E-002   1.5166536820202997E-002   3.9735251375916672E-002
  -5.1121673794653363E-002   1.4680014818103916E-002   3.9536123626736579E-002
  -4.9144037656874397E-002   1.4156134190790879E-002   3.9505156710590711E-002
  -4.7166401519095423E-002   1.3594894938263796E-002   3.9642350627479062E-002
  -6.0320749914728251E-002   1.8530449415931169E-002   3.3104575948870424E-002
  -5.8208044710144305E-002   1.7842205864148877E-002   3.3069440398060611E-002
  -5.6095339505560421E-002   1.7142753924296029E-002   3.3136282147826421E-002
  -5.3982634300976530E-002   1.6432093596372269E-002   3.3305101198167972E-002
  -5.1869929096392646E-002   1.5710224880378001E-002   3.3575897549085056E-002
  -6.5175025454968921E-002   2.1445198634774454E-002   2.5854456646140833E-002
  -6.2993434716038674E-002   2.0517874908095007E-002   2.6177624363878965E-002
  -6.0811843977108454E-002   1.9605493030487947E-002   2.6536585849734062E-002
  -5.8630253238178220E-002   1.8708053001953849E-002   2.6931341103706333E-002
  -5.6448662499247987E-002   1.7825554822492151E-002   2.7361890125795485E-002
  -3.7384963841175289E-002   9.3642350540354413E-003   5.1332593749580324E-002
  -3.5759397701908335E-002   9.0553954625578748E-003   5.0759000404361820E-002
  -3.4133831562641409E-002   8.6984964388105157E-003   5.0404617256042783E-002
  -3.2508265423374476E-002   8.2935379827938430E-003   5.0269444304623462E-002
  -3.0882699284107529E-002   7.8405200945076969E-003   5.0353481550103940E-002
  -4.2338079767356304E-002   1.1479564996149660E-002   4.5561249360977468E-002
  -4.0499830446798050E-002   1.1034338165773011E-002   4.5069030848319674E-002
  -3.8661581126239748E-002   1.0563386115120366E-002   4.4782968501344819E-002
  -3.6823331805681453E-002   1.0066708844191793E-002   4.4703062320052979E-002
  -3.4985082485123206E-002   9.5443063529871974E-003   4.4829312304444036E-002
  -4.7166401519095423E-002   1.3594894938263796E-002   3.9642350627479062E-002
  -4.5128523048462495E-002   1.3013280868988356E-002   3.9253841159375469E-002
  -4.3090644577829573E-002   1.2428275791430424E-002   3.9058433825738245E-002
  -4.1052766107196617E-002   1.1839879705589907E-002   3.9056128626567446E-002
  -3.9014887636563772E-002   1.1248092611466726E-002   3.9246925561862697E-002
  -5.1869929096392646E-002   1.5710224880378001E-002   3.3575897549085056E-002
  -4.9645475506901772E-002   1.4992223572203790E-002   3.3313431337529176E-002
  -4.7421021917410836E-002   1.4293165467740350E-002   3.3231013229222992E-002
  -4.5196568327919927E-002   1.3613050566987828E-002   3.3328643224166336E-002
  -4.2972114738429081E-002   1.2951878869946240E-002   3.3606321322359398E-002
  -5.6448662499247987E-002   1.7825554822492151E-002   2.7361890125795485E-002
  -5.4050687822115806E-002   1.6971166275418864E-002   2.7247801382780767E-002
  -5.1652713144983611E-002   1.6158055144050359E-002   2.7300706711799044E-002
  -4.9254738467851424E-002   1.5386221428385839E-002   2.7520606112850218E-002
  -4.6856763790719236E-002   1.4655665128425754E-002   2.7907499585934414E-002
  -3.0882699284107529E-002   7.8405200945076969E-003   5.0353481550103940E-002
  -2.9217545746628604E-002   7.3840884333906120E-003   4.9825638901864089E-002
  -2.7552392209149706E-002   6.9688886588816085E-003   4.9490681413415366E-002
  -2.5887238671670795E-002   6.5949207709804329E-003   4.9348609084757536E-002
  -2.4222085134191884E-002   6.2621847696874289E-003   4.9399421915890640E-002
  -3.4985082485123206E-002   9.5443063529871974E-003   4.4829312304444036E-002
  -3.3134689395852818E-002   9.0153832025738623E-003   4.4393359992013187E-002
  -3.1284296306582401E-002   8.4991439540190172E-003   4.4135001623374304E-002
  -2.9433903217311971E-002   7.9955886073228150E-003   4.4054237198527274E-002
  -2.7583510128041597E-002   7.5047171624850195E-003   4.4151066717472265E-002
  -3.9014887636563772E-002   1.1248092611466726E-002   3.9246925561862697E-002
  -3.6994546211500910E-002   1.0646677971756863E-002   3.8874315600491316E-002
  -3.4974204786438014E-002   1.0029399249156322E-002   3.8664008366912854E-002
  -3.2953863361375187E-002   9.3962564436649767E-003   3.8616003861127290E-002
  -3.0933521936312249E-002   8.7472495552827767E-003   3.8730302083134549E-002
  -4.2972114738429081E-002   1.2951878869946240E-002   3.3606321322359398E-002
  -4.0797116193572826E-002   1.2277972740939933E-002   3.3268505727298107E-002
  -3.8622117648716509E-002   1.1559654544293790E-002   3.3077701644030844E-002
  -3.6447119103860226E-002   1.0796924280007027E-002   3.3033909072557405E-002
  -3.4272120559003943E-002   9.9897819480803951E-003   3.3137128012878020E-002
  -4.6856763790719236E-002   1.4655665128425754E-002   2.7907499585934414E-002
  -4.4542399342068578E-002   1.3909267510123169E-002   2.7575930372434054E-002
  -4.2228034893417921E-002   1.3089909839430980E-002   2.7376081454728585E-002
  -3.9913670444767249E-002   1.2197592116349562E-002   2.7307952832817867E-002
  -3.7599305996116578E-002   1.1232314340878236E-002   2.7371544506702095E-002
  -2.4222085134191884E-002   6.2621847696874289E-003   4.9399421915890640E-002
  -2.2427266950377889E-002   5.9053048824907473E-003   4.8985397426100030E-002
  -2.0632448766563921E-002   5.4589053368788720E-003   4.8775352294085139E-002
  -1.8837630582749947E-002   4.9229861328519975E-003   4.8769286519846022E-002
  -1.7042812398935958E-002   4.2975472704104289E-003   4.8967200103382402E-002
  -2.7583510128041597E-002   7.5047171624850195E-003   4.4151066717472265E-002
  -2.5598777492292391E-002   6.9982227798011665E-003   4.3667665789437426E-002
  -2.3614044856543177E-002   6.4477986195665971E-003   4.3360114407497180E-002
  -2.1629312220793975E-002   5.8534446817810407E-003   4.3228412571651997E-002
  -1.9644579585044813E-002   5.2151609664450316E-003   4.3272560281901185E-002
  -3.0933521936312249E-002   8.7472495552827767E-003   3.8730302083134549E-002
  -2.8787004660308771E-002   8.0911406771118632E-003   3.8223114597719515E-002
  -2.6640487384305269E-002   7.4366919022542111E-003   3.7863646846718460E-002
  -2.4493970108301739E-002   6.7839032307102504E-003   3.7651898830130995E-002
  -2.2347452832298234E-002   6.1327746624793567E-003   3.7587870547957702E-002
  -3.4272120559003943E-002   9.9897819480803951E-003   3.3137128012878020E-002
  -3.1991948454427079E-002   9.1840585744225878E-003   3.2651743850946914E-002
  -2.9711776349850186E-002   8.4255851849422136E-003   3.2285949611748750E-002
  -2.7431604245273307E-002   7.7143617796392658E-003   3.2039745295283577E-002
  -2.5151432140696432E-002   7.0503883585138205E-003   3.1913130901551130E-002
  -3.7599305996116578E-002   1.1232314340878236E-002   2.7371544506702095E-002
  -3.5213608874647251E-002   1.0276976471733201E-002   2.6953553549119214E-002
  -3.2827911753177910E-002   9.4144784676298832E-003   2.6627022702588321E-002
  -3.0442214631708590E-002   8.6448203285683090E-003   2.6391951967109389E-002
  -2.8056517510239243E-002   7.9680020545481733E-003   2.6248341342682502E-002
  -1.7042812398935958E-002   4.2975472704104289E-003   4.8967200103382402E-002
  -1.5100022686642109E-002   3.6938261026587260E-003   4.8845925494497844E-002
  -1.3157232974348246E-002   3.2230599827020867E-003   4.8979638353959465E-002
  -1.1214443262054383E-002   2.8852489105398657E-003   4.9368338681767321E-002
  -9.2716535497605335E-003   2.6803928861729442E-003   5.0012026477921800E-002
  -1.9644579585044813E-002   5.2151609664450316E-003   4.3272560281901185E-002
  -1.7485692746130488E-002   4.5951485700777561E-003   4.3118003001787475E-002
  -1.5326805907216245E-002   4.0556085891988169E-003   4.3140652506568455E-002
  -1.3167919068302003E-002   3.5965410238078740E-003   4.3340508796243890E-002
  -1.1009032229387733E-002   3.2179458739062250E-003   4.3717571870813710E-002
  -2.2347452832298234E-002   6.1327746624793567E-003   3.7587870547957702E-002
  -2.0050249550215397E-002   5.4964710374963144E-003   3.7347547964308669E-002
  -1.7753046268132615E-002   4.8881571956951170E-003   3.7206651482102157E-002
  -1.5455842986049798E-002   4.3078331370763299E-003   3.7165181101338381E-002
  -1.3158639703966989E-002   3.7554988616393947E-003   3.7223136822017278E-002
  -2.5151432140696432E-002   7.0503883585138205E-003   3.1913130901551130E-002
  -2.2793693098896950E-002   6.3977935049148865E-003   3.1534560382060463E-002
  -2.0435954057097389E-002   5.7207058021916876E-003   3.1177635280560511E-002
  -1.8078215015297876E-002   5.0191252503442290E-003   3.0842355597051528E-002
  -1.5720475973498342E-002   4.2930518493726200E-003   3.0528721331533143E-002
  -2.8056517510239243E-002   7.9680020545481733E-003   2.6248341342682502E-002
  -2.5716023392174908E-002   7.2991159723337917E-003   2.5679040255043750E-002
  -2.3375529274110518E-002   6.5532544086880640E-003   2.5053603901943666E-002
  -2.1035035156046156E-002   5.7304173636126068E-003   2.4372032283382777E-002
  -1.8694541037981793E-002   4.8306048371058452E-003   2.3634325399360612E-002
  -9.2716535497605335E-003   2.6803928861729442E-003   5.0012026477921800E-002
  -7.8541593647156877E-003   2.8428079701122710E-003   5.0399707409369721E-002
  -6.4366651796708418E-003   3.6068102228693499E-003   5.1118448928027194E-002
  -5.0191709946259960E-003   4.9723996444444862E-003   5.2168251033893998E-002
  -3.6016768095811502E-003   6.9395762348376522E-003   5.3549113726969910E-002
  -1.1009032229387733E-002   3.2179458739062250E-003   4.3717571870813710E-002
  -9.2425973899437075E-003   3.1532848717308881E-003   4.4285395598890775E-002
  -7.4761625504997653E-003   3.6360197495204638E-003   4.5220040048556898E-002
  -5.7097277110557468E-003   4.6661505072753753E-003   4.6521505219811937E-002
  -3.9432928716118532E-003   6.2436771449949635E-003   4.8189791112655866E-002
  -1.3158639703966989E-002   3.7554988616393947E-003   3.7223136822017278E-002
  -1.1007504075744329E-002   3.4637617733495607E-003   3.7916912057870650E-002
  -8.8563684475216758E-003   3.6652292761717997E-003   3.9013268149692554E-002
  -6.7052328192989917E-003   4.3599013701060424E-003   4.0512205097482726E-002
  -4.5540971910763631E-003   5.5477780551522748E-003   4.2413722901241790E-002
  -1.5720475973498342E-002   4.2930518493726200E-003   3.0528721331533143E-002
  -1.3148879422117461E-002   3.7742386749682055E-003   3.1294256786309767E-002
  -1.0577282870736584E-002   3.6944388028231356E-003   3.2498133231434509E-002
  -8.0056863193557065E-003   4.0536522329367095E-003   3.4140350666907147E-002
  -5.4340897679748274E-003   4.8518789653096972E-003   3.6220909092728029E-002
  -1.8694541037981793E-002   4.8306048371058452E-003   2.3634325399360612E-002
  -1.5666723429063112E-002   4.0847155765869614E-003   2.4417429784207689E-002
  -1.2638905820144458E-002   3.7236483294741940E-003   2.5674635293782277E-002
  -9.6110882112258045E-003   3.7474030957678067E-003   2.7405941928084265E-002
  -6.5832706023071230E-003   4.1559798754671196E-003   2.9611349687114208E-002
  -3.6016768095811502E-003   6.9395762348376522E-003   5.3549113726969910E-002
  -4.1523376009871688E-003   9.5262878536578333E-003   5.1874341850287053E-002
  -4.7029983923931734E-003   1.2750482360514515E-002   5.0053737988313585E-002
  -5.2536591837991989E-003   1.6612159755407821E-002   4.8087302141049837E-002
  -5.8043199752051966E-003   2.1111320038337933E-002   4.5975034308495033E-002
  -3.9432928716118532E-003   6.2436771449949635E-003   4.8189791112655866E-002
  -4.5359350995320541E-003   8.6799687400470615E-003   4.7253489988683450E-002
  -5.1285773274521995E-003   1.2286394369799836E-002   4.6379057976973281E-002
  -5.7212195553724421E-003   1.7062954034253092E-002   4.5566495077524888E-002
  -6.3138617832926014E-003   2.3009647733406302E-002   4.4815801290338575E-002
  -4.5540971910763631E-003   5.5477780551522748E-003   4.2413722901241790E-002
  -4.9810197579582965E-003   7.8336496264367894E-003   4.2748543676644102E-002
  -5.4079423248401919E-003   1.1822306379085351E-002   4.3352934661861048E-002
  -5.8348648917221097E-003   1.7513748313098022E-002   4.4226895856892268E-002
  -6.2617874586040762E-003   2.4907975428474671E-002   4.5370427261738566E-002
  -5.4340897679748274E-003   4.8518789653096972E-003   3.6220909092728029E-002
  -5.4875915762659256E-003   6.9873305128264895E-003   3.8359502914168425E-002
  -5.5410933845570247E-003   1.1358218388370769E-002   4.0975368042976183E-002
  -5.5945951928481237E-003   1.7964542591942901E-002   4.4068504479150922E-002
  -5.6480970011391664E-003   2.6806303123543040E-002   4.7638912222692759E-002
  -6.5832706023071230E-003   4.1559798754671196E-003   2.9611349687114208E-002
  -6.0556505544549777E-003   6.1410113992159676E-003   3.4086367701256948E-002
  -5.5280305066027768E-003   1.0894130397656243E-002   3.9246358120319069E-002
  -5.0004104587505760E-003   1.8415336870788071E-002   4.5091320944300850E-002
  -4.4727904108984307E-003   2.8704630818611410E-002   5.1621256173202568E-002
  -7.4059709833082465E-002   3.1937862816511398E-002   2.1866012242071520E-002
  -7.1838538738554114E-002   2.8048418225413430E-002   2.3293803124141366E-002
  -6.9617367644025679E-002   2.5003159331424524E-002   2.4434474152176311E-002
  -6.7396196549497300E-002   2.2802086134544965E-002   2.5288025326176106E-002
  -6.5175025454968921E-002   2.1445198634774454E-002   2.5854456646140833E-002
  -7.8948446390653598E-002   2.8902638812604242E-002   2.1846881588184375E-002
  -7.6749462029504181E-002   2.6554450580024702E-002   2.1418438049541938E-002
  -7.4550477668354598E-002   2.4630559910033767E-002   2.1232740898176727E-002
  -7.2351493307205167E-002   2.3130966802631339E-002   2.1289790134088799E-002
  -7.0152508946055667E-002   2.2055671257817627E-002   2.1589585757278179E-002
  -8.6592592119442285E-002   2.5867414808697087E-002   2.3578951360075900E-002
  -8.3885928250359329E-002   2.5060482934636003E-002   2.0874385266200585E-002
  -8.1179264381276400E-002   2.4257960488643052E-002   1.8942431800914830E-002
  -7.8472600512193430E-002   2.3459847470717794E-002   1.7783090964218574E-002
  -7.5765936643110585E-002   2.2666143880860801E-002   1.7396362756111852E-002
  -9.6992147019448069E-002   2.2832190804789848E-002   2.7062221557746284E-002
  -9.3247937401119488E-002   2.3566515289247345E-002   2.1661644774117486E-002
  -8.9503727782790782E-002   2.3885361067252177E-002   1.7563546860390290E-002
  -8.5759518164462256E-002   2.3788728138804206E-002   1.4767927816565224E-002
  -8.2015308546133620E-002   2.3276616503903891E-002   1.3274787642641887E-002
 -0.11014711109067155        1.9796966800882720E-002   3.2296692181195463E-002
 -0.10483548948178489        2.2072547643858575E-002   2.3780216573292379E-002
  -9.9523867872898242E-002   2.3512761645861441E-002   1.7096086076603539E-002
  -9.4212246264011479E-002   2.4117608806890838E-002   1.2244300691129008E-002
  -8.8900624655124827E-002   2.3887089126947147E-002   9.2248604168685411E-003
  -6.5175025454968921E-002   2.1445198634774454E-002   2.5854456646140833E-002
  -6.2993434716038674E-002   2.0517874908095007E-002   2.6177624363878965E-002
  -6.0811843977108454E-002   1.9605493030487947E-002   2.6536585849734062E-002
  -5.8630253238178220E-002   1.8708053001953849E-002   2.6931341103706333E-002
  -5.6448662499247987E-002   1.7825554822492151E-002   2.7361890125795485E-002
  -7.0152508946055667E-002   2.2055671257817627E-002   2.1589585757278179E-002
  -6.7877333350635741E-002   2.1196291892816896E-002   2.1345838680475696E-002
  -6.5602157755215856E-002   2.0344447324853583E-002   2.1253467548535507E-002
  -6.3326982159795958E-002   1.9500137553927960E-002   2.1312472361457523E-002
  -6.1051806564376060E-002   1.8663362580039478E-002   2.1522853119241903E-002
  -7.5765936643110585E-002   2.2666143880860801E-002   1.7396362756111852E-002
  -7.3281594014455789E-002   2.1874708877538854E-002   1.6578293832733744E-002
  -7.0797251385801035E-002   2.1083401619219330E-002   1.6027183030963101E-002
  -6.8312908757146268E-002   2.0292222105901963E-002   1.5743030350799755E-002
  -6.5828566128491528E-002   1.9501170337586859E-002   1.5725835792244028E-002
  -8.2015308546133620E-002   2.3276616503903891E-002   1.3274787642641887E-002
  -7.9206216707498819E-002   2.2553125862260971E-002   1.1874989820652911E-002
  -7.6397124868863991E-002   2.1822355913584800E-002   1.0857732297016420E-002
  -7.3588033030229205E-002   2.1084306657876022E-002   1.0223015071732863E-002
  -7.0778941191594349E-002   2.0338978095134269E-002   9.9708381448018607E-003
  -8.8900624655124827E-002   2.3887089126947147E-002   9.2248604168685411E-003
  -8.5651201429764678E-002   2.3231542846982756E-002   7.2359266442332260E-003
  -8.2401778204404696E-002   2.2561310207950658E-002   5.7451153466961946E-003
  -7.9152354979044576E-002   2.1876391209850007E-002   4.7524265242566976E-003
  -7.5902931753684566E-002   2.1176785852681457E-002   4.2578601769154290E-003
  -5.6448662499247987E-002   1.7825554822492151E-002   2.7361890125795485E-002
  -5.4050687822115806E-002   1.6971166275418864E-002   2.7247801382780767E-002
  -5.1652713144983611E-002   1.6158055144050359E-002   2.7300706711799044E-002
  -4.9254738467851424E-002   1.5386221428385839E-002   2.7520606112850218E-002
  -4.6856763790719236E-002   1.4655665128425754E-002   2.7907499585934414E-002
  -6.1051806564376060E-002   1.8663362580039478E-002   2.1522853119241903E-002
  -5.8473843721180335E-002   1.7838817193665285E-002   2.1277243868117995E-002
  -5.5895880877984597E-002   1.7031196185281872E-002   2.1224616877088279E-002
  -5.3317918034788872E-002   1.6240499554889029E-002   2.1364972146152690E-002
  -5.0739955191593189E-002   1.5466727302487160E-002   2.1698309675311223E-002
  -6.5828566128491528E-002   1.9501170337586859E-002   1.5725835792244028E-002
  -6.3044626931171063E-002   1.8706468111911526E-002   1.5324352995297219E-002
  -6.0260687733850543E-002   1.7904337226513370E-002   1.5141840646506088E-002
  -5.7476748536530058E-002   1.7094777681392493E-002   1.5178298745870025E-002
  -5.4692809339209558E-002   1.6277789476548565E-002   1.5433727293389377E-002
  -7.0778941191594349E-002   2.0338978095134269E-002   9.9708381448018607E-003
  -6.7763037452087879E-002   1.9574119030157745E-002   9.3891287643186536E-003
  -6.4747133712581423E-002   1.8777478267744709E-002   9.0523780200521507E-003
  -6.1731229973074959E-002   1.7949055807895596E-002   8.9605859120022863E-003
  -5.8715326233568503E-002   1.7088851650610082E-002   9.1137524401688971E-003
  -7.5902931753684566E-002   2.1176785852681457E-002   4.2578601769154290E-003
  -7.2629075283930977E-002   2.0441769948404243E-002   3.4715711751822642E-003
  -6.9355218814177277E-002   1.9650619308976269E-002   2.9562289977272949E-003
  -6.6081362344423689E-002   1.8803333934399091E-002   2.7118336445494939E-003
  -6.2807505874669989E-002   1.7899913824671376E-002   2.7383851156497219E-003
  -4.6856763790719236E-002   1.4655665128425754E-002   2.7907499585934414E-002
  -4.4542399342068578E-002   1.3909267510123169E-002   2.7575930372434054E-002
  -4.2228034893417921E-002   1.3089909839430980E-002   2.7376081454728585E-002
  -3.9913670444767249E-002   1.2197592116349562E-002   2.7307952832817867E-002
  -3.7599305996116578E-002   1.1232314340878236E-002   2.7371544506702095E-002
  -5.0739955191593189E-002   1.5466727302487160E-002   2.1698309675311223E-002
  -4.8289386989995242E-002   1.4686756419217767E-002   2.1250420326163061E-002
  -4.5838818788397309E-002   1.3877463896222145E-002   2.0943218187114393E-002
  -4.3388250586799383E-002   1.3038849733501060E-002   2.0776703258165469E-002
  -4.0937682385201429E-002   1.2170913931054073E-002   2.0750875539316316E-002
  -5.4692809339209558E-002   1.6277789476548565E-002   1.5433727293389377E-002
  -5.2097070470359587E-002   1.5464245328312171E-002   1.4913156221256885E-002
  -4.9501331601509616E-002   1.4665017953013532E-002   1.4542239273528754E-002
  -4.6905592732659672E-002   1.3880107350652614E-002   1.4320976450205442E-002
  -4.4309853863809666E-002   1.3109513521229632E-002   1.4249367751286213E-002
  -5.8715326233568503E-002   1.7088851650610082E-002   9.1137524401688971E-003
  -5.5965449783161689E-002   1.6241734237406782E-002   8.5641380577158137E-003
  -5.3215573332754951E-002   1.5452572009804807E-002   8.1731447139720137E-003
  -5.0465696882348220E-002   1.4721364967804306E-002   7.9407724089374156E-003
  -4.7715820431941412E-002   1.4048113111405108E-002   7.8670211426119241E-003
  -6.2807505874669989E-002   1.7899913824671376E-002   2.7383851156497219E-003
  -5.9894524928401749E-002   1.7019223146501172E-002   2.2033658355396502E-003
  -5.6981543982133287E-002   1.6240126066596028E-002   1.8359345084433265E-003
  -5.4068563035864992E-002   1.5562622584955763E-002   1.6360911343616391E-003
  -5.1155582089596585E-002   1.4986712701581251E-002   1.6038357132934777E-003
  -3.7599305996116578E-002   1.1232314340878236E-002   2.7371544506702095E-002
  -3.5213608874647251E-002   1.0276976471733201E-002   2.6953553549119214E-002
  -3.2827911753177910E-002   9.4144784676298832E-003   2.6627022702588321E-002
  -3.0442214631708590E-002   8.6448203285683090E-003   2.6391951967109389E-002
  -2.8056517510239243E-002   7.9680020545481733E-003   2.6248341342682502E-002
  -4.0937682385201429E-002   1.2170913931054073E-002   2.0750875539316316E-002
  -3.8457005889298054E-002   1.1309454915842343E-002   2.0370166295211267E-002
  -3.5976329393394665E-002   1.0490271114828004E-002   2.0087955688922465E-002
  -3.3495652897491270E-002   9.7133625280104094E-003   1.9904243720449841E-002
  -3.1014976401587846E-002   8.9787291553897752E-003   1.9819030389793102E-002
  -4.4309853863809666E-002   1.3109513521229632E-002   1.4249367751286213E-002
  -4.1727159466708089E-002   1.2341933359951596E-002   1.3855375569814588E-002
  -3.9144465069606518E-002   1.1566063762025680E-002   1.3566920552923148E-002
  -3.6561770672504941E-002   1.0781904727452343E-002   1.3384002700611852E-002
  -3.3979076275403364E-002   9.9894562562314326E-003   1.3306622012881103E-002
  -4.7715820431941412E-002   1.4048113111405108E-002   7.8670211426119241E-003
  -4.5024069606877493E-002   1.3374411804061237E-002   7.4091813729286957E-003
  -4.2332318781813635E-002   1.2641856409223690E-002   7.0639172945901399E-003
  -3.9640567956749723E-002   1.1850446926894360E-002   6.8312289075961492E-003
  -3.6948817131685865E-002   1.1000183357073173E-002   6.7111162119461928E-003
  -5.1155582089596585E-002   1.4986712701581251E-002   1.6038357132934777E-003
  -4.8347736309806155E-002   1.4406890248170212E-002   1.0315837045545284E-003
  -4.5539890530015892E-002   1.3717649056421755E-002   5.7894591392376737E-004
  -4.2732044750225573E-002   1.2918989126336947E-002   2.4592234140190239E-004
  -3.9924198970435198E-002   1.2010910457914914E-002   3.2512986988586512E-005
  -2.8056517510239243E-002   7.9680020545481733E-003   2.6248341342682502E-002
  -2.5716023392174908E-002   7.2991159723337917E-003   2.5679040255043750E-002
  -2.3375529274110518E-002   6.5532544086880640E-003   2.5053603901943666E-002
  -2.1035035156046156E-002   5.7304173636126068E-003   2.4372032283382777E-002
  -1.8694541037981793E-002   4.8306048371058452E-003   2.3634325399360612E-002
  -3.1014976401587846E-002   8.9787291553897752E-003   1.9819030389793102E-002
  -2.8711044966825833E-002   8.2587127262848115E-003   1.9218652497548061E-002
  -2.6407113532063806E-002   7.5256549700143394E-003   1.8601284504159321E-002
  -2.4103182097301792E-002   6.7795558865780536E-003   1.7966926409626827E-002
  -2.1799250662539710E-002   6.0204154759762041E-003   1.7315578213951022E-002
  -3.3979076275403364E-002   9.9894562562314326E-003   1.3306622012881103E-002
  -3.1672562359626191E-002   9.2183094802359977E-003   1.2739101470294667E-002
  -2.9366048443849033E-002   8.4980555313402678E-003   1.2193735990881874E-002
  -2.7059534528071902E-002   7.8286944095437190E-003   1.1670525574643181E-002
  -2.4753020612294757E-002   7.2102261148465630E-003   1.1169470221578159E-002
  -3.6948817131685865E-002   1.1000183357073173E-002   6.7111162119461928E-003
  -3.4600575570576012E-002   1.0177906234187989E-002   6.2403871732830477E-003
  -3.2252334009466220E-002   9.4704560926659256E-003   5.8309583621117302E-003
  -2.9904092448356432E-002   8.8778329325098302E-003   5.4828297784317703E-003
  -2.7555850887246582E-002   8.4000367537169218E-003   5.1960014222426909E-003
  -3.9924198970435198E-002   1.2010910457914914E-002   3.2512986988586512E-005
  -3.7495084599675210E-002   1.1137502988138537E-002  -2.7749039348567983E-004
  -3.5065970228915333E-002   1.0442856653992527E-002  -4.8704838215107848E-004
  -3.2636855858155456E-002   9.9269714554748451E-003  -5.9616097900772047E-004
  -3.0207741487395467E-002   9.5898473925875027E-003  -6.0482818405505068E-004
  -1.8694541037981793E-002   4.8306048371058452E-003   2.3634325399360612E-002
  -1.5666723429063112E-002   4.0847155765869614E-003   2.4417429784207689E-002
  -1.2638905820144458E-002   3.7236483294741940E-003   2.5674635293782277E-002
  -9.6110882112258045E-003   3.7474030957678067E-003   2.7405941928084265E-002
  -6.5832706023071230E-003   4.1559798754671196E-003   2.9611349687114208E-002
  -2.1799250662539710E-002   6.0204154759762041E-003   1.7315578213951022E-002
  -1.8567294095100662E-002   5.3473886005196980E-003   1.8264705312825369E-002
  -1.5335337527661613E-002   4.8596301225200533E-003   1.9148009204012939E-002
  -1.2103380960222551E-002   4.5571400419770897E-003   1.9965489887514037E-002
  -8.8714243927834058E-003   4.4399183588910152E-003   2.0717147363328192E-002
  -2.4753020612294757E-002   7.2102261148465630E-003   1.1169470221578159E-002
  -2.1856849418749519E-002   6.6100616244528232E-003   1.2085066418530604E-002
  -1.8960678225204253E-002   5.9956119155659404E-003   1.2394915075381874E-002
  -1.6064507031659028E-002   5.3668769881870457E-003   1.2099016192132453E-002
  -1.3168335838113804E-002   4.7238568423145777E-003   1.1197369768781829E-002
  -2.7555850887246582E-002   8.4000367537169218E-003   5.1960014222426909E-003
  -2.5535389400009566E-002   7.8727346483852545E-003   5.8785131013236944E-003
  -2.3514927912772467E-002   7.1315937086113140E-003   5.4153529078896021E-003
  -2.1494466425535371E-002   6.1766139343956659E-003   3.8065208419398762E-003
  -1.9474004938298352E-002   5.0077953257384178E-003   1.0520169034744370E-003
  -3.0207741487395467E-002   9.5898473925875027E-003  -6.0482818405505068E-004
  -2.9602914038880823E-002   9.1354076723182409E-003  -3.5495463879509082E-004
  -2.8998086590366179E-002   8.2675755016577424E-003  -1.7906772984650210E-003
  -2.8393259141851507E-002   6.9863508806061320E-003  -4.9119961630639739E-003
  -2.7788431693336890E-002   5.2917338091620358E-003  -9.7189112325932747E-003
  -6.5832706023071230E-003   4.1559798754671196E-003   2.9611349687114208E-002
  -6.0556505544549777E-003   6.1410113992159676E-003   3.4086367701256948E-002
  -5.5280305066027768E-003   1.0894130397656243E-002   3.9246358120319069E-002
  -5.0004104587505760E-003   1.8415336870788071E-002   4.5091320944300850E-002
  -4.4727904108984307E-003   2.8704630818611410E-002   5.1621256173202568E-002
  -8.8714243927834058E-003   4.4399183588910152E-003   2.0717147363328192E-002
  -7.5861914391782137E-003   5.6571358408543659E-003   2.5881896927117287E-002
  -6.3009584855729245E-003   9.3579632554596781E-003   3.1876899897492927E-002
  -5.0157255319677949E-003   1.5542400602707118E-002   3.8702156274455002E-002
  -3.7304925783625542E-003   2.4210447882596631E-002   4.6357666058003844E-002
  -1.3168335838113804E-002   4.7238568423145777E-003   1.1197369768781829E-002
  -1.0980208977088519E-002   5.1732602824922092E-003   1.6767373340167480E-002
  -8.7920821160632628E-003   7.8217961132634184E-003   2.3312911319806867E-002
  -6.6039552550379924E-003   1.2669464334626047E-002   3.0833983707700130E-002
  -4.4158283940126108E-003   1.9716264946582074E-002   3.9330590503845908E-002
  -1.9474004938298352E-002   5.0077953257384178E-003   1.0520169034744370E-003
  -1.6237703168185944E-002   4.6893847241305520E-003   6.7427969404073931E-003
  -1.3001401398073539E-002   6.2856289710673391E-003   1.3554392387261471E-002
  -9.7650996279612951E-003   9.7965280665454797E-003   2.1486803244035884E-002
  -6.5287978578487255E-003   1.5222082010567628E-002   3.0540029510730288E-002
  -2.7788431693336890E-002   5.2917338091620358E-003  -9.7189112325932747E-003
  -2.3358674012470382E-002   4.2055091657688948E-003  -4.1918322721622436E-003
  -1.8928916331603929E-002   4.7494618288703716E-003   2.6013430998564901E-003
  -1.4499158650737642E-002   6.9235917984644124E-003   1.0660614883462510E-002
  -1.0069400969870967E-002   1.0727899074552738E-002   1.9985983078656178E-002
 </DataArray>
 </PointData>
 </Piece>
 </UnstructuredGrid>
 </VTKFile>
