 <VTKFile type="UnstructuredGrid"  version="0.1"   >
 <UnstructuredGrid>
 <Piece  NumberOfPoints="          1600 "  NumberOfCells="         1024 ">
 <Points>
 <DataArray  type="Float64" NumberOfComponents="3"  format="ascii" >
   0.0000000000000000        0.0000000000000000        0.0000000000000000     
   3.1250000000000000E-002   0.0000000000000000        0.0000000000000000     
   6.2500000000000000E-002   0.0000000000000000        0.0000000000000000     
   9.3750000000000000E-002   0.0000000000000000        0.0000000000000000     
  0.12500000000000000        0.0000000000000000        0.0000000000000000     
   0.0000000000000000        3.1250000000000000E-002   0.0000000000000000     
   3.1250000000000000E-002   3.1250000000000000E-002   0.0000000000000000     
   6.2500000000000000E-002   3.1250000000000000E-002   0.0000000000000000     
   9.3750000000000000E-002   3.1250000000000000E-002   0.0000000000000000     
  0.12500000000000000        3.1250000000000000E-002   0.0000000000000000     
   0.0000000000000000        6.2500000000000000E-002   0.0000000000000000     
   3.1250000000000000E-002   6.2500000000000000E-002   0.0000000000000000     
   6.2500000000000000E-002   6.2500000000000000E-002   0.0000000000000000     
   9.3750000000000000E-002   6.2500000000000000E-002   0.0000000000000000     
  0.12500000000000000        6.2500000000000000E-002   0.0000000000000000     
   0.0000000000000000        9.3750000000000000E-002   0.0000000000000000     
   3.1250000000000000E-002   9.3750000000000000E-002   0.0000000000000000     
   6.2500000000000000E-002   9.3750000000000000E-002   0.0000000000000000     
   9.3750000000000000E-002   9.3750000000000000E-002   0.0000000000000000     
  0.12500000000000000        9.3750000000000000E-002   0.0000000000000000     
   0.0000000000000000       0.12500000000000000        0.0000000000000000     
   3.1250000000000000E-002  0.12500000000000000        0.0000000000000000     
   6.2500000000000000E-002  0.12500000000000000        0.0000000000000000     
   9.3750000000000000E-002  0.12500000000000000        0.0000000000000000     
  0.12500000000000000       0.12500000000000000        0.0000000000000000     
  0.12500000000000000        0.0000000000000000        0.0000000000000000     
  0.15625000000000000        0.0000000000000000        0.0000000000000000     
  0.18750000000000000        0.0000000000000000        0.0000000000000000     
  0.21875000000000000        0.0000000000000000        0.0000000000000000     
  0.25000000000000000        0.0000000000000000        0.0000000000000000     
  0.12500000000000000        3.1250000000000000E-002   0.0000000000000000     
  0.15625000000000000        3.1250000000000000E-002   0.0000000000000000     
  0.18750000000000000        3.1250000000000000E-002   0.0000000000000000     
  0.21875000000000000        3.1250000000000000E-002   0.0000000000000000     
  0.25000000000000000        3.1250000000000000E-002   0.0000000000000000     
  0.12500000000000000        6.2500000000000000E-002   0.0000000000000000     
  0.15625000000000000        6.2500000000000000E-002   0.0000000000000000     
  0.18750000000000000        6.2500000000000000E-002   0.0000000000000000     
  0.21875000000000000        6.2500000000000000E-002   0.0000000000000000     
  0.25000000000000000        6.2500000000000000E-002   0.0000000000000000     
  0.12500000000000000        9.3750000000000000E-002   0.0000000000000000     
  0.15625000000000000        9.3750000000000000E-002   0.0000000000000000     
  0.18750000000000000        9.3750000000000000E-002   0.0000000000000000     
  0.21875000000000000        9.3750000000000000E-002   0.0000000000000000     
  0.25000000000000000        9.3750000000000000E-002   0.0000000000000000     
  0.12500000000000000       0.12500000000000000        0.0000000000000000     
  0.15625000000000000       0.12500000000000000        0.0000000000000000     
  0.18750000000000000       0.12500000000000000        0.0000000000000000     
  0.21875000000000000       0.12500000000000000        0.0000000000000000     
  0.25000000000000000       0.12500000000000000        0.0000000000000000     
  0.25000000000000000        0.0000000000000000        0.0000000000000000     
  0.28125000000000000        0.0000000000000000        0.0000000000000000     
  0.31250000000000000        0.0000000000000000        0.0000000000000000     
  0.34375000000000000        0.0000000000000000        0.0000000000000000     
  0.37500000000000000        0.0000000000000000        0.0000000000000000     
  0.25000000000000000        3.1250000000000000E-002   0.0000000000000000     
  0.28125000000000000        3.1250000000000000E-002   0.0000000000000000     
  0.31250000000000000        3.1250000000000000E-002   0.0000000000000000     
  0.34375000000000000        3.1250000000000000E-002   0.0000000000000000     
  0.37500000000000000        3.1250000000000000E-002   0.0000000000000000     
  0.25000000000000000        6.2500000000000000E-002   0.0000000000000000     
  0.28125000000000000        6.2500000000000000E-002   0.0000000000000000     
  0.31250000000000000        6.2500000000000000E-002   0.0000000000000000     
  0.34375000000000000        6.2500000000000000E-002   0.0000000000000000     
  0.37500000000000000        6.2500000000000000E-002   0.0000000000000000     
  0.25000000000000000        9.3750000000000000E-002   0.0000000000000000     
  0.28125000000000000        9.3750000000000000E-002   0.0000000000000000     
  0.31250000000000000        9.3750000000000000E-002   0.0000000000000000     
  0.34375000000000000        9.3750000000000000E-002   0.0000000000000000     
  0.37500000000000000        9.3750000000000000E-002   0.0000000000000000     
  0.25000000000000000       0.12500000000000000        0.0000000000000000     
  0.28125000000000000       0.12500000000000000        0.0000000000000000     
  0.31250000000000000       0.12500000000000000        0.0000000000000000     
  0.34375000000000000       0.12500000000000000        0.0000000000000000     
  0.37500000000000000       0.12500000000000000        0.0000000000000000     
  0.37500000000000000        0.0000000000000000        0.0000000000000000     
  0.40625000000000000        0.0000000000000000        0.0000000000000000     
  0.43750000000000000        0.0000000000000000        0.0000000000000000     
  0.46875000000000000        0.0000000000000000        0.0000000000000000     
  0.50000000000000000        0.0000000000000000        0.0000000000000000     
  0.37500000000000000        3.1250000000000000E-002   0.0000000000000000     
  0.40625000000000000        3.1250000000000000E-002   0.0000000000000000     
  0.43750000000000000        3.1250000000000000E-002   0.0000000000000000     
  0.46875000000000000        3.1250000000000000E-002   0.0000000000000000     
  0.50000000000000000        3.1250000000000000E-002   0.0000000000000000     
  0.37500000000000000        6.2500000000000000E-002   0.0000000000000000     
  0.40625000000000000        6.2500000000000000E-002   0.0000000000000000     
  0.43750000000000000        6.2500000000000000E-002   0.0000000000000000     
  0.46875000000000000        6.2500000000000000E-002   0.0000000000000000     
  0.50000000000000000        6.2500000000000000E-002   0.0000000000000000     
  0.37500000000000000        9.3750000000000000E-002   0.0000000000000000     
  0.40625000000000000        9.3750000000000000E-002   0.0000000000000000     
  0.43750000000000000        9.3750000000000000E-002   0.0000000000000000     
  0.46875000000000000        9.3750000000000000E-002   0.0000000000000000     
  0.50000000000000000        9.3750000000000000E-002   0.0000000000000000     
  0.37500000000000000       0.12500000000000000        0.0000000000000000     
  0.40625000000000000       0.12500000000000000        0.0000000000000000     
  0.43750000000000000       0.12500000000000000        0.0000000000000000     
  0.46875000000000000       0.12500000000000000        0.0000000000000000     
  0.50000000000000000       0.12500000000000000        0.0000000000000000     
  0.50000000000000000        0.0000000000000000        0.0000000000000000     
  0.53125000000000000        0.0000000000000000        0.0000000000000000     
  0.56250000000000000        0.0000000000000000        0.0000000000000000     
  0.59375000000000000        0.0000000000000000        0.0000000000000000     
  0.62500000000000000        0.0000000000000000        0.0000000000000000     
  0.50000000000000000        3.1250000000000000E-002   0.0000000000000000     
  0.53125000000000000        3.1250000000000000E-002   0.0000000000000000     
  0.56250000000000000        3.1250000000000000E-002   0.0000000000000000     
  0.59375000000000000        3.1250000000000000E-002   0.0000000000000000     
  0.62500000000000000        3.1250000000000000E-002   0.0000000000000000     
  0.50000000000000000        6.2500000000000000E-002   0.0000000000000000     
  0.53125000000000000        6.2500000000000000E-002   0.0000000000000000     
  0.56250000000000000        6.2500000000000000E-002   0.0000000000000000     
  0.59375000000000000        6.2500000000000000E-002   0.0000000000000000     
  0.62500000000000000        6.2500000000000000E-002   0.0000000000000000     
  0.50000000000000000        9.3750000000000000E-002   0.0000000000000000     
  0.53125000000000000        9.3750000000000000E-002   0.0000000000000000     
  0.56250000000000000        9.3750000000000000E-002   0.0000000000000000     
  0.59375000000000000        9.3750000000000000E-002   0.0000000000000000     
  0.62500000000000000        9.3750000000000000E-002   0.0000000000000000     
  0.50000000000000000       0.12500000000000000        0.0000000000000000     
  0.53125000000000000       0.12500000000000000        0.0000000000000000     
  0.56250000000000000       0.12500000000000000        0.0000000000000000     
  0.59375000000000000       0.12500000000000000        0.0000000000000000     
  0.62500000000000000       0.12500000000000000        0.0000000000000000     
  0.62500000000000000        0.0000000000000000        0.0000000000000000     
  0.65625000000000000        0.0000000000000000        0.0000000000000000     
  0.68750000000000000        0.0000000000000000        0.0000000000000000     
  0.71875000000000000        0.0000000000000000        0.0000000000000000     
  0.75000000000000000        0.0000000000000000        0.0000000000000000     
  0.62500000000000000        3.1250000000000000E-002   0.0000000000000000     
  0.65625000000000000        3.1250000000000000E-002   0.0000000000000000     
  0.68750000000000000        3.1250000000000000E-002   0.0000000000000000     
  0.71875000000000000        3.1250000000000000E-002   0.0000000000000000     
  0.75000000000000000        3.1250000000000000E-002   0.0000000000000000     
  0.62500000000000000        6.2500000000000000E-002   0.0000000000000000     
  0.65625000000000000        6.2500000000000000E-002   0.0000000000000000     
  0.68750000000000000        6.2500000000000000E-002   0.0000000000000000     
  0.71875000000000000        6.2500000000000000E-002   0.0000000000000000     
  0.75000000000000000        6.2500000000000000E-002   0.0000000000000000     
  0.62500000000000000        9.3750000000000000E-002   0.0000000000000000     
  0.65625000000000000        9.3750000000000000E-002   0.0000000000000000     
  0.68750000000000000        9.3750000000000000E-002   0.0000000000000000     
  0.71875000000000000        9.3750000000000000E-002   0.0000000000000000     
  0.75000000000000000        9.3750000000000000E-002   0.0000000000000000     
  0.62500000000000000       0.12500000000000000        0.0000000000000000     
  0.65625000000000000       0.12500000000000000        0.0000000000000000     
  0.68750000000000000       0.12500000000000000        0.0000000000000000     
  0.71875000000000000       0.12500000000000000        0.0000000000000000     
  0.75000000000000000       0.12500000000000000        0.0000000000000000     
  0.75000000000000000        0.0000000000000000        0.0000000000000000     
  0.78125000000000000        0.0000000000000000        0.0000000000000000     
  0.81250000000000000        0.0000000000000000        0.0000000000000000     
  0.84375000000000000        0.0000000000000000        0.0000000000000000     
  0.87500000000000000        0.0000000000000000        0.0000000000000000     
  0.75000000000000000        3.1250000000000000E-002   0.0000000000000000     
  0.78125000000000000        3.1250000000000000E-002   0.0000000000000000     
  0.81250000000000000        3.1250000000000000E-002   0.0000000000000000     
  0.84375000000000000        3.1250000000000000E-002   0.0000000000000000     
  0.87500000000000000        3.1250000000000000E-002   0.0000000000000000     
  0.75000000000000000        6.2500000000000000E-002   0.0000000000000000     
  0.78125000000000000        6.2500000000000000E-002   0.0000000000000000     
  0.81250000000000000        6.2500000000000000E-002   0.0000000000000000     
  0.84375000000000000        6.2500000000000000E-002   0.0000000000000000     
  0.87500000000000000        6.2500000000000000E-002   0.0000000000000000     
  0.75000000000000000        9.3750000000000000E-002   0.0000000000000000     
  0.78125000000000000        9.3750000000000000E-002   0.0000000000000000     
  0.81250000000000000        9.3750000000000000E-002   0.0000000000000000     
  0.84375000000000000        9.3750000000000000E-002   0.0000000000000000     
  0.87500000000000000        9.3750000000000000E-002   0.0000000000000000     
  0.75000000000000000       0.12500000000000000        0.0000000000000000     
  0.78125000000000000       0.12500000000000000        0.0000000000000000     
  0.81250000000000000       0.12500000000000000        0.0000000000000000     
  0.84375000000000000       0.12500000000000000        0.0000000000000000     
  0.87500000000000000       0.12500000000000000        0.0000000000000000     
  0.87500000000000000        0.0000000000000000        0.0000000000000000     
  0.90625000000000000        0.0000000000000000        0.0000000000000000     
  0.93750000000000000        0.0000000000000000        0.0000000000000000     
  0.96875000000000000        0.0000000000000000        0.0000000000000000     
   1.0000000000000000        0.0000000000000000        0.0000000000000000     
  0.87500000000000000        3.1250000000000000E-002   0.0000000000000000     
  0.90625000000000000        3.1250000000000000E-002   0.0000000000000000     
  0.93750000000000000        3.1250000000000000E-002   0.0000000000000000     
  0.96875000000000000        3.1250000000000000E-002   0.0000000000000000     
   1.0000000000000000        3.1250000000000000E-002   0.0000000000000000     
  0.87500000000000000        6.2500000000000000E-002   0.0000000000000000     
  0.90625000000000000        6.2500000000000000E-002   0.0000000000000000     
  0.93750000000000000        6.2500000000000000E-002   0.0000000000000000     
  0.96875000000000000        6.2500000000000000E-002   0.0000000000000000     
   1.0000000000000000        6.2500000000000000E-002   0.0000000000000000     
  0.87500000000000000        9.3750000000000000E-002   0.0000000000000000     
  0.90625000000000000        9.3750000000000000E-002   0.0000000000000000     
  0.93750000000000000        9.3750000000000000E-002   0.0000000000000000     
  0.96875000000000000        9.3750000000000000E-002   0.0000000000000000     
   1.0000000000000000        9.3750000000000000E-002   0.0000000000000000     
  0.87500000000000000       0.12500000000000000        0.0000000000000000     
  0.90625000000000000       0.12500000000000000        0.0000000000000000     
  0.93750000000000000       0.12500000000000000        0.0000000000000000     
  0.96875000000000000       0.12500000000000000        0.0000000000000000     
   1.0000000000000000       0.12500000000000000        0.0000000000000000     
   0.0000000000000000       0.12500000000000000        0.0000000000000000     
   3.1250000000000000E-002  0.12500000000000000        0.0000000000000000     
   6.2500000000000000E-002  0.12500000000000000        0.0000000000000000     
   9.3750000000000000E-002  0.12500000000000000        0.0000000000000000     
  0.12500000000000000       0.12500000000000000        0.0000000000000000     
   0.0000000000000000       0.15625000000000000        0.0000000000000000     
   3.1250000000000000E-002  0.15625000000000000        0.0000000000000000     
   6.2500000000000000E-002  0.15625000000000000        0.0000000000000000     
   9.3750000000000000E-002  0.15625000000000000        0.0000000000000000     
  0.12500000000000000       0.15625000000000000        0.0000000000000000     
   0.0000000000000000       0.18750000000000000        0.0000000000000000     
   3.1250000000000000E-002  0.18750000000000000        0.0000000000000000     
   6.2500000000000000E-002  0.18750000000000000        0.0000000000000000     
   9.3750000000000000E-002  0.18750000000000000        0.0000000000000000     
  0.12500000000000000       0.18750000000000000        0.0000000000000000     
   0.0000000000000000       0.21875000000000000        0.0000000000000000     
   3.1250000000000000E-002  0.21875000000000000        0.0000000000000000     
   6.2500000000000000E-002  0.21875000000000000        0.0000000000000000     
   9.3750000000000000E-002  0.21875000000000000        0.0000000000000000     
  0.12500000000000000       0.21875000000000000        0.0000000000000000     
   0.0000000000000000       0.25000000000000000        0.0000000000000000     
   3.1250000000000000E-002  0.25000000000000000        0.0000000000000000     
   6.2500000000000000E-002  0.25000000000000000        0.0000000000000000     
   9.3750000000000000E-002  0.25000000000000000        0.0000000000000000     
  0.12500000000000000       0.25000000000000000        0.0000000000000000     
  0.12500000000000000       0.12500000000000000        0.0000000000000000     
  0.15625000000000000       0.12500000000000000        0.0000000000000000     
  0.18750000000000000       0.12500000000000000        0.0000000000000000     
  0.21875000000000000       0.12500000000000000        0.0000000000000000     
  0.25000000000000000       0.12500000000000000        0.0000000000000000     
  0.12500000000000000       0.15625000000000000        0.0000000000000000     
  0.15625000000000000       0.15625000000000000        0.0000000000000000     
  0.18750000000000000       0.15625000000000000        0.0000000000000000     
  0.21875000000000000       0.15625000000000000        0.0000000000000000     
  0.25000000000000000       0.15625000000000000        0.0000000000000000     
  0.12500000000000000       0.18750000000000000        0.0000000000000000     
  0.15625000000000000       0.18750000000000000        0.0000000000000000     
  0.18750000000000000       0.18750000000000000        0.0000000000000000     
  0.21875000000000000       0.18750000000000000        0.0000000000000000     
  0.25000000000000000       0.18750000000000000        0.0000000000000000     
  0.12500000000000000       0.21875000000000000        0.0000000000000000     
  0.15625000000000000       0.21875000000000000        0.0000000000000000     
  0.18750000000000000       0.21875000000000000        0.0000000000000000     
  0.21875000000000000       0.21875000000000000        0.0000000000000000     
  0.25000000000000000       0.21875000000000000        0.0000000000000000     
  0.12500000000000000       0.25000000000000000        0.0000000000000000     
  0.15625000000000000       0.25000000000000000        0.0000000000000000     
  0.18750000000000000       0.25000000000000000        0.0000000000000000     
  0.21875000000000000       0.25000000000000000        0.0000000000000000     
  0.25000000000000000       0.25000000000000000        0.0000000000000000     
  0.25000000000000000       0.12500000000000000        0.0000000000000000     
  0.28125000000000000       0.12500000000000000        0.0000000000000000     
  0.31250000000000000       0.12500000000000000        0.0000000000000000     
  0.34375000000000000       0.12500000000000000        0.0000000000000000     
  0.37500000000000000       0.12500000000000000        0.0000000000000000     
  0.25000000000000000       0.15625000000000000        0.0000000000000000     
  0.28125000000000000       0.15625000000000000        0.0000000000000000     
  0.31250000000000000       0.15625000000000000        0.0000000000000000     
  0.34375000000000000       0.15625000000000000        0.0000000000000000     
  0.37500000000000000       0.15625000000000000        0.0000000000000000     
  0.25000000000000000       0.18750000000000000        0.0000000000000000     
  0.28125000000000000       0.18750000000000000        0.0000000000000000     
  0.31250000000000000       0.18750000000000000        0.0000000000000000     
  0.34375000000000000       0.18750000000000000        0.0000000000000000     
  0.37500000000000000       0.18750000000000000        0.0000000000000000     
  0.25000000000000000       0.21875000000000000        0.0000000000000000     
  0.28125000000000000       0.21875000000000000        0.0000000000000000     
  0.31250000000000000       0.21875000000000000        0.0000000000000000     
  0.34375000000000000       0.21875000000000000        0.0000000000000000     
  0.37500000000000000       0.21875000000000000        0.0000000000000000     
  0.25000000000000000       0.25000000000000000        0.0000000000000000     
  0.28125000000000000       0.25000000000000000        0.0000000000000000     
  0.31250000000000000       0.25000000000000000        0.0000000000000000     
  0.34375000000000000       0.25000000000000000        0.0000000000000000     
  0.37500000000000000       0.25000000000000000        0.0000000000000000     
  0.37500000000000000       0.12500000000000000        0.0000000000000000     
  0.40625000000000000       0.12500000000000000        0.0000000000000000     
  0.43750000000000000       0.12500000000000000        0.0000000000000000     
  0.46875000000000000       0.12500000000000000        0.0000000000000000     
  0.50000000000000000       0.12500000000000000        0.0000000000000000     
  0.37500000000000000       0.15625000000000000        0.0000000000000000     
  0.40625000000000000       0.15625000000000000        0.0000000000000000     
  0.43750000000000000       0.15625000000000000        0.0000000000000000     
  0.46875000000000000       0.15625000000000000        0.0000000000000000     
  0.50000000000000000       0.15625000000000000        0.0000000000000000     
  0.37500000000000000       0.18750000000000000        0.0000000000000000     
  0.40625000000000000       0.18750000000000000        0.0000000000000000     
  0.43750000000000000       0.18750000000000000        0.0000000000000000     
  0.46875000000000000       0.18750000000000000        0.0000000000000000     
  0.50000000000000000       0.18750000000000000        0.0000000000000000     
  0.37500000000000000       0.21875000000000000        0.0000000000000000     
  0.40625000000000000       0.21875000000000000        0.0000000000000000     
  0.43750000000000000       0.21875000000000000        0.0000000000000000     
  0.46875000000000000       0.21875000000000000        0.0000000000000000     
  0.50000000000000000       0.21875000000000000        0.0000000000000000     
  0.37500000000000000       0.25000000000000000        0.0000000000000000     
  0.40625000000000000       0.25000000000000000        0.0000000000000000     
  0.43750000000000000       0.25000000000000000        0.0000000000000000     
  0.46875000000000000       0.25000000000000000        0.0000000000000000     
  0.50000000000000000       0.25000000000000000        0.0000000000000000     
  0.50000000000000000       0.12500000000000000        0.0000000000000000     
  0.53125000000000000       0.12500000000000000        0.0000000000000000     
  0.56250000000000000       0.12500000000000000        0.0000000000000000     
  0.59375000000000000       0.12500000000000000        0.0000000000000000     
  0.62500000000000000       0.12500000000000000        0.0000000000000000     
  0.50000000000000000       0.15625000000000000        0.0000000000000000     
  0.53125000000000000       0.15625000000000000        0.0000000000000000     
  0.56250000000000000       0.15625000000000000        0.0000000000000000     
  0.59375000000000000       0.15625000000000000        0.0000000000000000     
  0.62500000000000000       0.15625000000000000        0.0000000000000000     
  0.50000000000000000       0.18750000000000000        0.0000000000000000     
  0.53125000000000000       0.18750000000000000        0.0000000000000000     
  0.56250000000000000       0.18750000000000000        0.0000000000000000     
  0.59375000000000000       0.18750000000000000        0.0000000000000000     
  0.62500000000000000       0.18750000000000000        0.0000000000000000     
  0.50000000000000000       0.21875000000000000        0.0000000000000000     
  0.53125000000000000       0.21875000000000000        0.0000000000000000     
  0.56250000000000000       0.21875000000000000        0.0000000000000000     
  0.59375000000000000       0.21875000000000000        0.0000000000000000     
  0.62500000000000000       0.21875000000000000        0.0000000000000000     
  0.50000000000000000       0.25000000000000000        0.0000000000000000     
  0.53125000000000000       0.25000000000000000        0.0000000000000000     
  0.56250000000000000       0.25000000000000000        0.0000000000000000     
  0.59375000000000000       0.25000000000000000        0.0000000000000000     
  0.62500000000000000       0.25000000000000000        0.0000000000000000     
  0.62500000000000000       0.12500000000000000        0.0000000000000000     
  0.65625000000000000       0.12500000000000000        0.0000000000000000     
  0.68750000000000000       0.12500000000000000        0.0000000000000000     
  0.71875000000000000       0.12500000000000000        0.0000000000000000     
  0.75000000000000000       0.12500000000000000        0.0000000000000000     
  0.62500000000000000       0.15625000000000000        0.0000000000000000     
  0.65625000000000000       0.15625000000000000        0.0000000000000000     
  0.68750000000000000       0.15625000000000000        0.0000000000000000     
  0.71875000000000000       0.15625000000000000        0.0000000000000000     
  0.75000000000000000       0.15625000000000000        0.0000000000000000     
  0.62500000000000000       0.18750000000000000        0.0000000000000000     
  0.65625000000000000       0.18750000000000000        0.0000000000000000     
  0.68750000000000000       0.18750000000000000        0.0000000000000000     
  0.71875000000000000       0.18750000000000000        0.0000000000000000     
  0.75000000000000000       0.18750000000000000        0.0000000000000000     
  0.62500000000000000       0.21875000000000000        0.0000000000000000     
  0.65625000000000000       0.21875000000000000        0.0000000000000000     
  0.68750000000000000       0.21875000000000000        0.0000000000000000     
  0.71875000000000000       0.21875000000000000        0.0000000000000000     
  0.75000000000000000       0.21875000000000000        0.0000000000000000     
  0.62500000000000000       0.25000000000000000        0.0000000000000000     
  0.65625000000000000       0.25000000000000000        0.0000000000000000     
  0.68750000000000000       0.25000000000000000        0.0000000000000000     
  0.71875000000000000       0.25000000000000000        0.0000000000000000     
  0.75000000000000000       0.25000000000000000        0.0000000000000000     
  0.75000000000000000       0.12500000000000000        0.0000000000000000     
  0.78125000000000000       0.12500000000000000        0.0000000000000000     
  0.81250000000000000       0.12500000000000000        0.0000000000000000     
  0.84375000000000000       0.12500000000000000        0.0000000000000000     
  0.87500000000000000       0.12500000000000000        0.0000000000000000     
  0.75000000000000000       0.15625000000000000        0.0000000000000000     
  0.78125000000000000       0.15625000000000000        0.0000000000000000     
  0.81250000000000000       0.15625000000000000        0.0000000000000000     
  0.84375000000000000       0.15625000000000000        0.0000000000000000     
  0.87500000000000000       0.15625000000000000        0.0000000000000000     
  0.75000000000000000       0.18750000000000000        0.0000000000000000     
  0.78125000000000000       0.18750000000000000        0.0000000000000000     
  0.81250000000000000       0.18750000000000000        0.0000000000000000     
  0.84375000000000000       0.18750000000000000        0.0000000000000000     
  0.87500000000000000       0.18750000000000000        0.0000000000000000     
  0.75000000000000000       0.21875000000000000        0.0000000000000000     
  0.78125000000000000       0.21875000000000000        0.0000000000000000     
  0.81250000000000000       0.21875000000000000        0.0000000000000000     
  0.84375000000000000       0.21875000000000000        0.0000000000000000     
  0.87500000000000000       0.21875000000000000        0.0000000000000000     
  0.75000000000000000       0.25000000000000000        0.0000000000000000     
  0.78125000000000000       0.25000000000000000        0.0000000000000000     
  0.81250000000000000       0.25000000000000000        0.0000000000000000     
  0.84375000000000000       0.25000000000000000        0.0000000000000000     
  0.87500000000000000       0.25000000000000000        0.0000000000000000     
  0.87500000000000000       0.12500000000000000        0.0000000000000000     
  0.90625000000000000       0.12500000000000000        0.0000000000000000     
  0.93750000000000000       0.12500000000000000        0.0000000000000000     
  0.96875000000000000       0.12500000000000000        0.0000000000000000     
   1.0000000000000000       0.12500000000000000        0.0000000000000000     
  0.87500000000000000       0.15625000000000000        0.0000000000000000     
  0.90625000000000000       0.15625000000000000        0.0000000000000000     
  0.93750000000000000       0.15625000000000000        0.0000000000000000     
  0.96875000000000000       0.15625000000000000        0.0000000000000000     
   1.0000000000000000       0.15625000000000000        0.0000000000000000     
  0.87500000000000000       0.18750000000000000        0.0000000000000000     
  0.90625000000000000       0.18750000000000000        0.0000000000000000     
  0.93750000000000000       0.18750000000000000        0.0000000000000000     
  0.96875000000000000       0.18750000000000000        0.0000000000000000     
   1.0000000000000000       0.18750000000000000        0.0000000000000000     
  0.87500000000000000       0.21875000000000000        0.0000000000000000     
  0.90625000000000000       0.21875000000000000        0.0000000000000000     
  0.93750000000000000       0.21875000000000000        0.0000000000000000     
  0.96875000000000000       0.21875000000000000        0.0000000000000000     
   1.0000000000000000       0.21875000000000000        0.0000000000000000     
  0.87500000000000000       0.25000000000000000        0.0000000000000000     
  0.90625000000000000       0.25000000000000000        0.0000000000000000     
  0.93750000000000000       0.25000000000000000        0.0000000000000000     
  0.96875000000000000       0.25000000000000000        0.0000000000000000     
   1.0000000000000000       0.25000000000000000        0.0000000000000000     
   0.0000000000000000       0.25000000000000000        0.0000000000000000     
   3.1250000000000000E-002  0.25000000000000000        0.0000000000000000     
   6.2500000000000000E-002  0.25000000000000000        0.0000000000000000     
   9.3750000000000000E-002  0.25000000000000000        0.0000000000000000     
  0.12500000000000000       0.25000000000000000        0.0000000000000000     
   0.0000000000000000       0.28125000000000000        0.0000000000000000     
   3.1250000000000000E-002  0.28125000000000000        0.0000000000000000     
   6.2500000000000000E-002  0.28125000000000000        0.0000000000000000     
   9.3750000000000000E-002  0.28125000000000000        0.0000000000000000     
  0.12500000000000000       0.28125000000000000        0.0000000000000000     
   0.0000000000000000       0.31250000000000000        0.0000000000000000     
   3.1250000000000000E-002  0.31250000000000000        0.0000000000000000     
   6.2500000000000000E-002  0.31250000000000000        0.0000000000000000     
   9.3750000000000000E-002  0.31250000000000000        0.0000000000000000     
  0.12500000000000000       0.31250000000000000        0.0000000000000000     
   0.0000000000000000       0.34375000000000000        0.0000000000000000     
   3.1250000000000000E-002  0.34375000000000000        0.0000000000000000     
   6.2500000000000000E-002  0.34375000000000000        0.0000000000000000     
   9.3750000000000000E-002  0.34375000000000000        0.0000000000000000     
  0.12500000000000000       0.34375000000000000        0.0000000000000000     
   0.0000000000000000       0.37500000000000000        0.0000000000000000     
   3.1250000000000000E-002  0.37500000000000000        0.0000000000000000     
   6.2500000000000000E-002  0.37500000000000000        0.0000000000000000     
   9.3750000000000000E-002  0.37500000000000000        0.0000000000000000     
  0.12500000000000000       0.37500000000000000        0.0000000000000000     
  0.12500000000000000       0.25000000000000000        0.0000000000000000     
  0.15625000000000000       0.25000000000000000        0.0000000000000000     
  0.18750000000000000       0.25000000000000000        0.0000000000000000     
  0.21875000000000000       0.25000000000000000        0.0000000000000000     
  0.25000000000000000       0.25000000000000000        0.0000000000000000     
  0.12500000000000000       0.28125000000000000        0.0000000000000000     
  0.15625000000000000       0.28125000000000000        0.0000000000000000     
  0.18750000000000000       0.28125000000000000        0.0000000000000000     
  0.21875000000000000       0.28125000000000000        0.0000000000000000     
  0.25000000000000000       0.28125000000000000        0.0000000000000000     
  0.12500000000000000       0.31250000000000000        0.0000000000000000     
  0.15625000000000000       0.31250000000000000        0.0000000000000000     
  0.18750000000000000       0.31250000000000000        0.0000000000000000     
  0.21875000000000000       0.31250000000000000        0.0000000000000000     
  0.25000000000000000       0.31250000000000000        0.0000000000000000     
  0.12500000000000000       0.34375000000000000        0.0000000000000000     
  0.15625000000000000       0.34375000000000000        0.0000000000000000     
  0.18750000000000000       0.34375000000000000        0.0000000000000000     
  0.21875000000000000       0.34375000000000000        0.0000000000000000     
  0.25000000000000000       0.34375000000000000        0.0000000000000000     
  0.12500000000000000       0.37500000000000000        0.0000000000000000     
  0.15625000000000000       0.37500000000000000        0.0000000000000000     
  0.18750000000000000       0.37500000000000000        0.0000000000000000     
  0.21875000000000000       0.37500000000000000        0.0000000000000000     
  0.25000000000000000       0.37500000000000000        0.0000000000000000     
  0.25000000000000000       0.25000000000000000        0.0000000000000000     
  0.28125000000000000       0.25000000000000000        0.0000000000000000     
  0.31250000000000000       0.25000000000000000        0.0000000000000000     
  0.34375000000000000       0.25000000000000000        0.0000000000000000     
  0.37500000000000000       0.25000000000000000        0.0000000000000000     
  0.25000000000000000       0.28125000000000000        0.0000000000000000     
  0.28125000000000000       0.28125000000000000        0.0000000000000000     
  0.31250000000000000       0.28125000000000000        0.0000000000000000     
  0.34375000000000000       0.28125000000000000        0.0000000000000000     
  0.37500000000000000       0.28125000000000000        0.0000000000000000     
  0.25000000000000000       0.31250000000000000        0.0000000000000000     
  0.28125000000000000       0.31250000000000000        0.0000000000000000     
  0.31250000000000000       0.31250000000000000        0.0000000000000000     
  0.34375000000000000       0.31250000000000000        0.0000000000000000     
  0.37500000000000000       0.31250000000000000        0.0000000000000000     
  0.25000000000000000       0.34375000000000000        0.0000000000000000     
  0.28125000000000000       0.34375000000000000        0.0000000000000000     
  0.31250000000000000       0.34375000000000000        0.0000000000000000     
  0.34375000000000000       0.34375000000000000        0.0000000000000000     
  0.37500000000000000       0.34375000000000000        0.0000000000000000     
  0.25000000000000000       0.37500000000000000        0.0000000000000000     
  0.28125000000000000       0.37500000000000000        0.0000000000000000     
  0.31250000000000000       0.37500000000000000        0.0000000000000000     
  0.34375000000000000       0.37500000000000000        0.0000000000000000     
  0.37500000000000000       0.37500000000000000        0.0000000000000000     
  0.37500000000000000       0.25000000000000000        0.0000000000000000     
  0.40625000000000000       0.25000000000000000        0.0000000000000000     
  0.43750000000000000       0.25000000000000000        0.0000000000000000     
  0.46875000000000000       0.25000000000000000        0.0000000000000000     
  0.50000000000000000       0.25000000000000000        0.0000000000000000     
  0.37500000000000000       0.28125000000000000        0.0000000000000000     
  0.40625000000000000       0.28125000000000000        0.0000000000000000     
  0.43750000000000000       0.28125000000000000        0.0000000000000000     
  0.46875000000000000       0.28125000000000000        0.0000000000000000     
  0.50000000000000000       0.28125000000000000        0.0000000000000000     
  0.37500000000000000       0.31250000000000000        0.0000000000000000     
  0.40625000000000000       0.31250000000000000        0.0000000000000000     
  0.43750000000000000       0.31250000000000000        0.0000000000000000     
  0.46875000000000000       0.31250000000000000        0.0000000000000000     
  0.50000000000000000       0.31250000000000000        0.0000000000000000     
  0.37500000000000000       0.34375000000000000        0.0000000000000000     
  0.40625000000000000       0.34375000000000000        0.0000000000000000     
  0.43750000000000000       0.34375000000000000        0.0000000000000000     
  0.46875000000000000       0.34375000000000000        0.0000000000000000     
  0.50000000000000000       0.34375000000000000        0.0000000000000000     
  0.37500000000000000       0.37500000000000000        0.0000000000000000     
  0.40625000000000000       0.37500000000000000        0.0000000000000000     
  0.43750000000000000       0.37500000000000000        0.0000000000000000     
  0.46875000000000000       0.37500000000000000        0.0000000000000000     
  0.50000000000000000       0.37500000000000000        0.0000000000000000     
  0.50000000000000000       0.25000000000000000        0.0000000000000000     
  0.53125000000000000       0.25000000000000000        0.0000000000000000     
  0.56250000000000000       0.25000000000000000        0.0000000000000000     
  0.59375000000000000       0.25000000000000000        0.0000000000000000     
  0.62500000000000000       0.25000000000000000        0.0000000000000000     
  0.50000000000000000       0.28125000000000000        0.0000000000000000     
  0.53125000000000000       0.28125000000000000        0.0000000000000000     
  0.56250000000000000       0.28125000000000000        0.0000000000000000     
  0.59375000000000000       0.28125000000000000        0.0000000000000000     
  0.62500000000000000       0.28125000000000000        0.0000000000000000     
  0.50000000000000000       0.31250000000000000        0.0000000000000000     
  0.53125000000000000       0.31250000000000000        0.0000000000000000     
  0.56250000000000000       0.31250000000000000        0.0000000000000000     
  0.59375000000000000       0.31250000000000000        0.0000000000000000     
  0.62500000000000000       0.31250000000000000        0.0000000000000000     
  0.50000000000000000       0.34375000000000000        0.0000000000000000     
  0.53125000000000000       0.34375000000000000        0.0000000000000000     
  0.56250000000000000       0.34375000000000000        0.0000000000000000     
  0.59375000000000000       0.34375000000000000        0.0000000000000000     
  0.62500000000000000       0.34375000000000000        0.0000000000000000     
  0.50000000000000000       0.37500000000000000        0.0000000000000000     
  0.53125000000000000       0.37500000000000000        0.0000000000000000     
  0.56250000000000000       0.37500000000000000        0.0000000000000000     
  0.59375000000000000       0.37500000000000000        0.0000000000000000     
  0.62500000000000000       0.37500000000000000        0.0000000000000000     
  0.62500000000000000       0.25000000000000000        0.0000000000000000     
  0.65625000000000000       0.25000000000000000        0.0000000000000000     
  0.68750000000000000       0.25000000000000000        0.0000000000000000     
  0.71875000000000000       0.25000000000000000        0.0000000000000000     
  0.75000000000000000       0.25000000000000000        0.0000000000000000     
  0.62500000000000000       0.28125000000000000        0.0000000000000000     
  0.65625000000000000       0.28125000000000000        0.0000000000000000     
  0.68750000000000000       0.28125000000000000        0.0000000000000000     
  0.71875000000000000       0.28125000000000000        0.0000000000000000     
  0.75000000000000000       0.28125000000000000        0.0000000000000000     
  0.62500000000000000       0.31250000000000000        0.0000000000000000     
  0.65625000000000000       0.31250000000000000        0.0000000000000000     
  0.68750000000000000       0.31250000000000000        0.0000000000000000     
  0.71875000000000000       0.31250000000000000        0.0000000000000000     
  0.75000000000000000       0.31250000000000000        0.0000000000000000     
  0.62500000000000000       0.34375000000000000        0.0000000000000000     
  0.65625000000000000       0.34375000000000000        0.0000000000000000     
  0.68750000000000000       0.34375000000000000        0.0000000000000000     
  0.71875000000000000       0.34375000000000000        0.0000000000000000     
  0.75000000000000000       0.34375000000000000        0.0000000000000000     
  0.62500000000000000       0.37500000000000000        0.0000000000000000     
  0.65625000000000000       0.37500000000000000        0.0000000000000000     
  0.68750000000000000       0.37500000000000000        0.0000000000000000     
  0.71875000000000000       0.37500000000000000        0.0000000000000000     
  0.75000000000000000       0.37500000000000000        0.0000000000000000     
  0.75000000000000000       0.25000000000000000        0.0000000000000000     
  0.78125000000000000       0.25000000000000000        0.0000000000000000     
  0.81250000000000000       0.25000000000000000        0.0000000000000000     
  0.84375000000000000       0.25000000000000000        0.0000000000000000     
  0.87500000000000000       0.25000000000000000        0.0000000000000000     
  0.75000000000000000       0.28125000000000000        0.0000000000000000     
  0.78125000000000000       0.28125000000000000        0.0000000000000000     
  0.81250000000000000       0.28125000000000000        0.0000000000000000     
  0.84375000000000000       0.28125000000000000        0.0000000000000000     
  0.87500000000000000       0.28125000000000000        0.0000000000000000     
  0.75000000000000000       0.31250000000000000        0.0000000000000000     
  0.78125000000000000       0.31250000000000000        0.0000000000000000     
  0.81250000000000000       0.31250000000000000        0.0000000000000000     
  0.84375000000000000       0.31250000000000000        0.0000000000000000     
  0.87500000000000000       0.31250000000000000        0.0000000000000000     
  0.75000000000000000       0.34375000000000000        0.0000000000000000     
  0.78125000000000000       0.34375000000000000        0.0000000000000000     
  0.81250000000000000       0.34375000000000000        0.0000000000000000     
  0.84375000000000000       0.34375000000000000        0.0000000000000000     
  0.87500000000000000       0.34375000000000000        0.0000000000000000     
  0.75000000000000000       0.37500000000000000        0.0000000000000000     
  0.78125000000000000       0.37500000000000000        0.0000000000000000     
  0.81250000000000000       0.37500000000000000        0.0000000000000000     
  0.84375000000000000       0.37500000000000000        0.0000000000000000     
  0.87500000000000000       0.37500000000000000        0.0000000000000000     
  0.87500000000000000       0.25000000000000000        0.0000000000000000     
  0.90625000000000000       0.25000000000000000        0.0000000000000000     
  0.93750000000000000       0.25000000000000000        0.0000000000000000     
  0.96875000000000000       0.25000000000000000        0.0000000000000000     
   1.0000000000000000       0.25000000000000000        0.0000000000000000     
  0.87500000000000000       0.28125000000000000        0.0000000000000000     
  0.90625000000000000       0.28125000000000000        0.0000000000000000     
  0.93750000000000000       0.28125000000000000        0.0000000000000000     
  0.96875000000000000       0.28125000000000000        0.0000000000000000     
   1.0000000000000000       0.28125000000000000        0.0000000000000000     
  0.87500000000000000       0.31250000000000000        0.0000000000000000     
  0.90625000000000000       0.31250000000000000        0.0000000000000000     
  0.93750000000000000       0.31250000000000000        0.0000000000000000     
  0.96875000000000000       0.31250000000000000        0.0000000000000000     
   1.0000000000000000       0.31250000000000000        0.0000000000000000     
  0.87500000000000000       0.34375000000000000        0.0000000000000000     
  0.90625000000000000       0.34375000000000000        0.0000000000000000     
  0.93750000000000000       0.34375000000000000        0.0000000000000000     
  0.96875000000000000       0.34375000000000000        0.0000000000000000     
   1.0000000000000000       0.34375000000000000        0.0000000000000000     
  0.87500000000000000       0.37500000000000000        0.0000000000000000     
  0.90625000000000000       0.37500000000000000        0.0000000000000000     
  0.93750000000000000       0.37500000000000000        0.0000000000000000     
  0.96875000000000000       0.37500000000000000        0.0000000000000000     
   1.0000000000000000       0.37500000000000000        0.0000000000000000     
   0.0000000000000000       0.37500000000000000        0.0000000000000000     
   3.1250000000000000E-002  0.37500000000000000        0.0000000000000000     
   6.2500000000000000E-002  0.37500000000000000        0.0000000000000000     
   9.3750000000000000E-002  0.37500000000000000        0.0000000000000000     
  0.12500000000000000       0.37500000000000000        0.0000000000000000     
   0.0000000000000000       0.40625000000000000        0.0000000000000000     
   3.1250000000000000E-002  0.40625000000000000        0.0000000000000000     
   6.2500000000000000E-002  0.40625000000000000        0.0000000000000000     
   9.3750000000000000E-002  0.40625000000000000        0.0000000000000000     
  0.12500000000000000       0.40625000000000000        0.0000000000000000     
   0.0000000000000000       0.43750000000000000        0.0000000000000000     
   3.1250000000000000E-002  0.43750000000000000        0.0000000000000000     
   6.2500000000000000E-002  0.43750000000000000        0.0000000000000000     
   9.3750000000000000E-002  0.43750000000000000        0.0000000000000000     
  0.12500000000000000       0.43750000000000000        0.0000000000000000     
   0.0000000000000000       0.46875000000000000        0.0000000000000000     
   3.1250000000000000E-002  0.46875000000000000        0.0000000000000000     
   6.2500000000000000E-002  0.46875000000000000        0.0000000000000000     
   9.3750000000000000E-002  0.46875000000000000        0.0000000000000000     
  0.12500000000000000       0.46875000000000000        0.0000000000000000     
   0.0000000000000000       0.50000000000000000        0.0000000000000000     
   3.1250000000000000E-002  0.50000000000000000        0.0000000000000000     
   6.2500000000000000E-002  0.50000000000000000        0.0000000000000000     
   9.3750000000000000E-002  0.50000000000000000        0.0000000000000000     
  0.12500000000000000       0.50000000000000000        0.0000000000000000     
  0.12500000000000000       0.37500000000000000        0.0000000000000000     
  0.15625000000000000       0.37500000000000000        0.0000000000000000     
  0.18750000000000000       0.37500000000000000        0.0000000000000000     
  0.21875000000000000       0.37500000000000000        0.0000000000000000     
  0.25000000000000000       0.37500000000000000        0.0000000000000000     
  0.12500000000000000       0.40625000000000000        0.0000000000000000     
  0.15625000000000000       0.40625000000000000        0.0000000000000000     
  0.18750000000000000       0.40625000000000000        0.0000000000000000     
  0.21875000000000000       0.40625000000000000        0.0000000000000000     
  0.25000000000000000       0.40625000000000000        0.0000000000000000     
  0.12500000000000000       0.43750000000000000        0.0000000000000000     
  0.15625000000000000       0.43750000000000000        0.0000000000000000     
  0.18750000000000000       0.43750000000000000        0.0000000000000000     
  0.21875000000000000       0.43750000000000000        0.0000000000000000     
  0.25000000000000000       0.43750000000000000        0.0000000000000000     
  0.12500000000000000       0.46875000000000000        0.0000000000000000     
  0.15625000000000000       0.46875000000000000        0.0000000000000000     
  0.18750000000000000       0.46875000000000000        0.0000000000000000     
  0.21875000000000000       0.46875000000000000        0.0000000000000000     
  0.25000000000000000       0.46875000000000000        0.0000000000000000     
  0.12500000000000000       0.50000000000000000        0.0000000000000000     
  0.15625000000000000       0.50000000000000000        0.0000000000000000     
  0.18750000000000000       0.50000000000000000        0.0000000000000000     
  0.21875000000000000       0.50000000000000000        0.0000000000000000     
  0.25000000000000000       0.50000000000000000        0.0000000000000000     
  0.25000000000000000       0.37500000000000000        0.0000000000000000     
  0.28125000000000000       0.37500000000000000        0.0000000000000000     
  0.31250000000000000       0.37500000000000000        0.0000000000000000     
  0.34375000000000000       0.37500000000000000        0.0000000000000000     
  0.37500000000000000       0.37500000000000000        0.0000000000000000     
  0.25000000000000000       0.40625000000000000        0.0000000000000000     
  0.28125000000000000       0.40625000000000000        0.0000000000000000     
  0.31250000000000000       0.40625000000000000        0.0000000000000000     
  0.34375000000000000       0.40625000000000000        0.0000000000000000     
  0.37500000000000000       0.40625000000000000        0.0000000000000000     
  0.25000000000000000       0.43750000000000000        0.0000000000000000     
  0.28125000000000000       0.43750000000000000        0.0000000000000000     
  0.31250000000000000       0.43750000000000000        0.0000000000000000     
  0.34375000000000000       0.43750000000000000        0.0000000000000000     
  0.37500000000000000       0.43750000000000000        0.0000000000000000     
  0.25000000000000000       0.46875000000000000        0.0000000000000000     
  0.28125000000000000       0.46875000000000000        0.0000000000000000     
  0.31250000000000000       0.46875000000000000        0.0000000000000000     
  0.34375000000000000       0.46875000000000000        0.0000000000000000     
  0.37500000000000000       0.46875000000000000        0.0000000000000000     
  0.25000000000000000       0.50000000000000000        0.0000000000000000     
  0.28125000000000000       0.50000000000000000        0.0000000000000000     
  0.31250000000000000       0.50000000000000000        0.0000000000000000     
  0.34375000000000000       0.50000000000000000        0.0000000000000000     
  0.37500000000000000       0.50000000000000000        0.0000000000000000     
  0.37500000000000000       0.37500000000000000        0.0000000000000000     
  0.40625000000000000       0.37500000000000000        0.0000000000000000     
  0.43750000000000000       0.37500000000000000        0.0000000000000000     
  0.46875000000000000       0.37500000000000000        0.0000000000000000     
  0.50000000000000000       0.37500000000000000        0.0000000000000000     
  0.37500000000000000       0.40625000000000000        0.0000000000000000     
  0.40625000000000000       0.40625000000000000        0.0000000000000000     
  0.43750000000000000       0.40625000000000000        0.0000000000000000     
  0.46875000000000000       0.40625000000000000        0.0000000000000000     
  0.50000000000000000       0.40625000000000000        0.0000000000000000     
  0.37500000000000000       0.43750000000000000        0.0000000000000000     
  0.40625000000000000       0.43750000000000000        0.0000000000000000     
  0.43750000000000000       0.43750000000000000        0.0000000000000000     
  0.46875000000000000       0.43750000000000000        0.0000000000000000     
  0.50000000000000000       0.43750000000000000        0.0000000000000000     
  0.37500000000000000       0.46875000000000000        0.0000000000000000     
  0.40625000000000000       0.46875000000000000        0.0000000000000000     
  0.43750000000000000       0.46875000000000000        0.0000000000000000     
  0.46875000000000000       0.46875000000000000        0.0000000000000000     
  0.50000000000000000       0.46875000000000000        0.0000000000000000     
  0.37500000000000000       0.50000000000000000        0.0000000000000000     
  0.40625000000000000       0.50000000000000000        0.0000000000000000     
  0.43750000000000000       0.50000000000000000        0.0000000000000000     
  0.46875000000000000       0.50000000000000000        0.0000000000000000     
  0.50000000000000000       0.50000000000000000        0.0000000000000000     
  0.50000000000000000       0.37500000000000000        0.0000000000000000     
  0.53125000000000000       0.37500000000000000        0.0000000000000000     
  0.56250000000000000       0.37500000000000000        0.0000000000000000     
  0.59375000000000000       0.37500000000000000        0.0000000000000000     
  0.62500000000000000       0.37500000000000000        0.0000000000000000     
  0.50000000000000000       0.40625000000000000        0.0000000000000000     
  0.53125000000000000       0.40625000000000000        0.0000000000000000     
  0.56250000000000000       0.40625000000000000        0.0000000000000000     
  0.59375000000000000       0.40625000000000000        0.0000000000000000     
  0.62500000000000000       0.40625000000000000        0.0000000000000000     
  0.50000000000000000       0.43750000000000000        0.0000000000000000     
  0.53125000000000000       0.43750000000000000        0.0000000000000000     
  0.56250000000000000       0.43750000000000000        0.0000000000000000     
  0.59375000000000000       0.43750000000000000        0.0000000000000000     
  0.62500000000000000       0.43750000000000000        0.0000000000000000     
  0.50000000000000000       0.46875000000000000        0.0000000000000000     
  0.53125000000000000       0.46875000000000000        0.0000000000000000     
  0.56250000000000000       0.46875000000000000        0.0000000000000000     
  0.59375000000000000       0.46875000000000000        0.0000000000000000     
  0.62500000000000000       0.46875000000000000        0.0000000000000000     
  0.50000000000000000       0.50000000000000000        0.0000000000000000     
  0.53125000000000000       0.50000000000000000        0.0000000000000000     
  0.56250000000000000       0.50000000000000000        0.0000000000000000     
  0.59375000000000000       0.50000000000000000        0.0000000000000000     
  0.62500000000000000       0.50000000000000000        0.0000000000000000     
  0.62500000000000000       0.37500000000000000        0.0000000000000000     
  0.65625000000000000       0.37500000000000000        0.0000000000000000     
  0.68750000000000000       0.37500000000000000        0.0000000000000000     
  0.71875000000000000       0.37500000000000000        0.0000000000000000     
  0.75000000000000000       0.37500000000000000        0.0000000000000000     
  0.62500000000000000       0.40625000000000000        0.0000000000000000     
  0.65625000000000000       0.40625000000000000        0.0000000000000000     
  0.68750000000000000       0.40625000000000000        0.0000000000000000     
  0.71875000000000000       0.40625000000000000        0.0000000000000000     
  0.75000000000000000       0.40625000000000000        0.0000000000000000     
  0.62500000000000000       0.43750000000000000        0.0000000000000000     
  0.65625000000000000       0.43750000000000000        0.0000000000000000     
  0.68750000000000000       0.43750000000000000        0.0000000000000000     
  0.71875000000000000       0.43750000000000000        0.0000000000000000     
  0.75000000000000000       0.43750000000000000        0.0000000000000000     
  0.62500000000000000       0.46875000000000000        0.0000000000000000     
  0.65625000000000000       0.46875000000000000        0.0000000000000000     
  0.68750000000000000       0.46875000000000000        0.0000000000000000     
  0.71875000000000000       0.46875000000000000        0.0000000000000000     
  0.75000000000000000       0.46875000000000000        0.0000000000000000     
  0.62500000000000000       0.50000000000000000        0.0000000000000000     
  0.65625000000000000       0.50000000000000000        0.0000000000000000     
  0.68750000000000000       0.50000000000000000        0.0000000000000000     
  0.71875000000000000       0.50000000000000000        0.0000000000000000     
  0.75000000000000000       0.50000000000000000        0.0000000000000000     
  0.75000000000000000       0.37500000000000000        0.0000000000000000     
  0.78125000000000000       0.37500000000000000        0.0000000000000000     
  0.81250000000000000       0.37500000000000000        0.0000000000000000     
  0.84375000000000000       0.37500000000000000        0.0000000000000000     
  0.87500000000000000       0.37500000000000000        0.0000000000000000     
  0.75000000000000000       0.40625000000000000        0.0000000000000000     
  0.78125000000000000       0.40625000000000000        0.0000000000000000     
  0.81250000000000000       0.40625000000000000        0.0000000000000000     
  0.84375000000000000       0.40625000000000000        0.0000000000000000     
  0.87500000000000000       0.40625000000000000        0.0000000000000000     
  0.75000000000000000       0.43750000000000000        0.0000000000000000     
  0.78125000000000000       0.43750000000000000        0.0000000000000000     
  0.81250000000000000       0.43750000000000000        0.0000000000000000     
  0.84375000000000000       0.43750000000000000        0.0000000000000000     
  0.87500000000000000       0.43750000000000000        0.0000000000000000     
  0.75000000000000000       0.46875000000000000        0.0000000000000000     
  0.78125000000000000       0.46875000000000000        0.0000000000000000     
  0.81250000000000000       0.46875000000000000        0.0000000000000000     
  0.84375000000000000       0.46875000000000000        0.0000000000000000     
  0.87500000000000000       0.46875000000000000        0.0000000000000000     
  0.75000000000000000       0.50000000000000000        0.0000000000000000     
  0.78125000000000000       0.50000000000000000        0.0000000000000000     
  0.81250000000000000       0.50000000000000000        0.0000000000000000     
  0.84375000000000000       0.50000000000000000        0.0000000000000000     
  0.87500000000000000       0.50000000000000000        0.0000000000000000     
  0.87500000000000000       0.37500000000000000        0.0000000000000000     
  0.90625000000000000       0.37500000000000000        0.0000000000000000     
  0.93750000000000000       0.37500000000000000        0.0000000000000000     
  0.96875000000000000       0.37500000000000000        0.0000000000000000     
   1.0000000000000000       0.37500000000000000        0.0000000000000000     
  0.87500000000000000       0.40625000000000000        0.0000000000000000     
  0.90625000000000000       0.40625000000000000        0.0000000000000000     
  0.93750000000000000       0.40625000000000000        0.0000000000000000     
  0.96875000000000000       0.40625000000000000        0.0000000000000000     
   1.0000000000000000       0.40625000000000000        0.0000000000000000     
  0.87500000000000000       0.43750000000000000        0.0000000000000000     
  0.90625000000000000       0.43750000000000000        0.0000000000000000     
  0.93750000000000000       0.43750000000000000        0.0000000000000000     
  0.96875000000000000       0.43750000000000000        0.0000000000000000     
   1.0000000000000000       0.43750000000000000        0.0000000000000000     
  0.87500000000000000       0.46875000000000000        0.0000000000000000     
  0.90625000000000000       0.46875000000000000        0.0000000000000000     
  0.93750000000000000       0.46875000000000000        0.0000000000000000     
  0.96875000000000000       0.46875000000000000        0.0000000000000000     
   1.0000000000000000       0.46875000000000000        0.0000000000000000     
  0.87500000000000000       0.50000000000000000        0.0000000000000000     
  0.90625000000000000       0.50000000000000000        0.0000000000000000     
  0.93750000000000000       0.50000000000000000        0.0000000000000000     
  0.96875000000000000       0.50000000000000000        0.0000000000000000     
   1.0000000000000000       0.50000000000000000        0.0000000000000000     
   0.0000000000000000       0.50000000000000000        0.0000000000000000     
   3.1250000000000000E-002  0.50000000000000000        0.0000000000000000     
   6.2500000000000000E-002  0.50000000000000000        0.0000000000000000     
   9.3750000000000000E-002  0.50000000000000000        0.0000000000000000     
  0.12500000000000000       0.50000000000000000        0.0000000000000000     
   0.0000000000000000       0.53125000000000000        0.0000000000000000     
   3.1250000000000000E-002  0.53125000000000000        0.0000000000000000     
   6.2500000000000000E-002  0.53125000000000000        0.0000000000000000     
   9.3750000000000000E-002  0.53125000000000000        0.0000000000000000     
  0.12500000000000000       0.53125000000000000        0.0000000000000000     
   0.0000000000000000       0.56250000000000000        0.0000000000000000     
   3.1250000000000000E-002  0.56250000000000000        0.0000000000000000     
   6.2500000000000000E-002  0.56250000000000000        0.0000000000000000     
   9.3750000000000000E-002  0.56250000000000000        0.0000000000000000     
  0.12500000000000000       0.56250000000000000        0.0000000000000000     
   0.0000000000000000       0.59375000000000000        0.0000000000000000     
   3.1250000000000000E-002  0.59375000000000000        0.0000000000000000     
   6.2500000000000000E-002  0.59375000000000000        0.0000000000000000     
   9.3750000000000000E-002  0.59375000000000000        0.0000000000000000     
  0.12500000000000000       0.59375000000000000        0.0000000000000000     
   0.0000000000000000       0.62500000000000000        0.0000000000000000     
   3.1250000000000000E-002  0.62500000000000000        0.0000000000000000     
   6.2500000000000000E-002  0.62500000000000000        0.0000000000000000     
   9.3750000000000000E-002  0.62500000000000000        0.0000000000000000     
  0.12500000000000000       0.62500000000000000        0.0000000000000000     
  0.12500000000000000       0.50000000000000000        0.0000000000000000     
  0.15625000000000000       0.50000000000000000        0.0000000000000000     
  0.18750000000000000       0.50000000000000000        0.0000000000000000     
  0.21875000000000000       0.50000000000000000        0.0000000000000000     
  0.25000000000000000       0.50000000000000000        0.0000000000000000     
  0.12500000000000000       0.53125000000000000        0.0000000000000000     
  0.15625000000000000       0.53125000000000000        0.0000000000000000     
  0.18750000000000000       0.53125000000000000        0.0000000000000000     
  0.21875000000000000       0.53125000000000000        0.0000000000000000     
  0.25000000000000000       0.53125000000000000        0.0000000000000000     
  0.12500000000000000       0.56250000000000000        0.0000000000000000     
  0.15625000000000000       0.56250000000000000        0.0000000000000000     
  0.18750000000000000       0.56250000000000000        0.0000000000000000     
  0.21875000000000000       0.56250000000000000        0.0000000000000000     
  0.25000000000000000       0.56250000000000000        0.0000000000000000     
  0.12500000000000000       0.59375000000000000        0.0000000000000000     
  0.15625000000000000       0.59375000000000000        0.0000000000000000     
  0.18750000000000000       0.59375000000000000        0.0000000000000000     
  0.21875000000000000       0.59375000000000000        0.0000000000000000     
  0.25000000000000000       0.59375000000000000        0.0000000000000000     
  0.12500000000000000       0.62500000000000000        0.0000000000000000     
  0.15625000000000000       0.62500000000000000        0.0000000000000000     
  0.18750000000000000       0.62500000000000000        0.0000000000000000     
  0.21875000000000000       0.62500000000000000        0.0000000000000000     
  0.25000000000000000       0.62500000000000000        0.0000000000000000     
  0.25000000000000000       0.50000000000000000        0.0000000000000000     
  0.28125000000000000       0.50000000000000000        0.0000000000000000     
  0.31250000000000000       0.50000000000000000        0.0000000000000000     
  0.34375000000000000       0.50000000000000000        0.0000000000000000     
  0.37500000000000000       0.50000000000000000        0.0000000000000000     
  0.25000000000000000       0.53125000000000000        0.0000000000000000     
  0.28125000000000000       0.53125000000000000        0.0000000000000000     
  0.31250000000000000       0.53125000000000000        0.0000000000000000     
  0.34375000000000000       0.53125000000000000        0.0000000000000000     
  0.37500000000000000       0.53125000000000000        0.0000000000000000     
  0.25000000000000000       0.56250000000000000        0.0000000000000000     
  0.28125000000000000       0.56250000000000000        0.0000000000000000     
  0.31250000000000000       0.56250000000000000        0.0000000000000000     
  0.34375000000000000       0.56250000000000000        0.0000000000000000     
  0.37500000000000000       0.56250000000000000        0.0000000000000000     
  0.25000000000000000       0.59375000000000000        0.0000000000000000     
  0.28125000000000000       0.59375000000000000        0.0000000000000000     
  0.31250000000000000       0.59375000000000000        0.0000000000000000     
  0.34375000000000000       0.59375000000000000        0.0000000000000000     
  0.37500000000000000       0.59375000000000000        0.0000000000000000     
  0.25000000000000000       0.62500000000000000        0.0000000000000000     
  0.28125000000000000       0.62500000000000000        0.0000000000000000     
  0.31250000000000000       0.62500000000000000        0.0000000000000000     
  0.34375000000000000       0.62500000000000000        0.0000000000000000     
  0.37500000000000000       0.62500000000000000        0.0000000000000000     
  0.37500000000000000       0.50000000000000000        0.0000000000000000     
  0.40625000000000000       0.50000000000000000        0.0000000000000000     
  0.43750000000000000       0.50000000000000000        0.0000000000000000     
  0.46875000000000000       0.50000000000000000        0.0000000000000000     
  0.50000000000000000       0.50000000000000000        0.0000000000000000     
  0.37500000000000000       0.53125000000000000        0.0000000000000000     
  0.40625000000000000       0.53125000000000000        0.0000000000000000     
  0.43750000000000000       0.53125000000000000        0.0000000000000000     
  0.46875000000000000       0.53125000000000000        0.0000000000000000     
  0.50000000000000000       0.53125000000000000        0.0000000000000000     
  0.37500000000000000       0.56250000000000000        0.0000000000000000     
  0.40625000000000000       0.56250000000000000        0.0000000000000000     
  0.43750000000000000       0.56250000000000000        0.0000000000000000     
  0.46875000000000000       0.56250000000000000        0.0000000000000000     
  0.50000000000000000       0.56250000000000000        0.0000000000000000     
  0.37500000000000000       0.59375000000000000        0.0000000000000000     
  0.40625000000000000       0.59375000000000000        0.0000000000000000     
  0.43750000000000000       0.59375000000000000        0.0000000000000000     
  0.46875000000000000       0.59375000000000000        0.0000000000000000     
  0.50000000000000000       0.59375000000000000        0.0000000000000000     
  0.37500000000000000       0.62500000000000000        0.0000000000000000     
  0.40625000000000000       0.62500000000000000        0.0000000000000000     
  0.43750000000000000       0.62500000000000000        0.0000000000000000     
  0.46875000000000000       0.62500000000000000        0.0000000000000000     
  0.50000000000000000       0.62500000000000000        0.0000000000000000     
  0.50000000000000000       0.50000000000000000        0.0000000000000000     
  0.53125000000000000       0.50000000000000000        0.0000000000000000     
  0.56250000000000000       0.50000000000000000        0.0000000000000000     
  0.59375000000000000       0.50000000000000000        0.0000000000000000     
  0.62500000000000000       0.50000000000000000        0.0000000000000000     
  0.50000000000000000       0.53125000000000000        0.0000000000000000     
  0.53125000000000000       0.53125000000000000        0.0000000000000000     
  0.56250000000000000       0.53125000000000000        0.0000000000000000     
  0.59375000000000000       0.53125000000000000        0.0000000000000000     
  0.62500000000000000       0.53125000000000000        0.0000000000000000     
  0.50000000000000000       0.56250000000000000        0.0000000000000000     
  0.53125000000000000       0.56250000000000000        0.0000000000000000     
  0.56250000000000000       0.56250000000000000        0.0000000000000000     
  0.59375000000000000       0.56250000000000000        0.0000000000000000     
  0.62500000000000000       0.56250000000000000        0.0000000000000000     
  0.50000000000000000       0.59375000000000000        0.0000000000000000     
  0.53125000000000000       0.59375000000000000        0.0000000000000000     
  0.56250000000000000       0.59375000000000000        0.0000000000000000     
  0.59375000000000000       0.59375000000000000        0.0000000000000000     
  0.62500000000000000       0.59375000000000000        0.0000000000000000     
  0.50000000000000000       0.62500000000000000        0.0000000000000000     
  0.53125000000000000       0.62500000000000000        0.0000000000000000     
  0.56250000000000000       0.62500000000000000        0.0000000000000000     
  0.59375000000000000       0.62500000000000000        0.0000000000000000     
  0.62500000000000000       0.62500000000000000        0.0000000000000000     
  0.62500000000000000       0.50000000000000000        0.0000000000000000     
  0.65625000000000000       0.50000000000000000        0.0000000000000000     
  0.68750000000000000       0.50000000000000000        0.0000000000000000     
  0.71875000000000000       0.50000000000000000        0.0000000000000000     
  0.75000000000000000       0.50000000000000000        0.0000000000000000     
  0.62500000000000000       0.53125000000000000        0.0000000000000000     
  0.65625000000000000       0.53125000000000000        0.0000000000000000     
  0.68750000000000000       0.53125000000000000        0.0000000000000000     
  0.71875000000000000       0.53125000000000000        0.0000000000000000     
  0.75000000000000000       0.53125000000000000        0.0000000000000000     
  0.62500000000000000       0.56250000000000000        0.0000000000000000     
  0.65625000000000000       0.56250000000000000        0.0000000000000000     
  0.68750000000000000       0.56250000000000000        0.0000000000000000     
  0.71875000000000000       0.56250000000000000        0.0000000000000000     
  0.75000000000000000       0.56250000000000000        0.0000000000000000     
  0.62500000000000000       0.59375000000000000        0.0000000000000000     
  0.65625000000000000       0.59375000000000000        0.0000000000000000     
  0.68750000000000000       0.59375000000000000        0.0000000000000000     
  0.71875000000000000       0.59375000000000000        0.0000000000000000     
  0.75000000000000000       0.59375000000000000        0.0000000000000000     
  0.62500000000000000       0.62500000000000000        0.0000000000000000     
  0.65625000000000000       0.62500000000000000        0.0000000000000000     
  0.68750000000000000       0.62500000000000000        0.0000000000000000     
  0.71875000000000000       0.62500000000000000        0.0000000000000000     
  0.75000000000000000       0.62500000000000000        0.0000000000000000     
  0.75000000000000000       0.50000000000000000        0.0000000000000000     
  0.78125000000000000       0.50000000000000000        0.0000000000000000     
  0.81250000000000000       0.50000000000000000        0.0000000000000000     
  0.84375000000000000       0.50000000000000000        0.0000000000000000     
  0.87500000000000000       0.50000000000000000        0.0000000000000000     
  0.75000000000000000       0.53125000000000000        0.0000000000000000     
  0.78125000000000000       0.53125000000000000        0.0000000000000000     
  0.81250000000000000       0.53125000000000000        0.0000000000000000     
  0.84375000000000000       0.53125000000000000        0.0000000000000000     
  0.87500000000000000       0.53125000000000000        0.0000000000000000     
  0.75000000000000000       0.56250000000000000        0.0000000000000000     
  0.78125000000000000       0.56250000000000000        0.0000000000000000     
  0.81250000000000000       0.56250000000000000        0.0000000000000000     
  0.84375000000000000       0.56250000000000000        0.0000000000000000     
  0.87500000000000000       0.56250000000000000        0.0000000000000000     
  0.75000000000000000       0.59375000000000000        0.0000000000000000     
  0.78125000000000000       0.59375000000000000        0.0000000000000000     
  0.81250000000000000       0.59375000000000000        0.0000000000000000     
  0.84375000000000000       0.59375000000000000        0.0000000000000000     
  0.87500000000000000       0.59375000000000000        0.0000000000000000     
  0.75000000000000000       0.62500000000000000        0.0000000000000000     
  0.78125000000000000       0.62500000000000000        0.0000000000000000     
  0.81250000000000000       0.62500000000000000        0.0000000000000000     
  0.84375000000000000       0.62500000000000000        0.0000000000000000     
  0.87500000000000000       0.62500000000000000        0.0000000000000000     
  0.87500000000000000       0.50000000000000000        0.0000000000000000     
  0.90625000000000000       0.50000000000000000        0.0000000000000000     
  0.93750000000000000       0.50000000000000000        0.0000000000000000     
  0.96875000000000000       0.50000000000000000        0.0000000000000000     
   1.0000000000000000       0.50000000000000000        0.0000000000000000     
  0.87500000000000000       0.53125000000000000        0.0000000000000000     
  0.90625000000000000       0.53125000000000000        0.0000000000000000     
  0.93750000000000000       0.53125000000000000        0.0000000000000000     
  0.96875000000000000       0.53125000000000000        0.0000000000000000     
   1.0000000000000000       0.53125000000000000        0.0000000000000000     
  0.87500000000000000       0.56250000000000000        0.0000000000000000     
  0.90625000000000000       0.56250000000000000        0.0000000000000000     
  0.93750000000000000       0.56250000000000000        0.0000000000000000     
  0.96875000000000000       0.56250000000000000        0.0000000000000000     
   1.0000000000000000       0.56250000000000000        0.0000000000000000     
  0.87500000000000000       0.59375000000000000        0.0000000000000000     
  0.90625000000000000       0.59375000000000000        0.0000000000000000     
  0.93750000000000000       0.59375000000000000        0.0000000000000000     
  0.96875000000000000       0.59375000000000000        0.0000000000000000     
   1.0000000000000000       0.59375000000000000        0.0000000000000000     
  0.87500000000000000       0.62500000000000000        0.0000000000000000     
  0.90625000000000000       0.62500000000000000        0.0000000000000000     
  0.93750000000000000       0.62500000000000000        0.0000000000000000     
  0.96875000000000000       0.62500000000000000        0.0000000000000000     
   1.0000000000000000       0.62500000000000000        0.0000000000000000     
   0.0000000000000000       0.62500000000000000        0.0000000000000000     
   3.1250000000000000E-002  0.62500000000000000        0.0000000000000000     
   6.2500000000000000E-002  0.62500000000000000        0.0000000000000000     
   9.3750000000000000E-002  0.62500000000000000        0.0000000000000000     
  0.12500000000000000       0.62500000000000000        0.0000000000000000     
   0.0000000000000000       0.65625000000000000        0.0000000000000000     
   3.1250000000000000E-002  0.65625000000000000        0.0000000000000000     
   6.2500000000000000E-002  0.65625000000000000        0.0000000000000000     
   9.3750000000000000E-002  0.65625000000000000        0.0000000000000000     
  0.12500000000000000       0.65625000000000000        0.0000000000000000     
   0.0000000000000000       0.68750000000000000        0.0000000000000000     
   3.1250000000000000E-002  0.68750000000000000        0.0000000000000000     
   6.2500000000000000E-002  0.68750000000000000        0.0000000000000000     
   9.3750000000000000E-002  0.68750000000000000        0.0000000000000000     
  0.12500000000000000       0.68750000000000000        0.0000000000000000     
   0.0000000000000000       0.71875000000000000        0.0000000000000000     
   3.1250000000000000E-002  0.71875000000000000        0.0000000000000000     
   6.2500000000000000E-002  0.71875000000000000        0.0000000000000000     
   9.3750000000000000E-002  0.71875000000000000        0.0000000000000000     
  0.12500000000000000       0.71875000000000000        0.0000000000000000     
   0.0000000000000000       0.75000000000000000        0.0000000000000000     
   3.1250000000000000E-002  0.75000000000000000        0.0000000000000000     
   6.2500000000000000E-002  0.75000000000000000        0.0000000000000000     
   9.3750000000000000E-002  0.75000000000000000        0.0000000000000000     
  0.12500000000000000       0.75000000000000000        0.0000000000000000     
  0.12500000000000000       0.62500000000000000        0.0000000000000000     
  0.15625000000000000       0.62500000000000000        0.0000000000000000     
  0.18750000000000000       0.62500000000000000        0.0000000000000000     
  0.21875000000000000       0.62500000000000000        0.0000000000000000     
  0.25000000000000000       0.62500000000000000        0.0000000000000000     
  0.12500000000000000       0.65625000000000000        0.0000000000000000     
  0.15625000000000000       0.65625000000000000        0.0000000000000000     
  0.18750000000000000       0.65625000000000000        0.0000000000000000     
  0.21875000000000000       0.65625000000000000        0.0000000000000000     
  0.25000000000000000       0.65625000000000000        0.0000000000000000     
  0.12500000000000000       0.68750000000000000        0.0000000000000000     
  0.15625000000000000       0.68750000000000000        0.0000000000000000     
  0.18750000000000000       0.68750000000000000        0.0000000000000000     
  0.21875000000000000       0.68750000000000000        0.0000000000000000     
  0.25000000000000000       0.68750000000000000        0.0000000000000000     
  0.12500000000000000       0.71875000000000000        0.0000000000000000     
  0.15625000000000000       0.71875000000000000        0.0000000000000000     
  0.18750000000000000       0.71875000000000000        0.0000000000000000     
  0.21875000000000000       0.71875000000000000        0.0000000000000000     
  0.25000000000000000       0.71875000000000000        0.0000000000000000     
  0.12500000000000000       0.75000000000000000        0.0000000000000000     
  0.15625000000000000       0.75000000000000000        0.0000000000000000     
  0.18750000000000000       0.75000000000000000        0.0000000000000000     
  0.21875000000000000       0.75000000000000000        0.0000000000000000     
  0.25000000000000000       0.75000000000000000        0.0000000000000000     
  0.25000000000000000       0.62500000000000000        0.0000000000000000     
  0.28125000000000000       0.62500000000000000        0.0000000000000000     
  0.31250000000000000       0.62500000000000000        0.0000000000000000     
  0.34375000000000000       0.62500000000000000        0.0000000000000000     
  0.37500000000000000       0.62500000000000000        0.0000000000000000     
  0.25000000000000000       0.65625000000000000        0.0000000000000000     
  0.28125000000000000       0.65625000000000000        0.0000000000000000     
  0.31250000000000000       0.65625000000000000        0.0000000000000000     
  0.34375000000000000       0.65625000000000000        0.0000000000000000     
  0.37500000000000000       0.65625000000000000        0.0000000000000000     
  0.25000000000000000       0.68750000000000000        0.0000000000000000     
  0.28125000000000000       0.68750000000000000        0.0000000000000000     
  0.31250000000000000       0.68750000000000000        0.0000000000000000     
  0.34375000000000000       0.68750000000000000        0.0000000000000000     
  0.37500000000000000       0.68750000000000000        0.0000000000000000     
  0.25000000000000000       0.71875000000000000        0.0000000000000000     
  0.28125000000000000       0.71875000000000000        0.0000000000000000     
  0.31250000000000000       0.71875000000000000        0.0000000000000000     
  0.34375000000000000       0.71875000000000000        0.0000000000000000     
  0.37500000000000000       0.71875000000000000        0.0000000000000000     
  0.25000000000000000       0.75000000000000000        0.0000000000000000     
  0.28125000000000000       0.75000000000000000        0.0000000000000000     
  0.31250000000000000       0.75000000000000000        0.0000000000000000     
  0.34375000000000000       0.75000000000000000        0.0000000000000000     
  0.37500000000000000       0.75000000000000000        0.0000000000000000     
  0.37500000000000000       0.62500000000000000        0.0000000000000000     
  0.40625000000000000       0.62500000000000000        0.0000000000000000     
  0.43750000000000000       0.62500000000000000        0.0000000000000000     
  0.46875000000000000       0.62500000000000000        0.0000000000000000     
  0.50000000000000000       0.62500000000000000        0.0000000000000000     
  0.37500000000000000       0.65625000000000000        0.0000000000000000     
  0.40625000000000000       0.65625000000000000        0.0000000000000000     
  0.43750000000000000       0.65625000000000000        0.0000000000000000     
  0.46875000000000000       0.65625000000000000        0.0000000000000000     
  0.50000000000000000       0.65625000000000000        0.0000000000000000     
  0.37500000000000000       0.68750000000000000        0.0000000000000000     
  0.40625000000000000       0.68750000000000000        0.0000000000000000     
  0.43750000000000000       0.68750000000000000        0.0000000000000000     
  0.46875000000000000       0.68750000000000000        0.0000000000000000     
  0.50000000000000000       0.68750000000000000        0.0000000000000000     
  0.37500000000000000       0.71875000000000000        0.0000000000000000     
  0.40625000000000000       0.71875000000000000        0.0000000000000000     
  0.43750000000000000       0.71875000000000000        0.0000000000000000     
  0.46875000000000000       0.71875000000000000        0.0000000000000000     
  0.50000000000000000       0.71875000000000000        0.0000000000000000     
  0.37500000000000000       0.75000000000000000        0.0000000000000000     
  0.40625000000000000       0.75000000000000000        0.0000000000000000     
  0.43750000000000000       0.75000000000000000        0.0000000000000000     
  0.46875000000000000       0.75000000000000000        0.0000000000000000     
  0.50000000000000000       0.75000000000000000        0.0000000000000000     
  0.50000000000000000       0.62500000000000000        0.0000000000000000     
  0.53125000000000000       0.62500000000000000        0.0000000000000000     
  0.56250000000000000       0.62500000000000000        0.0000000000000000     
  0.59375000000000000       0.62500000000000000        0.0000000000000000     
  0.62500000000000000       0.62500000000000000        0.0000000000000000     
  0.50000000000000000       0.65625000000000000        0.0000000000000000     
  0.53125000000000000       0.65625000000000000        0.0000000000000000     
  0.56250000000000000       0.65625000000000000        0.0000000000000000     
  0.59375000000000000       0.65625000000000000        0.0000000000000000     
  0.62500000000000000       0.65625000000000000        0.0000000000000000     
  0.50000000000000000       0.68750000000000000        0.0000000000000000     
  0.53125000000000000       0.68750000000000000        0.0000000000000000     
  0.56250000000000000       0.68750000000000000        0.0000000000000000     
  0.59375000000000000       0.68750000000000000        0.0000000000000000     
  0.62500000000000000       0.68750000000000000        0.0000000000000000     
  0.50000000000000000       0.71875000000000000        0.0000000000000000     
  0.53125000000000000       0.71875000000000000        0.0000000000000000     
  0.56250000000000000       0.71875000000000000        0.0000000000000000     
  0.59375000000000000       0.71875000000000000        0.0000000000000000     
  0.62500000000000000       0.71875000000000000        0.0000000000000000     
  0.50000000000000000       0.75000000000000000        0.0000000000000000     
  0.53125000000000000       0.75000000000000000        0.0000000000000000     
  0.56250000000000000       0.75000000000000000        0.0000000000000000     
  0.59375000000000000       0.75000000000000000        0.0000000000000000     
  0.62500000000000000       0.75000000000000000        0.0000000000000000     
  0.62500000000000000       0.62500000000000000        0.0000000000000000     
  0.65625000000000000       0.62500000000000000        0.0000000000000000     
  0.68750000000000000       0.62500000000000000        0.0000000000000000     
  0.71875000000000000       0.62500000000000000        0.0000000000000000     
  0.75000000000000000       0.62500000000000000        0.0000000000000000     
  0.62500000000000000       0.65625000000000000        0.0000000000000000     
  0.65625000000000000       0.65625000000000000        0.0000000000000000     
  0.68750000000000000       0.65625000000000000        0.0000000000000000     
  0.71875000000000000       0.65625000000000000        0.0000000000000000     
  0.75000000000000000       0.65625000000000000        0.0000000000000000     
  0.62500000000000000       0.68750000000000000        0.0000000000000000     
  0.65625000000000000       0.68750000000000000        0.0000000000000000     
  0.68750000000000000       0.68750000000000000        0.0000000000000000     
  0.71875000000000000       0.68750000000000000        0.0000000000000000     
  0.75000000000000000       0.68750000000000000        0.0000000000000000     
  0.62500000000000000       0.71875000000000000        0.0000000000000000     
  0.65625000000000000       0.71875000000000000        0.0000000000000000     
  0.68750000000000000       0.71875000000000000        0.0000000000000000     
  0.71875000000000000       0.71875000000000000        0.0000000000000000     
  0.75000000000000000       0.71875000000000000        0.0000000000000000     
  0.62500000000000000       0.75000000000000000        0.0000000000000000     
  0.65625000000000000       0.75000000000000000        0.0000000000000000     
  0.68750000000000000       0.75000000000000000        0.0000000000000000     
  0.71875000000000000       0.75000000000000000        0.0000000000000000     
  0.75000000000000000       0.75000000000000000        0.0000000000000000     
  0.75000000000000000       0.62500000000000000        0.0000000000000000     
  0.78125000000000000       0.62500000000000000        0.0000000000000000     
  0.81250000000000000       0.62500000000000000        0.0000000000000000     
  0.84375000000000000       0.62500000000000000        0.0000000000000000     
  0.87500000000000000       0.62500000000000000        0.0000000000000000     
  0.75000000000000000       0.65625000000000000        0.0000000000000000     
  0.78125000000000000       0.65625000000000000        0.0000000000000000     
  0.81250000000000000       0.65625000000000000        0.0000000000000000     
  0.84375000000000000       0.65625000000000000        0.0000000000000000     
  0.87500000000000000       0.65625000000000000        0.0000000000000000     
  0.75000000000000000       0.68750000000000000        0.0000000000000000     
  0.78125000000000000       0.68750000000000000        0.0000000000000000     
  0.81250000000000000       0.68750000000000000        0.0000000000000000     
  0.84375000000000000       0.68750000000000000        0.0000000000000000     
  0.87500000000000000       0.68750000000000000        0.0000000000000000     
  0.75000000000000000       0.71875000000000000        0.0000000000000000     
  0.78125000000000000       0.71875000000000000        0.0000000000000000     
  0.81250000000000000       0.71875000000000000        0.0000000000000000     
  0.84375000000000000       0.71875000000000000        0.0000000000000000     
  0.87500000000000000       0.71875000000000000        0.0000000000000000     
  0.75000000000000000       0.75000000000000000        0.0000000000000000     
  0.78125000000000000       0.75000000000000000        0.0000000000000000     
  0.81250000000000000       0.75000000000000000        0.0000000000000000     
  0.84375000000000000       0.75000000000000000        0.0000000000000000     
  0.87500000000000000       0.75000000000000000        0.0000000000000000     
  0.87500000000000000       0.62500000000000000        0.0000000000000000     
  0.90625000000000000       0.62500000000000000        0.0000000000000000     
  0.93750000000000000       0.62500000000000000        0.0000000000000000     
  0.96875000000000000       0.62500000000000000        0.0000000000000000     
   1.0000000000000000       0.62500000000000000        0.0000000000000000     
  0.87500000000000000       0.65625000000000000        0.0000000000000000     
  0.90625000000000000       0.65625000000000000        0.0000000000000000     
  0.93750000000000000       0.65625000000000000        0.0000000000000000     
  0.96875000000000000       0.65625000000000000        0.0000000000000000     
   1.0000000000000000       0.65625000000000000        0.0000000000000000     
  0.87500000000000000       0.68750000000000000        0.0000000000000000     
  0.90625000000000000       0.68750000000000000        0.0000000000000000     
  0.93750000000000000       0.68750000000000000        0.0000000000000000     
  0.96875000000000000       0.68750000000000000        0.0000000000000000     
   1.0000000000000000       0.68750000000000000        0.0000000000000000     
  0.87500000000000000       0.71875000000000000        0.0000000000000000     
  0.90625000000000000       0.71875000000000000        0.0000000000000000     
  0.93750000000000000       0.71875000000000000        0.0000000000000000     
  0.96875000000000000       0.71875000000000000        0.0000000000000000     
   1.0000000000000000       0.71875000000000000        0.0000000000000000     
  0.87500000000000000       0.75000000000000000        0.0000000000000000     
  0.90625000000000000       0.75000000000000000        0.0000000000000000     
  0.93750000000000000       0.75000000000000000        0.0000000000000000     
  0.96875000000000000       0.75000000000000000        0.0000000000000000     
   1.0000000000000000       0.75000000000000000        0.0000000000000000     
   0.0000000000000000       0.75000000000000000        0.0000000000000000     
   3.1250000000000000E-002  0.75000000000000000        0.0000000000000000     
   6.2500000000000000E-002  0.75000000000000000        0.0000000000000000     
   9.3750000000000000E-002  0.75000000000000000        0.0000000000000000     
  0.12500000000000000       0.75000000000000000        0.0000000000000000     
   0.0000000000000000       0.78125000000000000        0.0000000000000000     
   3.1250000000000000E-002  0.78125000000000000        0.0000000000000000     
   6.2500000000000000E-002  0.78125000000000000        0.0000000000000000     
   9.3750000000000000E-002  0.78125000000000000        0.0000000000000000     
  0.12500000000000000       0.78125000000000000        0.0000000000000000     
   0.0000000000000000       0.81250000000000000        0.0000000000000000     
   3.1250000000000000E-002  0.81250000000000000        0.0000000000000000     
   6.2500000000000000E-002  0.81250000000000000        0.0000000000000000     
   9.3750000000000000E-002  0.81250000000000000        0.0000000000000000     
  0.12500000000000000       0.81250000000000000        0.0000000000000000     
   0.0000000000000000       0.84375000000000000        0.0000000000000000     
   3.1250000000000000E-002  0.84375000000000000        0.0000000000000000     
   6.2500000000000000E-002  0.84375000000000000        0.0000000000000000     
   9.3750000000000000E-002  0.84375000000000000        0.0000000000000000     
  0.12500000000000000       0.84375000000000000        0.0000000000000000     
   0.0000000000000000       0.87500000000000000        0.0000000000000000     
   3.1250000000000000E-002  0.87500000000000000        0.0000000000000000     
   6.2500000000000000E-002  0.87500000000000000        0.0000000000000000     
   9.3750000000000000E-002  0.87500000000000000        0.0000000000000000     
  0.12500000000000000       0.87500000000000000        0.0000000000000000     
  0.12500000000000000       0.75000000000000000        0.0000000000000000     
  0.15625000000000000       0.75000000000000000        0.0000000000000000     
  0.18750000000000000       0.75000000000000000        0.0000000000000000     
  0.21875000000000000       0.75000000000000000        0.0000000000000000     
  0.25000000000000000       0.75000000000000000        0.0000000000000000     
  0.12500000000000000       0.78125000000000000        0.0000000000000000     
  0.15625000000000000       0.78125000000000000        0.0000000000000000     
  0.18750000000000000       0.78125000000000000        0.0000000000000000     
  0.21875000000000000       0.78125000000000000        0.0000000000000000     
  0.25000000000000000       0.78125000000000000        0.0000000000000000     
  0.12500000000000000       0.81250000000000000        0.0000000000000000     
  0.15625000000000000       0.81250000000000000        0.0000000000000000     
  0.18750000000000000       0.81250000000000000        0.0000000000000000     
  0.21875000000000000       0.81250000000000000        0.0000000000000000     
  0.25000000000000000       0.81250000000000000        0.0000000000000000     
  0.12500000000000000       0.84375000000000000        0.0000000000000000     
  0.15625000000000000       0.84375000000000000        0.0000000000000000     
  0.18750000000000000       0.84375000000000000        0.0000000000000000     
  0.21875000000000000       0.84375000000000000        0.0000000000000000     
  0.25000000000000000       0.84375000000000000        0.0000000000000000     
  0.12500000000000000       0.87500000000000000        0.0000000000000000     
  0.15625000000000000       0.87500000000000000        0.0000000000000000     
  0.18750000000000000       0.87500000000000000        0.0000000000000000     
  0.21875000000000000       0.87500000000000000        0.0000000000000000     
  0.25000000000000000       0.87500000000000000        0.0000000000000000     
  0.25000000000000000       0.75000000000000000        0.0000000000000000     
  0.28125000000000000       0.75000000000000000        0.0000000000000000     
  0.31250000000000000       0.75000000000000000        0.0000000000000000     
  0.34375000000000000       0.75000000000000000        0.0000000000000000     
  0.37500000000000000       0.75000000000000000        0.0000000000000000     
  0.25000000000000000       0.78125000000000000        0.0000000000000000     
  0.28125000000000000       0.78125000000000000        0.0000000000000000     
  0.31250000000000000       0.78125000000000000        0.0000000000000000     
  0.34375000000000000       0.78125000000000000        0.0000000000000000     
  0.37500000000000000       0.78125000000000000        0.0000000000000000     
  0.25000000000000000       0.81250000000000000        0.0000000000000000     
  0.28125000000000000       0.81250000000000000        0.0000000000000000     
  0.31250000000000000       0.81250000000000000        0.0000000000000000     
  0.34375000000000000       0.81250000000000000        0.0000000000000000     
  0.37500000000000000       0.81250000000000000        0.0000000000000000     
  0.25000000000000000       0.84375000000000000        0.0000000000000000     
  0.28125000000000000       0.84375000000000000        0.0000000000000000     
  0.31250000000000000       0.84375000000000000        0.0000000000000000     
  0.34375000000000000       0.84375000000000000        0.0000000000000000     
  0.37500000000000000       0.84375000000000000        0.0000000000000000     
  0.25000000000000000       0.87500000000000000        0.0000000000000000     
  0.28125000000000000       0.87500000000000000        0.0000000000000000     
  0.31250000000000000       0.87500000000000000        0.0000000000000000     
  0.34375000000000000       0.87500000000000000        0.0000000000000000     
  0.37500000000000000       0.87500000000000000        0.0000000000000000     
  0.37500000000000000       0.75000000000000000        0.0000000000000000     
  0.40625000000000000       0.75000000000000000        0.0000000000000000     
  0.43750000000000000       0.75000000000000000        0.0000000000000000     
  0.46875000000000000       0.75000000000000000        0.0000000000000000     
  0.50000000000000000       0.75000000000000000        0.0000000000000000     
  0.37500000000000000       0.78125000000000000        0.0000000000000000     
  0.40625000000000000       0.78125000000000000        0.0000000000000000     
  0.43750000000000000       0.78125000000000000        0.0000000000000000     
  0.46875000000000000       0.78125000000000000        0.0000000000000000     
  0.50000000000000000       0.78125000000000000        0.0000000000000000     
  0.37500000000000000       0.81250000000000000        0.0000000000000000     
  0.40625000000000000       0.81250000000000000        0.0000000000000000     
  0.43750000000000000       0.81250000000000000        0.0000000000000000     
  0.46875000000000000       0.81250000000000000        0.0000000000000000     
  0.50000000000000000       0.81250000000000000        0.0000000000000000     
  0.37500000000000000       0.84375000000000000        0.0000000000000000     
  0.40625000000000000       0.84375000000000000        0.0000000000000000     
  0.43750000000000000       0.84375000000000000        0.0000000000000000     
  0.46875000000000000       0.84375000000000000        0.0000000000000000     
  0.50000000000000000       0.84375000000000000        0.0000000000000000     
  0.37500000000000000       0.87500000000000000        0.0000000000000000     
  0.40625000000000000       0.87500000000000000        0.0000000000000000     
  0.43750000000000000       0.87500000000000000        0.0000000000000000     
  0.46875000000000000       0.87500000000000000        0.0000000000000000     
  0.50000000000000000       0.87500000000000000        0.0000000000000000     
  0.50000000000000000       0.75000000000000000        0.0000000000000000     
  0.53125000000000000       0.75000000000000000        0.0000000000000000     
  0.56250000000000000       0.75000000000000000        0.0000000000000000     
  0.59375000000000000       0.75000000000000000        0.0000000000000000     
  0.62500000000000000       0.75000000000000000        0.0000000000000000     
  0.50000000000000000       0.78125000000000000        0.0000000000000000     
  0.53125000000000000       0.78125000000000000        0.0000000000000000     
  0.56250000000000000       0.78125000000000000        0.0000000000000000     
  0.59375000000000000       0.78125000000000000        0.0000000000000000     
  0.62500000000000000       0.78125000000000000        0.0000000000000000     
  0.50000000000000000       0.81250000000000000        0.0000000000000000     
  0.53125000000000000       0.81250000000000000        0.0000000000000000     
  0.56250000000000000       0.81250000000000000        0.0000000000000000     
  0.59375000000000000       0.81250000000000000        0.0000000000000000     
  0.62500000000000000       0.81250000000000000        0.0000000000000000     
  0.50000000000000000       0.84375000000000000        0.0000000000000000     
  0.53125000000000000       0.84375000000000000        0.0000000000000000     
  0.56250000000000000       0.84375000000000000        0.0000000000000000     
  0.59375000000000000       0.84375000000000000        0.0000000000000000     
  0.62500000000000000       0.84375000000000000        0.0000000000000000     
  0.50000000000000000       0.87500000000000000        0.0000000000000000     
  0.53125000000000000       0.87500000000000000        0.0000000000000000     
  0.56250000000000000       0.87500000000000000        0.0000000000000000     
  0.59375000000000000       0.87500000000000000        0.0000000000000000     
  0.62500000000000000       0.87500000000000000        0.0000000000000000     
  0.62500000000000000       0.75000000000000000        0.0000000000000000     
  0.65625000000000000       0.75000000000000000        0.0000000000000000     
  0.68750000000000000       0.75000000000000000        0.0000000000000000     
  0.71875000000000000       0.75000000000000000        0.0000000000000000     
  0.75000000000000000       0.75000000000000000        0.0000000000000000     
  0.62500000000000000       0.78125000000000000        0.0000000000000000     
  0.65625000000000000       0.78125000000000000        0.0000000000000000     
  0.68750000000000000       0.78125000000000000        0.0000000000000000     
  0.71875000000000000       0.78125000000000000        0.0000000000000000     
  0.75000000000000000       0.78125000000000000        0.0000000000000000     
  0.62500000000000000       0.81250000000000000        0.0000000000000000     
  0.65625000000000000       0.81250000000000000        0.0000000000000000     
  0.68750000000000000       0.81250000000000000        0.0000000000000000     
  0.71875000000000000       0.81250000000000000        0.0000000000000000     
  0.75000000000000000       0.81250000000000000        0.0000000000000000     
  0.62500000000000000       0.84375000000000000        0.0000000000000000     
  0.65625000000000000       0.84375000000000000        0.0000000000000000     
  0.68750000000000000       0.84375000000000000        0.0000000000000000     
  0.71875000000000000       0.84375000000000000        0.0000000000000000     
  0.75000000000000000       0.84375000000000000        0.0000000000000000     
  0.62500000000000000       0.87500000000000000        0.0000000000000000     
  0.65625000000000000       0.87500000000000000        0.0000000000000000     
  0.68750000000000000       0.87500000000000000        0.0000000000000000     
  0.71875000000000000       0.87500000000000000        0.0000000000000000     
  0.75000000000000000       0.87500000000000000        0.0000000000000000     
  0.75000000000000000       0.75000000000000000        0.0000000000000000     
  0.78125000000000000       0.75000000000000000        0.0000000000000000     
  0.81250000000000000       0.75000000000000000        0.0000000000000000     
  0.84375000000000000       0.75000000000000000        0.0000000000000000     
  0.87500000000000000       0.75000000000000000        0.0000000000000000     
  0.75000000000000000       0.78125000000000000        0.0000000000000000     
  0.78125000000000000       0.78125000000000000        0.0000000000000000     
  0.81250000000000000       0.78125000000000000        0.0000000000000000     
  0.84375000000000000       0.78125000000000000        0.0000000000000000     
  0.87500000000000000       0.78125000000000000        0.0000000000000000     
  0.75000000000000000       0.81250000000000000        0.0000000000000000     
  0.78125000000000000       0.81250000000000000        0.0000000000000000     
  0.81250000000000000       0.81250000000000000        0.0000000000000000     
  0.84375000000000000       0.81250000000000000        0.0000000000000000     
  0.87500000000000000       0.81250000000000000        0.0000000000000000     
  0.75000000000000000       0.84375000000000000        0.0000000000000000     
  0.78125000000000000       0.84375000000000000        0.0000000000000000     
  0.81250000000000000       0.84375000000000000        0.0000000000000000     
  0.84375000000000000       0.84375000000000000        0.0000000000000000     
  0.87500000000000000       0.84375000000000000        0.0000000000000000     
  0.75000000000000000       0.87500000000000000        0.0000000000000000     
  0.78125000000000000       0.87500000000000000        0.0000000000000000     
  0.81250000000000000       0.87500000000000000        0.0000000000000000     
  0.84375000000000000       0.87500000000000000        0.0000000000000000     
  0.87500000000000000       0.87500000000000000        0.0000000000000000     
  0.87500000000000000       0.75000000000000000        0.0000000000000000     
  0.90625000000000000       0.75000000000000000        0.0000000000000000     
  0.93750000000000000       0.75000000000000000        0.0000000000000000     
  0.96875000000000000       0.75000000000000000        0.0000000000000000     
   1.0000000000000000       0.75000000000000000        0.0000000000000000     
  0.87500000000000000       0.78125000000000000        0.0000000000000000     
  0.90625000000000000       0.78125000000000000        0.0000000000000000     
  0.93750000000000000       0.78125000000000000        0.0000000000000000     
  0.96875000000000000       0.78125000000000000        0.0000000000000000     
   1.0000000000000000       0.78125000000000000        0.0000000000000000     
  0.87500000000000000       0.81250000000000000        0.0000000000000000     
  0.90625000000000000       0.81250000000000000        0.0000000000000000     
  0.93750000000000000       0.81250000000000000        0.0000000000000000     
  0.96875000000000000       0.81250000000000000        0.0000000000000000     
   1.0000000000000000       0.81250000000000000        0.0000000000000000     
  0.87500000000000000       0.84375000000000000        0.0000000000000000     
  0.90625000000000000       0.84375000000000000        0.0000000000000000     
  0.93750000000000000       0.84375000000000000        0.0000000000000000     
  0.96875000000000000       0.84375000000000000        0.0000000000000000     
   1.0000000000000000       0.84375000000000000        0.0000000000000000     
  0.87500000000000000       0.87500000000000000        0.0000000000000000     
  0.90625000000000000       0.87500000000000000        0.0000000000000000     
  0.93750000000000000       0.87500000000000000        0.0000000000000000     
  0.96875000000000000       0.87500000000000000        0.0000000000000000     
   1.0000000000000000       0.87500000000000000        0.0000000000000000     
   0.0000000000000000       0.87500000000000000        0.0000000000000000     
   3.1250000000000000E-002  0.87500000000000000        0.0000000000000000     
   6.2500000000000000E-002  0.87500000000000000        0.0000000000000000     
   9.3750000000000000E-002  0.87500000000000000        0.0000000000000000     
  0.12500000000000000       0.87500000000000000        0.0000000000000000     
   0.0000000000000000       0.90625000000000000        0.0000000000000000     
   3.1250000000000000E-002  0.90625000000000000        0.0000000000000000     
   6.2500000000000000E-002  0.90625000000000000        0.0000000000000000     
   9.3750000000000000E-002  0.90625000000000000        0.0000000000000000     
  0.12500000000000000       0.90625000000000000        0.0000000000000000     
   0.0000000000000000       0.93750000000000000        0.0000000000000000     
   3.1250000000000000E-002  0.93750000000000000        0.0000000000000000     
   6.2500000000000000E-002  0.93750000000000000        0.0000000000000000     
   9.3750000000000000E-002  0.93750000000000000        0.0000000000000000     
  0.12500000000000000       0.93750000000000000        0.0000000000000000     
   0.0000000000000000       0.96875000000000000        0.0000000000000000     
   3.1250000000000000E-002  0.96875000000000000        0.0000000000000000     
   6.2500000000000000E-002  0.96875000000000000        0.0000000000000000     
   9.3750000000000000E-002  0.96875000000000000        0.0000000000000000     
  0.12500000000000000       0.96875000000000000        0.0000000000000000     
   0.0000000000000000        1.0000000000000000        0.0000000000000000     
   3.1250000000000000E-002   1.0000000000000000        0.0000000000000000     
   6.2500000000000000E-002   1.0000000000000000        0.0000000000000000     
   9.3750000000000000E-002   1.0000000000000000        0.0000000000000000     
  0.12500000000000000        1.0000000000000000        0.0000000000000000     
  0.12500000000000000       0.87500000000000000        0.0000000000000000     
  0.15625000000000000       0.87500000000000000        0.0000000000000000     
  0.18750000000000000       0.87500000000000000        0.0000000000000000     
  0.21875000000000000       0.87500000000000000        0.0000000000000000     
  0.25000000000000000       0.87500000000000000        0.0000000000000000     
  0.12500000000000000       0.90625000000000000        0.0000000000000000     
  0.15625000000000000       0.90625000000000000        0.0000000000000000     
  0.18750000000000000       0.90625000000000000        0.0000000000000000     
  0.21875000000000000       0.90625000000000000        0.0000000000000000     
  0.25000000000000000       0.90625000000000000        0.0000000000000000     
  0.12500000000000000       0.93750000000000000        0.0000000000000000     
  0.15625000000000000       0.93750000000000000        0.0000000000000000     
  0.18750000000000000       0.93750000000000000        0.0000000000000000     
  0.21875000000000000       0.93750000000000000        0.0000000000000000     
  0.25000000000000000       0.93750000000000000        0.0000000000000000     
  0.12500000000000000       0.96875000000000000        0.0000000000000000     
  0.15625000000000000       0.96875000000000000        0.0000000000000000     
  0.18750000000000000       0.96875000000000000        0.0000000000000000     
  0.21875000000000000       0.96875000000000000        0.0000000000000000     
  0.25000000000000000       0.96875000000000000        0.0000000000000000     
  0.12500000000000000        1.0000000000000000        0.0000000000000000     
  0.15625000000000000        1.0000000000000000        0.0000000000000000     
  0.18750000000000000        1.0000000000000000        0.0000000000000000     
  0.21875000000000000        1.0000000000000000        0.0000000000000000     
  0.25000000000000000        1.0000000000000000        0.0000000000000000     
  0.25000000000000000       0.87500000000000000        0.0000000000000000     
  0.28125000000000000       0.87500000000000000        0.0000000000000000     
  0.31250000000000000       0.87500000000000000        0.0000000000000000     
  0.34375000000000000       0.87500000000000000        0.0000000000000000     
  0.37500000000000000       0.87500000000000000        0.0000000000000000     
  0.25000000000000000       0.90625000000000000        0.0000000000000000     
  0.28125000000000000       0.90625000000000000        0.0000000000000000     
  0.31250000000000000       0.90625000000000000        0.0000000000000000     
  0.34375000000000000       0.90625000000000000        0.0000000000000000     
  0.37500000000000000       0.90625000000000000        0.0000000000000000     
  0.25000000000000000       0.93750000000000000        0.0000000000000000     
  0.28125000000000000       0.93750000000000000        0.0000000000000000     
  0.31250000000000000       0.93750000000000000        0.0000000000000000     
  0.34375000000000000       0.93750000000000000        0.0000000000000000     
  0.37500000000000000       0.93750000000000000        0.0000000000000000     
  0.25000000000000000       0.96875000000000000        0.0000000000000000     
  0.28125000000000000       0.96875000000000000        0.0000000000000000     
  0.31250000000000000       0.96875000000000000        0.0000000000000000     
  0.34375000000000000       0.96875000000000000        0.0000000000000000     
  0.37500000000000000       0.96875000000000000        0.0000000000000000     
  0.25000000000000000        1.0000000000000000        0.0000000000000000     
  0.28125000000000000        1.0000000000000000        0.0000000000000000     
  0.31250000000000000        1.0000000000000000        0.0000000000000000     
  0.34375000000000000        1.0000000000000000        0.0000000000000000     
  0.37500000000000000        1.0000000000000000        0.0000000000000000     
  0.37500000000000000       0.87500000000000000        0.0000000000000000     
  0.40625000000000000       0.87500000000000000        0.0000000000000000     
  0.43750000000000000       0.87500000000000000        0.0000000000000000     
  0.46875000000000000       0.87500000000000000        0.0000000000000000     
  0.50000000000000000       0.87500000000000000        0.0000000000000000     
  0.37500000000000000       0.90625000000000000        0.0000000000000000     
  0.40625000000000000       0.90625000000000000        0.0000000000000000     
  0.43750000000000000       0.90625000000000000        0.0000000000000000     
  0.46875000000000000       0.90625000000000000        0.0000000000000000     
  0.50000000000000000       0.90625000000000000        0.0000000000000000     
  0.37500000000000000       0.93750000000000000        0.0000000000000000     
  0.40625000000000000       0.93750000000000000        0.0000000000000000     
  0.43750000000000000       0.93750000000000000        0.0000000000000000     
  0.46875000000000000       0.93750000000000000        0.0000000000000000     
  0.50000000000000000       0.93750000000000000        0.0000000000000000     
  0.37500000000000000       0.96875000000000000        0.0000000000000000     
  0.40625000000000000       0.96875000000000000        0.0000000000000000     
  0.43750000000000000       0.96875000000000000        0.0000000000000000     
  0.46875000000000000       0.96875000000000000        0.0000000000000000     
  0.50000000000000000       0.96875000000000000        0.0000000000000000     
  0.37500000000000000        1.0000000000000000        0.0000000000000000     
  0.40625000000000000        1.0000000000000000        0.0000000000000000     
  0.43750000000000000        1.0000000000000000        0.0000000000000000     
  0.46875000000000000        1.0000000000000000        0.0000000000000000     
  0.50000000000000000        1.0000000000000000        0.0000000000000000     
  0.50000000000000000       0.87500000000000000        0.0000000000000000     
  0.53125000000000000       0.87500000000000000        0.0000000000000000     
  0.56250000000000000       0.87500000000000000        0.0000000000000000     
  0.59375000000000000       0.87500000000000000        0.0000000000000000     
  0.62500000000000000       0.87500000000000000        0.0000000000000000     
  0.50000000000000000       0.90625000000000000        0.0000000000000000     
  0.53125000000000000       0.90625000000000000        0.0000000000000000     
  0.56250000000000000       0.90625000000000000        0.0000000000000000     
  0.59375000000000000       0.90625000000000000        0.0000000000000000     
  0.62500000000000000       0.90625000000000000        0.0000000000000000     
  0.50000000000000000       0.93750000000000000        0.0000000000000000     
  0.53125000000000000       0.93750000000000000        0.0000000000000000     
  0.56250000000000000       0.93750000000000000        0.0000000000000000     
  0.59375000000000000       0.93750000000000000        0.0000000000000000     
  0.62500000000000000       0.93750000000000000        0.0000000000000000     
  0.50000000000000000       0.96875000000000000        0.0000000000000000     
  0.53125000000000000       0.96875000000000000        0.0000000000000000     
  0.56250000000000000       0.96875000000000000        0.0000000000000000     
  0.59375000000000000       0.96875000000000000        0.0000000000000000     
  0.62500000000000000       0.96875000000000000        0.0000000000000000     
  0.50000000000000000        1.0000000000000000        0.0000000000000000     
  0.53125000000000000        1.0000000000000000        0.0000000000000000     
  0.56250000000000000        1.0000000000000000        0.0000000000000000     
  0.59375000000000000        1.0000000000000000        0.0000000000000000     
  0.62500000000000000        1.0000000000000000        0.0000000000000000     
  0.62500000000000000       0.87500000000000000        0.0000000000000000     
  0.65625000000000000       0.87500000000000000        0.0000000000000000     
  0.68750000000000000       0.87500000000000000        0.0000000000000000     
  0.71875000000000000       0.87500000000000000        0.0000000000000000     
  0.75000000000000000       0.87500000000000000        0.0000000000000000     
  0.62500000000000000       0.90625000000000000        0.0000000000000000     
  0.65625000000000000       0.90625000000000000        0.0000000000000000     
  0.68750000000000000       0.90625000000000000        0.0000000000000000     
  0.71875000000000000       0.90625000000000000        0.0000000000000000     
  0.75000000000000000       0.90625000000000000        0.0000000000000000     
  0.62500000000000000       0.93750000000000000        0.0000000000000000     
  0.65625000000000000       0.93750000000000000        0.0000000000000000     
  0.68750000000000000       0.93750000000000000        0.0000000000000000     
  0.71875000000000000       0.93750000000000000        0.0000000000000000     
  0.75000000000000000       0.93750000000000000        0.0000000000000000     
  0.62500000000000000       0.96875000000000000        0.0000000000000000     
  0.65625000000000000       0.96875000000000000        0.0000000000000000     
  0.68750000000000000       0.96875000000000000        0.0000000000000000     
  0.71875000000000000       0.96875000000000000        0.0000000000000000     
  0.75000000000000000       0.96875000000000000        0.0000000000000000     
  0.62500000000000000        1.0000000000000000        0.0000000000000000     
  0.65625000000000000        1.0000000000000000        0.0000000000000000     
  0.68750000000000000        1.0000000000000000        0.0000000000000000     
  0.71875000000000000        1.0000000000000000        0.0000000000000000     
  0.75000000000000000        1.0000000000000000        0.0000000000000000     
  0.75000000000000000       0.87500000000000000        0.0000000000000000     
  0.78125000000000000       0.87500000000000000        0.0000000000000000     
  0.81250000000000000       0.87500000000000000        0.0000000000000000     
  0.84375000000000000       0.87500000000000000        0.0000000000000000     
  0.87500000000000000       0.87500000000000000        0.0000000000000000     
  0.75000000000000000       0.90625000000000000        0.0000000000000000     
  0.78125000000000000       0.90625000000000000        0.0000000000000000     
  0.81250000000000000       0.90625000000000000        0.0000000000000000     
  0.84375000000000000       0.90625000000000000        0.0000000000000000     
  0.87500000000000000       0.90625000000000000        0.0000000000000000     
  0.75000000000000000       0.93750000000000000        0.0000000000000000     
  0.78125000000000000       0.93750000000000000        0.0000000000000000     
  0.81250000000000000       0.93750000000000000        0.0000000000000000     
  0.84375000000000000       0.93750000000000000        0.0000000000000000     
  0.87500000000000000       0.93750000000000000        0.0000000000000000     
  0.75000000000000000       0.96875000000000000        0.0000000000000000     
  0.78125000000000000       0.96875000000000000        0.0000000000000000     
  0.81250000000000000       0.96875000000000000        0.0000000000000000     
  0.84375000000000000       0.96875000000000000        0.0000000000000000     
  0.87500000000000000       0.96875000000000000        0.0000000000000000     
  0.75000000000000000        1.0000000000000000        0.0000000000000000     
  0.78125000000000000        1.0000000000000000        0.0000000000000000     
  0.81250000000000000        1.0000000000000000        0.0000000000000000     
  0.84375000000000000        1.0000000000000000        0.0000000000000000     
  0.87500000000000000        1.0000000000000000        0.0000000000000000     
  0.87500000000000000       0.87500000000000000        0.0000000000000000     
  0.90625000000000000       0.87500000000000000        0.0000000000000000     
  0.93750000000000000       0.87500000000000000        0.0000000000000000     
  0.96875000000000000       0.87500000000000000        0.0000000000000000     
   1.0000000000000000       0.87500000000000000        0.0000000000000000     
  0.87500000000000000       0.90625000000000000        0.0000000000000000     
  0.90625000000000000       0.90625000000000000        0.0000000000000000     
  0.93750000000000000       0.90625000000000000        0.0000000000000000     
  0.96875000000000000       0.90625000000000000        0.0000000000000000     
   1.0000000000000000       0.90625000000000000        0.0000000000000000     
  0.87500000000000000       0.93750000000000000        0.0000000000000000     
  0.90625000000000000       0.93750000000000000        0.0000000000000000     
  0.93750000000000000       0.93750000000000000        0.0000000000000000     
  0.96875000000000000       0.93750000000000000        0.0000000000000000     
   1.0000000000000000       0.93750000000000000        0.0000000000000000     
  0.87500000000000000       0.96875000000000000        0.0000000000000000     
  0.90625000000000000       0.96875000000000000        0.0000000000000000     
  0.93750000000000000       0.96875000000000000        0.0000000000000000     
  0.96875000000000000       0.96875000000000000        0.0000000000000000     
   1.0000000000000000       0.96875000000000000        0.0000000000000000     
  0.87500000000000000        1.0000000000000000        0.0000000000000000     
  0.90625000000000000        1.0000000000000000        0.0000000000000000     
  0.93750000000000000        1.0000000000000000        0.0000000000000000     
  0.96875000000000000        1.0000000000000000        0.0000000000000000     
   1.0000000000000000        1.0000000000000000        0.0000000000000000     
 </DataArray>
 </Points>
 <Cells>
 <DataArray  type="Int32"  Name="connectivity"  format="ascii">
           0           1           6           5
           1           2           7           6
           2           3           8           7
           3           4           9           8
           5           6          11          10
           6           7          12          11
           7           8          13          12
           8           9          14          13
          10          11          16          15
          11          12          17          16
          12          13          18          17
          13          14          19          18
          15          16          21          20
          16          17          22          21
          17          18          23          22
          18          19          24          23
          25          26          31          30
          26          27          32          31
          27          28          33          32
          28          29          34          33
          30          31          36          35
          31          32          37          36
          32          33          38          37
          33          34          39          38
          35          36          41          40
          36          37          42          41
          37          38          43          42
          38          39          44          43
          40          41          46          45
          41          42          47          46
          42          43          48          47
          43          44          49          48
          50          51          56          55
          51          52          57          56
          52          53          58          57
          53          54          59          58
          55          56          61          60
          56          57          62          61
          57          58          63          62
          58          59          64          63
          60          61          66          65
          61          62          67          66
          62          63          68          67
          63          64          69          68
          65          66          71          70
          66          67          72          71
          67          68          73          72
          68          69          74          73
          75          76          81          80
          76          77          82          81
          77          78          83          82
          78          79          84          83
          80          81          86          85
          81          82          87          86
          82          83          88          87
          83          84          89          88
          85          86          91          90
          86          87          92          91
          87          88          93          92
          88          89          94          93
          90          91          96          95
          91          92          97          96
          92          93          98          97
          93          94          99          98
         100         101         106         105
         101         102         107         106
         102         103         108         107
         103         104         109         108
         105         106         111         110
         106         107         112         111
         107         108         113         112
         108         109         114         113
         110         111         116         115
         111         112         117         116
         112         113         118         117
         113         114         119         118
         115         116         121         120
         116         117         122         121
         117         118         123         122
         118         119         124         123
         125         126         131         130
         126         127         132         131
         127         128         133         132
         128         129         134         133
         130         131         136         135
         131         132         137         136
         132         133         138         137
         133         134         139         138
         135         136         141         140
         136         137         142         141
         137         138         143         142
         138         139         144         143
         140         141         146         145
         141         142         147         146
         142         143         148         147
         143         144         149         148
         150         151         156         155
         151         152         157         156
         152         153         158         157
         153         154         159         158
         155         156         161         160
         156         157         162         161
         157         158         163         162
         158         159         164         163
         160         161         166         165
         161         162         167         166
         162         163         168         167
         163         164         169         168
         165         166         171         170
         166         167         172         171
         167         168         173         172
         168         169         174         173
         175         176         181         180
         176         177         182         181
         177         178         183         182
         178         179         184         183
         180         181         186         185
         181         182         187         186
         182         183         188         187
         183         184         189         188
         185         186         191         190
         186         187         192         191
         187         188         193         192
         188         189         194         193
         190         191         196         195
         191         192         197         196
         192         193         198         197
         193         194         199         198
         200         201         206         205
         201         202         207         206
         202         203         208         207
         203         204         209         208
         205         206         211         210
         206         207         212         211
         207         208         213         212
         208         209         214         213
         210         211         216         215
         211         212         217         216
         212         213         218         217
         213         214         219         218
         215         216         221         220
         216         217         222         221
         217         218         223         222
         218         219         224         223
         225         226         231         230
         226         227         232         231
         227         228         233         232
         228         229         234         233
         230         231         236         235
         231         232         237         236
         232         233         238         237
         233         234         239         238
         235         236         241         240
         236         237         242         241
         237         238         243         242
         238         239         244         243
         240         241         246         245
         241         242         247         246
         242         243         248         247
         243         244         249         248
         250         251         256         255
         251         252         257         256
         252         253         258         257
         253         254         259         258
         255         256         261         260
         256         257         262         261
         257         258         263         262
         258         259         264         263
         260         261         266         265
         261         262         267         266
         262         263         268         267
         263         264         269         268
         265         266         271         270
         266         267         272         271
         267         268         273         272
         268         269         274         273
         275         276         281         280
         276         277         282         281
         277         278         283         282
         278         279         284         283
         280         281         286         285
         281         282         287         286
         282         283         288         287
         283         284         289         288
         285         286         291         290
         286         287         292         291
         287         288         293         292
         288         289         294         293
         290         291         296         295
         291         292         297         296
         292         293         298         297
         293         294         299         298
         300         301         306         305
         301         302         307         306
         302         303         308         307
         303         304         309         308
         305         306         311         310
         306         307         312         311
         307         308         313         312
         308         309         314         313
         310         311         316         315
         311         312         317         316
         312         313         318         317
         313         314         319         318
         315         316         321         320
         316         317         322         321
         317         318         323         322
         318         319         324         323
         325         326         331         330
         326         327         332         331
         327         328         333         332
         328         329         334         333
         330         331         336         335
         331         332         337         336
         332         333         338         337
         333         334         339         338
         335         336         341         340
         336         337         342         341
         337         338         343         342
         338         339         344         343
         340         341         346         345
         341         342         347         346
         342         343         348         347
         343         344         349         348
         350         351         356         355
         351         352         357         356
         352         353         358         357
         353         354         359         358
         355         356         361         360
         356         357         362         361
         357         358         363         362
         358         359         364         363
         360         361         366         365
         361         362         367         366
         362         363         368         367
         363         364         369         368
         365         366         371         370
         366         367         372         371
         367         368         373         372
         368         369         374         373
         375         376         381         380
         376         377         382         381
         377         378         383         382
         378         379         384         383
         380         381         386         385
         381         382         387         386
         382         383         388         387
         383         384         389         388
         385         386         391         390
         386         387         392         391
         387         388         393         392
         388         389         394         393
         390         391         396         395
         391         392         397         396
         392         393         398         397
         393         394         399         398
         400         401         406         405
         401         402         407         406
         402         403         408         407
         403         404         409         408
         405         406         411         410
         406         407         412         411
         407         408         413         412
         408         409         414         413
         410         411         416         415
         411         412         417         416
         412         413         418         417
         413         414         419         418
         415         416         421         420
         416         417         422         421
         417         418         423         422
         418         419         424         423
         425         426         431         430
         426         427         432         431
         427         428         433         432
         428         429         434         433
         430         431         436         435
         431         432         437         436
         432         433         438         437
         433         434         439         438
         435         436         441         440
         436         437         442         441
         437         438         443         442
         438         439         444         443
         440         441         446         445
         441         442         447         446
         442         443         448         447
         443         444         449         448
         450         451         456         455
         451         452         457         456
         452         453         458         457
         453         454         459         458
         455         456         461         460
         456         457         462         461
         457         458         463         462
         458         459         464         463
         460         461         466         465
         461         462         467         466
         462         463         468         467
         463         464         469         468
         465         466         471         470
         466         467         472         471
         467         468         473         472
         468         469         474         473
         475         476         481         480
         476         477         482         481
         477         478         483         482
         478         479         484         483
         480         481         486         485
         481         482         487         486
         482         483         488         487
         483         484         489         488
         485         486         491         490
         486         487         492         491
         487         488         493         492
         488         489         494         493
         490         491         496         495
         491         492         497         496
         492         493         498         497
         493         494         499         498
         500         501         506         505
         501         502         507         506
         502         503         508         507
         503         504         509         508
         505         506         511         510
         506         507         512         511
         507         508         513         512
         508         509         514         513
         510         511         516         515
         511         512         517         516
         512         513         518         517
         513         514         519         518
         515         516         521         520
         516         517         522         521
         517         518         523         522
         518         519         524         523
         525         526         531         530
         526         527         532         531
         527         528         533         532
         528         529         534         533
         530         531         536         535
         531         532         537         536
         532         533         538         537
         533         534         539         538
         535         536         541         540
         536         537         542         541
         537         538         543         542
         538         539         544         543
         540         541         546         545
         541         542         547         546
         542         543         548         547
         543         544         549         548
         550         551         556         555
         551         552         557         556
         552         553         558         557
         553         554         559         558
         555         556         561         560
         556         557         562         561
         557         558         563         562
         558         559         564         563
         560         561         566         565
         561         562         567         566
         562         563         568         567
         563         564         569         568
         565         566         571         570
         566         567         572         571
         567         568         573         572
         568         569         574         573
         575         576         581         580
         576         577         582         581
         577         578         583         582
         578         579         584         583
         580         581         586         585
         581         582         587         586
         582         583         588         587
         583         584         589         588
         585         586         591         590
         586         587         592         591
         587         588         593         592
         588         589         594         593
         590         591         596         595
         591         592         597         596
         592         593         598         597
         593         594         599         598
         600         601         606         605
         601         602         607         606
         602         603         608         607
         603         604         609         608
         605         606         611         610
         606         607         612         611
         607         608         613         612
         608         609         614         613
         610         611         616         615
         611         612         617         616
         612         613         618         617
         613         614         619         618
         615         616         621         620
         616         617         622         621
         617         618         623         622
         618         619         624         623
         625         626         631         630
         626         627         632         631
         627         628         633         632
         628         629         634         633
         630         631         636         635
         631         632         637         636
         632         633         638         637
         633         634         639         638
         635         636         641         640
         636         637         642         641
         637         638         643         642
         638         639         644         643
         640         641         646         645
         641         642         647         646
         642         643         648         647
         643         644         649         648
         650         651         656         655
         651         652         657         656
         652         653         658         657
         653         654         659         658
         655         656         661         660
         656         657         662         661
         657         658         663         662
         658         659         664         663
         660         661         666         665
         661         662         667         666
         662         663         668         667
         663         664         669         668
         665         666         671         670
         666         667         672         671
         667         668         673         672
         668         669         674         673
         675         676         681         680
         676         677         682         681
         677         678         683         682
         678         679         684         683
         680         681         686         685
         681         682         687         686
         682         683         688         687
         683         684         689         688
         685         686         691         690
         686         687         692         691
         687         688         693         692
         688         689         694         693
         690         691         696         695
         691         692         697         696
         692         693         698         697
         693         694         699         698
         700         701         706         705
         701         702         707         706
         702         703         708         707
         703         704         709         708
         705         706         711         710
         706         707         712         711
         707         708         713         712
         708         709         714         713
         710         711         716         715
         711         712         717         716
         712         713         718         717
         713         714         719         718
         715         716         721         720
         716         717         722         721
         717         718         723         722
         718         719         724         723
         725         726         731         730
         726         727         732         731
         727         728         733         732
         728         729         734         733
         730         731         736         735
         731         732         737         736
         732         733         738         737
         733         734         739         738
         735         736         741         740
         736         737         742         741
         737         738         743         742
         738         739         744         743
         740         741         746         745
         741         742         747         746
         742         743         748         747
         743         744         749         748
         750         751         756         755
         751         752         757         756
         752         753         758         757
         753         754         759         758
         755         756         761         760
         756         757         762         761
         757         758         763         762
         758         759         764         763
         760         761         766         765
         761         762         767         766
         762         763         768         767
         763         764         769         768
         765         766         771         770
         766         767         772         771
         767         768         773         772
         768         769         774         773
         775         776         781         780
         776         777         782         781
         777         778         783         782
         778         779         784         783
         780         781         786         785
         781         782         787         786
         782         783         788         787
         783         784         789         788
         785         786         791         790
         786         787         792         791
         787         788         793         792
         788         789         794         793
         790         791         796         795
         791         792         797         796
         792         793         798         797
         793         794         799         798
         800         801         806         805
         801         802         807         806
         802         803         808         807
         803         804         809         808
         805         806         811         810
         806         807         812         811
         807         808         813         812
         808         809         814         813
         810         811         816         815
         811         812         817         816
         812         813         818         817
         813         814         819         818
         815         816         821         820
         816         817         822         821
         817         818         823         822
         818         819         824         823
         825         826         831         830
         826         827         832         831
         827         828         833         832
         828         829         834         833
         830         831         836         835
         831         832         837         836
         832         833         838         837
         833         834         839         838
         835         836         841         840
         836         837         842         841
         837         838         843         842
         838         839         844         843
         840         841         846         845
         841         842         847         846
         842         843         848         847
         843         844         849         848
         850         851         856         855
         851         852         857         856
         852         853         858         857
         853         854         859         858
         855         856         861         860
         856         857         862         861
         857         858         863         862
         858         859         864         863
         860         861         866         865
         861         862         867         866
         862         863         868         867
         863         864         869         868
         865         866         871         870
         866         867         872         871
         867         868         873         872
         868         869         874         873
         875         876         881         880
         876         877         882         881
         877         878         883         882
         878         879         884         883
         880         881         886         885
         881         882         887         886
         882         883         888         887
         883         884         889         888
         885         886         891         890
         886         887         892         891
         887         888         893         892
         888         889         894         893
         890         891         896         895
         891         892         897         896
         892         893         898         897
         893         894         899         898
         900         901         906         905
         901         902         907         906
         902         903         908         907
         903         904         909         908
         905         906         911         910
         906         907         912         911
         907         908         913         912
         908         909         914         913
         910         911         916         915
         911         912         917         916
         912         913         918         917
         913         914         919         918
         915         916         921         920
         916         917         922         921
         917         918         923         922
         918         919         924         923
         925         926         931         930
         926         927         932         931
         927         928         933         932
         928         929         934         933
         930         931         936         935
         931         932         937         936
         932         933         938         937
         933         934         939         938
         935         936         941         940
         936         937         942         941
         937         938         943         942
         938         939         944         943
         940         941         946         945
         941         942         947         946
         942         943         948         947
         943         944         949         948
         950         951         956         955
         951         952         957         956
         952         953         958         957
         953         954         959         958
         955         956         961         960
         956         957         962         961
         957         958         963         962
         958         959         964         963
         960         961         966         965
         961         962         967         966
         962         963         968         967
         963         964         969         968
         965         966         971         970
         966         967         972         971
         967         968         973         972
         968         969         974         973
         975         976         981         980
         976         977         982         981
         977         978         983         982
         978         979         984         983
         980         981         986         985
         981         982         987         986
         982         983         988         987
         983         984         989         988
         985         986         991         990
         986         987         992         991
         987         988         993         992
         988         989         994         993
         990         991         996         995
         991         992         997         996
         992         993         998         997
         993         994         999         998
        1000        1001        1006        1005
        1001        1002        1007        1006
        1002        1003        1008        1007
        1003        1004        1009        1008
        1005        1006        1011        1010
        1006        1007        1012        1011
        1007        1008        1013        1012
        1008        1009        1014        1013
        1010        1011        1016        1015
        1011        1012        1017        1016
        1012        1013        1018        1017
        1013        1014        1019        1018
        1015        1016        1021        1020
        1016        1017        1022        1021
        1017        1018        1023        1022
        1018        1019        1024        1023
        1025        1026        1031        1030
        1026        1027        1032        1031
        1027        1028        1033        1032
        1028        1029        1034        1033
        1030        1031        1036        1035
        1031        1032        1037        1036
        1032        1033        1038        1037
        1033        1034        1039        1038
        1035        1036        1041        1040
        1036        1037        1042        1041
        1037        1038        1043        1042
        1038        1039        1044        1043
        1040        1041        1046        1045
        1041        1042        1047        1046
        1042        1043        1048        1047
        1043        1044        1049        1048
        1050        1051        1056        1055
        1051        1052        1057        1056
        1052        1053        1058        1057
        1053        1054        1059        1058
        1055        1056        1061        1060
        1056        1057        1062        1061
        1057        1058        1063        1062
        1058        1059        1064        1063
        1060        1061        1066        1065
        1061        1062        1067        1066
        1062        1063        1068        1067
        1063        1064        1069        1068
        1065        1066        1071        1070
        1066        1067        1072        1071
        1067        1068        1073        1072
        1068        1069        1074        1073
        1075        1076        1081        1080
        1076        1077        1082        1081
        1077        1078        1083        1082
        1078        1079        1084        1083
        1080        1081        1086        1085
        1081        1082        1087        1086
        1082        1083        1088        1087
        1083        1084        1089        1088
        1085        1086        1091        1090
        1086        1087        1092        1091
        1087        1088        1093        1092
        1088        1089        1094        1093
        1090        1091        1096        1095
        1091        1092        1097        1096
        1092        1093        1098        1097
        1093        1094        1099        1098
        1100        1101        1106        1105
        1101        1102        1107        1106
        1102        1103        1108        1107
        1103        1104        1109        1108
        1105        1106        1111        1110
        1106        1107        1112        1111
        1107        1108        1113        1112
        1108        1109        1114        1113
        1110        1111        1116        1115
        1111        1112        1117        1116
        1112        1113        1118        1117
        1113        1114        1119        1118
        1115        1116        1121        1120
        1116        1117        1122        1121
        1117        1118        1123        1122
        1118        1119        1124        1123
        1125        1126        1131        1130
        1126        1127        1132        1131
        1127        1128        1133        1132
        1128        1129        1134        1133
        1130        1131        1136        1135
        1131        1132        1137        1136
        1132        1133        1138        1137
        1133        1134        1139        1138
        1135        1136        1141        1140
        1136        1137        1142        1141
        1137        1138        1143        1142
        1138        1139        1144        1143
        1140        1141        1146        1145
        1141        1142        1147        1146
        1142        1143        1148        1147
        1143        1144        1149        1148
        1150        1151        1156        1155
        1151        1152        1157        1156
        1152        1153        1158        1157
        1153        1154        1159        1158
        1155        1156        1161        1160
        1156        1157        1162        1161
        1157        1158        1163        1162
        1158        1159        1164        1163
        1160        1161        1166        1165
        1161        1162        1167        1166
        1162        1163        1168        1167
        1163        1164        1169        1168
        1165        1166        1171        1170
        1166        1167        1172        1171
        1167        1168        1173        1172
        1168        1169        1174        1173
        1175        1176        1181        1180
        1176        1177        1182        1181
        1177        1178        1183        1182
        1178        1179        1184        1183
        1180        1181        1186        1185
        1181        1182        1187        1186
        1182        1183        1188        1187
        1183        1184        1189        1188
        1185        1186        1191        1190
        1186        1187        1192        1191
        1187        1188        1193        1192
        1188        1189        1194        1193
        1190        1191        1196        1195
        1191        1192        1197        1196
        1192        1193        1198        1197
        1193        1194        1199        1198
        1200        1201        1206        1205
        1201        1202        1207        1206
        1202        1203        1208        1207
        1203        1204        1209        1208
        1205        1206        1211        1210
        1206        1207        1212        1211
        1207        1208        1213        1212
        1208        1209        1214        1213
        1210        1211        1216        1215
        1211        1212        1217        1216
        1212        1213        1218        1217
        1213        1214        1219        1218
        1215        1216        1221        1220
        1216        1217        1222        1221
        1217        1218        1223        1222
        1218        1219        1224        1223
        1225        1226        1231        1230
        1226        1227        1232        1231
        1227        1228        1233        1232
        1228        1229        1234        1233
        1230        1231        1236        1235
        1231        1232        1237        1236
        1232        1233        1238        1237
        1233        1234        1239        1238
        1235        1236        1241        1240
        1236        1237        1242        1241
        1237        1238        1243        1242
        1238        1239        1244        1243
        1240        1241        1246        1245
        1241        1242        1247        1246
        1242        1243        1248        1247
        1243        1244        1249        1248
        1250        1251        1256        1255
        1251        1252        1257        1256
        1252        1253        1258        1257
        1253        1254        1259        1258
        1255        1256        1261        1260
        1256        1257        1262        1261
        1257        1258        1263        1262
        1258        1259        1264        1263
        1260        1261        1266        1265
        1261        1262        1267        1266
        1262        1263        1268        1267
        1263        1264        1269        1268
        1265        1266        1271        1270
        1266        1267        1272        1271
        1267        1268        1273        1272
        1268        1269        1274        1273
        1275        1276        1281        1280
        1276        1277        1282        1281
        1277        1278        1283        1282
        1278        1279        1284        1283
        1280        1281        1286        1285
        1281        1282        1287        1286
        1282        1283        1288        1287
        1283        1284        1289        1288
        1285        1286        1291        1290
        1286        1287        1292        1291
        1287        1288        1293        1292
        1288        1289        1294        1293
        1290        1291        1296        1295
        1291        1292        1297        1296
        1292        1293        1298        1297
        1293        1294        1299        1298
        1300        1301        1306        1305
        1301        1302        1307        1306
        1302        1303        1308        1307
        1303        1304        1309        1308
        1305        1306        1311        1310
        1306        1307        1312        1311
        1307        1308        1313        1312
        1308        1309        1314        1313
        1310        1311        1316        1315
        1311        1312        1317        1316
        1312        1313        1318        1317
        1313        1314        1319        1318
        1315        1316        1321        1320
        1316        1317        1322        1321
        1317        1318        1323        1322
        1318        1319        1324        1323
        1325        1326        1331        1330
        1326        1327        1332        1331
        1327        1328        1333        1332
        1328        1329        1334        1333
        1330        1331        1336        1335
        1331        1332        1337        1336
        1332        1333        1338        1337
        1333        1334        1339        1338
        1335        1336        1341        1340
        1336        1337        1342        1341
        1337        1338        1343        1342
        1338        1339        1344        1343
        1340        1341        1346        1345
        1341        1342        1347        1346
        1342        1343        1348        1347
        1343        1344        1349        1348
        1350        1351        1356        1355
        1351        1352        1357        1356
        1352        1353        1358        1357
        1353        1354        1359        1358
        1355        1356        1361        1360
        1356        1357        1362        1361
        1357        1358        1363        1362
        1358        1359        1364        1363
        1360        1361        1366        1365
        1361        1362        1367        1366
        1362        1363        1368        1367
        1363        1364        1369        1368
        1365        1366        1371        1370
        1366        1367        1372        1371
        1367        1368        1373        1372
        1368        1369        1374        1373
        1375        1376        1381        1380
        1376        1377        1382        1381
        1377        1378        1383        1382
        1378        1379        1384        1383
        1380        1381        1386        1385
        1381        1382        1387        1386
        1382        1383        1388        1387
        1383        1384        1389        1388
        1385        1386        1391        1390
        1386        1387        1392        1391
        1387        1388        1393        1392
        1388        1389        1394        1393
        1390        1391        1396        1395
        1391        1392        1397        1396
        1392        1393        1398        1397
        1393        1394        1399        1398
        1400        1401        1406        1405
        1401        1402        1407        1406
        1402        1403        1408        1407
        1403        1404        1409        1408
        1405        1406        1411        1410
        1406        1407        1412        1411
        1407        1408        1413        1412
        1408        1409        1414        1413
        1410        1411        1416        1415
        1411        1412        1417        1416
        1412        1413        1418        1417
        1413        1414        1419        1418
        1415        1416        1421        1420
        1416        1417        1422        1421
        1417        1418        1423        1422
        1418        1419        1424        1423
        1425        1426        1431        1430
        1426        1427        1432        1431
        1427        1428        1433        1432
        1428        1429        1434        1433
        1430        1431        1436        1435
        1431        1432        1437        1436
        1432        1433        1438        1437
        1433        1434        1439        1438
        1435        1436        1441        1440
        1436        1437        1442        1441
        1437        1438        1443        1442
        1438        1439        1444        1443
        1440        1441        1446        1445
        1441        1442        1447        1446
        1442        1443        1448        1447
        1443        1444        1449        1448
        1450        1451        1456        1455
        1451        1452        1457        1456
        1452        1453        1458        1457
        1453        1454        1459        1458
        1455        1456        1461        1460
        1456        1457        1462        1461
        1457        1458        1463        1462
        1458        1459        1464        1463
        1460        1461        1466        1465
        1461        1462        1467        1466
        1462        1463        1468        1467
        1463        1464        1469        1468
        1465        1466        1471        1470
        1466        1467        1472        1471
        1467        1468        1473        1472
        1468        1469        1474        1473
        1475        1476        1481        1480
        1476        1477        1482        1481
        1477        1478        1483        1482
        1478        1479        1484        1483
        1480        1481        1486        1485
        1481        1482        1487        1486
        1482        1483        1488        1487
        1483        1484        1489        1488
        1485        1486        1491        1490
        1486        1487        1492        1491
        1487        1488        1493        1492
        1488        1489        1494        1493
        1490        1491        1496        1495
        1491        1492        1497        1496
        1492        1493        1498        1497
        1493        1494        1499        1498
        1500        1501        1506        1505
        1501        1502        1507        1506
        1502        1503        1508        1507
        1503        1504        1509        1508
        1505        1506        1511        1510
        1506        1507        1512        1511
        1507        1508        1513        1512
        1508        1509        1514        1513
        1510        1511        1516        1515
        1511        1512        1517        1516
        1512        1513        1518        1517
        1513        1514        1519        1518
        1515        1516        1521        1520
        1516        1517        1522        1521
        1517        1518        1523        1522
        1518        1519        1524        1523
        1525        1526        1531        1530
        1526        1527        1532        1531
        1527        1528        1533        1532
        1528        1529        1534        1533
        1530        1531        1536        1535
        1531        1532        1537        1536
        1532        1533        1538        1537
        1533        1534        1539        1538
        1535        1536        1541        1540
        1536        1537        1542        1541
        1537        1538        1543        1542
        1538        1539        1544        1543
        1540        1541        1546        1545
        1541        1542        1547        1546
        1542        1543        1548        1547
        1543        1544        1549        1548
        1550        1551        1556        1555
        1551        1552        1557        1556
        1552        1553        1558        1557
        1553        1554        1559        1558
        1555        1556        1561        1560
        1556        1557        1562        1561
        1557        1558        1563        1562
        1558        1559        1564        1563
        1560        1561        1566        1565
        1561        1562        1567        1566
        1562        1563        1568        1567
        1563        1564        1569        1568
        1565        1566        1571        1570
        1566        1567        1572        1571
        1567        1568        1573        1572
        1568        1569        1574        1573
        1575        1576        1581        1580
        1576        1577        1582        1581
        1577        1578        1583        1582
        1578        1579        1584        1583
        1580        1581        1586        1585
        1581        1582        1587        1586
        1582        1583        1588        1587
        1583        1584        1589        1588
        1585        1586        1591        1590
        1586        1587        1592        1591
        1587        1588        1593        1592
        1588        1589        1594        1593
        1590        1591        1596        1595
        1591        1592        1597        1596
        1592        1593        1598        1597
        1593        1594        1599        1598
 </DataArray>
 <DataArray  type="Int32"  Name="offsets"  format="ascii"> 
           4
           8
          12
          16
          20
          24
          28
          32
          36
          40
          44
          48
          52
          56
          60
          64
          68
          72
          76
          80
          84
          88
          92
          96
         100
         104
         108
         112
         116
         120
         124
         128
         132
         136
         140
         144
         148
         152
         156
         160
         164
         168
         172
         176
         180
         184
         188
         192
         196
         200
         204
         208
         212
         216
         220
         224
         228
         232
         236
         240
         244
         248
         252
         256
         260
         264
         268
         272
         276
         280
         284
         288
         292
         296
         300
         304
         308
         312
         316
         320
         324
         328
         332
         336
         340
         344
         348
         352
         356
         360
         364
         368
         372
         376
         380
         384
         388
         392
         396
         400
         404
         408
         412
         416
         420
         424
         428
         432
         436
         440
         444
         448
         452
         456
         460
         464
         468
         472
         476
         480
         484
         488
         492
         496
         500
         504
         508
         512
         516
         520
         524
         528
         532
         536
         540
         544
         548
         552
         556
         560
         564
         568
         572
         576
         580
         584
         588
         592
         596
         600
         604
         608
         612
         616
         620
         624
         628
         632
         636
         640
         644
         648
         652
         656
         660
         664
         668
         672
         676
         680
         684
         688
         692
         696
         700
         704
         708
         712
         716
         720
         724
         728
         732
         736
         740
         744
         748
         752
         756
         760
         764
         768
         772
         776
         780
         784
         788
         792
         796
         800
         804
         808
         812
         816
         820
         824
         828
         832
         836
         840
         844
         848
         852
         856
         860
         864
         868
         872
         876
         880
         884
         888
         892
         896
         900
         904
         908
         912
         916
         920
         924
         928
         932
         936
         940
         944
         948
         952
         956
         960
         964
         968
         972
         976
         980
         984
         988
         992
         996
        1000
        1004
        1008
        1012
        1016
        1020
        1024
        1028
        1032
        1036
        1040
        1044
        1048
        1052
        1056
        1060
        1064
        1068
        1072
        1076
        1080
        1084
        1088
        1092
        1096
        1100
        1104
        1108
        1112
        1116
        1120
        1124
        1128
        1132
        1136
        1140
        1144
        1148
        1152
        1156
        1160
        1164
        1168
        1172
        1176
        1180
        1184
        1188
        1192
        1196
        1200
        1204
        1208
        1212
        1216
        1220
        1224
        1228
        1232
        1236
        1240
        1244
        1248
        1252
        1256
        1260
        1264
        1268
        1272
        1276
        1280
        1284
        1288
        1292
        1296
        1300
        1304
        1308
        1312
        1316
        1320
        1324
        1328
        1332
        1336
        1340
        1344
        1348
        1352
        1356
        1360
        1364
        1368
        1372
        1376
        1380
        1384
        1388
        1392
        1396
        1400
        1404
        1408
        1412
        1416
        1420
        1424
        1428
        1432
        1436
        1440
        1444
        1448
        1452
        1456
        1460
        1464
        1468
        1472
        1476
        1480
        1484
        1488
        1492
        1496
        1500
        1504
        1508
        1512
        1516
        1520
        1524
        1528
        1532
        1536
        1540
        1544
        1548
        1552
        1556
        1560
        1564
        1568
        1572
        1576
        1580
        1584
        1588
        1592
        1596
        1600
        1604
        1608
        1612
        1616
        1620
        1624
        1628
        1632
        1636
        1640
        1644
        1648
        1652
        1656
        1660
        1664
        1668
        1672
        1676
        1680
        1684
        1688
        1692
        1696
        1700
        1704
        1708
        1712
        1716
        1720
        1724
        1728
        1732
        1736
        1740
        1744
        1748
        1752
        1756
        1760
        1764
        1768
        1772
        1776
        1780
        1784
        1788
        1792
        1796
        1800
        1804
        1808
        1812
        1816
        1820
        1824
        1828
        1832
        1836
        1840
        1844
        1848
        1852
        1856
        1860
        1864
        1868
        1872
        1876
        1880
        1884
        1888
        1892
        1896
        1900
        1904
        1908
        1912
        1916
        1920
        1924
        1928
        1932
        1936
        1940
        1944
        1948
        1952
        1956
        1960
        1964
        1968
        1972
        1976
        1980
        1984
        1988
        1992
        1996
        2000
        2004
        2008
        2012
        2016
        2020
        2024
        2028
        2032
        2036
        2040
        2044
        2048
        2052
        2056
        2060
        2064
        2068
        2072
        2076
        2080
        2084
        2088
        2092
        2096
        2100
        2104
        2108
        2112
        2116
        2120
        2124
        2128
        2132
        2136
        2140
        2144
        2148
        2152
        2156
        2160
        2164
        2168
        2172
        2176
        2180
        2184
        2188
        2192
        2196
        2200
        2204
        2208
        2212
        2216
        2220
        2224
        2228
        2232
        2236
        2240
        2244
        2248
        2252
        2256
        2260
        2264
        2268
        2272
        2276
        2280
        2284
        2288
        2292
        2296
        2300
        2304
        2308
        2312
        2316
        2320
        2324
        2328
        2332
        2336
        2340
        2344
        2348
        2352
        2356
        2360
        2364
        2368
        2372
        2376
        2380
        2384
        2388
        2392
        2396
        2400
        2404
        2408
        2412
        2416
        2420
        2424
        2428
        2432
        2436
        2440
        2444
        2448
        2452
        2456
        2460
        2464
        2468
        2472
        2476
        2480
        2484
        2488
        2492
        2496
        2500
        2504
        2508
        2512
        2516
        2520
        2524
        2528
        2532
        2536
        2540
        2544
        2548
        2552
        2556
        2560
        2564
        2568
        2572
        2576
        2580
        2584
        2588
        2592
        2596
        2600
        2604
        2608
        2612
        2616
        2620
        2624
        2628
        2632
        2636
        2640
        2644
        2648
        2652
        2656
        2660
        2664
        2668
        2672
        2676
        2680
        2684
        2688
        2692
        2696
        2700
        2704
        2708
        2712
        2716
        2720
        2724
        2728
        2732
        2736
        2740
        2744
        2748
        2752
        2756
        2760
        2764
        2768
        2772
        2776
        2780
        2784
        2788
        2792
        2796
        2800
        2804
        2808
        2812
        2816
        2820
        2824
        2828
        2832
        2836
        2840
        2844
        2848
        2852
        2856
        2860
        2864
        2868
        2872
        2876
        2880
        2884
        2888
        2892
        2896
        2900
        2904
        2908
        2912
        2916
        2920
        2924
        2928
        2932
        2936
        2940
        2944
        2948
        2952
        2956
        2960
        2964
        2968
        2972
        2976
        2980
        2984
        2988
        2992
        2996
        3000
        3004
        3008
        3012
        3016
        3020
        3024
        3028
        3032
        3036
        3040
        3044
        3048
        3052
        3056
        3060
        3064
        3068
        3072
        3076
        3080
        3084
        3088
        3092
        3096
        3100
        3104
        3108
        3112
        3116
        3120
        3124
        3128
        3132
        3136
        3140
        3144
        3148
        3152
        3156
        3160
        3164
        3168
        3172
        3176
        3180
        3184
        3188
        3192
        3196
        3200
        3204
        3208
        3212
        3216
        3220
        3224
        3228
        3232
        3236
        3240
        3244
        3248
        3252
        3256
        3260
        3264
        3268
        3272
        3276
        3280
        3284
        3288
        3292
        3296
        3300
        3304
        3308
        3312
        3316
        3320
        3324
        3328
        3332
        3336
        3340
        3344
        3348
        3352
        3356
        3360
        3364
        3368
        3372
        3376
        3380
        3384
        3388
        3392
        3396
        3400
        3404
        3408
        3412
        3416
        3420
        3424
        3428
        3432
        3436
        3440
        3444
        3448
        3452
        3456
        3460
        3464
        3468
        3472
        3476
        3480
        3484
        3488
        3492
        3496
        3500
        3504
        3508
        3512
        3516
        3520
        3524
        3528
        3532
        3536
        3540
        3544
        3548
        3552
        3556
        3560
        3564
        3568
        3572
        3576
        3580
        3584
        3588
        3592
        3596
        3600
        3604
        3608
        3612
        3616
        3620
        3624
        3628
        3632
        3636
        3640
        3644
        3648
        3652
        3656
        3660
        3664
        3668
        3672
        3676
        3680
        3684
        3688
        3692
        3696
        3700
        3704
        3708
        3712
        3716
        3720
        3724
        3728
        3732
        3736
        3740
        3744
        3748
        3752
        3756
        3760
        3764
        3768
        3772
        3776
        3780
        3784
        3788
        3792
        3796
        3800
        3804
        3808
        3812
        3816
        3820
        3824
        3828
        3832
        3836
        3840
        3844
        3848
        3852
        3856
        3860
        3864
        3868
        3872
        3876
        3880
        3884
        3888
        3892
        3896
        3900
        3904
        3908
        3912
        3916
        3920
        3924
        3928
        3932
        3936
        3940
        3944
        3948
        3952
        3956
        3960
        3964
        3968
        3972
        3976
        3980
        3984
        3988
        3992
        3996
        4000
        4004
        4008
        4012
        4016
        4020
        4024
        4028
        4032
        4036
        4040
        4044
        4048
        4052
        4056
        4060
        4064
        4068
        4072
        4076
        4080
        4084
        4088
        4092
        4096
 </DataArray>
 <DataArray  type="UInt8"  Name="types"  format="ascii">
 9
 9
 9
 9
 9
 9
 9
 9
 9
 9
 9
 9
 9
 9
 9
 9
 9
 9
 9
 9
 9
 9
 9
 9
 9
 9
 9
 9
 9
 9
 9
 9
 9
 9
 9
 9
 9
 9
 9
 9
 9
 9
 9
 9
 9
 9
 9
 9
 9
 9
 9
 9
 9
 9
 9
 9
 9
 9
 9
 9
 9
 9
 9
 9
 9
 9
 9
 9
 9
 9
 9
 9
 9
 9
 9
 9
 9
 9
 9
 9
 9
 9
 9
 9
 9
 9
 9
 9
 9
 9
 9
 9
 9
 9
 9
 9
 9
 9
 9
 9
 9
 9
 9
 9
 9
 9
 9
 9
 9
 9
 9
 9
 9
 9
 9
 9
 9
 9
 9
 9
 9
 9
 9
 9
 9
 9
 9
 9
 9
 9
 9
 9
 9
 9
 9
 9
 9
 9
 9
 9
 9
 9
 9
 9
 9
 9
 9
 9
 9
 9
 9
 9
 9
 9
 9
 9
 9
 9
 9
 9
 9
 9
 9
 9
 9
 9
 9
 9
 9
 9
 9
 9
 9
 9
 9
 9
 9
 9
 9
 9
 9
 9
 9
 9
 9
 9
 9
 9
 9
 9
 9
 9
 9
 9
 9
 9
 9
 9
 9
 9
 9
 9
 9
 9
 9
 9
 9
 9
 9
 9
 9
 9
 9
 9
 9
 9
 9
 9
 9
 9
 9
 9
 9
 9
 9
 9
 9
 9
 9
 9
 9
 9
 9
 9
 9
 9
 9
 9
 9
 9
 9
 9
 9
 9
 9
 9
 9
 9
 9
 9
 9
 9
 9
 9
 9
 9
 9
 9
 9
 9
 9
 9
 9
 9
 9
 9
 9
 9
 9
 9
 9
 9
 9
 9
 9
 9
 9
 9
 9
 9
 9
 9
 9
 9
 9
 9
 9
 9
 9
 9
 9
 9
 9
 9
 9
 9
 9
 9
 9
 9
 9
 9
 9
 9
 9
 9
 9
 9
 9
 9
 9
 9
 9
 9
 9
 9
 9
 9
 9
 9
 9
 9
 9
 9
 9
 9
 9
 9
 9
 9
 9
 9
 9
 9
 9
 9
 9
 9
 9
 9
 9
 9
 9
 9
 9
 9
 9
 9
 9
 9
 9
 9
 9
 9
 9
 9
 9
 9
 9
 9
 9
 9
 9
 9
 9
 9
 9
 9
 9
 9
 9
 9
 9
 9
 9
 9
 9
 9
 9
 9
 9
 9
 9
 9
 9
 9
 9
 9
 9
 9
 9
 9
 9
 9
 9
 9
 9
 9
 9
 9
 9
 9
 9
 9
 9
 9
 9
 9
 9
 9
 9
 9
 9
 9
 9
 9
 9
 9
 9
 9
 9
 9
 9
 9
 9
 9
 9
 9
 9
 9
 9
 9
 9
 9
 9
 9
 9
 9
 9
 9
 9
 9
 9
 9
 9
 9
 9
 9
 9
 9
 9
 9
 9
 9
 9
 9
 9
 9
 9
 9
 9
 9
 9
 9
 9
 9
 9
 9
 9
 9
 9
 9
 9
 9
 9
 9
 9
 9
 9
 9
 9
 9
 9
 9
 9
 9
 9
 9
 9
 9
 9
 9
 9
 9
 9
 9
 9
 9
 9
 9
 9
 9
 9
 9
 9
 9
 9
 9
 9
 9
 9
 9
 9
 9
 9
 9
 9
 9
 9
 9
 9
 9
 9
 9
 9
 9
 9
 9
 9
 9
 9
 9
 9
 9
 9
 9
 9
 9
 9
 9
 9
 9
 9
 9
 9
 9
 9
 9
 9
 9
 9
 9
 9
 9
 9
 9
 9
 9
 9
 9
 9
 9
 9
 9
 9
 9
 9
 9
 9
 9
 9
 9
 9
 9
 9
 9
 9
 9
 9
 9
 9
 9
 9
 9
 9
 9
 9
 9
 9
 9
 9
 9
 9
 9
 9
 9
 9
 9
 9
 9
 9
 9
 9
 9
 9
 9
 9
 9
 9
 9
 9
 9
 9
 9
 9
 9
 9
 9
 9
 9
 9
 9
 9
 9
 9
 9
 9
 9
 9
 9
 9
 9
 9
 9
 9
 9
 9
 9
 9
 9
 9
 9
 9
 9
 9
 9
 9
 9
 9
 9
 9
 9
 9
 9
 9
 9
 9
 9
 9
 9
 9
 9
 9
 9
 9
 9
 9
 9
 9
 9
 9
 9
 9
 9
 9
 9
 9
 9
 9
 9
 9
 9
 9
 9
 9
 9
 9
 9
 9
 9
 9
 9
 9
 9
 9
 9
 9
 9
 9
 9
 9
 9
 9
 9
 9
 9
 9
 9
 9
 9
 9
 9
 9
 9
 9
 9
 9
 9
 9
 9
 9
 9
 9
 9
 9
 9
 9
 9
 9
 9
 9
 9
 9
 9
 9
 9
 9
 9
 9
 9
 9
 9
 9
 9
 9
 9
 9
 9
 9
 9
 9
 9
 9
 9
 9
 9
 9
 9
 9
 9
 9
 9
 9
 9
 9
 9
 9
 9
 9
 9
 9
 9
 9
 9
 9
 9
 9
 9
 9
 9
 9
 9
 9
 9
 9
 9
 9
 9
 9
 9
 9
 9
 9
 9
 9
 9
 9
 9
 9
 9
 9
 9
 9
 9
 9
 9
 9
 9
 9
 9
 9
 9
 9
 9
 9
 9
 9
 9
 9
 9
 9
 9
 9
 9
 9
 9
 9
 9
 9
 9
 9
 9
 9
 9
 9
 9
 9
 9
 9
 9
 9
 9
 9
 9
 9
 9
 9
 9
 9
 9
 9
 9
 9
 9
 9
 9
 9
 9
 9
 9
 9
 9
 9
 9
 9
 9
 9
 9
 9
 9
 9
 9
 9
 9
 9
 9
 9
 9
 9
 9
 9
 9
 9
 9
 9
 9
 9
 9
 9
 9
 9
 9
 9
 9
 9
 9
 9
 9
 9
 9
 9
 9
 9
 9
 9
 9
 9
 9
 9
 9
 9
 9
 9
 9
 9
 9
 9
 9
 9
 9
 9
 9
 9
 9
 9
 9
 9
 9
 9
 9
 9
 9
 9
 9
 9
 9
 9
 9
 9
 9
 9
 9
 9
 9
 9
 9
 9
 9
 9
 9
 9
 9
 9
 9
 9
 9
 9
 9
 9
 9
 9
 9
 9
 9
 9
 9
 9
 9
 9
 9
 9
 9
 9
 9
 9
 9
 9
 9
 9
 9
 9
 9
 9
 9
 9
 9
 9
 9
 9
 9
 9
 9
 9
 9
 9
 9
 9
 9
 9
 9
 9
 9
 9
 9
 9
 9
 9
 9
 9
 9
 9
 9
 9
 9
 9
 9
 9
 9
 9
 9
 9
 9
 9
 9
 </DataArray>
 </Cells> 
 <PointData>
 <DataArray  type="Float64" Name="disp" NumberOfComponents="3" format="ascii">
   0.0000000000000000        0.0000000000000000        0.0000000000000000     
   6.0959490922908336E-003   3.7905409202352884E-003   0.0000000000000000     
   1.1665977679951842E-002   7.3240019276158228E-003   0.0000000000000000     
   1.6710085762983024E-002   1.0600383022141602E-002   0.0000000000000000     
   2.1228273341384385E-002   1.3619684203812630E-002   0.0000000000000000     
   0.0000000000000000        0.0000000000000000        0.0000000000000000     
   4.8911366177432324E-003   3.0222184901223951E-003   0.0000000000000000     
   9.5736079074318359E-003   6.0606543908650352E-003   0.0000000000000000     
   1.4047413869065807E-002   9.1153077022279195E-003   0.0000000000000000     
   1.8312554502645153E-002   1.2186178424211049E-002   0.0000000000000000     
   0.0000000000000000        0.0000000000000000        0.0000000000000000     
   3.9535525885003933E-003   2.4251652487156652E-003   0.0000000000000000     
   7.9105972248901674E-003   5.0629879661828166E-003   0.0000000000000000     
   1.1871133909169322E-002   7.9134681524014525E-003   0.0000000000000000     
   1.5835162641337858E-002   1.0976605807371576E-002   0.0000000000000000     
   0.0000000000000000        0.0000000000000000        0.0000000000000000     
   3.2831970045623183E-003   1.9993811960150988E-003   0.0000000000000000     
   6.6769456323268420E-003   4.3310026535691671E-003   0.0000000000000000     
   1.0181245883293570E-002   6.9948643726622057E-003   0.0000000000000000     
   1.3796097757462503E-002   9.9909663532942155E-003   0.0000000000000000     
   0.0000000000000000        0.0000000000000000        0.0000000000000000     
   2.8800698659290072E-003   1.7448663320206957E-003   0.0000000000000000     
   5.8726531297418573E-003   3.8646984530240876E-003   0.0000000000000000     
   8.9777497914385503E-003   6.3594963630101749E-003   0.0000000000000000     
   1.2195359851019086E-002   9.2292600619789614E-003   0.0000000000000000     
   2.1228273341384385E-002   1.3619684203812630E-002   0.0000000000000000     
   2.5433368083044413E-002   1.6612597570007544E-002   0.0000000000000000     
   2.9538197655851604E-002   1.9809815218105004E-002   0.0000000000000000     
   3.3542762059805956E-002   2.3211337148104996E-002   0.0000000000000000     
   3.7447061294907484E-002   2.6817163360007529E-002   0.0000000000000000     
   1.8312554502645153E-002   1.2186178424211049E-002   0.0000000000000000     
   2.2407200307933431E-002   1.5341657703353100E-002   0.0000000000000000     
   2.6369521784694223E-002   1.8650136686192753E-002   0.0000000000000000     
   3.0199518932927511E-002   2.2111615372730008E-002   0.0000000000000000     
   3.3897191752633303E-002   2.5726093762964863E-002   0.0000000000000000     
   1.5835162641337858E-002   1.0976605807371576E-002   0.0000000000000000     
   1.9730871820341674E-002   1.4211227116557373E-002   0.0000000000000000     
   2.3486449845126659E-002   1.7576158265423029E-002   0.0000000000000000     
   2.7101896715692818E-002   2.1071399253968556E-002   0.0000000000000000     
   3.0577212432040153E-002   2.4696950082193941E-002   0.0000000000000000     
   1.3796097757462503E-002   9.9909663532942155E-003   0.0000000000000000     
   1.7404382620269127E-002   1.3221305809620368E-002   0.0000000000000000     
   2.0888981837148914E-002   1.6587879955795842E-002   0.0000000000000000     
   2.4249895408101879E-002   2.0090688791820643E-002   0.0000000000000000     
   2.7487123333128020E-002   2.3729732317694752E-002   0.0000000000000000     
   1.2195359851019086E-002   9.2292600619789614E-003   0.0000000000000000     
   1.5427732707715794E-002   1.2371893782542082E-002   0.0000000000000000     
   1.8577117760761000E-002   1.5685301757311178E-002   0.0000000000000000     
   2.1643515010154702E-002   1.9169483986286255E-002   0.0000000000000000     
   2.4626924455896905E-002   2.2824440469467310E-002   0.0000000000000000     
   3.7447061294907484E-002   2.6817163360007529E-002   0.0000000000000000     
   4.1255521155989162E-002   3.0622473307532219E-002   0.0000000000000000     
   4.4972567437883977E-002   3.4622446444398700E-002   0.0000000000000000     
   4.8598200140591956E-002   3.8817082770606963E-002   0.0000000000000000     
   5.2132419264113064E-002   4.3206382286157023E-002   0.0000000000000000     
   3.3897191752633303E-002   2.5726093762964863E-002   0.0000000000000000     
   3.7485795269354458E-002   2.9522343311632324E-002   0.0000000000000000     
   4.0988584508633789E-002   3.3529135473467385E-002   0.0000000000000000     
   4.4405559470471340E-002   3.7746470248470047E-002   0.0000000000000000     
   4.7736720154867074E-002   4.2174347636640318E-002   0.0000000000000000     
   3.0577212432040153E-002   2.4696950082193941E-002   0.0000000000000000     
   3.3941907801627653E-002   2.8497380895645266E-002   0.0000000000000000     
   3.7225493631914332E-002   3.2517261839868625E-002   0.0000000000000000     
   4.0427969922900174E-002   3.6756592914864016E-002   0.0000000000000000     
   4.3549336674585187E-002   4.1215374120631421E-002   0.0000000000000000     
   2.7487123333128020E-002   2.3729732317694752E-002   0.0000000000000000     
   3.0623858752808767E-002   2.7547586059571059E-002   0.0000000000000000     
   3.3683294807725583E-002   3.1586825543602426E-002   0.0000000000000000     
   3.6665431497878466E-002   3.5847450769788861E-002   0.0000000000000000     
   3.9570268823267411E-002   4.0329461738130339E-002   0.0000000000000000     
   2.4626924455896905E-002   2.2824440469467310E-002   0.0000000000000000     
   2.7531648122897798E-002   2.6672958803409693E-002   0.0000000000000000     
   3.0361988036067565E-002   3.0737826584668785E-002   0.0000000000000000     
   3.3117944195406215E-002   3.5019043813244576E-002   0.0000000000000000     
   3.5799516600913739E-002   3.9516610489137058E-002   0.0000000000000000     
   5.2132419264113064E-002   4.3206382286157023E-002   0.0000000000000000     
   5.5572243182565428E-002   4.7795050060232845E-002   0.0000000000000000     
   5.8914690270067162E-002   5.2587791162018394E-002   0.0000000000000000     
   6.2159760526618243E-002   5.7584605591513696E-002   0.0000000000000000     
   6.5307453952218680E-002   6.2785493348718718E-002   0.0000000000000000     
   4.7736720154867074E-002   4.2174347636640318E-002   0.0000000000000000     
   5.0977468213179271E-002   4.6806249718051744E-002   0.0000000000000000     
   5.4123205296766182E-002   5.1635658572777861E-002   0.0000000000000000     
   5.7173931405627813E-002   5.6662574200818674E-002   0.0000000000000000     
   6.0129646539764152E-002   6.1886996602174185E-002   0.0000000000000000     
   4.3549336674585187E-002   4.1215374120631421E-002   0.0000000000000000     
   4.6584849163728292E-002   4.5880964796848757E-002   0.0000000000000000     
   4.9529762667088396E-002   5.0740724283193900E-002   0.0000000000000000     
   5.2384077184665513E-002   5.5794652579666863E-002   0.0000000000000000     
   5.5147792716459622E-002   6.1042749686267633E-002   0.0000000000000000     
   3.9570268823267411E-002   4.0329461738130339E-002   0.0000000000000000     
   4.2394386034212493E-002   4.5019195296623890E-002   0.0000000000000000     
   4.5134362381033799E-002   4.9902988293266538E-002   0.0000000000000000     
   4.7790197863731336E-002   5.4980840728058256E-002   0.0000000000000000     
   5.0361892482305104E-002   6.0252752600999056E-002   0.0000000000000000     
   3.5799516600913739E-002   3.9516610489137058E-002   0.0000000000000000     
   3.8406078824631880E-002   4.4220941217377144E-002   0.0000000000000000     
   4.0937004438602410E-002   4.9122450602995735E-002   0.0000000000000000     
   4.3392293442825310E-002   5.4221138645992852E-002   0.0000000000000000     
   4.5771945837300577E-002   5.9517005346368460E-002   0.0000000000000000     
   6.5307453952218680E-002   6.2785493348718718E-002   0.0000000000000000     
   6.8362590136126528E-002   6.8177043607631924E-002   0.0000000000000000     
   7.1329988667599861E-002   7.3745845542251720E-002   0.0000000000000000     
   7.4209649546638681E-002   7.9491899152578122E-002   0.0000000000000000     
   7.7001572773242974E-002   8.5415204438611114E-002   0.0000000000000000     
   6.0129646539764152E-002   6.1886996602174185E-002   0.0000000000000000     
   6.2996308783711014E-002   6.7300243225425785E-002   0.0000000000000000     
   6.5779876222004194E-002   7.2893631519154845E-002   0.0000000000000000     
   6.8480348854643672E-002   7.8667161483361392E-002   0.0000000000000000     
   7.1097726681629475E-002   8.4620833118045385E-002   0.0000000000000000     
   5.5147792716459622E-002   6.1042749686267633E-002   0.0000000000000000     
   5.7826947167181807E-002   6.6478829077217166E-002   0.0000000000000000     
   6.0427578441543069E-002   7.2096704226736433E-002   0.0000000000000000     
   6.2949686539543429E-002   7.7896375134825405E-002   0.0000000000000000     
   6.5393271461182900E-002   8.3877841801484124E-002   0.0000000000000000     
   5.0361892482305104E-002   6.0252752600999056E-002   0.0000000000000000     
   5.2854505286538893E-002   6.5712801163006096E-002   0.0000000000000000     
   5.5273095326216506E-002   7.1355063664996457E-002   0.0000000000000000     
   5.7617662601337966E-002   7.7179540106970215E-002   0.0000000000000000     
   5.9888207111903236E-002   8.3186230488927301E-002   0.0000000000000000     
   4.5771945837300577E-002   5.9517005346368460E-002   0.0000000000000000     
   4.8078983141782293E-002   6.5002159482792518E-002   0.0000000000000000     
   5.0316426876024521E-002   7.0668709833934959E-002   0.0000000000000000     
   5.2484277040027248E-002   7.6516656399795768E-002   0.0000000000000000     
   5.4582533633790488E-002   8.2545999180374974E-002   0.0000000000000000     
   7.7001572773242974E-002   8.5415204438611114E-002   0.0000000000000000     
   7.9694696986056510E-002   9.1506897182793867E-002   0.0000000000000000     
   8.2277960823723045E-002   9.7758113167569549E-002   0.0000000000000000     
   8.4751364286242567E-002  0.10416885239293812        0.0000000000000000     
   8.7114907373615075E-002  0.11073911485889965        0.0000000000000000     
   7.1097726681629475E-002   8.4620833118045385E-002   0.0000000000000000     
   7.3622266692819044E-002   9.0743516841908234E-002   0.0000000000000000     
   7.6044225878069818E-002   9.7024083073651332E-002   0.0000000000000000     
   7.8363604237381798E-002  0.10346253181327461        0.0000000000000000     
   8.0580401770754997E-002  0.11005886306077817        0.0000000000000000     
   6.5393271461182900E-002   8.3877841801484124E-002   0.0000000000000000     
   6.7749818888053107E-002   9.0028649207040415E-002   0.0000000000000000     
   7.0010814501745733E-002   9.6336342331822186E-002   0.0000000000000000     
   7.2176258302260737E-002  0.10280092117582941        0.0000000000000000     
   7.4246150289598148E-002  0.10942238573906211        0.0000000000000000     
   5.9888207111903236E-002   8.3186230488927301E-002   0.0000000000000000     
   6.2077353571758705E-002   8.9362294278190396E-002   0.0000000000000000     
   6.4177726694750761E-002   9.5694890942082153E-002   0.0000000000000000     
   6.6189326480879357E-002  0.10218402048060253        0.0000000000000000     
   6.8112152930144526E-002  0.10882968289375154        0.0000000000000000     
   5.4582533633790488E-002   8.2545999180374974E-002   0.0000000000000000     
   5.6604870743935838E-002   8.8744452055358219E-002   0.0000000000000000     
   5.8544962457084890E-002   9.5099728904431219E-002   0.0000000000000000     
   6.0402808773237650E-002  0.10161182972759393        0.0000000000000000     
   6.2178409692394118E-002  0.10828075452484641        0.0000000000000000     
   8.7114907373615075E-002  0.11073911485889965        0.0000000000000000     
   8.9387289064055742E-002  0.11745539498295629        0.0000000000000000     
   9.1587208335779741E-002  0.12430418718261035        0.0000000000000000     
   9.3714665188787044E-002  0.13128549145786184        0.0000000000000000     
   9.5769659623077652E-002  0.13839930780871068        0.0000000000000000     
   8.0580401770754997E-002  0.11005886306077817        0.0000000000000000     
   8.2711022551889848E-002  0.11680094326414560        0.0000000000000000     
   8.4771870654486797E-002  0.12367663887136064        0.0000000000000000     
   8.6762946078545858E-002  0.13068594988242327        0.0000000000000000     
   8.8684248824067016E-002  0.13782887629733354        0.0000000000000000     
   7.4246150289598148E-002  0.10942238573906211        0.0000000000000000     
   7.6235069676154829E-002  0.11618945248385222        0.0000000000000000     
   7.8157595674327701E-002  0.12309083787253171        0.0000000000000000     
   8.0013728284116722E-002  0.13012654190510059        0.0000000000000000     
   8.1803467505521921E-002  0.13729656458155878        0.0000000000000000     
   6.8112152930144526E-002  0.10882968289375154        0.0000000000000000     
   6.9959430436850725E-002  0.11562092264207623        0.0000000000000000     
   7.1744383395302438E-002  0.12254678418612361        0.0000000000000000     
   7.3467011805499652E-002  0.12960726752589363        0.0000000000000000     
   7.5127315667442393E-002  0.13680237266138642        0.0000000000000000     
   6.2178409692394118E-002  0.10828075452484641        0.0000000000000000     
   6.3884104833977495E-002  0.11509535373881753        0.0000000000000000     
   6.5532233817411009E-002  0.12204447781213626        0.0000000000000000     
   6.7122796642694646E-002  0.12912812674480256        0.0000000000000000     
   6.8655793309828406E-002  0.13634630053681648        0.0000000000000000     
   9.5769659623077652E-002  0.13839930780871068        0.0000000000000000     
   9.7720368771296695E-002  0.14563433221416122        0.0000000000000000     
   9.9534969766089290E-002  0.15297926065321774        0.0000000000000000     
  0.10121346260745541       0.16043409312588028        0.0000000000000000     
  0.10275584729539508       0.16799882963214877        0.0000000000000000     
   8.8684248824067016E-002  0.13782887629733354        0.0000000000000000     
   9.0509439830169305E-002  0.14509279729735464        0.0000000000000000     
   9.2212180035971716E-002  0.15246509206374981        0.0000000000000000     
   9.3792469441474291E-002  0.15994576059651905        0.0000000000000000     
   9.5250308046677029E-002  0.16753480289566239        0.0000000000000000     
   8.1803467505521921E-002  0.13729656458155878        0.0000000000000000     
   8.3504055416883452E-002  0.14458751765489880        0.0000000000000000     
   8.5092734096541556E-002  0.15198601287811303        0.0000000000000000     
   8.6569503544496135E-002  0.15949205025120147        0.0000000000000000     
   8.7934363760747258E-002  0.16710562977416410        0.0000000000000000     
   7.5127315667442393E-002  0.13680237266138642        0.0000000000000000     
   7.6704215531439218E-002  0.14411849328679371        0.0000000000000000     
   7.8176631947798725E-002  0.15154202309630743        0.0000000000000000     
   7.9544564916520927E-002  0.15907296208992744        0.0000000000000000     
   8.0808014437605810E-002  0.16671131026765390        0.0000000000000000     
   6.8655793309828406E-002  0.13634630053681648        0.0000000000000000     
   7.0109920173836549E-002  0.14368572419303946        0.0000000000000000     
   7.1463873589743321E-002  0.15113312271833299        0.0000000000000000     
   7.2717653557548681E-002  0.15868849611269711        0.0000000000000000     
   7.3871260077252671E-002  0.16635184437613182        0.0000000000000000     
   0.0000000000000000        0.0000000000000000        0.0000000000000000     
   2.8800698659290072E-003   1.7448663320206957E-003   0.0000000000000000     
   5.8726531297418573E-003   3.8646984530240876E-003   0.0000000000000000     
   8.9777497914385503E-003   6.3594963630101749E-003   0.0000000000000000     
   1.2195359851019086E-002   9.2292600619789614E-003   0.0000000000000000     
   0.0000000000000000        0.0000000000000000        0.0000000000000000     
   2.6103269341000899E-003   1.5889545606322228E-003   0.0000000000000000     
   5.2897386036071968E-003   3.5567552823437191E-003   0.0000000000000000     
   8.0382350085213237E-003   5.9034021651344880E-003   0.0000000000000000     
   1.0855816148842465E-002   8.6288952090045300E-003   0.0000000000000000     
   0.0000000000000000        0.0000000000000000        0.0000000000000000     
   2.3401239705751965E-003   1.4589797857494477E-003   0.0000000000000000     
   4.7202209403948443E-003   3.2998530593242024E-003   0.0000000000000000     
   7.1402909094589436E-003   5.5226198207242640E-003   0.0000000000000000     
   9.6003338777674932E-003   8.1272800699496318E-003   0.0000000000000000     
   0.0000000000000000        0.0000000000000000        0.0000000000000000     
   2.0694609753543268E-003   1.3549420073723699E-003   0.0000000000000000     
   4.1641001401047980E-003   3.0939917839655378E-003   0.0000000000000000     
   6.2839174942514132E-003   5.2171493297795048E-003   0.0000000000000000     
   8.4289130377941720E-003   7.7244146448142694E-003   0.0000000000000000     
   0.0000000000000000        0.0000000000000000        0.0000000000000000     
   1.7983379484374814E-003   1.2768412255009895E-003   0.0000000000000000     
   3.6213762027370588E-003   2.9391714562677263E-003   0.0000000000000000     
   5.4691147628987326E-003   4.9869906923002104E-003   0.0000000000000000     
   7.3415536289225024E-003   7.4202989335984421E-003   0.0000000000000000     
   1.2195359851019086E-002   9.2292600619789614E-003   0.0000000000000000     
   1.5427732707715794E-002   1.2371893782542082E-002   0.0000000000000000     
   1.8577117760761000E-002   1.5685301757311178E-002   0.0000000000000000     
   2.1643515010154702E-002   1.9169483986286255E-002   0.0000000000000000     
   2.4626924455896905E-002   2.2824440469467310E-002   0.0000000000000000     
   1.0855816148842465E-002   8.6288952090045300E-003   0.0000000000000000     
   1.3689139881279329E-002   1.1650948743503685E-002   0.0000000000000000     
   1.6484864062540613E-002   1.4887277098181795E-002   0.0000000000000000     
   1.9242988692626316E-002   1.8337880273038860E-002   0.0000000000000000     
   2.1963513771536446E-002   2.2002758268074879E-002   0.0000000000000000     
   9.6003338777674932E-003   8.1272800699496318E-003   0.0000000000000000     
   1.2076821939557374E-002   1.1046428400686344E-002   0.0000000000000000     
   1.4546227189065460E-002   1.4212659406620433E-002   0.0000000000000000     
   1.7008549626291756E-002   1.7625973087751903E-002   0.0000000000000000     
   1.9463789251236256E-002   2.1286369444080747E-002   0.0000000000000000     
   8.4289130377941720E-003   7.7244146448142694E-003   0.0000000000000000     
   1.0590778882549935E-002   1.0558332754090058E-002   0.0000000000000000     
   1.2761207140335549E-002   1.3661448682627097E-002   0.0000000000000000     
   1.4940197811151020E-002   1.7033762430425380E-002   0.0000000000000000     
   1.7127750894996348E-002   2.0675273997484915E-002   0.0000000000000000     
   7.3415536289225024E-003   7.4202989335984421E-003   0.0000000000000000     
   9.2310107102570038E-003   1.0186661803714829E-002   0.0000000000000000     
   1.1129803916350871E-002   1.3233644926201783E-002   0.0000000000000000     
   1.3037933247204108E-002   1.6561248301059296E-002   0.0000000000000000     
   1.4955398702816709E-002   2.0169471928287379E-002   0.0000000000000000     
   2.4626924455896905E-002   2.2824440469467310E-002   0.0000000000000000     
   2.7531648122897798E-002   2.6672958803409693E-002   0.0000000000000000     
   3.0361988036067565E-002   3.0737826584668785E-002   0.0000000000000000     
   3.3117944195406215E-002   3.5019043813244576E-002   0.0000000000000000     
   3.5799516600913739E-002   3.9516610489137058E-002   0.0000000000000000     
   2.1963513771536446E-002   2.2002758268074879E-002   0.0000000000000000     
   2.4630010383383853E-002   2.5879977971333814E-002   0.0000000000000000     
   2.7226049612281394E-002   2.9967606270859613E-002   0.0000000000000000     
   2.9751631458229070E-002   3.4265643166652274E-002   0.0000000000000000     
   3.2206755921226883E-002   3.8774088658711819E-002   0.0000000000000000     
   1.9463789251236256E-002   2.1286369444080747E-002   0.0000000000000000     
   2.1883680005756041E-002   2.5175122407516029E-002   0.0000000000000000     
   2.4239955831708185E-002   2.9273505909966805E-002   0.0000000000000000     
   2.6532616729092694E-002   3.3581519951433075E-002   0.0000000000000000     
   2.8761662697909560E-002   3.8099164531914836E-002   0.0000000000000000     
   1.7127750894996348E-002   2.0675273997484915E-002   0.0000000000000000     
   1.9292656990014374E-002   2.4558392111956363E-002   0.0000000000000000     
   2.1403706694347959E-002   2.8655525501990381E-002   0.0000000000000000     
   2.3460900007997089E-002   3.2966674167586960E-002   0.0000000000000000     
   2.5464236930961771E-002   3.7491838108746116E-002   0.0000000000000000     
   1.4955398702816709E-002   2.0169471928287379E-002   0.0000000000000000     
   1.6856941336158848E-002   2.4029787084654797E-002   0.0000000000000000     
   1.8717302200200698E-002   2.8113665046930317E-002   0.0000000000000000     
   2.0536481294942257E-002   3.2421105815113940E-002   0.0000000000000000     
   2.2314478620383521E-002   3.6952109389205678E-002   0.0000000000000000     
   3.5799516600913739E-002   3.9516610489137058E-002   0.0000000000000000     
   3.8406078824631880E-002   4.4220941217377144E-002   0.0000000000000000     
   4.0937004438602410E-002   4.9122450602995735E-002   0.0000000000000000     
   4.3392293442825310E-002   5.4221138645992852E-002   0.0000000000000000     
   4.5771945837300577E-002   5.9517005346368460E-002   0.0000000000000000     
   3.2206755921226883E-002   3.8774088658711819E-002   0.0000000000000000     
   3.4593289951719113E-002   4.3488376990501690E-002   0.0000000000000000     
   3.6913100500150071E-002   4.8403942405485401E-002   0.0000000000000000     
   3.9166187566519732E-002   5.3520784903662910E-002   0.0000000000000000     
   4.1352551150828108E-002   5.8838904485034246E-002   0.0000000000000000     
   2.8761662697909560E-002   3.8099164531914836E-002   0.0000000000000000     
   3.0929381832206854E-002   4.2823677047390714E-002   0.0000000000000000     
   3.3038062226032658E-002   4.7752294893839344E-002   0.0000000000000000     
   3.5087703879386964E-002   5.2885018071260712E-002   0.0000000000000000     
   3.7078306792269769E-002   5.8221846579654804E-002   0.0000000000000000     
   2.5464236930961771E-002   3.7491838108746116E-002   0.0000000000000000     
   2.7414354466095098E-002   4.2226841388044209E-002   0.0000000000000000     
   2.9311889616250173E-002   4.7167508068057577E-002   0.0000000000000000     
   3.1156842381426981E-002   5.2313838148786235E-002   0.0000000000000000     
   3.2949212761625539E-002   5.7665831630230167E-002   0.0000000000000000     
   2.2314478620383521E-002   3.6952109389205678E-002   0.0000000000000000     
   2.4048207853383855E-002   4.1697870012462168E-002   0.0000000000000000     
   2.5734582670802617E-002   4.6649581928140109E-002   0.0000000000000000     
   2.7373603072639811E-002   5.1807245136239494E-002   0.0000000000000000     
   2.8965269058895432E-002   5.7170859636760302E-002   0.0000000000000000     
   4.5771945837300577E-002   5.9517005346368460E-002   0.0000000000000000     
   4.8078983141782293E-002   6.5002159482792518E-002   0.0000000000000000     
   5.0316426876024521E-002   7.0668709833934959E-002   0.0000000000000000     
   5.2484277040027248E-002   7.6516656399795768E-002   0.0000000000000000     
   5.4582533633790488E-002   8.2545999180374974E-002   0.0000000000000000     
   4.1352551150828108E-002   5.8838904485034246E-002   0.0000000000000000     
   4.3473112197609999E-002   6.4347838195065885E-002   0.0000000000000000     
   4.5528791651400162E-002   7.0037123079224300E-002   0.0000000000000000     
   4.7519589512198632E-002   7.5906759137509480E-002   0.0000000000000000     
   4.9445505780005380E-002   8.1956746369921493E-002   0.0000000000000000     
   3.7078306792269769E-002   5.8221846579654804E-002   0.0000000000000000     
   3.9009623918719982E-002   6.3750771458315578E-002   0.0000000000000000     
   4.0881408212776540E-002   6.9459783746536899E-002   0.0000000000000000     
   4.2693659674439423E-002   7.5348883444318795E-002   0.0000000000000000     
   4.4446378303708622E-002   8.1418070551661254E-002   0.0000000000000000     
   3.2949212761625539E-002   5.7665831630230167E-002   0.0000000000000000     
   3.4688518305112277E-002   6.3210959272541611E-002   0.0000000000000000     
   3.6374276560153643E-002   6.8936691835872782E-002   0.0000000000000000     
   3.8006487526749622E-002   7.4843029320223672E-002   0.0000000000000000     
   3.9585151204900242E-002   8.0929971725594282E-002   0.0000000000000000     
   2.8965269058895432E-002   5.7170859636760302E-002   0.0000000000000000     
   3.0509795356786860E-002   6.2728401637743972E-002   0.0000000000000000     
   3.2007396693531462E-002   6.8467847347231908E-002   0.0000000000000000     
   3.3458073069129242E-002   7.4389196765224111E-002   0.0000000000000000     
   3.4861824483580203E-002   8.0492449891720594E-002   0.0000000000000000     
   5.4582533633790488E-002   8.2545999180374974E-002   0.0000000000000000     
   5.6604870743935838E-002   8.8744452055358219E-002   0.0000000000000000     
   5.8544962457084890E-002   9.5099728904431219E-002   0.0000000000000000     
   6.0402808773237650E-002  0.10161182972759393        0.0000000000000000     
   6.2178409692394118E-002  0.10828075452484641        0.0000000000000000     
   4.9445505780005380E-002   8.1956746369921493E-002   0.0000000000000000     
   5.1301071514325086E-002   8.8175573765401846E-002   0.0000000000000000     
   5.3080817774662420E-002   9.4551730312892254E-002   0.0000000000000000     
   5.4784744561017361E-002  0.10108521601239266        0.0000000000000000     
   5.6412851873389916E-002  0.10777603086390308        0.0000000000000000     
   4.4446378303708622E-002   8.1418070551661254E-002   0.0000000000000000     
   4.6134656992667063E-002   8.7656110635179363E-002   0.0000000000000000     
   4.7753588633397584E-002   9.4051769261488158E-002   0.0000000000000000     
   4.9303173225900207E-002  0.10060504643058769        0.0000000000000000     
   5.0783410770174939E-002  0.10731594214247794        0.0000000000000000     
   3.9585151204900242E-002   8.0929971725594282E-002   0.0000000000000000     
   4.1105627178961740E-002   8.7186062664690686E-002   0.0000000000000000     
   4.2563275033290396E-002   9.3599845750218943E-002   0.0000000000000000     
   4.3958094767886195E-002  0.10017132098217903        0.0000000000000000     
   4.5290086382749159E-002  0.10690048836057095        0.0000000000000000     
   3.4861824483580203E-002   8.0492449891720594E-002   0.0000000000000000     
   3.6213982073209139E-002   8.6765429853935899E-002   0.0000000000000000     
   3.7509876974340849E-002   9.3195959779084570E-002   0.0000000000000000     
   3.8749509186975319E-002   9.9784039667166660E-002   0.0000000000000000     
   3.9932878711112563E-002  0.10652966951818214        0.0000000000000000     
   6.2178409692394118E-002  0.10828075452484641        0.0000000000000000     
   6.3884104833977495E-002  0.11509535373881753        0.0000000000000000     
   6.5532233817411009E-002  0.12204447781213626        0.0000000000000000     
   6.7122796642694646E-002  0.12912812674480256        0.0000000000000000     
   6.8655793309828406E-002  0.13634630053681648        0.0000000000000000     
   5.6412851873389916E-002  0.10777603086390308        0.0000000000000000     
   5.7976711225516189E-002  0.11461268214748305        0.0000000000000000     
   5.9487894131132243E-002  0.12158367714319207        0.0000000000000000     
   6.0946400590238051E-002  0.12868901585103015        0.0000000000000000     
   6.2352230602833666E-002  0.13592869827099729        0.0000000000000000     
   5.0783410770174939E-002  0.10731594214247794        0.0000000000000000     
   5.2204867969447830E-002  0.11417284424147960        0.0000000000000000     
   5.3578111526944944E-002  0.12116414057191337        0.0000000000000000     
   5.4903141442666267E-002  0.12828983113377929        0.0000000000000000     
   5.6179957716611814E-002  0.13554991592707727        0.0000000000000000     
   4.5290086382749159E-002  0.10690048836057095        0.0000000000000000     
   4.6568575065772395E-002  0.11377584002080716        0.0000000000000000     
   4.7802886004849110E-002  0.12078586809830016        0.0000000000000000     
   4.8993019199979275E-002  0.12793057259304993        0.0000000000000000     
   5.0138974651162870E-002  0.13520995350505643        0.0000000000000000     
   3.9932878711112563E-002  0.10652966951818214        0.0000000000000000     
   4.1067832514489928E-002  0.11342166948546580        0.0000000000000000     
   4.2162217564844763E-002  0.12044885972235245        0.0000000000000000     
   4.3216033862177060E-002  0.12761124022884213        0.0000000000000000     
   4.4229281406486839E-002  0.13490881100493476        0.0000000000000000     
   6.8655793309828406E-002  0.13634630053681648        0.0000000000000000     
   7.0109920173836549E-002  0.14368572419303946        0.0000000000000000     
   7.1463873589743321E-002  0.15113312271833299        0.0000000000000000     
   7.2717653557548681E-002  0.15868849611269711        0.0000000000000000     
   7.3871260077252671E-002  0.16635184437613182        0.0000000000000000     
   6.2352230602833666E-002  0.13592869827099729        0.0000000000000000     
   6.3683612727377437E-002  0.14328993962468542        0.0000000000000000     
   6.4918775522327776E-002  0.15075995513368654        0.0000000000000000     
   6.6057718987684644E-002  0.15833874479800056        0.0000000000000000     
   6.7100443123448067E-002  0.16602630861762754        0.0000000000000000     
   5.6179957716611814E-002  0.13554991592707727        0.0000000000000000     
   5.7387736575363842E-002  0.14293186883278119        0.0000000000000000     
   5.8505654245504607E-002  0.15042316373186476        0.0000000000000000     
   5.9533710727034089E-002  0.15802380062432797        0.0000000000000000     
   6.0471906019952296E-002  0.16573377951017088        0.0000000000000000     
   5.0138974651162870E-002  0.13520995350505643        0.0000000000000000     
   5.1222291717795777E-002  0.14261151181732667        0.0000000000000000     
   5.2224509759273834E-002  0.15012274851286767        0.0000000000000000     
   5.3145628775597011E-002  0.15774366359167941        0.0000000000000000     
   5.3985648766765343E-002  0.16547425705376181        0.0000000000000000     
   4.4229281406486839E-002  0.13490881100493476        0.0000000000000000     
   4.5187278154673244E-002  0.14232886857832197        0.0000000000000000     
   4.6075342063635435E-002  0.14985870947669530        0.0000000000000000     
   4.6893473133373414E-002  0.15749833370005473        0.0000000000000000     
   4.7641671363887195E-002  0.16524774124840030        0.0000000000000000     
   0.0000000000000000        0.0000000000000000        0.0000000000000000     
   1.7983379484374814E-003   1.2768412255009895E-003   0.0000000000000000     
   3.6213762027370588E-003   2.9391714562677263E-003   0.0000000000000000     
   5.4691147628987326E-003   4.9869906923002104E-003   0.0000000000000000     
   7.3415536289225024E-003   7.4202989335984421E-003   0.0000000000000000     
   0.0000000000000000        0.0000000000000000        0.0000000000000000     
   1.5350321459879101E-003   1.2175616940592602E-003   0.0000000000000000     
   3.0994057005023752E-003   2.8208785450709616E-003   0.0000000000000000     
   4.6931206635433959E-003   4.8099505530351042E-003   0.0000000000000000     
   6.3161770351109715E-003   7.1847777179516884E-003   0.0000000000000000     
   0.0000000000000000        0.0000000000000000        0.0000000000000000     
   1.2878208241688632E-003   1.1699876669711356E-003   0.0000000000000000     
   2.6055452056114956E-003   2.7245995192154396E-003   0.0000000000000000     
   3.9531731443278977E-003   4.6638355567329114E-003   0.0000000000000000     
   5.3307046403180689E-003   6.9876957795235502E-003   0.0000000000000000     
   0.0000000000000000        0.0000000000000000        0.0000000000000000     
   1.0567039829803408E-003   1.1341191442366158E-003   0.0000000000000000     
   2.1397947180644204E-003   2.6503343787011584E-003   0.0000000000000000     
   3.2492722052522389E-003   4.5486457033936294E-003   0.0000000000000000     
   4.3851364445437954E-003   6.8290531183140268E-003   0.0000000000000000     
   0.0000000000000000        0.0000000000000000        0.0000000000000000     
   8.4168162242234277E-004   1.1099561258557003E-003   0.0000000000000000     
   1.7021542378611487E-003   2.5980831235281202E-003   0.0000000000000000     
   2.5814178463164179E-003   4.4643809930172600E-003   0.0000000000000000     
   3.4794724477881503E-003   6.7088497343231199E-003   0.0000000000000000     
   7.3415536289225024E-003   7.4202989335984421E-003   0.0000000000000000     
   9.2310107102570038E-003   1.0186661803714829E-002   0.0000000000000000     
   1.1129803916350871E-002   1.3233644926201783E-002   0.0000000000000000     
   1.3037933247204108E-002   1.6561248301059296E-002   0.0000000000000000     
   1.4955398702816709E-002   2.0169471928287379E-002   0.0000000000000000     
   6.3161770351109715E-003   7.1847777179516884E-003   0.0000000000000000     
   7.9558526730759659E-003   9.8957846058419108E-003   0.0000000000000000     
   9.5994254353092400E-003   1.2893395782726965E-002   0.0000000000000000     
   1.1246895321810798E-002   1.6177611248606855E-002   0.0000000000000000     
   1.2898262332580637E-002   1.9748431003481580E-002   0.0000000000000000     
   5.3307046403180689E-003   6.9876957795235502E-003   0.0000000000000000     
   6.7236400214041956E-003   9.6500702167525553E-003   0.0000000000000000     
   8.1174796154084624E-003   1.2604848897585121E-002   0.0000000000000000     
   9.5122234223308701E-003   1.5852031822021256E-002   0.0000000000000000     
   1.0907871442171419E-002   1.9391618990060942E-002   0.0000000000000000     
   4.3851364445437954E-003   6.8290531183140268E-003   0.0000000000000000     
   5.5343727552416939E-003   9.4495186364467621E-003   0.0000000000000000     
   6.6839664566485379E-003   1.2368004270776252E-002   0.0000000000000000     
   7.8339175487643249E-003   1.5584510021302490E-002   0.0000000000000000     
   8.9842260315890574E-003   1.9099035888025483E-002   0.0000000000000000     
   3.4794724477881503E-003   6.7088497343231199E-003   0.0000000000000000     
   4.3880508745884608E-003   9.2941298649245382E-003   0.0000000000000000     
   5.2988859590294641E-003   1.2182861902300357E-002   0.0000000000000000     
   6.2119777011111592E-003   1.5375045846450571E-002   0.0000000000000000     
   7.1273261008335488E-003   1.8870681697375186E-002   0.0000000000000000     
   1.4955398702816709E-002   2.0169471928287379E-002   0.0000000000000000     
   1.6856941336158848E-002   2.4029787084654797E-002   0.0000000000000000     
   1.8717302200200698E-002   2.8113665046930317E-002   0.0000000000000000     
   2.0536481294942257E-002   3.2421105815113940E-002   0.0000000000000000     
   2.2314478620383521E-002   3.6952109389205678E-002   0.0000000000000000     
   1.2898262332580637E-002   1.9748431003481580E-002   0.0000000000000000     
   1.4537237254318424E-002   2.3579765895596988E-002   0.0000000000000000     
   1.6147530873723823E-002   2.7645526773198936E-002   0.0000000000000000     
   1.7729143190796826E-002   3.1945713636287412E-002   0.0000000000000000     
   1.9282074205537444E-002   3.6480326484862428E-002   0.0000000000000000     
   1.0907871442171419E-002   1.9391618990060942E-002   0.0000000000000000     
   1.2294248954622059E-002   2.3198787114768575E-002   0.0000000000000000     
   1.3661181239374735E-002   2.7248712909208522E-002   0.0000000000000000     
   1.5008668296429446E-002   3.1541396373380777E-002   0.0000000000000000     
   1.6336710125786195E-002   3.6076837507285339E-002   0.0000000000000000     
   8.9842260315890574E-003   1.9099035888025483E-002   0.0000000000000000     
   1.0127976437069756E-002   2.2886850742169562E-002   0.0000000000000000     
   1.1258253297153440E-002   2.6923223454959077E-002   0.0000000000000000     
   1.2375056611840110E-002   3.1208154026394021E-002   0.0000000000000000     
   1.3478386381129767E-002   3.5741642456474404E-002   0.0000000000000000     
   7.1273261008335488E-003   1.8870681697375186E-002   0.0000000000000000     
   8.0384197016615134E-003   2.2643956777799949E-002   0.0000000000000000     
   8.9387470470599379E-003   2.6669058410450606E-002   0.0000000000000000     
   9.8283081370288215E-003   3.0945986595327161E-002   0.0000000000000000     
   1.0707102971568162E-002   3.5474741332429616E-002   0.0000000000000000     
   2.2314478620383521E-002   3.6952109389205678E-002   0.0000000000000000     
   2.4048207853383855E-002   4.1697870012462168E-002   0.0000000000000000     
   2.5734582670802617E-002   4.6649581928140109E-002   0.0000000000000000     
   2.7373603072639811E-002   5.1807245136239494E-002   0.0000000000000000     
   2.8965269058895432E-002   5.7170859636760302E-002   0.0000000000000000     
   1.9282074205537444E-002   3.6480326484862428E-002   0.0000000000000000     
   2.0799486327467129E-002   4.1235154912774373E-002   0.0000000000000000     
   2.2274541966107331E-002   4.6195988513873625E-002   0.0000000000000000     
   2.3707241121458045E-002   5.1362827288160169E-002   0.0000000000000000     
   2.5097583793519281E-002   5.6735671235634028E-002   0.0000000000000000     
   1.6336710125786195E-002   3.6076837507285339E-002   0.0000000000000000     
   1.7636734221738941E-002   4.0837088081110563E-002   0.0000000000000000     
   1.8900168078581647E-002   4.5804199865044762E-002   0.0000000000000000     
   2.0127011696314305E-002   5.0978172859087956E-002   0.0000000000000000     
   2.1317265074936923E-002   5.6359007063240131E-002   0.0000000000000000     
   1.3478386381129767E-002   3.5741642456474404E-002   0.0000000000000000     
   1.4559951536199290E-002   4.0503669517470746E-002   0.0000000000000000     
   1.5611461008225566E-002   4.5474215981653562E-002   0.0000000000000000     
   1.6632914797208589E-002   5.0653281849022853E-002   0.0000000000000000     
   1.7624312903148361E-002   5.6040867119578633E-002   0.0000000000000000     
   1.0707102971568162E-002   3.5474741332429616E-002   0.0000000000000000     
   1.1569138270848180E-002   4.0234899221854907E-002   0.0000000000000000     
   1.2408420755039090E-002   4.5206036863699998E-002   0.0000000000000000     
   1.3224950424140895E-002   5.0388154257964869E-002   0.0000000000000000     
   1.4018727278153596E-002   5.5781251404649519E-002   0.0000000000000000     
   2.8965269058895432E-002   5.7170859636760302E-002   0.0000000000000000     
   3.0509795356786860E-002   6.2728401637743972E-002   0.0000000000000000     
   3.2007396693531462E-002   6.8467847347231908E-002   0.0000000000000000     
   3.3458073069129242E-002   7.4389196765224111E-002   0.0000000000000000     
   3.4861824483580203E-002   8.0492449891720594E-002   0.0000000000000000     
   2.5097583793519281E-002   5.6735671235634028E-002   0.0000000000000000     
   2.6446643496613634E-002   6.2303214249569840E-002   0.0000000000000000     
   2.7755493745063704E-002   6.8054150223242238E-002   0.0000000000000000     
   2.9024134538869494E-002   7.3988479156651243E-002   0.0000000000000000     
   3.0252565878030997E-002   8.0106201049796849E-002   0.0000000000000000     
   2.1317265074936923E-002   5.6359007063240131E-002   0.0000000000000000     
   2.2472251147462510E-002   6.1935512803666368E-002   0.0000000000000000     
   2.3593292846904063E-002   6.7696500406531718E-002   0.0000000000000000     
   2.4680390173261593E-002   7.3641969871836188E-002   0.0000000000000000     
   2.5733543126535093E-002   7.9771921199579765E-002   0.0000000000000000     
   1.7624312903148361E-002   5.6040867119578633E-002   0.0000000000000000     
   1.8586618309333485E-002   6.1625297300033570E-002   0.0000000000000000     
   1.9520793999052540E-002   6.7394897897100334E-002   0.0000000000000000     
   2.0426839972305533E-002   7.3349668910778917E-002   0.0000000000000000     
   2.1304756229092472E-002   7.9489610341069356E-002   0.0000000000000000     
   1.4018727278153596E-002   5.5781251404649519E-002   0.0000000000000000     
   1.4789744982226552E-002   6.1372567738671446E-002   0.0000000000000000     
   1.5537997201509128E-002   6.7149342694948086E-002   0.0000000000000000     
   1.6263483936001331E-002   7.3111576273479500E-002   0.0000000000000000     
   1.6966205185703159E-002   7.9259268474265607E-002   0.0000000000000000     
   3.4861824483580203E-002   8.0492449891720594E-002   0.0000000000000000     
   3.6213982073209139E-002   8.6765429853935899E-002   0.0000000000000000     
   3.7509876974340849E-002   9.3195959779084570E-002   0.0000000000000000     
   3.8749509186975319E-002   9.9784039667166660E-002   0.0000000000000000     
   3.9932878711112563E-002  0.10652966951818214        0.0000000000000000     
   3.0252565878030997E-002   8.0106201049796849E-002   0.0000000000000000     
   3.1436084296712255E-002   8.6394325432483696E-002   0.0000000000000000     
   3.2569986329077281E-002   9.2839861834516507E-002   0.0000000000000000     
   3.3654271975126104E-002   9.9442810255895256E-002   0.0000000000000000     
   3.4688941234858703E-002  0.10620317069661991        0.0000000000000000     
   2.5733543126535093E-002   7.9771921199579765E-002   0.0000000000000000     
   2.6748296470774074E-002   8.6072862629902935E-002   0.0000000000000000     
   2.7720194970028068E-002   9.2531302402946172E-002   0.0000000000000000     
   2.8649238624297076E-002   9.9147240518709434E-002   0.0000000000000000     
   2.9535427433581098E-002  0.10592067697719276        0.0000000000000000     
   2.1304756229092472E-002   7.9489610341069356E-002   0.0000000000000000     
   2.2150618595394606E-002   8.5801041446193563E-002   0.0000000000000000     
   2.2960502897193199E-002   9.2270281484373523E-002   0.0000000000000000     
   2.3734409134488245E-002   9.8897330455609223E-002   0.0000000000000000     
   2.4472337307279744E-002  0.10568218835990066        0.0000000000000000     
   1.6966205185703159E-002   7.9259268474265607E-002   0.0000000000000000     
   1.7643050670573854E-002   8.5578861881355606E-002   0.0000000000000000     
   1.8290910110572666E-002   9.2056799078798601E-002   0.0000000000000000     
   1.8909783505699600E-002   9.8693080066594593E-002   0.0000000000000000     
   1.9499670855954651E-002  0.10548770484474360        0.0000000000000000     
   3.9932878711112563E-002  0.10652966951818214        0.0000000000000000     
   4.1067832514489928E-002  0.11342166948546580        0.0000000000000000     
   4.2162217564844763E-002  0.12044885972235245        0.0000000000000000     
   4.3216033862177060E-002  0.12761124022884213        0.0000000000000000     
   4.4229281406486839E-002  0.13490881100493476        0.0000000000000000     
   3.4688941234858703E-002  0.10620317069661991        0.0000000000000000     
   3.5680399958658224E-002  0.11311009693640520        0.0000000000000000     
   3.6635053996907821E-002  0.12015274275496572        0.0000000000000000     
   3.7552903349607487E-002  0.12733110815230148        0.0000000000000000     
   3.8433948016757230E-002  0.13464519312841253        0.0000000000000000     
   2.9535427433581098E-002  0.10592067697719276        0.0000000000000000     
   3.0384037041335139E-002  0.11284088667457511        0.0000000000000000     
   3.1200343091014240E-002  0.11989714450703541        0.0000000000000000     
   3.1984345582618381E-002  0.12708945047457373        0.0000000000000000     
   3.2736044516147589E-002  0.13441780457718996        0.0000000000000000     
   2.4472337307279744E-002  0.10568218835990066        0.0000000000000000     
   2.5178743762520675E-002  0.11261403869997554        0.0000000000000000     
   2.5858084847164012E-002  0.11968206497856158        0.0000000000000000     
   2.6510360561209759E-002  0.12688626719565876        0.0000000000000000     
   2.7135570904657905E-002  0.13422664535126710        0.0000000000000000     
   1.9499670855954651E-002  0.10548770484474360        0.0000000000000000     
   2.0064520122214827E-002  0.11242955301260649        0.0000000000000000     
   2.0608279265357146E-002  0.11950750416954420        0.0000000000000000     
   2.1130948285381597E-002  0.12672155831555665        0.0000000000000000     
   2.1632527182288183E-002  0.13407171545064395        0.0000000000000000     
   4.4229281406486839E-002  0.13490881100493476        0.0000000000000000     
   4.5187278154673244E-002  0.14232886857832197        0.0000000000000000     
   4.6075342063635435E-002  0.14985870947669530        0.0000000000000000     
   4.6893473133373414E-002  0.15749833370005473        0.0000000000000000     
   4.7641671363887195E-002  0.16524774124840030        0.0000000000000000     
   3.8433948016757230E-002  0.13464519312841253        0.0000000000000000     
   3.9267331666751712E-002  0.14208208008074846        0.0000000000000000     
   4.0042197967985631E-002  0.14962885140675891        0.0000000000000000     
   4.0758546920458966E-002  0.15728550710644390        0.0000000000000000     
   4.1416378524171724E-002  0.16505204717980343        0.0000000000000000     
   3.2736044516147589E-002  0.13441780457718996        0.0000000000000000     
   3.3447088034786708E-002  0.14186928728958756        0.0000000000000000     
   3.4109124281720610E-002  0.14943097908646977        0.0000000000000000     
   3.4722153256949308E-002  0.15710287996783670        0.0000000000000000     
   3.5286174960472795E-002  0.16488498993368819        0.0000000000000000     
   2.7135570904657905E-002  0.13422664535126710        0.0000000000000000     
   2.7726547258778201E-002  0.14169049020483929        0.0000000000000000     
   2.8276121004840379E-002  0.14926509251582790        0.0000000000000000     
   2.8784292142844448E-002  0.15695045228423299        0.0000000000000000     
   2.9251060672790406E-002  0.16474656951005456        0.0000000000000000     
   2.1632527182288183E-002  0.13407171545064395        0.0000000000000000     
   2.2105709338726201E-002  0.14154568882650362        0.0000000000000000     
   2.2543188137344933E-002  0.14913119169483330        0.0000000000000000     
   2.2944963578144385E-002  0.15682822405563296        0.0000000000000000     
   2.3311035661124559E-002  0.16463678590890260        0.0000000000000000     
   0.0000000000000000        0.0000000000000000        0.0000000000000000     
   8.4168162242234277E-004   1.1099561258557003E-003   0.0000000000000000     
   1.7021542378611487E-003   2.5980831235281202E-003   0.0000000000000000     
   2.5814178463164179E-003   4.4643809930172600E-003   0.0000000000000000     
   3.4794724477881503E-003   6.7088497343231199E-003   0.0000000000000000     
   0.0000000000000000        0.0000000000000000        0.0000000000000000     
   6.3384518083874476E-004   1.0939346429271841E-003   0.0000000000000000     
   1.2780804905959779E-003   2.5619943500886574E-003   0.0000000000000000     
   1.9327059292717000E-003   4.4041791214844200E-003   0.0000000000000000     
   2.5977214968659103E-003   6.6204889571144718E-003   0.0000000000000000     
   0.0000000000000000        0.0000000000000000        0.0000000000000000     
   4.2428609657342239E-004   1.0824907265498615E-003   0.0000000000000000     
   8.5303020186320514E-004   2.5362166547751039E-003   0.0000000000000000     
   1.2862323158693483E-003   4.3611777846757262E-003   0.0000000000000000     
   1.7238924385918517E-003   6.5573741162517282E-003   0.0000000000000000     
   0.0000000000000000        0.0000000000000000        0.0000000000000000     
   2.1300436962637541E-004   1.0756243767237330E-003   0.0000000000000000     
   4.2700337166282971E-004   2.5207500375874587E-003   0.0000000000000000     
   6.4199700610936285E-004   4.3353769825911770E-003   0.0000000000000000     
   8.5798527296597493E-004   6.5195052117348893E-003   0.0000000000000000     
   0.0000000000000000        0.0000000000000000        0.0000000000000000     
  -2.3958428557041556E-015   1.0733355934487983E-003   0.0000000000000000     
  -5.1479003351784236E-015   2.5155944985257236E-003   0.0000000000000000     
  -8.2560911232598677E-015   4.3267767152307757E-003   0.0000000000000000     
  -1.1720577850274361E-014   6.5068822435639558E-003   0.0000000000000000     
   3.4794724477881503E-003   6.7088497343231199E-003   0.0000000000000000     
   4.3880508745884608E-003   9.2941298649245382E-003   0.0000000000000000     
   5.2988859590294641E-003   1.2182861902300357E-002   0.0000000000000000     
   6.2119777011111592E-003   1.5375045846450571E-002   0.0000000000000000     
   7.1273261008335488E-003   1.8870681697375186E-002   0.0000000000000000     
   2.5977214968659103E-003   6.6204889571144718E-003   0.0000000000000000     
   3.2701608040017587E-003   9.1779234186856896E-003   0.0000000000000000     
   3.9470574613023942E-003   1.2043482067904943E-002   0.0000000000000000     
   4.6284114687678195E-003   1.5217164904772240E-002   0.0000000000000000     
   5.3142228263980294E-003   1.8698971929287572E-002   0.0000000000000000     
   1.7238924385918517E-003   6.5573741162517282E-003   0.0000000000000000     
   2.1661889680388508E-003   9.0949188142300241E-003   0.0000000000000000     
   2.6133003022184814E-003   1.1943925043337529E-002   0.0000000000000000     
   3.0652264411307425E-003   1.5104392803574240E-002   0.0000000000000000     
   3.5219673847756349E-003   1.8576322094940156E-002   0.0000000000000000     
   8.5798527296597493E-004   6.5195052117348893E-003   0.0000000000000000     
   1.0761353666997376E-003   9.0451160515575488E-003   0.0000000000000000     
   1.2976144817777235E-003   1.1884190828598108E-002   0.0000000000000000     
   1.5224226181999325E-003   1.5036729542856573E-002   0.0000000000000000     
   1.7505597759663637E-003   1.8502732194332933E-002   0.0000000000000000     
  -1.1720577850274361E-014   6.5068822435639558E-003   0.0000000000000000     
  -1.5581421786495242E-014   9.0285151306682600E-003   0.0000000000000000     
  -1.9878907818893926E-014   1.1864279423686687E-002   0.0000000000000000     
  -2.4612814024838232E-014   1.5014175122619237E-002   0.0000000000000000     
  -2.9783358938828552E-014   1.8478202227465906E-002   0.0000000000000000     
   7.1273261008335488E-003   1.8870681697375186E-002   0.0000000000000000     
   8.0384197016615134E-003   2.2643956777799949E-002   0.0000000000000000     
   8.9387470470599379E-003   2.6669058410450606E-002   0.0000000000000000     
   9.8283081370288215E-003   3.0945986595327161E-002   0.0000000000000000     
   1.0707102971568162E-002   3.5474741332429616E-002   0.0000000000000000     
   5.3142228263980294E-003   1.8698971929287572E-002   0.0000000000000000     
   5.9976193370533133E-003   2.2461630612577294E-002   0.0000000000000000     
   6.6717288035939510E-003   2.6477868425767746E-002   0.0000000000000000     
   7.3365512260199443E-003   3.0747685368858930E-002   0.0000000000000000     
   7.9920866043312940E-003   3.5271081441850843E-002   0.0000000000000000     
   3.5219673847756349E-003   1.8576322094940156E-002   0.0000000000000000     
   3.9776159319011304E-003   2.2331397637419158E-002   0.0000000000000000     
   4.4262648812552026E-003   2.6341304150995126E-002   0.0000000000000000     
   4.8679142328378498E-003   3.0606041635668060E-002   0.0000000000000000     
   5.3025639866490738E-003   3.5125610091437963E-002   0.0000000000000000     
   1.7505597759663637E-003   1.8502732194332933E-002   0.0000000000000000     
   1.9784094862049673E-003   2.2253257852325545E-002   0.0000000000000000     
   2.2023552800436918E-003   2.6259365586132757E-002   0.0000000000000000     
   2.4223971574825376E-003   3.0521055395754552E-002   0.0000000000000000     
   2.6385351185215043E-003   3.5038327281190960E-002   0.0000000000000000     
  -2.9783358938828552E-014   1.8478202227465906E-002   0.0000000000000000     
  -3.5176939486292191E-014   2.2227211257296452E-002   0.0000000000000000     
  -4.0580359168471136E-014   2.6232052731180625E-002   0.0000000000000000     
  -4.5993204633287127E-014   3.0492726649118420E-002   0.0000000000000000     
  -5.1416336466214574E-014   3.5009233011109843E-002   0.0000000000000000     
   1.0707102971568162E-002   3.5474741332429616E-002   0.0000000000000000     
   1.1569138270848180E-002   4.0234899221854907E-002   0.0000000000000000     
   1.2408420755039090E-002   4.5206036863699998E-002   0.0000000000000000     
   1.3224950424140895E-002   5.0388154257964869E-002   0.0000000000000000     
   1.4018727278153596E-002   5.5781251404649519E-002   0.0000000000000000     
   7.9920866043312940E-003   3.5271081441850843E-002   0.0000000000000000     
   8.6351957124739427E-003   4.0028008830451718E-002   0.0000000000000000     
   9.2627393243938372E-003   4.4998419720369769E-002   0.0000000000000000     
   9.8747174400909774E-003   5.0182314111604988E-002   0.0000000000000000     
   1.0471130059565363E-002   5.5579692004157390E-002   0.0000000000000000     
   5.3025639866490738E-003   3.5125610091437963E-002   0.0000000000000000     
   5.7290251478649161E-003   3.9880229979449809E-002   0.0000000000000000     
   6.1461087216614207E-003   4.4850121760848558E-002   0.0000000000000000     
   6.5538147080385859E-003   5.0035285435634243E-002   0.0000000000000000     
   6.9521431069964126E-003   5.5435721003806837E-002   0.0000000000000000     
   2.6385351185215043E-003   3.5038327281190960E-002   0.0000000000000000     
   2.8506265770211021E-003   3.9791562668849159E-002   0.0000000000000000     
   3.0585289468418415E-003   4.4761142985136379E-002   0.0000000000000000     
   3.2622422279837224E-003   4.9947068230052606E-002   0.0000000000000000     
   3.4617664204467458E-003   5.5349338403597868E-002   0.0000000000000000     
  -5.1416336466214574E-014   3.5009233011109843E-002   0.0000000000000000     
  -5.7500120116682485E-014   3.9762006898649810E-002   0.0000000000000000     
  -6.4900016784330550E-014   4.4731483393233226E-002   0.0000000000000000     
  -7.3611608345305890E-014   4.9917662494860120E-002   0.0000000000000000     
  -8.3639258713352760E-014   5.5320544203530449E-002   0.0000000000000000     
   1.4018727278153596E-002   5.5781251404649519E-002   0.0000000000000000     
   1.4789744982226552E-002   6.1372567738671446E-002   0.0000000000000000     
   1.5537997201509128E-002   6.7149342694948086E-002   0.0000000000000000     
   1.6263483936001331E-002   7.3111576273479500E-002   0.0000000000000000     
   1.6966205185703159E-002   7.9259268474265607E-002   0.0000000000000000     
   1.0471130059565363E-002   5.5579692004157390E-002   0.0000000000000000     
   1.1051015742134488E-002   6.1176579472223658E-002   0.0000000000000000     
   1.1613413047115856E-002   6.6959002590000483E-002   0.0000000000000000     
   1.2158321974509459E-002   7.2926961357487843E-002   0.0000000000000000     
   1.2685742524315303E-002   7.9080455774685754E-002   0.0000000000000000     
   6.9521431069964126E-003   5.5435721003806837E-002   0.0000000000000000     
   7.3398151650500721E-003   6.1036587853333893E-002   0.0000000000000000     
   7.7155521287147356E-003   6.6823045372182949E-002   0.0000000000000000     
   8.0793539979904030E-003   7.2795093560354004E-002   0.0000000000000000     
   8.4312207728770711E-003   7.8952732417847032E-002   0.0000000000000000     
   3.4617664204467458E-003   5.5349338403597868E-002   0.0000000000000000     
   3.6561432509732992E-003   6.0952592882002138E-002   0.0000000000000000     
   3.8444144463057697E-003   6.6741471041495512E-002   0.0000000000000000     
   4.0265800064441604E-003   7.2715972882077928E-002   0.0000000000000000     
   4.2026399313884674E-003   7.8876098403749442E-002   0.0000000000000000     
  -8.3639258713352760E-014   5.5320544203530449E-002   0.0000000000000000     
  -9.5831762664255749E-014   6.0924594558228407E-002   0.0000000000000000     
  -1.1104149284096865E-013   6.6714279597938145E-002   0.0000000000000000     
  -1.2926793424745953E-013   7.2689599322659670E-002   0.0000000000000000     
  -1.5051198135052068E-013   7.8850553732392969E-002   0.0000000000000000     
   1.6966205185703159E-002   7.9259268474265607E-002   0.0000000000000000     
   1.7643050670573854E-002   8.5578861881355606E-002   0.0000000000000000     
   1.8290910110572666E-002   9.2056799078798601E-002   0.0000000000000000     
   1.8909783505699600E-002   9.8693080066594593E-002   0.0000000000000000     
   1.9499670855954651E-002  0.10548770484474360        0.0000000000000000     
   1.2685742524315303E-002   7.9080455774685754E-002   0.0000000000000000     
   1.3193475291496115E-002   8.5406172970380639E-002   0.0000000000000000     
   1.3679320871014628E-002   9.1890800073358897E-002   0.0000000000000000     
   1.4143279262870847E-002   9.8534337083620499E-002   0.0000000000000000     
   1.4585350467064766E-002  0.10533678400116551        0.0000000000000000     
   8.4312207728770711E-003   7.8952732417847032E-002   0.0000000000000000     
   8.7697750533456981E-003   8.5282823748260281E-002   0.0000000000000000     
   9.0936394393672376E-003   9.1772229355191914E-002   0.0000000000000000     
   9.4028139309416860E-003   9.8420949238641919E-002   0.0000000000000000     
   9.6972985280690451E-003  0.10522898339861031        0.0000000000000000     
   4.2026399313884674E-003   7.8876098403749442E-002   0.0000000000000000     
   4.3719499561226064E-003   8.5208814214994516E-002   0.0000000000000000     
   4.5338658156304900E-003   9.1701086924297640E-002   0.0000000000000000     
   4.6883875099121182E-003   9.8352916531658785E-002   0.0000000000000000     
   4.8355150389674901E-003  0.10516430303707799        0.0000000000000000     
  -1.5051198135052068E-013   7.8850553732392969E-002   0.0000000000000000     
  -1.7316291629765335E-013   8.5184144370583345E-002   0.0000000000000000     
  -1.9561143069918296E-013   9.1677372780676059E-002   0.0000000000000000     
  -2.1785700955907761E-013   9.8330238962671138E-002   0.0000000000000000     
  -2.3990054734412958E-013  0.10514274291656858        0.0000000000000000     
   1.9499670855954651E-002  0.10548770484474360        0.0000000000000000     
   2.0064520122214827E-002  0.11242955301260649        0.0000000000000000     
   2.0608279265357146E-002  0.11950750416954420        0.0000000000000000     
   2.1130948285381597E-002  0.12672155831555665        0.0000000000000000     
   2.1632527182288183E-002  0.13407171545064395        0.0000000000000000     
   1.4585350467064766E-002  0.10533678400116551        0.0000000000000000     
   1.5008970998771486E-002  0.11228666153682097        0.0000000000000000     
   1.5417577373166107E-002  0.11937249040141396        0.0000000000000000     
   1.5811169590248628E-002  0.12659427059494449        0.0000000000000000     
   1.6189747650019046E-002  0.13395200211741257        0.0000000000000000     
   9.6972985280690451E-003  0.10522898339861031        0.0000000000000000     
   9.9797012705445370E-003  0.11218459619697194        0.0000000000000000     
   1.0252630198163373E-002  0.11927605199560160        0.0000000000000000     
   1.0516085310925564E-002  0.12650335079449931        0.0000000000000000     
   1.0770066608831102E-002  0.13386649259366507        0.0000000000000000     
   4.8355150389674901E-003  0.10516430303707799        0.0000000000000000     
   4.9767109375339772E-003  0.11212335699305939        0.0000000000000000     
   5.1134377403489499E-003  0.11921818895210712        0.0000000000000000     
   5.2456954474124091E-003  0.12644879891422112        0.0000000000000000     
   5.3734840587243531E-003  0.13381518687940147        0.0000000000000000     
  -2.3990054734412958E-013  0.10514274291656858        0.0000000000000000     
  -2.6018813839567834E-013  0.11210294392508337        0.0000000000000000     
  -2.7716717809767033E-013  0.11919890127093048        0.0000000000000000     
  -2.9083723276923656E-013  0.12643061495410995        0.0000000000000000     
  -3.0120003713385302E-013  0.13379808497462173        0.0000000000000000     
   2.1632527182288183E-002  0.13407171545064395        0.0000000000000000     
   2.2105709338726201E-002  0.14154568882650362        0.0000000000000000     
   2.2543188137344933E-002  0.14913119169483330        0.0000000000000000     
   2.2944963578144385E-002  0.15682822405563296        0.0000000000000000     
   2.3311035661124559E-002  0.16463678590890260        0.0000000000000000     
   1.6189747650019046E-002  0.13395200211741257        0.0000000000000000     
   1.6545862635981675E-002  0.14143386074200995        0.0000000000000000     
   1.6872065631640829E-002  0.14902802224192838        0.0000000000000000     
   1.7168356636996507E-002  0.15673448661716785        0.0000000000000000     
   1.7434735652048707E-002  0.16455325386772846        0.0000000000000000     
   1.0770066608831102E-002  0.13386649259366507        0.0000000000000000     
   1.1008295511895588E-002  0.14135398353878761        0.0000000000000000     
   1.1224493440134618E-002  0.14895432977555567        0.0000000000000000     
   1.1418660393548195E-002  0.15666753130396924        0.0000000000000000     
   1.1590796372136317E-002  0.16449358812402837        0.0000000000000000     
   5.3734840587243531E-003  0.13381518687940147        0.0000000000000000     
   5.4930079664679329E-003  0.14130605721683664        0.0000000000000000     
   5.6004715628262995E-003  0.14891011429571513        0.0000000000000000     
   5.6958748477994505E-003  0.15662735811603706        0.0000000000000000     
   5.7792178213873883E-003  0.16445778867780231        0.0000000000000000     
  -3.0120003713385302E-013  0.13379808497462173        0.0000000000000000     
  -3.0128590594591387E-013  0.14129008177615698        0.0000000000000000     
  -2.8412699710350653E-013  0.14889537580240683        0.0000000000000000     
  -2.4972572295646478E-013  0.15661396705337130        0.0000000000000000     
  -1.9808026746614971E-013  0.16444585552905033        0.0000000000000000     
   0.0000000000000000        0.0000000000000000        0.0000000000000000     
  -2.3958428557041556E-015   1.0733355934487983E-003   0.0000000000000000     
  -5.1479003351784236E-015   2.5155944985257236E-003   0.0000000000000000     
  -8.2560911232598677E-015   4.3267767152307757E-003   0.0000000000000000     
  -1.1720577850274361E-014   6.5068822435639558E-003   0.0000000000000000     
   0.0000000000000000        0.0000000000000000        0.0000000000000000     
  -2.1300436963108541E-004   1.0756243767250282E-003   0.0000000000000000     
  -4.2700337167295767E-004   2.5207500375898483E-003   0.0000000000000000     
  -6.4199700612561656E-004   4.3353769825944608E-003   0.0000000000000000     
  -8.5798527298906236E-004   6.5195052117388644E-003   0.0000000000000000     
   0.0000000000000000        0.0000000000000000        0.0000000000000000     
  -4.2428609657788708E-004   1.0824907265523942E-003   0.0000000000000000     
  -8.5303020187282917E-004   2.5362166547797846E-003   0.0000000000000000     
  -1.2862323158848263E-003   4.3611777846821725E-003   0.0000000000000000     
  -1.7238924386138786E-003   6.5573741162595553E-003   0.0000000000000000     
   0.0000000000000000        0.0000000000000000        0.0000000000000000     
  -6.3384518084280076E-004   1.0939346429308958E-003   0.0000000000000000     
  -1.2780804906047628E-003   2.5619943500955330E-003   0.0000000000000000     
  -1.9327059292858855E-003   4.4041791214939115E-003   0.0000000000000000     
  -2.5977214968861688E-003   6.6204889571260328E-003   0.0000000000000000     
   0.0000000000000000        0.0000000000000000        0.0000000000000000     
  -8.4168162242582675E-004   1.1099561258605334E-003   0.0000000000000000     
  -1.7021542378687577E-003   2.5980831235370930E-003   0.0000000000000000     
  -2.5814178463287934E-003   4.4643809930296780E-003   0.0000000000000000     
  -3.4794724478059333E-003   6.7088497343382883E-003   0.0000000000000000     
  -1.1720577850274361E-014   6.5068822435639558E-003   0.0000000000000000     
  -1.5581421786495242E-014   9.0285151306682600E-003   0.0000000000000000     
  -1.9878907818893926E-014   1.1864279423686687E-002   0.0000000000000000     
  -2.4612814024838232E-014   1.5014175122619237E-002   0.0000000000000000     
  -2.9783358938828552E-014   1.8478202227465906E-002   0.0000000000000000     
  -8.5798527298906236E-004   6.5195052117388644E-003   0.0000000000000000     
  -1.0761353667304418E-003   9.0451160515620938E-003   0.0000000000000000     
  -1.2976144818169025E-003   1.1884190828603175E-002   0.0000000000000000     
  -1.5224226182484429E-003   1.5036729542862113E-002   0.0000000000000000     
  -1.7505597760250641E-003   1.8502732194338900E-002   0.0000000000000000     
  -1.7238924386138786E-003   6.5573741162595553E-003   0.0000000000000000     
  -2.1661889680681798E-003   9.0949188142389788E-003   0.0000000000000000     
  -2.6133003022559228E-003   1.1943925043347486E-002   0.0000000000000000     
  -3.0652264411771086E-003   1.5104392803585073E-002   0.0000000000000000     
  -3.5219673848317372E-003   1.8576322094951740E-002   0.0000000000000000     
  -2.5977214968861688E-003   6.6204889571260328E-003   0.0000000000000000     
  -3.2701608040287939E-003   9.1779234186989255E-003   0.0000000000000000     
  -3.9470574613369412E-003   1.2043482067919623E-002   0.0000000000000000     
  -4.6284114688106099E-003   1.5217164904788121E-002   0.0000000000000000     
  -5.3142228264498013E-003   1.8698971929304430E-002   0.0000000000000000     
  -3.4794724478059333E-003   6.7088497343382883E-003   0.0000000000000000     
  -4.3880508746122855E-003   9.2941298649419253E-003   0.0000000000000000     
  -5.2988859590599570E-003   1.2182861902319582E-002   0.0000000000000000     
  -6.2119777011489467E-003   1.5375045846471262E-002   0.0000000000000000     
  -7.1273261008792570E-003   1.8870681697396967E-002   0.0000000000000000     
  -2.9783358938828552E-014   1.8478202227465906E-002   0.0000000000000000     
  -3.5176939486292191E-014   2.2227211257296452E-002   0.0000000000000000     
  -4.0580359168471136E-014   2.6232052731180625E-002   0.0000000000000000     
  -4.5993204633287127E-014   3.0492726649118420E-002   0.0000000000000000     
  -5.1416336466214574E-014   3.5009233011109843E-002   0.0000000000000000     
  -1.7505597760250641E-003   1.8502732194338900E-002   0.0000000000000000     
  -1.9784094862743081E-003   2.2253257852331673E-002   0.0000000000000000     
  -2.2023552801237181E-003   2.6259365586138554E-002   0.0000000000000000     
  -2.4223971575732927E-003   3.0521055395759535E-002   0.0000000000000000     
  -2.6385351186230333E-003   3.5038327281194631E-002   0.0000000000000000     
  -3.5219673848317372E-003   1.8576322094951740E-002   0.0000000000000000     
  -3.9776159319674350E-003   2.2331397637431000E-002   0.0000000000000000     
  -4.4262648813318262E-003   2.6341304151006349E-002   0.0000000000000000     
  -4.8679142329249121E-003   3.0606041635677799E-002   0.0000000000000000     
  -5.3025639867466945E-003   3.5125610091445339E-002   0.0000000000000000     
  -5.3142228264498013E-003   1.8698971929304430E-002   0.0000000000000000     
  -5.9976193371145525E-003   2.2461630612594430E-002   0.0000000000000000     
  -6.6717288036649020E-003   2.6477868425784024E-002   0.0000000000000000     
  -7.3365512261008500E-003   3.0747685368873207E-002   0.0000000000000000     
  -7.9920866044223982E-003   3.5271081441861980E-002   0.0000000000000000     
  -7.1273261008792570E-003   1.8870681697396967E-002   0.0000000000000000     
  -8.0384197017156645E-003   2.2643956777821977E-002   0.0000000000000000     
  -8.9387470471229483E-003   2.6669058410471569E-002   0.0000000000000000     
  -9.8283081371011074E-003   3.0945986595345757E-002   0.0000000000000000     
  -1.0707102971650144E-002   3.5474741332444534E-002   0.0000000000000000     
  -5.1416336466214574E-014   3.5009233011109843E-002   0.0000000000000000     
  -5.7500120116682485E-014   3.9762006898649810E-002   0.0000000000000000     
  -6.4900016784330550E-014   4.4731483393233226E-002   0.0000000000000000     
  -7.3611608345305890E-014   4.9917662494860120E-002   0.0000000000000000     
  -8.3639258713352760E-014   5.5320544203530449E-002   0.0000000000000000     
  -2.6385351186230333E-003   3.5038327281194631E-002   0.0000000000000000     
  -2.8506265771346922E-003   3.9791562668851851E-002   0.0000000000000000     
  -3.0585289469700198E-003   4.4761142985139224E-002   0.0000000000000000     
  -3.2622422281290185E-003   4.9947068230056756E-002   0.0000000000000000     
  -3.4617664206116889E-003   5.5349338403604433E-002   0.0000000000000000     
  -5.3025639867466945E-003   3.5125610091445339E-002   0.0000000000000000     
  -5.7290251479742678E-003   3.9880229979455423E-002   0.0000000000000000     
  -6.1461087217847370E-003   4.4850121760854504E-002   0.0000000000000000     
  -6.5538147081780976E-003   5.0035285435642569E-002   0.0000000000000000     
  -6.9521431071543514E-003   5.5435721003819639E-002   0.0000000000000000     
  -7.9920866044223982E-003   3.5271081441861980E-002   0.0000000000000000     
  -8.6351957125762324E-003   4.0028008830460531E-002   0.0000000000000000     
  -9.2627393245090488E-003   4.4998419720379060E-002   0.0000000000000000     
  -9.8747174402208475E-003   5.0182314111617561E-002   0.0000000000000000     
  -1.0471130059711627E-002   5.5579692004176055E-002   0.0000000000000000     
  -1.0707102971650144E-002   3.5474741332444534E-002   0.0000000000000000     
  -1.1569138270940584E-002   4.0234899221867161E-002   0.0000000000000000     
  -1.2408420755142958E-002   4.5206036863712877E-002   0.0000000000000000     
  -1.3224950424257267E-002   5.0388154257981724E-002   0.0000000000000000     
  -1.4018727278283512E-002   5.5781251404673673E-002   0.0000000000000000     
  -8.3639258713352760E-014   5.5320544203530449E-002   0.0000000000000000     
  -9.5831762664255749E-014   6.0924594558228407E-002   0.0000000000000000     
  -1.1104149284096865E-013   6.6714279597938145E-002   0.0000000000000000     
  -1.2926793424745953E-013   7.2689599322659670E-002   0.0000000000000000     
  -1.5051198135052068E-013   7.8850553732392969E-002   0.0000000000000000     
  -3.4617664206116889E-003   5.5349338403604433E-002   0.0000000000000000     
  -3.6561432511620102E-003   6.0952592882012172E-002   0.0000000000000000     
  -3.8444144465239636E-003   6.6741471041509862E-002   0.0000000000000000     
  -4.0265800066975497E-003   7.2715972882097468E-002   0.0000000000000000     
  -4.2026399316827667E-003   7.8876098403775033E-002   0.0000000000000000     
  -6.9521431071543514E-003   5.5435721003819639E-002   0.0000000000000000     
  -7.3398151652299291E-003   6.1036587853352899E-002   0.0000000000000000     
  -7.7155521289212631E-003   6.6823045372209539E-002   0.0000000000000000     
  -8.0793539982283533E-003   7.2795093560389587E-002   0.0000000000000000     
  -8.4312207731511990E-003   7.8952732417892996E-002   0.0000000000000000     
  -1.0471130059711627E-002   5.5579692004176055E-002   0.0000000000000000     
  -1.1051015742299587E-002   6.1176579472250588E-002   0.0000000000000000     
  -1.1613413047302942E-002   6.6959002590037245E-002   0.0000000000000000     
  -1.2158321974721682E-002   7.2926961357536013E-002   0.0000000000000000     
  -1.2685742524555810E-002   7.9080455774746899E-002   0.0000000000000000     
  -1.4018727278283512E-002   5.5781251404673673E-002   0.0000000000000000     
  -1.4789744982370989E-002   6.1372567738705232E-002   0.0000000000000000     
  -1.5537997201668995E-002   6.7149342694992939E-002   0.0000000000000000     
  -1.6263483936177530E-002   7.3111576273536760E-002   0.0000000000000000     
  -1.6966205185896595E-002   7.9259268474336730E-002   0.0000000000000000     
  -1.5051198135052068E-013   7.8850553732392969E-002   0.0000000000000000     
  -1.7316291629765335E-013   8.5184144370583345E-002   0.0000000000000000     
  -1.9561143069918296E-013   9.1677372780676059E-002   0.0000000000000000     
  -2.1785700955907761E-013   9.8330238962671138E-002   0.0000000000000000     
  -2.3990054734412958E-013  0.10514274291656858        0.0000000000000000     
  -4.2026399316827667E-003   7.8876098403775033E-002   0.0000000000000000     
  -4.3719499564605158E-003   8.5208814215023562E-002   0.0000000000000000     
  -4.5338658160116955E-003   9.1701086924324104E-002   0.0000000000000000     
  -4.6883875103363075E-003   9.8352916531676646E-002   0.0000000000000000     
  -4.8355150394343476E-003  0.10516430303708120        0.0000000000000000     
  -8.4312207731511990E-003   7.8952732417892996E-002   0.0000000000000000     
  -8.7697750536583578E-003   8.5282823748311976E-002   0.0000000000000000     
  -9.0936394397183925E-003   9.1772229355238627E-002   0.0000000000000000     
  -9.4028139313312980E-003   9.8420949238672950E-002   0.0000000000000000     
  -9.6972985284970743E-003  0.10522898339861496        0.0000000000000000     
  -1.2685742524555810E-002   7.9080455774746899E-002   0.0000000000000000     
  -1.3193475291766692E-002   8.5406172970448557E-002   0.0000000000000000     
  -1.3679320871315698E-002   9.1890800073419612E-002   0.0000000000000000     
  -1.4143279263202826E-002   9.8534337083660065E-002   0.0000000000000000     
  -1.4585350467428079E-002  0.10533678400116994        0.0000000000000000     
  -1.6966205185896595E-002   7.9259268474336730E-002   0.0000000000000000     
  -1.7643050670785514E-002   8.5578861881433335E-002   0.0000000000000000     
  -1.8290910110803617E-002   9.2056799078867088E-002   0.0000000000000000     
  -1.8909783505950899E-002   9.8693080066638003E-002   0.0000000000000000     
  -1.9499670856227360E-002  0.10548770484474607        0.0000000000000000     
  -2.3990054734412958E-013  0.10514274291656858        0.0000000000000000     
  -2.6018813839567834E-013  0.11210294392508337        0.0000000000000000     
  -2.7716717809767033E-013  0.11919890127093048        0.0000000000000000     
  -2.9083723276923656E-013  0.12643061495410995        0.0000000000000000     
  -3.0120003713385302E-013  0.13379808497462173        0.0000000000000000     
  -4.8355150394343476E-003  0.10516430303708120        0.0000000000000000     
  -4.9767109380401842E-003  0.11212335699304474        0.0000000000000000     
  -5.1134377408881783E-003  0.11921818895207426        0.0000000000000000     
  -5.2456954479783297E-003  0.12644879891416974        0.0000000000000000     
  -5.3734840593106384E-003  0.13381518687933122        0.0000000000000000     
  -9.6972985284970743E-003  0.10522898339861496        0.0000000000000000     
  -9.9797012710082320E-003  0.11218459619694439        0.0000000000000000     
  -1.0252630198657280E-002  0.11927605199554088        0.0000000000000000     
  -1.0516085311444219E-002  0.12650335079440450        0.0000000000000000     
  -1.0770066609369045E-002  0.13386649259353520        0.0000000000000000     
  -1.4585350467428079E-002  0.10533678400116994        0.0000000000000000     
  -1.5008970999164335E-002  0.11228666153678234        0.0000000000000000     
  -1.5417577373584476E-002  0.11937249040133041        0.0000000000000000     
  -1.5811169590688505E-002  0.12659427059481418        0.0000000000000000     
  -1.6189747650476420E-002  0.13395200211723368        0.0000000000000000     
  -1.9499670856227360E-002  0.10548770484474607        0.0000000000000000     
  -2.0064520122508488E-002  0.11242955301255855        0.0000000000000000     
  -2.0608279265669761E-002  0.11950750416944282        0.0000000000000000     
  -2.1130948285711194E-002  0.12672155831539889        0.0000000000000000     
  -2.1632527182632762E-002  0.13407171545042668        0.0000000000000000     
  -3.0120003713385302E-013  0.13379808497462173        0.0000000000000000     
  -3.0128590594591387E-013  0.14129008177615698        0.0000000000000000     
  -2.8412699710350653E-013  0.14889537580240683        0.0000000000000000     
  -2.4972572295646478E-013  0.15661396705337130        0.0000000000000000     
  -1.9808026746614971E-013  0.16444585552905033        0.0000000000000000     
  -5.3734840593106384E-003  0.13381518687933122        0.0000000000000000     
  -5.4930079670553076E-003  0.14130605721675449        0.0000000000000000     
  -5.6004715633825352E-003  0.14891011429563542        0.0000000000000000     
  -5.6958748482923262E-003  0.15662735811597395        0.0000000000000000     
  -5.7792178217846782E-003  0.16445778867777011        0.0000000000000000     
  -1.0770066609369045E-002  0.13386649259353520        0.0000000000000000     
  -1.1008295512437372E-002  0.14135398353863490        0.0000000000000000     
  -1.1224493440654803E-002  0.14895432977540551        0.0000000000000000     
  -1.1418660394021344E-002  0.15666753130384706        0.0000000000000000     
  -1.1590796372536993E-002  0.16449358812395951        0.0000000000000000     
  -1.6189747650476420E-002  0.13395200211723368        0.0000000000000000     
  -1.6545862636447473E-002  0.14143386074179823        0.0000000000000000     
  -1.6872065632100929E-002  0.14902802224171718        0.0000000000000000     
  -1.7168356637436776E-002  0.15673448661699058        0.0000000000000000     
  -1.7434735652455024E-002  0.16455325386761843        0.0000000000000000     
  -2.1632527182632762E-002  0.13407171545042668        0.0000000000000000     
  -2.2105709339085625E-002  0.14154568882624446        0.0000000000000000     
  -2.2543188137720913E-002  0.14913119169457045        0.0000000000000000     
  -2.2944963578538629E-002  0.15682822405540459        0.0000000000000000     
  -2.3311035661538772E-002  0.16463678590874692        0.0000000000000000     
   0.0000000000000000        0.0000000000000000        0.0000000000000000     
  -8.4168162242582675E-004   1.1099561258605334E-003   0.0000000000000000     
  -1.7021542378687577E-003   2.5980831235370930E-003   0.0000000000000000     
  -2.5814178463287934E-003   4.4643809930296780E-003   0.0000000000000000     
  -3.4794724478059333E-003   6.7088497343382883E-003   0.0000000000000000     
   0.0000000000000000        0.0000000000000000        0.0000000000000000     
  -1.0567039829831217E-003   1.1341191442424596E-003   0.0000000000000000     
  -2.1397947180705756E-003   2.6503343787120247E-003   0.0000000000000000     
  -3.2492722052623632E-003   4.5486457034086963E-003   0.0000000000000000     
  -4.3851364445584816E-003   6.8290531183324722E-003   0.0000000000000000     
   0.0000000000000000        0.0000000000000000        0.0000000000000000     
  -1.2878208241708438E-003   1.1699876669778275E-003   0.0000000000000000     
  -2.6055452056159790E-003   2.7245995192278910E-003   0.0000000000000000     
  -3.9531731443354064E-003   4.6638355567501901E-003   0.0000000000000000     
  -5.3307046403291234E-003   6.9876957795447243E-003   0.0000000000000000     
   0.0000000000000000        0.0000000000000000        0.0000000000000000     
  -1.5350321459889930E-003   1.2175616940666371E-003   0.0000000000000000     
  -3.0994057005049665E-003   2.8208785450846902E-003   0.0000000000000000     
  -4.6931206635479217E-003   4.8099505530541610E-003   0.0000000000000000     
  -6.3161770351178575E-003   7.1847777179750456E-003   0.0000000000000000     
   0.0000000000000000        0.0000000000000000        0.0000000000000000     
  -1.7983379484375686E-003   1.2768412255088884E-003   0.0000000000000000     
  -3.6213762027375394E-003   2.9391714562824237E-003   0.0000000000000000     
  -5.4691147628999105E-003   4.9869906923206064E-003   0.0000000000000000     
  -7.3415536289246847E-003   7.4202989336234369E-003   0.0000000000000000     
  -3.4794724478059333E-003   6.7088497343382883E-003   0.0000000000000000     
  -4.3880508746122855E-003   9.2941298649419253E-003   0.0000000000000000     
  -5.2988859590599570E-003   1.2182861902319582E-002   0.0000000000000000     
  -6.2119777011489467E-003   1.5375045846471262E-002   0.0000000000000000     
  -7.1273261008792570E-003   1.8870681697396967E-002   0.0000000000000000     
  -4.3851364445584816E-003   6.8290531183324722E-003   0.0000000000000000     
  -5.5343727552614888E-003   9.4495186364679188E-003   0.0000000000000000     
  -6.6839664566739404E-003   1.2368004270799598E-002   0.0000000000000000     
  -7.8339175487958379E-003   1.5584510021327512E-002   0.0000000000000000     
  -8.9842260316271780E-003   1.9099035888051657E-002   0.0000000000000000     
  -5.3307046403291234E-003   6.9876957795447243E-003   0.0000000000000000     
  -6.7236400214192400E-003   9.6500702167768449E-003   0.0000000000000000     
  -8.1174796154278653E-003   1.2604848897611898E-002   0.0000000000000000     
  -9.5122234223549967E-003   1.5852031822049893E-002   0.0000000000000000     
  -1.0907871442200633E-002   1.9391618990090814E-002   0.0000000000000000     
  -6.3161770351178575E-003   7.1847777179750456E-003   0.0000000000000000     
  -7.9558526730855398E-003   9.8957846058687054E-003   0.0000000000000000     
  -9.5994254353217283E-003   1.2893395782756492E-002   0.0000000000000000     
  -1.1246895321826425E-002   1.6177611248638403E-002   0.0000000000000000     
  -1.2898262332599627E-002   1.9748431003514446E-002   0.0000000000000000     
  -7.3415536289246847E-003   7.4202989336234369E-003   0.0000000000000000     
  -9.2310107102603831E-003   1.0186661803743497E-002   0.0000000000000000     
  -1.1129803916355527E-002   1.3233644926233365E-002   0.0000000000000000     
  -1.3037933247210120E-002   1.6561248301093047E-002   0.0000000000000000     
  -1.4955398702824158E-002   2.0169471928322538E-002   0.0000000000000000     
  -7.1273261008792570E-003   1.8870681697396967E-002   0.0000000000000000     
  -8.0384197017156645E-003   2.2643956777821977E-002   0.0000000000000000     
  -8.9387470471229483E-003   2.6669058410471569E-002   0.0000000000000000     
  -9.8283081371011074E-003   3.0945986595345757E-002   0.0000000000000000     
  -1.0707102971650144E-002   3.5474741332444534E-002   0.0000000000000000     
  -8.9842260316271780E-003   1.9099035888051657E-002   0.0000000000000000     
  -1.0127976437115025E-002   2.2886850742195913E-002   0.0000000000000000     
  -1.1258253297206446E-002   2.6923223454984161E-002   0.0000000000000000     
  -1.2375056611901436E-002   3.1208154026416406E-002   0.0000000000000000     
  -1.3478386381200002E-002   3.5741642456492646E-002   0.0000000000000000     
  -1.0907871442200633E-002   1.9391618990090814E-002   0.0000000000000000     
  -1.2294248954656891E-002   2.3198787114798555E-002   0.0000000000000000     
  -1.3661181239415879E-002   2.7248712909236986E-002   0.0000000000000000     
  -1.5008668296477595E-002   3.1541396373406111E-002   0.0000000000000000     
  -1.6336710125842039E-002   3.6076837507305920E-002   0.0000000000000000     
  -1.2898262332599627E-002   1.9748431003514446E-002   0.0000000000000000     
  -1.4537237254341261E-002   2.3579765895629892E-002   0.0000000000000000     
  -1.6147530873751245E-002   2.7645526773230032E-002   0.0000000000000000     
  -1.7729143190829581E-002   3.1945713636314856E-002   0.0000000000000000     
  -1.9282074205576257E-002   3.6480326484884390E-002   0.0000000000000000     
  -1.4955398702824158E-002   2.0169471928322538E-002   0.0000000000000000     
  -1.6856941336168135E-002   2.4029787084689933E-002   0.0000000000000000     
  -1.8717302200212546E-002   2.8113665046963304E-002   0.0000000000000000     
  -2.0536481294957391E-002   3.2421105815142674E-002   0.0000000000000000     
  -2.2314478620402662E-002   3.6952109389228022E-002   0.0000000000000000     
  -1.0707102971650144E-002   3.5474741332444534E-002   0.0000000000000000     
  -1.1569138270940584E-002   4.0234899221867161E-002   0.0000000000000000     
  -1.2408420755142958E-002   4.5206036863712877E-002   0.0000000000000000     
  -1.3224950424257267E-002   5.0388154257981724E-002   0.0000000000000000     
  -1.4018727278283512E-002   5.5781251404673673E-002   0.0000000000000000     
  -1.3478386381200002E-002   3.5741642456492646E-002   0.0000000000000000     
  -1.4559951536278823E-002   4.0503669517485838E-002   0.0000000000000000     
  -1.5611461008314596E-002   4.5474215981668994E-002   0.0000000000000000     
  -1.6632914797307309E-002   5.0653281849042088E-002   0.0000000000000000     
  -1.7624312903256969E-002   5.6040867119605146E-002   0.0000000000000000     
  -1.6336710125842039E-002   3.6076837507305920E-002   0.0000000000000000     
  -1.7636734221802456E-002   4.0837088081127119E-002   0.0000000000000000     
  -1.8900168078652080E-002   4.5804199865060388E-002   0.0000000000000000     
  -2.0127011696390917E-002   5.0978172859105705E-002   0.0000000000000000     
  -2.1317265075018948E-002   5.6359007063263113E-002   0.0000000000000000     
  -1.9282074205576257E-002   3.6480326484884390E-002   0.0000000000000000     
  -2.0799486327511482E-002   4.1235154912790985E-002   0.0000000000000000     
  -2.2274541966155414E-002   4.6195988513887051E-002   0.0000000000000000     
  -2.3707241121508075E-002   5.1362827288172576E-002   0.0000000000000000     
  -2.5097583793569456E-002   5.6735671235647579E-002   0.0000000000000000     
  -2.2314478620402662E-002   3.6952109389228022E-002   0.0000000000000000     
  -2.4048207853405893E-002   4.1697870012477441E-002   0.0000000000000000     
  -2.5734582670824610E-002   4.6649581928148991E-002   0.0000000000000000     
  -2.7373603072658809E-002   5.1807245136242699E-002   0.0000000000000000     
  -2.8965269058908491E-002   5.7170859636758532E-002   0.0000000000000000     
  -1.4018727278283512E-002   5.5781251404673673E-002   0.0000000000000000     
  -1.4789744982370989E-002   6.1372567738705232E-002   0.0000000000000000     
  -1.5537997201668995E-002   6.7149342694992939E-002   0.0000000000000000     
  -1.6263483936177530E-002   7.3111576273536760E-002   0.0000000000000000     
  -1.6966205185896595E-002   7.9259268474336730E-002   0.0000000000000000     
  -1.7624312903256969E-002   5.6040867119605146E-002   0.0000000000000000     
  -1.8586618309451311E-002   6.1625297300069749E-002   0.0000000000000000     
  -1.9520793999178068E-002   6.7394897897147532E-002   0.0000000000000000     
  -2.0426839972437251E-002   7.3349668910838453E-002   0.0000000000000000     
  -2.1304756229228845E-002   7.9489610341142533E-002   0.0000000000000000     
  -2.1317265075018948E-002   5.6359007063263113E-002   0.0000000000000000     
  -2.2472251147547737E-002   6.1935512803697024E-002   0.0000000000000000     
  -2.3593292846988821E-002   6.7696500406571866E-002   0.0000000000000000     
  -2.4680390173342195E-002   7.3641969871887661E-002   0.0000000000000000     
  -2.5733543126607857E-002   7.9771921199644394E-002   0.0000000000000000     
  -2.5097583793569456E-002   5.6735671235647579E-002   0.0000000000000000     
  -2.6446643496660274E-002   6.2303214249587027E-002   0.0000000000000000     
  -2.7755493745101237E-002   6.8054150223265969E-002   0.0000000000000000     
  -2.9024134538892358E-002   7.3988479156684384E-002   0.0000000000000000     
  -3.0252565878033634E-002   8.0106201049842285E-002   0.0000000000000000     
  -2.8965269058908491E-002   5.7170859636758532E-002   0.0000000000000000     
  -3.0509795356788914E-002   6.2728401637739808E-002   0.0000000000000000     
  -3.2007396693515329E-002   6.8467847347229868E-002   0.0000000000000000     
  -3.3458073069087740E-002   7.4389196765228663E-002   0.0000000000000000     
  -3.4861824483506158E-002   8.0492449891736220E-002   0.0000000000000000     
  -1.6966205185896595E-002   7.9259268474336730E-002   0.0000000000000000     
  -1.7643050670785514E-002   8.5578861881433335E-002   0.0000000000000000     
  -1.8290910110803617E-002   9.2056799078867088E-002   0.0000000000000000     
  -1.8909783505950899E-002   9.8693080066638003E-002   0.0000000000000000     
  -1.9499670856227360E-002  0.10548770484474607        0.0000000000000000     
  -2.1304756229228845E-002   7.9489610341142533E-002   0.0000000000000000     
  -2.2150618595535760E-002   8.5801041446272930E-002   0.0000000000000000     
  -2.2960502897340897E-002   9.2270281484442676E-002   0.0000000000000000     
  -2.3734409134644242E-002   9.8897330455651841E-002   0.0000000000000000     
  -2.4472337307445816E-002  0.10568218835990040        0.0000000000000000     
  -2.5733543126607857E-002   7.9771921199644394E-002   0.0000000000000000     
  -2.6748296470838373E-002   8.6072862629973879E-002   0.0000000000000000     
  -2.7720194970086289E-002   9.2531302403007998E-002   0.0000000000000000     
  -2.8649238624351609E-002   9.9147240518746710E-002   0.0000000000000000     
  -2.9535427433634336E-002  0.10592067697719000        0.0000000000000000     
  -3.0252565878033634E-002   8.0106201049842285E-002   0.0000000000000000     
  -3.1436084296693347E-002   8.6394325432536320E-002   0.0000000000000000     
  -3.2569986329039798E-002   9.2839861834563067E-002   0.0000000000000000     
  -3.3654271975072980E-002   9.9442810255922595E-002   0.0000000000000000     
  -3.4688941234792915E-002  0.10620317069661489        0.0000000000000000     
  -3.4861824483506158E-002   8.0492449891736220E-002   0.0000000000000000     
  -3.6213982073100677E-002   8.6765429853960102E-002   0.0000000000000000     
  -3.7509876974201412E-002   9.3195959779107870E-002   0.0000000000000000     
  -3.8749509186808376E-002   9.9784039667179511E-002   0.0000000000000000     
  -3.9932878710921556E-002  0.10652966951817504        0.0000000000000000     
  -1.9499670856227360E-002  0.10548770484474607        0.0000000000000000     
  -2.0064520122508488E-002  0.11242955301255855        0.0000000000000000     
  -2.0608279265669761E-002  0.11950750416944282        0.0000000000000000     
  -2.1130948285711194E-002  0.12672155831539889        0.0000000000000000     
  -2.1632527182632762E-002  0.13407171545042668        0.0000000000000000     
  -2.4472337307445816E-002  0.10568218835990040        0.0000000000000000     
  -2.5178743762697971E-002  0.11261403869992224        0.0000000000000000     
  -2.5858084847353080E-002  0.11968206497845128        0.0000000000000000     
  -2.6510360561411140E-002  0.12688626719548757        0.0000000000000000     
  -2.7135570904872147E-002  0.13422664535103096        0.0000000000000000     
  -2.9535427433634336E-002  0.10592067697719000        0.0000000000000000     
  -3.0384037041390047E-002  0.11284088667452255        0.0000000000000000     
  -3.1200343091074337E-002  0.11989714450692894        0.0000000000000000     
  -3.1984345582687201E-002  0.12708945047440923        0.0000000000000000     
  -3.2736044516228649E-002  0.13441780457696337        0.0000000000000000     
  -3.4688941234792915E-002  0.10620317069661489        0.0000000000000000     
  -3.5680399958584727E-002  0.11311009693635946        0.0000000000000000     
  -3.6635053996833547E-002  0.12015274275487579        0.0000000000000000     
  -3.7552903349539403E-002  0.12733110815216392        0.0000000000000000     
  -3.8433948016702267E-002  0.13464519312822384        0.0000000000000000     
  -3.9932878710921556E-002  0.10652966951817504        0.0000000000000000     
  -4.1067832514281991E-002  0.11342166948543297        0.0000000000000000     
  -4.2162217564630712E-002  0.12044885972229183        0.0000000000000000     
  -4.3216033861967713E-002  0.12761124022875167        0.0000000000000000     
  -4.4229281406293008E-002  0.13490881100481242        0.0000000000000000     
  -2.1632527182632762E-002  0.13407171545042668        0.0000000000000000     
  -2.2105709339085625E-002  0.14154568882624446        0.0000000000000000     
  -2.2543188137720913E-002  0.14913119169457045        0.0000000000000000     
  -2.2944963578538629E-002  0.15682822405540459        0.0000000000000000     
  -2.3311035661538772E-002  0.16463678590874692        0.0000000000000000     
  -2.7135570904872147E-002  0.13422664535103096        0.0000000000000000     
  -2.7726547259014897E-002  0.14169049020455859        0.0000000000000000     
  -2.8276121005118181E-002  0.14926509251554729        0.0000000000000000     
  -2.8784292143181983E-002  0.15695045228399718        0.0000000000000000     
  -2.9251060673206316E-002  0.16474656950990815        0.0000000000000000     
  -3.2736044516228649E-002  0.13441780457696337        0.0000000000000000     
  -3.3447088034898396E-002  0.14186928728932552        0.0000000000000000     
  -3.4109124281896157E-002  0.14943097908622990        0.0000000000000000     
  -3.4722153257221937E-002  0.15710287996767650        0.0000000000000000     
  -3.5286174960875730E-002  0.16488498993366527        0.0000000000000000     
  -3.8433948016702267E-002  0.13464519312822384        0.0000000000000000     
  -3.9267331666736106E-002  0.14208208008054538        0.0000000000000000     
  -4.0042197968054839E-002  0.14962885140661830        0.0000000000000000     
  -4.0758546920658480E-002  0.15728550710644260        0.0000000000000000     
  -4.1416378524547021E-002  0.16505204718001826        0.0000000000000000     
  -4.4229281406293008E-002  0.13490881100481242        0.0000000000000000     
  -4.5187278154528027E-002  0.14232886857821803        0.0000000000000000     
  -4.6075342063594225E-002  0.14985870947671234        0.0000000000000000     
  -4.6893473133491619E-002  0.15749833370029537        0.0000000000000000     
  -4.7641671364220171E-002  0.16524774124896710        0.0000000000000000     
   0.0000000000000000        0.0000000000000000        0.0000000000000000     
  -1.7983379484375686E-003   1.2768412255088884E-003   0.0000000000000000     
  -3.6213762027375394E-003   2.9391714562824237E-003   0.0000000000000000     
  -5.4691147628999105E-003   4.9869906923206064E-003   0.0000000000000000     
  -7.3415536289246847E-003   7.4202989336234369E-003   0.0000000000000000     
   0.0000000000000000        0.0000000000000000        0.0000000000000000     
  -2.0694609753533722E-003   1.3549420073805565E-003   0.0000000000000000     
  -4.1641001401030650E-003   3.0939917839807886E-003   0.0000000000000000     
  -6.2839174942490791E-003   5.2171493298006954E-003   0.0000000000000000     
  -8.4289130377914155E-003   7.7244146448402799E-003   0.0000000000000000     
   0.0000000000000000        0.0000000000000000        0.0000000000000000     
  -2.3401239705732046E-003   1.4589797857576174E-003   0.0000000000000000     
  -4.7202209403909151E-003   3.2998530593394827E-003   0.0000000000000000     
  -7.1402909094531340E-003   5.5226198207455959E-003   0.0000000000000000     
  -9.6003338777598569E-003   8.1272800699759562E-003   0.0000000000000000     
   0.0000000000000000        0.0000000000000000        0.0000000000000000     
  -2.6103269340970662E-003   1.5889545606400711E-003   0.0000000000000000     
  -5.2897386036010914E-003   3.5567552823585064E-003   0.0000000000000000     
  -8.0382350085120725E-003   5.9034021651553064E-003   0.0000000000000000     
  -1.0855816148830015E-002   8.6288952090304676E-003   0.0000000000000000     
   0.0000000000000000        0.0000000000000000        0.0000000000000000     
  -2.8800698659249575E-003   1.7448663320279176E-003   0.0000000000000000     
  -5.8726531297335904E-003   3.8646984530378591E-003   0.0000000000000000     
  -8.9777497914258989E-003   6.3594963630298242E-003   0.0000000000000000     
  -1.2195359851001883E-002   9.2292600620038148E-003   0.0000000000000000     
  -7.3415536289246847E-003   7.4202989336234369E-003   0.0000000000000000     
  -9.2310107102603831E-003   1.0186661803743497E-002   0.0000000000000000     
  -1.1129803916355527E-002   1.3233644926233365E-002   0.0000000000000000     
  -1.3037933247210120E-002   1.6561248301093047E-002   0.0000000000000000     
  -1.4955398702824158E-002   2.0169471928322538E-002   0.0000000000000000     
  -8.4289130377914155E-003   7.7244146448402799E-003   0.0000000000000000     
  -1.0590778882546800E-002   1.0558332754119921E-002   0.0000000000000000     
  -1.2761207140331968E-002   1.3661448682660005E-002   0.0000000000000000     
  -1.4940197811146914E-002   1.7033762430460536E-002   0.0000000000000000     
  -1.7127750894991640E-002   2.0675273997521511E-002   0.0000000000000000     
  -9.6003338777598569E-003   8.1272800699759562E-003   0.0000000000000000     
  -1.2076821939547818E-002   1.1046428400716683E-002   0.0000000000000000     
  -1.4546227189053745E-002   1.4212659406653890E-002   0.0000000000000000     
  -1.7008549626277635E-002   1.7625973087787586E-002   0.0000000000000000     
  -1.9463789251219495E-002   2.1286369444117766E-002   0.0000000000000000     
  -1.0855816148830015E-002   8.6288952090304676E-003   0.0000000000000000     
  -1.3689139881263433E-002   1.1650948743533779E-002   0.0000000000000000     
  -1.6484864062520862E-002   1.4887277098215024E-002   0.0000000000000000     
  -1.9242988692602284E-002   1.8337880273074203E-002   0.0000000000000000     
  -2.1963513771507719E-002   2.2002758268111305E-002   0.0000000000000000     
  -1.2195359851001883E-002   9.2292600620038148E-003   0.0000000000000000     
  -1.5427732707693650E-002   1.2371893782571213E-002   0.0000000000000000     
  -1.8577117760733310E-002   1.5685301757343392E-002   0.0000000000000000     
  -2.1643515010120861E-002   1.9169483986320370E-002   0.0000000000000000     
  -2.4626924455856309E-002   2.2824440469502130E-002   0.0000000000000000     
  -1.4955398702824158E-002   2.0169471928322538E-002   0.0000000000000000     
  -1.6856941336168135E-002   2.4029787084689933E-002   0.0000000000000000     
  -1.8717302200212546E-002   2.8113665046963304E-002   0.0000000000000000     
  -2.0536481294957391E-002   3.2421105815142674E-002   0.0000000000000000     
  -2.2314478620402662E-002   3.6952109389228022E-002   0.0000000000000000     
  -1.7127750894991640E-002   2.0675273997521511E-002   0.0000000000000000     
  -1.9292656990009361E-002   2.4558392111992816E-002   0.0000000000000000     
  -2.1403706694343258E-002   2.8655525502024347E-002   0.0000000000000000     
  -2.3460900007993359E-002   3.2966674167616103E-002   0.0000000000000000     
  -2.5464236930959644E-002   3.7491838108768070E-002   0.0000000000000000     
  -1.9463789251219495E-002   2.1286369444117766E-002   0.0000000000000000     
  -2.1883680005736754E-002   2.5175122407552705E-002   0.0000000000000000     
  -2.4239955831686862E-002   2.9273505910000684E-002   0.0000000000000000     
  -2.6532616729069806E-002   3.3581519951461698E-002   0.0000000000000000     
  -2.8761662697885600E-002   3.8099164531935757E-002   0.0000000000000000     
  -2.1963513771507719E-002   2.2002758268111305E-002   0.0000000000000000     
  -2.4630010383350345E-002   2.5879977971369594E-002   0.0000000000000000     
  -2.7226049612243352E-002   2.9967606270892327E-002   0.0000000000000000     
  -2.9751631458186750E-002   3.4265643166679488E-002   0.0000000000000000     
  -3.2206755921180517E-002   3.8774088658731096E-002   0.0000000000000000     
  -2.4626924455856309E-002   2.2824440469502130E-002   0.0000000000000000     
  -2.7531648122850107E-002   2.6672958803443492E-002   0.0000000000000000     
  -3.0361988036012724E-002   3.0737826584699268E-002   0.0000000000000000     
  -3.3117944195344168E-002   3.5019043813269458E-002   0.0000000000000000     
  -3.5799516600844419E-002   3.9516610489154058E-002   0.0000000000000000     
  -2.2314478620402662E-002   3.6952109389228022E-002   0.0000000000000000     
  -2.4048207853405893E-002   4.1697870012477441E-002   0.0000000000000000     
  -2.5734582670824610E-002   4.6649581928148991E-002   0.0000000000000000     
  -2.7373603072658809E-002   5.1807245136242699E-002   0.0000000000000000     
  -2.8965269058908491E-002   5.7170859636758532E-002   0.0000000000000000     
  -2.5464236930959644E-002   3.7491838108768070E-002   0.0000000000000000     
  -2.7414354466092972E-002   4.2226841388057268E-002   0.0000000000000000     
  -2.9311889616244188E-002   4.7167508068060700E-002   0.0000000000000000     
  -3.1156842381413297E-002   5.2313838148778359E-002   0.0000000000000000     
  -3.2949212761600288E-002   5.7665831630210260E-002   0.0000000000000000     
  -2.8761662697885600E-002   3.8099164531935757E-002   0.0000000000000000     
  -3.0929381832179970E-002   4.2823677047401282E-002   0.0000000000000000     
  -3.3038062225998678E-002   4.7752294893836658E-002   0.0000000000000000     
  -3.5087703879341708E-002   5.2885018071241914E-002   0.0000000000000000     
  -3.7078306792209095E-002   5.8221846579617036E-002   0.0000000000000000     
  -3.2206755921180517E-002   3.8774088658731096E-002   0.0000000000000000     
  -3.4593289951666904E-002   4.3488376990509441E-002   0.0000000000000000     
  -3.6913100500088086E-002   4.8403942405476852E-002   0.0000000000000000     
  -3.9166187566444091E-002   5.3520784903633323E-002   0.0000000000000000     
  -4.1352551150734905E-002   5.8838904484978860E-002   0.0000000000000000     
  -3.5799516600844419E-002   3.9516610489154058E-002   0.0000000000000000     
  -3.8406078824553755E-002   4.4220941217381779E-002   0.0000000000000000     
  -4.0937004438512413E-002   4.9122450602981288E-002   0.0000000000000000     
  -4.3392293442720400E-002   5.4221138645952606E-002   0.0000000000000000     
  -4.5771945837177724E-002   5.9517005346295733E-002   0.0000000000000000     
  -2.8965269058908491E-002   5.7170859636758532E-002   0.0000000000000000     
  -3.0509795356788914E-002   6.2728401637739808E-002   0.0000000000000000     
  -3.2007396693515329E-002   6.8467847347229868E-002   0.0000000000000000     
  -3.3458073069087740E-002   7.4389196765228663E-002   0.0000000000000000     
  -3.4861824483506158E-002   8.0492449891736220E-002   0.0000000000000000     
  -3.2949212761600288E-002   5.7665831630210260E-002   0.0000000000000000     
  -3.4688518305069388E-002   6.3210959272512135E-002   0.0000000000000000     
  -3.6374276560084802E-002   6.8936691835839739E-002   0.0000000000000000     
  -3.8006487526646544E-002   7.4843029320193100E-002   0.0000000000000000     
  -3.9585151204754587E-002   8.0929971725572175E-002   0.0000000000000000     
  -3.7078306792209095E-002   5.8221846579617036E-002   0.0000000000000000     
  -3.9009623918637444E-002   6.3750771458260774E-002   0.0000000000000000     
  -4.0881408212663388E-002   6.9459783746471854E-002   0.0000000000000000     
  -4.2693659674286948E-002   7.5348883444250295E-002   0.0000000000000000     
  -4.4446378303508095E-002   8.1418070551596097E-002   0.0000000000000000     
  -4.1352551150734905E-002   5.8838904484978860E-002   0.0000000000000000     
  -4.3473112197493058E-002   6.4347838194985726E-002   0.0000000000000000     
  -4.5528791651251080E-002   7.0037123079126212E-002   0.0000000000000000     
  -4.7519589512008929E-002   7.5906759137400290E-002   0.0000000000000000     
  -4.9445505779766669E-002   8.1956746369807987E-002   0.0000000000000000     
  -4.5771945837177724E-002   5.9517005346295733E-002   0.0000000000000000     
  -4.8078983141636257E-002   6.5002159482687005E-002   0.0000000000000000     
  -5.0316426875847864E-002   7.0668709833802801E-002   0.0000000000000000     
  -5.2484277039812538E-002   7.6516656399643057E-002   0.0000000000000000     
  -5.4582533633530293E-002   8.2545999180207857E-002   0.0000000000000000     
  -3.4861824483506158E-002   8.0492449891736220E-002   0.0000000000000000     
  -3.6213982073100677E-002   8.6765429853960102E-002   0.0000000000000000     
  -3.7509876974201412E-002   9.3195959779107870E-002   0.0000000000000000     
  -3.8749509186808376E-002   9.9784039667179511E-002   0.0000000000000000     
  -3.9932878710921556E-002  0.10652966951817504        0.0000000000000000     
  -3.9585151204754587E-002   8.0929971725572175E-002   0.0000000000000000     
  -4.1105627178771226E-002   8.7186062664678002E-002   0.0000000000000000     
  -4.2563275033058692E-002   9.3599845750211519E-002   0.0000000000000000     
  -4.3958094767617008E-002  0.10017132098217280        0.0000000000000000     
  -4.5290086382446165E-002  0.10690048836056176        0.0000000000000000     
  -4.4446378303508095E-002   8.1418070551596097E-002   0.0000000000000000     
  -4.6134656992415847E-002   8.7656110635122603E-002   0.0000000000000000     
  -4.7753588633099198E-002   9.4051769261443138E-002   0.0000000000000000     
  -4.9303173225558120E-002  0.10060504643055775        0.0000000000000000     
  -5.0783410769792647E-002  0.10731594214246640        0.0000000000000000     
  -4.9445505779766669E-002   8.1956746369807987E-002   0.0000000000000000     
  -5.1301071514034548E-002   8.8175573765293933E-002   0.0000000000000000     
  -5.3080817774322900E-002   9.4551730312802729E-002   0.0000000000000000     
  -5.4784744560631718E-002  0.10108521601233438        0.0000000000000000     
  -5.6412851872961002E-002  0.10777603086388890        0.0000000000000000     
  -5.4582533633530293E-002   8.2545999180207857E-002   0.0000000000000000     
  -5.6604870743627328E-002   8.8744452055191991E-002   0.0000000000000000     
  -5.8544962456729820E-002   9.5099728904290276E-002   0.0000000000000000     
  -6.0402808772837775E-002  0.10161182972750271        0.0000000000000000     
  -6.2178409691951202E-002  0.10828075452482933        0.0000000000000000     
  -3.9932878710921556E-002  0.10652966951817504        0.0000000000000000     
  -4.1067832514281991E-002  0.11342166948543297        0.0000000000000000     
  -4.2162217564630712E-002  0.12044885972229183        0.0000000000000000     
  -4.3216033861967713E-002  0.12761124022875167        0.0000000000000000     
  -4.4229281406293008E-002  0.13490881100481242        0.0000000000000000     
  -4.5290086382446165E-002  0.10690048836056176        0.0000000000000000     
  -4.6568575065444741E-002  0.11377584002079288        0.0000000000000000     
  -4.7802886004511325E-002  0.12078586809828058        0.0000000000000000     
  -4.8993019199645882E-002  0.12793057259302490        0.0000000000000000     
  -5.0138974650848440E-002  0.13520995350502574        0.0000000000000000     
  -5.0783410769792647E-002  0.10731594214246640        0.0000000000000000     
  -5.2204867969035861E-002  0.11417284424148903        0.0000000000000000     
  -5.3578111526520845E-002  0.12116414057194556        0.0000000000000000     
  -5.4903141442247623E-002  0.12828983113383605        0.0000000000000000     
  -5.6179957716216165E-002  0.13554991592716045        0.0000000000000000     
  -5.6412851872961002E-002  0.10777603086388890        0.0000000000000000     
  -5.7976711225055329E-002  0.11461268214752135        0.0000000000000000     
  -5.9487894130659309E-002  0.12158367714328676        0.0000000000000000     
  -6.0946400589772916E-002  0.12868901585118514        0.0000000000000000     
  -6.2352230602396190E-002  0.13592869827121648        0.0000000000000000     
  -6.2178409691951202E-002  0.10828075452482933        0.0000000000000000     
  -6.3884104833503166E-002  0.11509535373888986        0.0000000000000000     
  -6.5532233816926688E-002  0.12204447781230417        0.0000000000000000     
  -6.7122796642221802E-002  0.12912812674507218        0.0000000000000000     
  -6.8655793309388494E-002  0.13634630053719390        0.0000000000000000     
  -4.4229281406293008E-002  0.13490881100481242        0.0000000000000000     
  -4.5187278154528027E-002  0.14232886857821803        0.0000000000000000     
  -4.6075342063594225E-002  0.14985870947671234        0.0000000000000000     
  -4.6893473133491619E-002  0.15749833370029537        0.0000000000000000     
  -4.7641671364220171E-002  0.16524774124896710        0.0000000000000000     
  -5.0138974650848440E-002  0.13520995350502574        0.0000000000000000     
  -5.1222291717537165E-002  0.14261151181734905        0.0000000000000000     
  -5.2224509759130192E-002  0.15012274851306068        0.0000000000000000     
  -5.3145628775627549E-002  0.15774366359216066        0.0000000000000000     
  -5.3985648767029229E-002  0.16547425705464894        0.0000000000000000     
  -5.6179957716216165E-002  0.13554991592716045        0.0000000000000000     
  -5.7387736575026500E-002  0.14293186883294398        0.0000000000000000     
  -5.8505654245278628E-002  0.15042316373221187        0.0000000000000000     
  -5.9533710726972520E-002  0.15802380062496413        0.0000000000000000     
  -6.0471906020108206E-002  0.16573377951120080        0.0000000000000000     
  -6.2352230602396190E-002  0.13592869827121648        0.0000000000000000     
  -6.3683612726996061E-002  0.14328993962500275        0.0000000000000000     
  -6.4918775522039507E-002  0.15075995513416590        0.0000000000000000     
  -6.6057718987526506E-002  0.15833874479870588        0.0000000000000000     
  -6.7100443123457115E-002  0.16602630861862272        0.0000000000000000     
  -6.8655793309388494E-002  0.13634630053719390        0.0000000000000000     
  -7.0109920173445806E-002  0.14368572419352540        0.0000000000000000     
  -7.1463873589412835E-002  0.15113312271892274        0.0000000000000000     
  -7.2717653557289527E-002  0.15868849611338581        0.0000000000000000     
  -7.3871260077075937E-002  0.16635184437691466        0.0000000000000000     
   0.0000000000000000        0.0000000000000000        0.0000000000000000     
  -2.8800698659249575E-003   1.7448663320279176E-003   0.0000000000000000     
  -5.8726531297335904E-003   3.8646984530378591E-003   0.0000000000000000     
  -8.9777497914258989E-003   6.3594963630298242E-003   0.0000000000000000     
  -1.2195359851001883E-002   9.2292600620038148E-003   0.0000000000000000     
   0.0000000000000000        0.0000000000000000        0.0000000000000000     
  -3.2831970045575959E-003   1.9993811960215017E-003   0.0000000000000000     
  -6.6769456323170426E-003   4.3310026535815765E-003   0.0000000000000000     
  -1.0181245883278340E-002   6.9948643726802234E-003   0.0000000000000000     
  -1.3796097757441485E-002   9.9909663533174452E-003   0.0000000000000000     
   0.0000000000000000        0.0000000000000000        0.0000000000000000     
  -3.9535525884957026E-003   2.4251652487211695E-003   0.0000000000000000     
  -7.9105972248800765E-003   5.0629879661936933E-003   0.0000000000000000     
  -1.1871133909153123E-002   7.9134681524175715E-003   0.0000000000000000     
  -1.5835162641314841E-002   1.0976605807392802E-002   0.0000000000000000     
   0.0000000000000000        0.0000000000000000        0.0000000000000000     
  -4.8911366177392746E-003   3.0222184901269201E-003   0.0000000000000000     
  -9.5736079074226921E-003   6.0606543908742093E-003   0.0000000000000000     
  -1.4047413869050250E-002   9.1153077022418667E-003   0.0000000000000000     
  -1.8312554502621949E-002   1.2186178424229893E-002   0.0000000000000000     
   0.0000000000000000        0.0000000000000000        0.0000000000000000     
  -6.0959490922883140E-003   3.7905409202387535E-003   0.0000000000000000     
  -1.1665977679944888E-002   7.3240019276231243E-003   0.0000000000000000     
  -1.6710085762969722E-002   1.0600383022153111E-002   0.0000000000000000     
  -2.1228273341362815E-002   1.3619684203828714E-002   0.0000000000000000     
  -1.2195359851001883E-002   9.2292600620038148E-003   0.0000000000000000     
  -1.5427732707693650E-002   1.2371893782571213E-002   0.0000000000000000     
  -1.8577117760733310E-002   1.5685301757343392E-002   0.0000000000000000     
  -2.1643515010120861E-002   1.9169483986320370E-002   0.0000000000000000     
  -2.4626924455856309E-002   2.2824440469502130E-002   0.0000000000000000     
  -1.3796097757441485E-002   9.9909663533174452E-003   0.0000000000000000     
  -1.7404382620241746E-002   1.3221305809647929E-002   0.0000000000000000     
  -2.0888981837114389E-002   1.6587879955826376E-002   0.0000000000000000     
  -2.4249895408059406E-002   2.0090688791852791E-002   0.0000000000000000     
  -2.7487123333076808E-002   2.3729732317727157E-002   0.0000000000000000     
  -1.5835162641314841E-002   1.0976605807392802E-002   0.0000000000000000     
  -1.9730871820311004E-002   1.4211227116582891E-002   0.0000000000000000     
  -2.3486449845087375E-002   1.7576158265451336E-002   0.0000000000000000     
  -2.7101896715643958E-002   2.1071399253998143E-002   0.0000000000000000     
  -3.0577212431980756E-002   2.4696950082223300E-002   0.0000000000000000     
  -1.8312554502621949E-002   1.2186178424229893E-002   0.0000000000000000     
  -2.2407200307901418E-002   1.5341657703376093E-002   0.0000000000000000     
  -2.6369521784652270E-002   1.8650136686218274E-002   0.0000000000000000     
  -3.0199518932874519E-002   2.2111615372756428E-002   0.0000000000000000     
  -3.3897191752568154E-002   2.5726093762990562E-002   0.0000000000000000     
  -2.1228273341362815E-002   1.3619684203828714E-002   0.0000000000000000     
  -2.5433368083012990E-002   1.6612597570027535E-002   0.0000000000000000     
  -2.9538197655809083E-002   1.9809815218127181E-002   0.0000000000000000     
  -3.3542762059751083E-002   2.3211337148127648E-002   0.0000000000000000     
  -3.7447061294838990E-002   2.6817163360028942E-002   0.0000000000000000     
  -2.4626924455856309E-002   2.2824440469502130E-002   0.0000000000000000     
  -2.7531648122850107E-002   2.6672958803443492E-002   0.0000000000000000     
  -3.0361988036012724E-002   3.0737826584699268E-002   0.0000000000000000     
  -3.3117944195344168E-002   3.5019043813269458E-002   0.0000000000000000     
  -3.5799516600844419E-002   3.9516610489154058E-002   0.0000000000000000     
  -2.7487123333076808E-002   2.3729732317727157E-002   0.0000000000000000     
  -3.0623858752748194E-002   2.7547586059601989E-002   0.0000000000000000     
  -3.3683294807655167E-002   3.1586825543629779E-002   0.0000000000000000     
  -3.6665431497797725E-002   3.5847450769810538E-002   0.0000000000000000     
  -3.9570268823175880E-002   4.0329461738144258E-002   0.0000000000000000     
  -3.0577212431980756E-002   2.4696950082223300E-002   0.0000000000000000     
  -3.3941907801556731E-002   2.8497380895672674E-002   0.0000000000000000     
  -3.7225493631830850E-002   3.2517261839892127E-002   0.0000000000000000     
  -4.0427969922803085E-002   3.6756592914881661E-002   0.0000000000000000     
  -4.3549336674473478E-002   4.1215374120641260E-002   0.0000000000000000     
  -3.3897191752568154E-002   2.5726093762990562E-002   0.0000000000000000     
  -3.7485795269275708E-002   2.9522343311655562E-002   0.0000000000000000     
  -4.0988584508539747E-002   3.3529135473486314E-002   0.0000000000000000     
  -4.4405559470360255E-002   3.7746470248482815E-002   0.0000000000000000     
  -4.7736720154737226E-002   4.2174347636645071E-002   0.0000000000000000     
  -3.7447061294838990E-002   2.6817163360028942E-002   0.0000000000000000     
  -4.1255521155905153E-002   3.0622473307550642E-002   0.0000000000000000     
  -4.4972567437781899E-002   3.4622446444412334E-002   0.0000000000000000     
  -4.8598200140469221E-002   3.8817082770614006E-002   0.0000000000000000     
  -5.2132419263967125E-002   4.3206382286155684E-002   0.0000000000000000     
  -3.5799516600844419E-002   3.9516610489154058E-002   0.0000000000000000     
  -3.8406078824553755E-002   4.4220941217381779E-002   0.0000000000000000     
  -4.0937004438512413E-002   4.9122450602981288E-002   0.0000000000000000     
  -4.3392293442720400E-002   5.4221138645952606E-002   0.0000000000000000     
  -4.5771945837177724E-002   5.9517005346295733E-002   0.0000000000000000     
  -3.9570268823175880E-002   4.0329461738144258E-002   0.0000000000000000     
  -4.2394386034108965E-002   4.5019195296624806E-002   0.0000000000000000     
  -4.5134362380916324E-002   4.9902988293246041E-002   0.0000000000000000     
  -4.7790197863597936E-002   5.4980840728007976E-002   0.0000000000000000     
  -5.0361892482153843E-002   6.0252752600910599E-002   0.0000000000000000     
  -4.3549336674473478E-002   4.1215374120641260E-002   0.0000000000000000     
  -4.6584849163600964E-002   4.5880964796845058E-002   0.0000000000000000     
  -4.9529762666944456E-002   5.0740724283167192E-002   0.0000000000000000     
  -5.2384077184503976E-002   5.5794652579607654E-002   0.0000000000000000     
  -5.5147792716279516E-002   6.1042749686166430E-002   0.0000000000000000     
  -4.7736720154737226E-002   4.2174347636645071E-002   0.0000000000000000     
  -5.0977468213029738E-002   4.6806249718042550E-002   0.0000000000000000     
  -5.4123205296596824E-002   5.1635658572744735E-002   0.0000000000000000     
  -5.7173931405438499E-002   5.6662574200751617E-002   0.0000000000000000     
  -6.0129646539554757E-002   6.1886996602063218E-002   0.0000000000000000     
  -5.2132419263967125E-002   4.3206382286155684E-002   0.0000000000000000     
  -5.5572243182395301E-002   4.7795050060217260E-002   0.0000000000000000     
  -5.8914690269873442E-002   5.2587791161978661E-002   0.0000000000000000     
  -6.2159760526401521E-002   5.7584605591439894E-002   0.0000000000000000     
  -6.5307453951979580E-002   6.2785493348600951E-002   0.0000000000000000     
  -4.5771945837177724E-002   5.9517005346295733E-002   0.0000000000000000     
  -4.8078983141636257E-002   6.5002159482687005E-002   0.0000000000000000     
  -5.0316426875847864E-002   7.0668709833802801E-002   0.0000000000000000     
  -5.2484277039812538E-002   7.6516656399643057E-002   0.0000000000000000     
  -5.4582533633530293E-002   8.2545999180207857E-002   0.0000000000000000     
  -5.0361892482153843E-002   6.0252752600910599E-002   0.0000000000000000     
  -5.2854505286366225E-002   6.5712801162877865E-002   0.0000000000000000     
  -5.5273095326017360E-002   7.1355063664833712E-002   0.0000000000000000     
  -5.7617662601107227E-002   7.7179540106778105E-002   0.0000000000000000     
  -5.9888207111635818E-002   8.3186230488711099E-002   0.0000000000000000     
  -5.5147792716279516E-002   6.1042749686166430E-002   0.0000000000000000     
  -5.7826947166982202E-002   6.6478829077071561E-002   0.0000000000000000     
  -6.0427578441323203E-002   7.2096704226551039E-002   0.0000000000000000     
  -6.2949686539302496E-002   7.7896375134604873E-002   0.0000000000000000     
  -6.5393271460920069E-002   8.3877841801233088E-002   0.0000000000000000     
  -6.0129646539554757E-002   6.1886996602063218E-002   0.0000000000000000     
  -6.2996308783484181E-002   6.7300243225268078E-002   0.0000000000000000     
  -6.5779876221765385E-002   7.2893631518954810E-002   0.0000000000000000     
  -6.8480348854398326E-002   7.8667161483123402E-002   0.0000000000000000     
  -7.1097726681383019E-002   8.4620833117773853E-002   0.0000000000000000     
  -6.5307453951979580E-002   6.2785493348600951E-002   0.0000000000000000     
  -6.8362590135872162E-002   6.8177043607467458E-002   0.0000000000000000     
  -7.1329988667343872E-002   7.3745845542045010E-002   0.0000000000000000     
  -7.4209649546394710E-002   7.9491899152333637E-002   0.0000000000000000     
  -7.7001572773024676E-002   8.5415204438333336E-002   0.0000000000000000     
  -5.4582533633530293E-002   8.2545999180207857E-002   0.0000000000000000     
  -5.6604870743627328E-002   8.8744452055191991E-002   0.0000000000000000     
  -5.8544962456729820E-002   9.5099728904290276E-002   0.0000000000000000     
  -6.0402808772837775E-002  0.10161182972750271        0.0000000000000000     
  -6.2178409691951202E-002  0.10828075452482933        0.0000000000000000     
  -5.9888207111635818E-002   8.3186230488711099E-002   0.0000000000000000     
  -6.2077353571452616E-002   8.9362294277970433E-002   0.0000000000000000     
  -6.4177726694407078E-002   9.5694890941893887E-002   0.0000000000000000     
  -6.6189326480499217E-002  0.10218402048048145        0.0000000000000000     
  -6.8112152929729025E-002  0.10882968289373311        0.0000000000000000     
  -6.5393271460920069E-002   8.3877841801233088E-002   0.0000000000000000     
  -6.7749818887768862E-002   9.0028649206782926E-002   0.0000000000000000     
  -7.0010814501441809E-002   9.6336342331601640E-002   0.0000000000000000     
  -7.2176258301938939E-002  0.10280092117568927        0.0000000000000000     
  -7.4246150289260196E-002  0.10942238573904581        0.0000000000000000     
  -7.1097726681383019E-002   8.4620833117773853E-002   0.0000000000000000     
  -7.3622266692576044E-002   9.0743516841629443E-002   0.0000000000000000     
  -7.6044225877834021E-002   9.7024083073413578E-002   0.0000000000000000     
  -7.8363604237156881E-002  0.10346253181312620        0.0000000000000000     
  -8.0580401770544693E-002  0.11005886306076733        0.0000000000000000     
  -7.7001572773024676E-002   8.5415204438333336E-002   0.0000000000000000     
  -7.9694696985874183E-002   9.1506897182510039E-002   0.0000000000000000     
  -8.2277960823583671E-002   9.7758113167329658E-002   0.0000000000000000     
  -8.4751364286153139E-002  0.10416885239279224        0.0000000000000000     
  -8.7114907373582559E-002  0.11073911485889776        0.0000000000000000     
  -6.2178409691951202E-002  0.10828075452482933        0.0000000000000000     
  -6.3884104833503166E-002  0.11509535373888986        0.0000000000000000     
  -6.5532233816926688E-002  0.12204447781230417        0.0000000000000000     
  -6.7122796642221802E-002  0.12912812674507218        0.0000000000000000     
  -6.8655793309388494E-002  0.13634630053719390        0.0000000000000000     
  -6.8112152929729025E-002  0.10882968289373311        0.0000000000000000     
  -6.9959430436409800E-002  0.11562092264218199        0.0000000000000000     
  -7.1744383394854797E-002  0.12254678418636106        0.0000000000000000     
  -7.3467011805064042E-002  0.12960726752627041        0.0000000000000000     
  -7.5127315667037536E-002  0.13680237266190995        0.0000000000000000     
  -7.4246150289260196E-002  0.10942238573904581        0.0000000000000000     
  -7.6235069675805678E-002  0.11618945248398503        0.0000000000000000     
  -7.8157595673975441E-002  0.12309083787282075        0.0000000000000000     
  -8.0013728283769459E-002  0.13012654190555298        0.0000000000000000     
  -8.1803467505187744E-002  0.13729656458218176        0.0000000000000000     
  -8.0580401770544693E-002  0.11005886306076733        0.0000000000000000     
  -8.2711022551690799E-002  0.11680094326429900        0.0000000000000000     
  -8.4771870654288581E-002  0.12367663887168323        0.0000000000000000     
  -8.6762946078338038E-002  0.13068594988292004        0.0000000000000000     
  -8.8684248823839129E-002  0.13782887629800936        0.0000000000000000     
  -8.7114907373582559E-002  0.11073911485889776        0.0000000000000000     
  -8.9387289064065192E-002  0.11745539498312393        0.0000000000000000     
  -9.1587208335794257E-002  0.12430418718294849        0.0000000000000000     
  -9.3714665188769766E-002  0.13128549145837146        0.0000000000000000     
  -9.5769659622991707E-002  0.13839930780939280        0.0000000000000000     
  -6.8655793309388494E-002  0.13634630053719390        0.0000000000000000     
  -7.0109920173445806E-002  0.14368572419352540        0.0000000000000000     
  -7.1463873589412835E-002  0.15113312271892274        0.0000000000000000     
  -7.2717653557289527E-002  0.15868849611338581        0.0000000000000000     
  -7.3871260077075937E-002  0.16635184437691466        0.0000000000000000     
  -7.5127315667037536E-002  0.13680237266190995        0.0000000000000000     
  -7.6704215531067876E-002  0.14411849328743015        0.0000000000000000     
  -7.8176631947447742E-002  0.15154202309698139        0.0000000000000000     
  -7.9544564916177091E-002  0.15907296209056374        0.0000000000000000     
  -8.0808014437255979E-002  0.16671131026817712        0.0000000000000000     
  -8.1803467505187744E-002  0.13729656458218176        0.0000000000000000     
  -8.3504055416554354E-002  0.14458751765563504        0.0000000000000000     
  -8.5092734096193362E-002  0.15198601287884092        0.0000000000000000     
  -8.6569503544104712E-002  0.15949205025179941        0.0000000000000000     
  -8.7934363760288473E-002  0.16710562977451052        0.0000000000000000     
  -8.8684248823839129E-002  0.13782887629800936        0.0000000000000000     
  -9.0509439829905225E-002  0.14509279729814020        0.0000000000000000     
  -9.2212180035649655E-002  0.15246509206450135        0.0000000000000000     
  -9.3792469441072404E-002  0.15994576059709292        0.0000000000000000     
  -9.5250308046173487E-002  0.16753480289591485        0.0000000000000000     
  -9.5769659622991707E-002  0.13839930780939280        0.0000000000000000     
  -9.7720368771120530E-002  0.14563433221494554        0.0000000000000000     
  -9.9534969765816675E-002  0.15297926065396264        0.0000000000000000     
 -0.10121346260708014       0.16043409312644419        0.0000000000000000     
 -0.10275584729491095       0.16799882963239016        0.0000000000000000     
 </DataArray>
 <DataArray  type="Float64" Name="stress" NumberOfComponents="3" format="ascii">
   13416599935.871464        4024979980.7614393        2894090493.5355067     
   11766438820.506996        1890334159.1774273        1715870227.6489308     
   10313589958.703630        413395849.46374989        810736049.31247663     
   9058053350.4613628       -405834948.37959290        178687958.52614301     
   7999828995.7801962       -567358234.35260153       -180274044.71006986     
   10539891231.867525        3161967369.5602574        2225804148.7844472     
   9667511426.0845184        1589492783.1665168        1446741373.6890810     
   8943795758.6560078        512565324.62111664        863154002.60080600     
   8368744229.5820007       -68815006.075942993        475042035.51962286     
   7942356838.8624992       -154648208.92466211        282405472.44552964     
   8337877586.7548895        2501363276.0264668        1712371579.8202505     
   8021534280.4303942        1424536481.7861140        1275710161.1083951     
   7805206997.2538042        681096431.37210870        956913462.86060154     
   7688895737.2251177        271043124.78445005        755981485.07686996     
   7672600500.3443394        194376562.02314138        672914227.75720024     
   6810559000.5335531        2043167700.1600661        1353792786.6429148     
   6828507383.5446339        1395465255.0362191        1202776589.9068730     
   6897823674.4970188        918989169.71672606        1092014430.0918639     
   7018507873.3907108        613739444.20158744        1021506307.1978859     
   7190559980.2257099        479716078.49080229        991252221.22494018     
   5957935473.2035208        1787380641.9610562        1150067769.2524412     
   6088430735.4272327        1502279102.9168324        1227940660.0845151     
   6221645790.3856525        1226243539.6549692        1268456904.2945917     
   6357580638.0787811        959273952.17546666        1271616501.8826706     
   6496235278.5066166        701370340.47832346        1237419452.8487525     
   7999828995.7801962       -567358234.35260153       -180274044.71006986     
   7917581655.0508318       -199818956.12565994       -78293104.042634442     
   7793804122.3083324        29286348.724148273       -8941327.6826382596     
   7628496397.5526924        119957680.19683790        27781284.369917423     
   7421658480.7839155        72195038.292392254        31874732.115035161     
   7942356838.8624992       -154648208.92466211        282405472.44552964     
   7739663626.5642376        16583452.657104492        281155199.73377061     
   7513552392.9911060        109755043.32263947        265185178.57918614     
   7264023138.1431065        124866563.07194948        234495408.98177162     
   6991075862.0202370        61918011.905028820        189085890.94153097     
   7672600500.3443394        194376562.02314138        672914227.75720024     
   7400631176.0903521        184651534.84368277        589563607.52756143     
   7123356001.2997684        157240339.20889378        509402654.71970886     
   6840774975.9725857        112142975.11878085        432431369.33364177     
   6552888100.1088047        49359442.573337793        358649751.36935586     
   7190559980.2257099        479716078.49080229        991252221.22494018     
   6900484303.6291809        304385290.43407488        846932119.33873796     
   6623214947.2343216        171742236.38291788        723711100.73893499     
   6358751911.0411348        81786916.337333441        621589165.42552543     
   6107095195.0496197        34519330.297319174        540566313.39851415     
   6496235278.5066166        701370340.47832346        1237419452.8487525     
   6239223009.1807203        375784719.42828035        1053260735.1673019     
   6013129230.7947655        153260734.84470797        908110516.63685918     
   5817953943.3487501        33798386.727606058        801968797.25742590     
   5653697146.8426800        17397675.076977968        734835577.02900255     
   7421658480.7839155        72195038.292392254        31874732.115035161     
   7218860172.0925264       -18752417.216380596        14766606.355880708     
   7028319508.5829277       -68841055.452505112        2123649.9853471979     
   6850036490.2551270       -78070876.415986061       -6054136.9965658495     
   6684011117.1091127       -46441880.106830120       -9766754.5898563527     
   6991075862.0202370        61918011.905028820        189085890.94153097     
   6808473001.2494793        2453184.9633665085        180712008.42129663     
   6633714798.8654385       -30862780.689239979        176142694.47436643     
   6466801254.8681059       -38029885.052806854        175377949.10073715     
   6307732369.2574959       -19048128.127322912        178417772.30040500     
   6552888100.1088047        49359442.573337793        358649751.36935586     
   6388593256.3577671        20811014.928516388        353861627.49378622     
   6227730084.1983624        3701492.5891497135        352217471.37619835     
   6070298583.6305952       -1969124.4447696209        353717283.01659012     
   5916298754.6544580        3799163.8267540932        358361062.41496325     
   6107095195.0496197        34519330.297319174        540566313.39851415     
   5959220937.4173870        36321072.679068804        534215463.57334661     
   5810365364.5817089        34851764.382664919        530347980.69084078     
   5660528476.5425854        30111405.408113718        528963864.75099778     
   5509710273.3000164        22099995.755411863        530063115.75381243     
   5653697146.8426800        17397675.076977968        734835577.02900255     
   5520356044.4283371        48983358.215014696        721773516.65997839     
   5381620640.0154676        62588034.691304684        710534222.41829813     
   5237490933.6040792        58211704.505852938        701117694.30395567     
   5087966925.1941605        35854367.658645153        693523932.31695843     
   6684011117.1091127       -46441880.106830120       -9766754.5898563527     
   6508943656.4592485       -6788364.1889264584       -3801962.8970341869     
   6328697987.4582911        15604457.225332975        3154427.4667204381     
   6143274110.1062479        20736584.135976791        11102416.501415849     
   5952672024.4031105        8608016.5429708958        20042004.207050122     
   6307732369.2574959       -19048128.127322912        178417772.30040500     
   6131614483.9214592        1962492.3277189732        174984707.92630127     
   5952361982.0320253        12524390.938091755        174054232.53717145     
   5769974863.5891933        12637567.703807831        175626346.13302496     
   5584453128.5929556        2302022.6248450279        179701048.71385267     
   5916298754.6544580        3799163.8267540932        358361062.41496325     
   5743447559.8152323        7462023.3738338947        347914332.40456992     
   5569505340.2202950        7488133.7352111340        341481181.69319320     
   5394472095.8696499        3877494.9108891487        339061610.28083760     
   5218347826.7632875       -3369893.0991396904        340655618.16749781     
   5509710273.3000164        22099995.755411863        530063115.75381243     
   5344442884.1405706        9710228.9494216442        514986910.53776675     
   5180128062.0231028        495685.61669516563        505435274.93478149     
   5016765806.9476137       -5543634.2427713871        501408208.94485581     
   4854356118.9141035       -8407730.6289730072        502905712.56799078     
   5087966925.1941605        35854367.658645153        693523932.31695843     
   4934600456.8974695        8707109.0544743538        676202442.32590032     
   4784230147.4404469       -8452953.4174633026        665916512.26194215     
   4636855996.8230925       -15625819.757175207        662666142.12508392     
   4492478005.0454073       -12811489.964663982        666451331.91532612     
   5952672024.4031105        8608016.5429708958        20042004.207050122     
   5780928649.6966152       -2348923.5644180775        11398062.578092352     
   5611405690.4972210       -5904478.6481423378        6208980.4136415785     
   5444103146.8049278       -2058648.7081940174        4474757.7137090154     
   5279021018.6197433        9188566.2554485798        6195394.4782853723     
   5584453128.5929556        2302022.6248450279        179701048.71385267     
   5423224956.2538271       -3318462.3220124245        173904719.27480417     
   5263434911.2384071       -4145189.5231566429        171510657.92447957     
   5105082993.5467091       -178158.97858119011        172518864.66287658     
   4948169203.1787167        8582629.3117039204        176929339.48999426     
   5218347826.7632875       -3369893.0991396904        340655618.16749781     
   5067484595.7178288       -3699001.2075676918        336794231.37108135     
   4917277203.8126993       -1841978.8482334614        336282521.28759360     
   4767725651.0478897        2201173.9788377285        339120487.91703582     
   4618829937.4234085        8430457.2736752033        345308131.25940371     
   4854356118.9141035       -8407730.6289730072        502905712.56799078     
   4713707568.0886269       -3490540.2210798264        500066598.86691588     
   4572932568.2200823        1005153.3766009808        500524570.50298166     
   4432031119.3084764        5079350.1640853882        504279627.47618353     
   4291003221.3538122        8732050.1413595676        511331769.78651965     
   4492478005.0454073       -12811489.964663982        666451331.91532612     
   4361893873.3662128       -2693079.3625602722        663721821.76231253     
   4230401004.4605689        4396207.1513772011        664236805.57064450     
   4097999398.3284802        8456369.5771560669        667996283.34031475     
   3964689054.9699383        9487407.9147644043        675000255.07133329     
   5279021018.6197433        9188566.2554485798        6195394.4782853723     
   5067751420.6347275        8062973.9128975868       -714220.05711564177     
   4855239495.2528028        2796290.2473042011       -2155661.7198629309     
   4641485242.4739666       -6611484.7413265705        1871069.4900531122     
   4426488662.2982092       -20160351.053017378        11365973.572624162     
   4948169203.1787167        8582629.3117039204        176929339.48999426     
   4750443748.9733324        6015067.9686839581        169244993.57631546     
   4551883562.7307816        665066.50177431107        166843809.00519753     
   4352488644.4510574       -7467375.0890481472        169725785.77661830     
   4152258994.1341600       -18382256.803775311        177890923.89058903     
   4618829937.4234085        8430457.2736752033        345308131.25940371     
   4434120022.6259079        4262345.6186599731        337324581.88716191     
   4248982971.1509871       -1329554.9611017704        334439182.32735765     
   4063418782.9986358       -8345244.4656229019        336651932.57999057     
   3877427458.1688585       -16784722.894892454        343962832.64506871     
   4291003221.3538122        8732050.1413595676        511331769.78651965     
   4118780241.5924611        2804806.8628299236        503524544.87540495     
   3946537720.5134192       -3187574.1413125992        500630458.24662203     
   3774275658.1167026       -9245092.8710415363        502649509.90017456     
   3601994054.4023046       -15367749.326386929        509581699.83604831     
   3964689054.9699383        9487407.9147644043        675000255.07133329     
   3804424405.8729801        1642451.7011883259        667844882.54105914     
   3644547810.8180871       -4908991.0388410091        665417636.76300514     
   3485059269.8052564       -10166920.305325747        667718517.73716342     
   3325958782.8344846       -14131336.098271132        674747525.46354175     
   4426488662.2982092       -20160351.053017378        11365973.572624162     
   4290188992.6924329       -10733103.285466671        4514090.9346511690     
   4154714314.8186932        1444116.9221985340       -606125.10063498339     
   4020064628.6769633        16371309.569904089       -3994674.5332105965     
   3886239934.2672920        34048474.657798529       -5651557.3630980896     
   4152258994.1341600       -18382256.803775311        177890923.89058903     
   4021119438.0665436       -8968967.7199470997        171897756.06703967     
   3890551631.0847430        2350151.6499245167        168145460.98177528     
   3760555573.1887484        15575101.305822372        166634038.63479206     
   3631131264.3785620        30705881.247746706        167363489.02610153     
   3877427458.1688585       -16784722.894892454        343962832.64506871     
   3752902890.3125153       -6948930.0928525925        338532929.88202453     
   3628696828.8957629        3948550.8411626816        335853105.99284971     
   3504809273.9185963        15907719.907132626        335923360.97754955     
   3381240225.3810320        28928577.105094910        338743694.83612996     
   3601994054.4023046       -15367749.326386929        509581699.83604831     
   3485539349.4303403       -4672990.4042036533        504419612.37958735     
   3369149908.2517438        6239314.4958786964        502516809.93258595     
   3252825730.8665257        17369165.373880625        503873292.49505579     
   3136566817.2746778        28716562.229782462        508489060.06697541     
   3325958782.8344846       -14131336.098271132        674747525.46354175     
   3219028815.4200125       -2141148.6540091038        669557803.55974102     
   3111910869.1526904        9222442.6140868664        668136572.80098975     
   3004604944.0325184        19959437.706021547        670483833.18729281     
   2897111040.0595055        30069836.621818066        676599584.71864784     
   3886239934.2672920        34048474.657798529       -5651557.3630980896     
   3617947369.4478488        10832107.188964844       -17519839.602204029     
   3348465084.4785151       -16349994.112836123       -18152248.321270723     
   3077793079.3592753       -47497829.247627735       -7548783.5203000922     
   2805931354.0901709       -82611398.215360880        14290554.800690567     
   3631131264.3785620        30705881.247746706        167363489.02610153     
   3390474033.3636718        12200233.117177248        155040890.58573496     
   3149069305.0798278       -8797072.5765954256        151653278.62769899     
   2906917079.5270276       -32286035.833541751        157200653.15199751     
   2664017356.7052641       -58266656.653700829        171683014.15861899     
   3381240225.3810320        28928577.105094910        338743694.83612996     
   3161644365.2058272        13161459.423302531        326482706.88891679     
   2941743230.6425924       -3623239.5519075394        320855818.38634163     
   2721536821.6913271       -21425519.820518732        321863029.32838333     
   2501025138.3520694       -40245381.382513881        329504339.71507585     
   3136566817.2746778        28716562.229782462        508489060.06697541     
   2931458364.9742851        13715786.107312202        496805609.30734980     
   2726486861.1668077       -828495.03877699375        489455370.95465326     
   2521652305.8522501       -14916281.208488345        486438345.00887483     
   2316954699.0305991       -28547572.401822925        487754531.47002274     
   2897111040.0595055        30069836.621818066        676599584.71864784     
   2699916032.6690650        13863213.169221401        666009597.84102309     
   2503300196.6524749       -412839.03721940517        657451936.33262503     
   2307263532.0097299       -12758319.997504592        650926600.19344962     
   2111806038.7408311       -23173229.711621284        646433589.42349303     
   5957935473.2035208        1787380641.9610562        1150067769.2524412     
   6088430735.4272327        1502279102.9168324        1227940660.0845151     
   6221645790.3856525        1226243539.6549692        1268456904.2945917     
   6357580638.0787811        959273952.17546666        1271616501.8826706     
   6496235278.5066166        701370340.47832346        1237419452.8487525     
   5434622381.8477306        1630386714.5543194        1033500169.9145254     
   5489905202.3481207        1372520476.2840381        1113898850.5808892     
   5547380525.3393583        1121962579.6499176        1167513384.0573235     
   5607048350.8214445        878713024.65195775        1194343770.3438287     
   5668908678.7943792        642771811.29015875        1194390009.4404047     
   4895235103.5491247        1468570531.0647373        936393630.89486325     
   4905512623.5606728        1247001735.9387431        1018702929.4443468     
   4917455355.8192091        1030983648.3027093        1084800580.2359695     
   4931063300.3247356        820516268.15663719        1134686583.2697306     
   4946336457.0772486        615599595.50052547        1168360938.5456316     
   4339773638.3077030        1301932091.4923108        858748152.19345522     
   4335252999.0648909        1125722881.8809474        942352896.67488873     
   4331870281.8252058        953306745.61334491        1020318492.8305291     
   4329625486.5886507        784683682.68950403        1092644940.6603768     
   4328518613.3552246        619853693.10942411        1159332240.1644323     
   3768237986.1234641        1130471395.8370392        800563733.81030095     
   3779126328.8607717        1008683914.1106508        884848752.27251410     
   3790625303.3573484        888931871.58182383        974067121.84100318     
   3802734909.6131930        771215268.25055861        1068218842.5157677     
   3815455147.6283064        655534104.11685479        1167303914.2968073     
   6496235278.5066166        701370340.47832346        1237419452.8487525     
   6239223009.1807203        375784719.42828035        1053260735.1673019     
   6013129230.7947655        153260734.84470797        908110516.63685918     
   5817953943.3487501        33798386.727606058        801968797.25742590     
   5653697146.8426800        17397675.076977968        734835577.02900255     
   5668908678.7943792        642771811.29015875        1194390009.4404047     
   5518848315.5777683        383207728.09182215        1073527798.5300353     
   5392938309.7738199        204144836.26903033        980692045.97155738     
   5291178661.3825331        105583135.82178044        915882751.76497293     
   5213569370.4039125        87522626.750078440        879099915.91028178     
   4946336457.0772486        615599595.50052547        1168360938.5456316     
   4871850740.5438719        412643872.32608032        1102899078.6245191     
   4814747247.8958826        267628895.43625379        1054481636.2561824     
   4775025979.1332779        180554664.83104444        1023108611.4406213     
   4752686934.2560596        151421180.51045299        1008780004.1778359     
   4328518613.3552246        619853693.10942411        1159332240.1644323     
   4298230284.0790377        464093152.13105690        1141374575.4507527     
   4278556045.1609592        343712912.34638178        1129479287.4907327     
   4269495896.6009851        258712973.75539613        1123646376.2843707     
   4271049838.3991203        209093336.35810256        1123875841.8316681     
   3815455147.6283064        655534104.11685479        1167303914.2968073     
   3797986946.1832609        537555567.50675118        1188954289.0087366     
   3784364701.5690436        432396886.99941266        1205684999.6752074     
   3774588413.7856555        340058062.59483743        1217496046.2962210     
   3768658082.8330970        260539094.29302573        1224387428.8717763     
   5653697146.8426800        17397675.076977968        734835577.02900255     
   5520356044.4283371        48983358.215014696        721773516.65997839     
   5381620640.0154676        62588034.691304684        710534222.41829813     
   5237490933.6040792        58211704.505852938        701117694.30395567     
   5087966925.1941605        35854367.658645153        693523932.31695843     
   5213569370.4039125        87522626.750078440        879099915.91028178     
   5077645631.9755764        85370749.534755468        855463342.39125288     
   4939595469.8211412        76130793.232442856        835802950.50797284     
   4799418883.9406128        59802757.843147039        820118740.26043940     
   4657115874.3339882        36386643.366863728        808410711.64865172     
   4752686934.2560596        151421180.51045299        1008780004.1778359     
   4620333175.5520325        117377527.66325855        978381442.15996897     
   4489120871.3943367        87138723.303837538        954112477.28625488     
   4359050021.7829723        60704767.432190895        935973109.55669522     
   4230120626.7179422        38075660.048318863        923963338.97128892     
   4271049838.3991203        209093336.35810256        1123875841.8316681     
   4148418675.1577048        145003692.60052586        1090527815.9661286     
   4030196844.7350502        95611824.905486822        1065462802.7531494     
   3916384347.1311564        60917733.272982836        1048680802.1927280     
   3806981182.3460221        40921417.703010798        1040181814.2848684     
   3768658082.8330970        260539094.29302573        1224387428.8717763     
   3661902130.7925978        168249244.34656227        1191902463.8097315     
   3562823389.8432875        101550098.03739345        1169853926.9086518     
   3471421859.9851656        60441655.365521193        1158241818.1685357     
   3387697541.2182331        44923916.330945492        1157066137.5893877     
   5087966925.1941605        35854367.658645153        693523932.31695843     
   4934600456.8974695        8707109.0544743538        676202442.32590032     
   4784230147.4404469       -8452953.4174633026        665916512.26194215     
   4636855996.8230925       -15625819.757175207        662666142.12508392     
   4492478005.0454073       -12811489.964663982        666451331.91532612     
   4657115874.3339882        36386643.366863728        808410711.64865172     
   4522723862.4287567        15443555.541653633        795011724.68254268     
   4390524028.5401592        1807727.7718930244        787741181.75684762     
   4260516372.6682019       -4520839.9423999786        786599082.87157118     
   4132700894.8128843       -3542147.6012356281        791585428.02671099     
   4230120626.7179422        38075660.048318863        923963338.97128892     
   4112111311.5279293        22559215.099190950        913548877.40325761     
   3995490193.5315256        11670094.128755331        908355743.98895764     
   3880257272.7287292        5408297.1370067596        908383938.72839248     
   3766412549.1195350        3773824.1239447594        913633461.62155962     
   3806981182.3460221        40921417.703010798        1040181814.2848684     
   3702762804.1949930        30054087.727100134        1031813900.4880444     
   3599128642.4145384        21134145.653103828        1027760198.9582716     
   3496078697.0046606        14161591.481033802        1028020709.6955456     
   3393612967.9653583        9136425.2108752728        1032595432.6998733     
   3387697541.2182331        44923916.330945492        1157066137.5893877     
   3294678340.4299459        37928173.425373435        1149806793.9369059     
   3201439375.1892047        30199882.344956756        1145954546.6647866     
   3107980645.4960070        21739043.089683652        1145509395.7730355     
   3014302151.3503542        12545655.659562588        1148471341.2616515     
   4492478005.0454073       -12811489.964663982        666451331.91532612     
   4361893873.3662128       -2693079.3625602722        663721821.76231253     
   4230401004.4605689        4396207.1513772011        664236805.57064450     
   4097999398.3284802        8456369.5771560669        667996283.34031475     
   3964689054.9699383        9487407.9147644043        675000255.07133329     
   4132700894.8128843       -3542147.6012356281        791585428.02671099     
   4009660581.8679247        1565671.0625154972        786040383.18563187     
   3886206053.6642313        5292772.1971416473        784210072.31838942     
   3762337310.2017999        7639155.8026475906        786094495.42499173     
   3638054351.4806333        8604821.8790268898        791693652.50543618     
   3766412549.1195350        3773824.1239447594        913633461.62155962     
   3652259597.8016615        4274113.7171959877        905849824.38807559     
   3538186953.1927643        5042092.3403670788        902251161.14093149     
   3424194615.2928462        6077759.9934604168        902837471.88012815     
   3310282584.1018963        7381116.6764681339        907608756.60566032     
   3393612967.9653583        9136425.2108752728        1032595432.6998733     
   3289690921.1674194        5432248.6014800072        1023150145.3696525     
   3186343703.0461721        3644167.5810517073        1018360072.0382698     
   3083571313.6016121        3772182.1495808363        1018225212.7057230     
   2981373752.8337426        5816292.3070769310        1022745567.3720136     
   3014302151.3503542        12545655.659562588        1148471341.2616515     
   2921954551.9652004        5040075.7153774500        1137941346.1303623     
   2830676303.2244501        1098997.9191977978        1132536805.0104034     
   2740467405.1281013        722422.27102935314        1132257717.9017828     
   2651327857.6761546        3910348.7708654404        1137104084.8044953     
   3964689054.9699383        9487407.9147644043        675000255.07133329     
   3804424405.8729801        1642451.7011883259        667844882.54105914     
   3644547810.8180871       -4908991.0388410091        665417636.76300514     
   3485059269.8052564       -10166920.305325747        667718517.73716342     
   3325958782.8344846       -14131336.098271132        674747525.46354175     
   3638054351.4806333        8604821.8790268898        791693652.50543618     
   3490612292.1530080        2375924.2741835117        784530532.32073760     
   3343421700.7219586       -3014747.0087440014        782129879.37359750     
   3196482577.1874843       -7567191.9697556496        784491693.66401982     
   3049794921.5495811       -11281410.608859420        791615975.19200659     
   3310282584.1018963        7381116.6764681339        907608756.60566032     
   3175761230.2160172        2797712.3820838928        900278538.26346970     
   3041354758.0812230       -1402752.7420156002        897745127.64417946     
   2907063167.6975098       -5220278.6958460808        900008524.74779356     
   2772886459.0648804       -8654865.4793884754        907068729.57431281     
   2981373752.8337426        5816292.3070769310        1022745567.3720136     
   2859871220.0620103        2907816.0248759985        1015088900.3692559     
   2738346982.8958750       -73008.238676071167        1012263381.5747402     
   2616801041.3353314       -3126180.4835885763        1014269010.9884737     
   2495233395.3803806       -6251700.7098615170        1021105788.6104546     
   2651327857.6761546        3910348.7708654404        1137104084.8044953     
   2542942261.6909800        2706235.2025575638        1128961618.6380942     
   2434398375.1659160        974486.50128006935        1125684641.1652884     
   2325696198.1009469       -1284897.3330121040        1127273152.3860683     
   2216835730.4960890       -4071916.3002653122        1133727152.3004370     
   3325958782.8344846       -14131336.098271132        674747525.46354175     
   3219028815.4200125       -2141148.6540091038        669557803.55974102     
   3111910869.1526904        9222442.6140868664        668136572.80098975     
   3004604944.0325184        19959437.706021547        670483833.18729281     
   2897111040.0595055        30069836.621818066        676599584.71864784     
   3049794921.5495811       -11281410.608859420        791615975.19200659     
   2952041573.8453727        3354.7091892957687        785874245.44959450     
   2854246884.5591240        11150314.753762603        783585752.52223003     
   2756410853.6908369        22159469.524877787        784750496.40991330     
   2658533481.2405066        33030819.022515893        789368477.11264646     
   2772886459.0648804       -8654865.4793884754        907068729.57431281     
   2683409004.4137883        1654259.7152986526        900946068.80922616     
   2594036845.4514689        12314370.539211988        897961390.52918625     
   2504769982.1779113        23325466.992351055        898114694.73419428     
   2415608414.5931239        34687549.074715257        901405981.42424607     
   2495233395.3803806       -6251700.7098615170        1021105788.6104546     
   2413131107.1252627        2811566.3643332720        1014773273.6386391     
   2331280751.8297191        12714609.970436215        1011263486.8218682     
   2249682329.4937520        23457430.108462572        1010576428.1601448     
   2168335840.1173558        35040026.778393984        1012712097.6534635     
   2216835730.4960890       -4071916.3002653122        1133727152.3004370     
   2141207881.9797935        3475274.6562767029        1127355859.9378371     
   2065978603.6938784        12351033.047423959        1123492041.4002748     
   1991147895.6383493        22555358.873186946        1122135696.6877596     
   1916715757.8132026        34088252.133557081        1123286825.8002892     
   2897111040.0595055        30069836.621818066        676599584.71864784     
   2699916032.6690650        13863213.169221401        666009597.84102309     
   2503300196.6524749       -412839.03721940517        657451936.33262503     
   2307263532.0097299       -12758319.997504592        650926600.19344962     
   2111806038.7408311       -23173229.711621284        646433589.42349303     
   2658533481.2405066        33030819.022515893        789368477.11264646     
   2468981075.7801633        16993176.886097550        778734743.71071625     
   2279861342.6286383        2397775.7790688276        771908613.81282914     
   2091174281.7859173       -10755384.298603177        768890087.41898763     
   1902919893.2520220       -22466303.346879005        769679164.52919114     
   2415608414.5931239        34687549.074715257        901405981.42424607     
   2238770834.3052211        20340555.227173209        890557585.92214370     
   2062219427.2611022        6947472.1922380924        885292072.05890262     
   1885954193.4607537       -5491700.0301132202        885609439.83452308     
   1709975132.9041910       -16976961.439856648        891509689.24901617     
   2168335840.1173558        35040026.778393984        1012712097.6534635     
   2009285308.2442410        23905348.192434907        1001478124.4753116     
   1850374450.5498726        13236250.202297211        997602311.07083547     
   1691603267.0342429        3032732.8079756498        1001084657.4400508     
   1532971757.6973686       -6705203.9905248880        1011925163.5829417     
   1916715757.8132026        34088252.133557081        1123286825.8002892     
   1780524497.5972161        27687555.781879783        1111496359.3702090     
   1644326412.4949532        21264109.809267700        1108839330.8486326     
   1508121502.5063877        14817914.215659261        1115315740.2355666     
   1371909767.6315384        8348969.0011045337        1130925587.5309980     
   3768237986.1234641        1130471395.8370392        800563733.81030095     
   3779126328.8607717        1008683914.1106508        884848752.27251410     
   3790625303.3573484        888931871.58182383        974067121.84100318     
   3802734909.6131930        771215268.25055861        1068218842.5157677     
   3815455147.6283064        655534104.11685479        1167303914.2968073     
   3207795569.3530707        962338670.80592132        756689808.43055248     
   3235885327.0611892        868186181.92969692        853056524.60394228     
   3263701383.4969316        773121355.47888374        951344441.29856527     
   3291243738.6602969        677144191.45348132        1051553558.5144218     
   3318512392.5512838        580254689.85348940        1153683876.2515111     
   2685613810.3531861        805684143.10595584        721975808.73936117     
   2722298838.5034218        736584803.72128773        829392500.75367522     
   2757825832.3496370        663625349.98988020        935718242.70417976     
   2792194791.8918300        586805781.91173291        1040953034.5908751     
   2825405717.1300015        506126099.48684573        1145096876.4137614     
   2201692709.1238079        660507812.73714244        696421734.73672748     
   2238366863.1874704        613879779.48542309        813856680.72171247     
   2272998649.9154658        560443855.11481357        927188526.05784631     
   2305588069.3077941        500200039.62531340        1036417270.7451282     
   2336135121.3644547        433148333.01692313        1141542914.7835584     
   1756032265.6649380        526809679.69948143        680027586.42265117     
   1784089401.1133335        500071109.22210294        806449064.50805485     
   1809219836.1944172        463576870.85368383        925755291.35956430     
   1831423570.9081883        417326964.59422326        1037946266.9771801     
   1850700605.2546475        361321390.44372237        1143021991.3609025     
   3815455147.6283064        655534104.11685479        1167303914.2968073     
   3797986946.1832609        537555567.50675118        1188954289.0087366     
   3784364701.5690436        432396886.99941266        1205684999.6752074     
   3774588413.7856555        340058062.59483743        1217496046.2962210     
   3768658082.8330970        260539094.29302573        1224387428.8717763     
   3318512392.5512838        580254689.85348940        1153683876.2515111     
   3293824271.5881367        473019357.99265766        1181999031.1098344     
   3272865589.6086173        378215489.41059268        1207200864.6729360     
   3255636346.6127286        295843084.10729373        1229289376.9408162     
   3242136542.6004705        225902142.08276331        1248264567.9134734     
   2825405717.1300015        506126099.48684573        1145096876.4137614     
   2798658655.9351382        411182266.16120201        1179940873.9300804     
   2775524515.8767066        328281503.29032767        1213477892.9014132     
   2756003296.9547067        257423810.87422359        1245707933.3277600     
   2740094999.1691360        198609188.91288733        1276630995.2091205     
   2336135121.3644547        433148333.01692313        1141542914.7835584     
   2312490099.2242670        352044292.01238501        1182779817.4694738     
   2292341480.3733110        282594928.63861787        1224516084.3606381     
   2275689264.8115864        224800242.89562267        1266751715.4570539     
   2262533452.5390925        178660234.78339994        1309486710.7587163     
   1850700605.2546475        361321390.44372237        1143021991.3609025     
   1835318601.4555221        295605435.54620475        1190515861.7280142     
   1823316483.0984297        241155765.45546156        1240315439.0506113     
   1814694250.1833694        197972380.17149347        1292420723.3286951     
   1809451902.7103417        166055279.69429827        1346831714.5622649     
   3768658082.8330970        260539094.29302573        1224387428.8717763     
   3661902130.7925978        168249244.34656227        1191902463.8097315     
   3562823389.8432875        101550098.03739345        1169853926.9086518     
   3471421859.9851656        60441655.365521193        1158241818.1685357     
   3387697541.2182331        44923916.330945492        1157066137.5893877     
   3242136542.6004705        225902142.08276331        1248264567.9134734     
   3164801987.0002446        151680625.00929987        1231164327.9435930     
   3093542289.4015274        97708634.607531548        1222089887.9499557     
   3028357449.8043175        63986170.877454162        1221041247.9325633     
   2969247468.2086163        50513233.819070697        1228018407.8914154     
   2740094999.1691360        198609188.91288733        1276630995.2091205     
   2685294330.9099803        140389751.98266673        1273046068.3934410     
   2634966167.5626516        97078664.758534551        1275076313.3692875     
   2589110509.1271505        68675927.240490556        1282721730.1366549     
   2547727355.6034746        55181539.428535461        1295982318.6955459     
   2262533452.5390925        178660234.78339994        1309486710.7587163     
   2223379162.5218043        134376625.26665866        1317547685.1592803     
   2187095024.3266611        99660188.490402460        1328813203.1666458     
   2153681037.9536643        74510924.454632521        1343283264.7808132     
   2123137203.4028120        58928833.159346461        1360957870.0017831     
   1809451902.7103417        166055279.69429827        1346831714.5622649     
   1779056481.8357167        133641244.86127758        1364669178.2411082     
   1749928859.6935556        105453205.80313790        1383300557.3420324     
   1722069036.2838583        81491162.519878268        1402725851.8650377     
   1695477011.6066263        61755115.011499643        1422945061.8101239     
   3387697541.2182331        44923916.330945492        1157066137.5893877     
   3294678340.4299459        37928173.425373435        1149806793.9369059     
   3201439375.1892047        30199882.344956756        1145954546.6647866     
   3107980645.4960070        21739043.089683652        1145509395.7730355     
   3014302151.3503542        12545655.659562588        1148471341.2616515     
   2969247468.2086163        50513233.819070697        1228018407.8914154     
   2884465773.5360699        38989077.963272691        1220008023.6429291     
   2799972052.8129911        28424835.272364974        1215972104.5531662     
   2715766306.0393772        18820505.746341228        1215910650.6221192     
   2631848533.2152333        10176089.385211349        1219823661.8497889     
   2547727355.6034746        55181539.428535461        1295982318.6955459     
   2472804220.6991057        39615286.718245983        1287813255.3199708     
   2398676798.1461258        26701408.512582541        1284186025.8814631     
   2325345087.9445324        16439904.811540484        1285100630.3800304     
   2252809090.0943260        8830775.6151231527        1290557068.8156636     
   2123137203.4028120        58928833.159346461        1360957870.0017831     
   2059693681.9190552        39806799.690293908        1353222488.9680219     
   1997553611.1886065        25029602.065600514        1350596310.6496840     
   1936716991.2114682        14597240.285273552        1353079335.0467694     
   1877183821.9876366        8509714.3493024111        1360671562.1592758     
   1695477011.6066263        61755115.011499643        1422945061.8101239     
   1645134157.1959157        39563616.879412115        1416235724.5870867     
   1596602491.9404349        23409415.931424677        1415202958.8578231     
   1549882015.8401823        13292512.167533398        1419846764.6223361     
   1504972728.8951612        9212905.5877425075        1430167141.8806231     
   3014302151.3503542        12545655.659562588        1148471341.2616515     
   2921954551.9652004        5040075.7153774500        1137941346.1303623     
   2830676303.2244501        1098997.9191977978        1132536805.0104034     
   2740467405.1281013        722422.27102935314        1132257717.9017828     
   2651327857.6761546        3910348.7708654404        1137104084.8044953     
   2631848533.2152333        10176089.385211349        1219823661.8497889     
   2553012713.4816465        4730533.3299981356        1211422071.9817345     
   2474992836.9713941        2004788.0192348957        1207813314.6291726     
   2397788903.6844792        1998853.4529327154        1208997389.7921057     
   2321400913.6209025        4712729.6310850382        1214974297.4705274     
   2252809090.0943260        8830775.6151231527        1290557068.8156636     
   2186534702.8813291        5160139.3095856905        1283988242.2196031     
   2120822851.4706037        3364622.3449532986        1281879626.6431930     
   2055673535.8621483        3444224.7212235928        1284231222.0864356     
   1991086756.0559676        5398946.4384014606        1291043028.5493276     
   1877183821.9876366        8509714.3493024111        1360671562.1592758     
   1822520520.1642532        6328893.6541477442        1355639856.8439646     
   1768166346.7220769        5178500.8963449001        1354735741.0524635     
   1714121301.6611073        5058536.0759030581        1357959214.7847743     
   1660385384.9813442        5968999.1928105354        1365310278.0408928     
   1504972728.8951612        9212905.5877425075        1430167141.8806231     
   1460970165.3304195        8236796.3636824489        1426376915.8548210     
   1417023322.7258189        7446423.6734289527        1426381657.8569875     
   1373132201.0813572        6841787.5169695616        1430181367.8871202     
   1329296800.3970373        6422887.8943177462        1437776045.9452245     
   2651327857.6761546        3910348.7708654404        1137104084.8044953     
   2542942261.6909800        2706235.2025575638        1128961618.6380942     
   2434398375.1659160        974486.50128006935        1125684641.1652884     
   2325696198.1009469       -1284897.3330121040        1127273152.3860683     
   2216835730.4960890       -4071916.3002653122        1133727152.3004370     
   2321400913.6209025        4712729.6310850382        1214974297.4705274     
   2225565134.5966439        2805005.3073551655        1206636990.3820057     
   2129713018.6257503        842824.49484121799        1203250271.6672380     
   2033844565.7082148       -1173812.8064732552        1204814141.3262184     
   1937959775.8440428       -3244906.5965862274        1211328599.3589494     
   1991086756.0559676        5398946.4384014606        1291043028.5493276     
   1908043935.9359388        2860553.9422440529        1282676493.0641530     
   1825126732.4625309        740883.60148954391        1279345645.6328905     
   1742335145.6357429       -960064.58386957645        1281050486.2555370     
   1659669175.4555733       -2242290.6138256788        1287791014.9320922     
   1660385384.9813442        5968999.1928105354        1365310278.0408928     
   1590378665.7088628        2872881.1072206497        1357080126.6845329     
   1520639516.6762564        668663.82121956348        1353970763.0622437     
   1451167937.8835285       -643652.66518533230        1355982187.1740291     
   1381963929.3306801       -1064068.3519998789        1363114399.0198781     
   1329296800.3970373        6422887.8943177462        1437776045.9452245     
   1272569323.9154136        2841986.8022786379        1429847891.2431471     
   1216251371.2669270        626165.15403401852        1427125623.9553013     
   1160342942.4515791       -224577.05041652918        1429609244.0816863     
   1104844037.4693635        289760.18890553713        1437298751.6223035     
   2216835730.4960890       -4071916.3002653122        1133727152.3004370     
   2141207881.9797935        3475274.6562767029        1127355859.9378371     
   2065978603.6938784        12351033.047423959        1123492041.4002748     
   1991147895.6383493        22555358.873186946        1122135696.6877596     
   1916715757.8132026        34088252.133557081        1123286825.8002892     
   1937959775.8440428       -3244906.5965862274        1211328599.3589494     
   1869233848.3853168        3218656.0605311394        1205825200.6859088     
   1800779421.2087791        10587219.658283830        1203373566.3012099     
   1732596494.3144283        18860784.196654677        1203973696.2048481     
   1664685067.7022753        28039349.675684512        1207625590.3968248     
   1659669175.4555733       -2242290.6138256788        1287791014.9320922     
   1599400284.6638238        3604178.4266832471        1283007261.6757309     
   1539275824.2060707        9932081.9138540626        1281819563.1709998     
   1479295794.0823154        16741419.847681463        1284227919.4178996     
   1419460194.2925613        24032192.228179216        1290232330.4164317     
   1381963929.3306801       -1064068.3519998789        1363114399.0198781     
   1331707190.8153181        4631841.7547336817        1358902042.9073048     
   1281467812.6857591        10385619.814143419        1358830032.0096502     
   1231245794.9420068        16197265.826241136        1362898366.3269198     
   1181041137.5840611        22066779.791029811        1371107045.8591156     
   1104844037.4693635        289760.18890553713        1437298751.6223035     
   1066154566.8397952        6301646.0446721315        1433509544.3806190     
   1027355386.6478426        11947833.359154642        1434404972.8171537     
   988446496.89350200        17228322.132342935        1439985036.9319041     
   949427897.57678020        22143112.364259541        1450249736.7248735     
   1916715757.8132026        34088252.133557081        1123286825.8002892     
   1780524497.5972161        27687555.781879783        1111496359.3702090     
   1644326412.4949532        21264109.809267700        1108839330.8486326     
   1508121502.5063877        14817914.215659261        1115315740.2355666     
   1371909767.6315384        8348969.0011045337        1130925587.5309980     
   1664685067.7022753        28039349.675684512        1207625590.3968248     
   1551165430.7953315        24151592.053559005        1197588243.1236384     
   1437780539.7516527        20712987.308986843        1195277259.2420816     
   1324530394.5712590        17723535.442020059        1200692638.7521565     
   1211414995.2541256        15183236.452603579        1213834381.6538606     
   1419460194.2925613        24032192.228179216        1290232330.4164317     
   1324591967.7892976        21451309.463975072        1282113268.1746316     
   1230000057.8988709        19791482.075895786        1280313494.8075807     
   1135684464.6212769        19052710.063920021        1284833010.3152928     
   1041645187.9565079        19234993.428047717        1295671814.6977541     
   1181041137.5840611        22066779.791029811        1371107045.8591156     
   1100804108.5791268        19586708.013165951        1365071434.5231779     
   1020984966.9365823        18499594.109939039        1363948037.5451262     
   941583712.65643215        18805438.081353724        1367736854.9249630     
   862600345.73867488        20504239.927424073        1376437886.6626623     
   949427897.57678020        22143112.364259541        1450249736.7248735     
   879801853.16480923        18557787.701096058        1446462742.1692979     
   810735266.86479867        16837323.411133647        1446180887.4547288     
   742228138.67674267        16981719.494350582        1449404172.5811625     
   674280468.60063648        18990975.950738698        1456132597.5486102     
   1756032265.6649380        526809679.69948143        680027586.42265117     
   1784089401.1133335        500071109.22210294        806449064.50805485     
   1809219836.1944172        463576870.85368383        925755291.35956430     
   1831423570.9081883        417326964.59422326        1037946266.9771801     
   1850700605.2546475        361321390.44372237        1143021991.3609025     
   1326382663.1303749        397914798.93911242        669690174.13664436     
   1339612347.2220411        375516920.83300722        791851873.56544137     
   1350647006.0382066        345802291.80856597        908721394.17573893     
   1359486639.5788713        308770911.86578870        1020298735.9675367     
   1366131247.8440354        264422781.00467545        1126583898.9408352     
   890494084.67391729        267148225.40217519        662306308.21821892     
   894105095.73855281        250653673.16625288        781061849.93085575     
   896252756.61949861        229281286.98469919        896348285.24038756     
   896937067.31675506        203031066.85751405        1008165614.1468140     
   896158027.83032227        171903012.78469795        1116513836.6501358     
   448366530.29556614        134509959.08866984        657875988.66737461     
   447567646.66286838        125481366.22183962        774078993.60429800     
   446037087.93829286        114013856.38208292        888635964.55351079     
   443774854.12183940        100107429.56939989        1001546901.5150130     
   440780945.21350765        83762085.783789814        1112811804.4888041     
  -4.6792354789417035E-003  -1.4037706436825109E-003   656399215.48411167     
  -5.0116847485202213E-003  -2.3233475582978163E-004   770903304.58576846     
  -5.4106130061640986E-003   7.1754787322531521E-004   885584432.11510897     
  -5.8761646533055387E-003   1.4454175894188844E-003   1000442598.0721331     
  -6.4080551762315868E-003   1.9519842473161644E-003   1115477802.4568410     
   1850700605.2546475        361321390.44372237        1143021991.3609025     
   1835318601.4555221        295605435.54620475        1190515861.7280142     
   1823316483.0984297        241155765.45546156        1240315439.0506113     
   1814694250.1833694        197972380.17149347        1292420723.3286951     
   1809451902.7103417        166055279.69429827        1346831714.5622649     
   1366131247.8440354        264422781.00467545        1126583898.9408352     
   1360428289.2956102        216885878.12195036        1181956136.9504724     
   1357260244.8287063        177798688.84429723        1238272921.5786710     
   1356627114.4433255        147161213.17171836        1295534252.8254318     
   1358528898.1394649        124973451.10421032        1353740130.6907549     
   896158027.83032227        171903012.78469795        1116513836.6501358     
   896245084.99852765        141378453.05654430        1178778642.3817029     
   898022084.88774455        116487035.73176187        1240626834.3949084     
   901489027.49797237        97228760.810350806        1302058412.6897502     
   906645912.82921159        83603628.292309046        1363073377.2662311     
   440780945.21350765        83762085.783789814        1112811804.4888041     
   442768988.56427485        69083160.349987447        1180983378.0217061     
   445602003.27554297        57220806.117854550        1247377177.4993212     
   449279989.34731168        48175023.087390050        1311993202.9216502     
   453802946.77958101        41945811.258594707        1374831454.2886918     
  -6.4080551762315868E-003   1.9519842473161644E-003   1115477802.4568410     
  -7.1480653356088848E-003   2.2792293464667509E-003   1188570343.8704815     
  -7.8973772347675324E-003   2.5756854867806682E-003   1258523950.8919108     
  -8.6567386157772562E-003   2.8389686149094045E-003   1325338623.5211306     
  -9.4262967395045659E-003   3.0673952389082115E-003   1389014361.7581398     
   1809451902.7103417        166055279.69429827        1346831714.5622649     
   1779056481.8357167        133641244.86127758        1364669178.2411082     
   1749928859.6935556        105453205.80313790        1383300557.3420324     
   1722069036.2838583        81491162.519878268        1402725851.8650377     
   1695477011.6066263        61755115.011499643        1422945061.8101239     
   1358528898.1394649        124973451.10421032        1353740130.6907549     
   1333174401.8444140        99895545.787766337        1372834237.5580757     
   1308770754.5986688        77987137.302340448        1393319110.3299325     
   1285317956.4022279        59248225.647930920        1415194749.0063245     
   1262816007.2550917        43678810.824536681        1438461153.5872533     
   906645912.82921159        83603628.292309046        1363073377.2662311     
   888037628.20646322        66373438.620261163        1383054352.6916780     
   870063242.94986022        51256246.835365623        1405022944.5041149     
   852722757.05940390        38252052.937624604        1428979152.7035418     
   836016170.53509295        27360856.927035719        1454922977.2899592     
   453802946.77958101        41945811.258594707        1374831454.2886918     
   443646160.92186344        33074923.358761892        1395329523.6419122     
   433806324.74713194        25260534.402214780        1418412059.8645773     
   424283438.25538760        18502644.388959363        1444079062.9566875     
   415077501.44663048        12801253.318994135        1472330532.9182439     
  -9.4262967395045659E-003   3.0673952389082115E-003   1389014361.7581398     
  -9.3854182667366028E-003   3.2657599152413927E-003   1409659750.4087803     
  -9.5173411276503368E-003   2.8881201459689111E-003   1433486456.4113209     
  -9.8211217089264197E-003   1.9384019343861260E-003   1460494479.7657623     
  -1.0296571287900982E-002   4.1489247934669909E-004   1490683820.4721026     
   1695477011.6066263        61755115.011499643        1422945061.8101239     
   1645134157.1959157        39563616.879412115        1416235724.5870867     
   1596602491.9404349        23409415.931424677        1415202958.8578231     
   1549882015.8401823        13292512.167533398        1419846764.6223361     
   1504972728.8951612        9212905.5877425075        1430167141.8806231     
   1262816007.2550917        43678810.824536681        1438461153.5872533     
   1228221834.5575490        27984077.658358276        1435283134.3516271     
   1194986053.7265279        16817317.380583584        1437043660.7171452     
   1163108664.7620265        10178529.991207123        1443742732.6838102     
   1132589667.6640456        8067715.4902338386        1455380350.2516177     
   836016170.53509295        27360856.927035719        1454922977.2899592     
   815062034.14320624        17530295.104512930        1454748012.5382502     
   795013492.32912970        10718381.874689966        1458773567.4950557     
   775870545.09286642        6925117.2375777066        1466999642.1603761     
   757633192.43441308        6150501.1931684315        1479426236.5342121     
   415077501.44663048        12801253.318994135        1472330532.9182439     
   405654755.95288509        8202269.2178700864        1474630359.1469564     
   396684807.74824220        5112609.4137538224        1480392679.1915555     
   388167656.83270109        3532273.9066442996        1489617493.0520413     
   380103303.20626438        3461262.6965481341        1502304800.7284122     
  -1.0296571287900982E-002   4.1489247934669909E-004   1490683820.4721026     
  -1.3411936396643788E-002  -1.5597184715937583E-003   1494930174.1777449     
  -1.6137206040298693E-002  -2.2336642608793496E-003   1501900995.8066440     
  -1.8465140131215411E-002  -1.5828112630091240E-003   1511596285.3587987     
  -2.0401354598361225E-002   3.7273298001186048E-004   1524016042.8342102     
   1504972728.8951612        9212905.5877425075        1430167141.8806231     
   1460970165.3304195        8236796.3636824489        1426376915.8548210     
   1417023322.7258189        7446423.6734289527        1426381657.8569875     
   1373132201.0813572        6841787.5169695616        1430181367.8871202     
   1329296800.3970373        6422887.8943177462        1437776045.9452245     
   1132589667.6640456        8067715.4902338386        1455380350.2516177     
   1098713693.4848993        7073418.1214218736        1450848283.8153615     
   1064879510.0259418        6218423.1532362700        1450315130.7580767     
   1031087117.2871726        5502730.5856810808        1453780891.0797625     
   997336515.26859117        4926340.4187493920        1461245564.7804172     
   757633192.43441308        6150501.1931684315        1479426236.5342121     
   734466508.64372742        5312825.9804607928        1474136077.7408915     
   711327685.33328021        4568019.0352131724        1473048777.6775432     
   688216722.50306618        3916080.3574095070        1476164336.3441703     
   665133620.15308893        3357009.9470624626        1483482753.7407696     
   380103303.20626438        3461262.6965481341        1502304800.7284122     
   368228610.80690616        2955019.9408099353        1496240297.6314130     
   356367848.64782983        2495211.3193459064        1494582598.6153903     
   344521016.72903895        2081836.8321650326        1497331703.6803460     
   332688115.05052954        1714896.4792559445        1504487612.8262768     
  -2.0401354598361225E-002   3.7273298001186048E-004   1524016042.8342102     
  -2.5568146501108183E-002   2.4589533705913179E-003   1517160943.4869227     
  -3.0402283255006941E-002   5.6554120361122038E-003   1514916593.5716169     
  -3.4907893883188240E-002   9.9466108426627675E-003   1517282993.0882881     
  -3.9082565023101978E-002   1.5340247387381470E-002   1524260142.0369411     
   1329296800.3970373        6422887.8943177462        1437776045.9452245     
   1272569323.9154136        2841986.8022786379        1429847891.2431471     
   1216251371.2669270        626165.15403401852        1427125623.9553013     
   1160342942.4515791       -224577.05041652918        1429609244.0816863     
   1104844037.4693635        289760.18890553713        1437298751.6223035     
   997336515.26859117        4926340.4187493920        1461245564.7804172     
   954479374.17571497        2147204.4812009335        1453686897.7642999     
   911929375.95715666        391878.12471342087        1451406809.3665643     
   869686520.61291981       -339638.65070390701        1454405299.5872128     
   827750808.14300191       -47345.845057845116        1462682368.4262505     
   665133620.15308893        3357009.9470624626        1483482753.7407696     
   636354503.60368466        1441945.9104203582        1476174129.9586542     
   607780148.96978307        209421.59211814404        1474216775.9990764     
   579410556.25138497       -340563.00783735514        1477610691.8620389     
   551245725.44848680       -208007.88946062326        1486355877.5475380     
   332688115.05052954        1714896.4792559445        1504487612.8262768     
   318194712.19932580        726211.08994613588        1497309587.8262105     
   303803690.30480558        78795.556248605251        1495555523.8528373     
   289515049.36696798       -227350.12184046209        1499225420.9061549     
   275328789.38581294       -192225.94432099164        1508319278.9861658     
  -3.9082565023101978E-002   1.5340247387381470E-002   1524260142.0369411     
  -3.7364616895024738E-002   1.9769167987608326E-002   1517093271.3669696     
  -3.7782780567211849E-002   1.7079103699068079E-002   1515423052.9278452     
  -4.0331268544637977E-002   7.2876114483692456E-003   1519249486.7195663     
  -4.5013535023938803E-002  -9.6171696979689674E-003   1528572572.7421348     
   1104844037.4693635        289760.18890553713        1437298751.6223035     
   1066154566.8397952        6301646.0446721315        1433509544.3806190     
   1027355386.6478426        11947833.359154642        1434404972.8171537     
   988446496.89350200        17228322.132342935        1439985036.9319041     
   949427897.57678020        22143112.364259541        1450249736.7248735     
   827750808.14300191       -47345.845057845116        1462682368.4262505     
   800428864.78519845        4970116.4263710678        1458789248.7057791     
   773024639.25558805        9713304.7917796075        1459185227.4202158     
   745538131.55417848        14182219.251188338        1463870304.5695667     
   717969341.68095934        18376859.804568082        1472844480.1538193     
   551245725.44848680       -208007.88946062326        1486355877.5475380     
   534161202.95299393        3475998.8747942746        1482390843.9706242     
   517021825.67627954        6977156.3683083951        1482319371.5853133     
   499827593.61834073        10295464.591076255        1486141460.3916039     
   482578506.77917761        13430923.543095052        1493857110.3894944     
   275328789.38581294       -192225.94432099164        1508319278.9861658     
   267351581.34318164        1819293.3899335116        1504314330.1751544     
   259346945.90990472        3739388.0887022614        1503807405.3124366     
   251314883.08598709        5568058.1520010680        1506798504.3980129     
   243255392.87142664        7305303.5798245519        1513287627.4318817     
  -4.5013535023938803E-002  -9.6171696979689674E-003   1528572572.7421348     
  -4.4240526992727264E-002  -2.8215204897760474E-002   1524559707.3193736     
  -4.3526263179796715E-002  -4.7009054158488620E-002   1523649328.6015933     
  -4.2876416702800464E-002  -6.6018321761721455E-002   1525841436.5887983     
  -4.2286046459266272E-002  -8.5224455697713739E-002   1531136031.2809889     
   949427897.57678020        22143112.364259541        1450249736.7248735     
   879801853.16480923        18557787.701096058        1446462742.1692979     
   810735266.86479867        16837323.411133647        1446180887.4547288     
   742228138.67674267        16981719.494350582        1449404172.5811625     
   674280468.60063648        18990975.950738698        1456132597.5486102     
   717969341.68095934        18376859.804568082        1472844480.1538193     
   659136417.02714849        13703848.900783896        1469023863.7606900     
   600723085.95855892        10429483.281069428        1470251511.8575871     
   542729348.47518706        8553762.9454194307        1476527424.4445097     
   485155204.57703942        8076687.8938350677        1487851601.5214658     
   482578506.77917761        13430923.543095052        1493857110.3894944     
   438947629.45215619        8992904.6692672670        1489839696.8776102     
   395596481.18362319        5487315.9903997481        1492413672.5047805     
   352525061.97357607        2914157.5064817071        1501579037.2710040     
   309733371.82200986        1273429.2175083458        1517335791.1762698     
   243255392.87142664        7305303.5798245519        1513287627.4318817     
   219235490.43983296        4424955.0065505356        1508910241.5200593     
   195355452.53999504        2010821.5391273201        1512667369.3963130     
   171615279.17190105        62903.177519761026        1524559011.0606360     
   148014970.33556160       -1418800.0782440007        1544585166.5130389     
  -4.2286046459266272E-002  -8.5224455697713739E-002   1531136031.2809889     
  -9.8201666578698679E-003  -8.7365188343808617E-002   1526235497.6880388     
   2.7666788274291448E-002  -7.2767616108573019E-002   1531012602.5321832     
   7.0169694230950166E-002  -4.1450554069707962E-002   1545467345.8134215     
  0.11768370161153167        6.5680977140619504E-003   1569599727.5317588     
  -4.6792354789417035E-003  -1.4037706436825109E-003   656399215.48411167     
  -5.0116847485202213E-003  -2.3233475582978163E-004   770903304.58576846     
  -5.4106130061640986E-003   7.1754787322531521E-004   885584432.11510897     
  -5.8761646533055387E-003   1.4454175894188844E-003   1000442598.0721331     
  -6.4080551762315868E-003   1.9519842473161644E-003   1115477802.4568410     
  -448366530.30475682       -134509959.09142703        657875988.66840529     
  -447567646.67275137       -125481366.22237340        774078993.60530102     
  -446037087.94898927       -114013856.38079783        888635964.55449283     
  -443774854.13347071       -100107429.56670043        1001546901.5159801     
  -440780945.22619569       -83762085.780081570        1112811804.4897630     
  -890494084.68260467       -267148225.40478140        662306308.22023058     
  -894105095.74794090       -250653673.16674936        781061849.93282568     
  -896252756.62969732       -229281286.98345205        896348285.24232841     
  -896937067.32787418       -203031066.85488915        1008165614.1487399     
  -896158027.84247148       -171903012.78106141        1116513836.6520584     
  -1326382663.1382229       -397914798.94146687        669690174.13958776     
  -1339612347.2305803       -375516920.83336043        791851873.56834221     
  -1350647006.0475345       -345802291.80724502        908721394.17861700     
  -1359486639.5890863       -308770911.86312068        1020298735.9704115     
  -1366131247.8552356       -264422781.00098789        1126583898.9437265     
  -1756032265.6716118       -526809679.70148355        680027586.42647648     
  -1784089401.1206691       -500071109.22220623        806449064.51185071     
  -1809219836.2025008       -463576870.85217667        925755291.36335695     
  -1831423570.9171071       -417326964.59139436        1037946266.9809959     
  -1850700605.2644877       -361321390.43986046        1143021991.3647673     
  -6.4080551762315868E-003   1.9519842473161644E-003   1115477802.4568410     
  -7.1480653356088848E-003   2.2792293464667509E-003   1188570343.8704815     
  -7.8973772347675324E-003   2.5756854867806682E-003   1258523950.8919108     
  -8.6567386157772562E-003   2.8389686149094045E-003   1325338623.5211306     
  -9.4262967395045659E-003   3.0673952389082115E-003   1389014361.7581398     
  -440780945.22619569       -83762085.780081570        1112811804.4897630     
  -442768988.57841611       -69083160.345633388        1180983378.0227857     
  -445602003.29117674       -57220806.112986282        1247377177.5005443     
  -449279989.36447775       -48175023.082140192        1311993202.9230392     
  -453802946.79831886       -41945811.253094777        1374831454.2902706     
  -896158027.84247148       -171903012.78106141        1116513836.6520584     
  -896245085.01203835       -141378453.05225232        1178778642.3838434     
  -898022084.90267575       -116487035.72701287        1240626834.3973119     
  -901489027.51438463       -97228760.805343121        1302058412.6924641     
  -906645912.84716320       -83603628.287241608        1363073377.2692983     
  -1366131247.8552356       -264422781.00098789        1126583898.9437265     
  -1360428289.3080144       -216885878.11757827        1181956136.9536562     
  -1357260244.8423955       -177798688.83950630        1238272921.5822148     
  -1356627114.4583769       -147161213.16677135        1295534252.8294039     
  -1358528898.1559610       -124973451.09937531        1353740130.6952236     
  -1850700605.2644877       -361321390.43986046        1143021991.3647673     
  -1835318601.4663451       -295605435.54160947        1190515861.7322214     
  -1823316483.1103346       -241155765.45046425        1240315439.0552526     
  -1814694250.1964564       -197972380.16642749        1292420723.3338602     
  -1809451902.7247095       -166055279.68949431        1346831714.5680454     
  -9.4262967395045659E-003   3.0673952389082115E-003   1389014361.7581398     
  -9.3854182667366028E-003   3.2657599152413927E-003   1409659750.4087803     
  -9.5173411276503368E-003   2.8881201459689111E-003   1433486456.4113209     
  -9.8211217089264197E-003   1.9384019343861260E-003   1460494479.7657623     
  -1.0296571287900982E-002   4.1489247934669909E-004   1490683820.4721026     
  -453802946.79831886       -41945811.253094777        1374831454.2902706     
  -443646160.94061267       -33074923.353016466        1395329523.6433451     
  -433806324.76617122       -25260534.397153750        1418412059.8658285     
  -424283438.27499080       -18502644.385493919        1444079062.9577203     
  -415077501.46707267       -12801253.318043917        1472330532.9190207     
  -906645912.84716320       -83603628.287241608        1363073377.2692983     
  -888037628.22462606       -66373438.615136832        1383054352.6945348     
  -870063242.96844268       -51256246.830878377        1405022944.5066884     
  -852722757.07861173       -38252052.934462368        1428979152.7057595     
  -836016170.55513453       -27360856.925890148        1454922977.2917461     
  -1358528898.1559610       -124973451.09937531        1353740130.6952236     
  -1333174401.8614242       -99895545.783092320        1372834237.5623500     
  -1308770754.6163330       -77987137.298289955        1393319110.3339014     
  -1285317956.4206848       -59248225.644967794        1415194749.0098774     
  -1262816007.2744799       -43678810.823121488        1438461153.5902812     
  -1809451902.7247095       -166055279.68949431        1346831714.5680454     
  -1779056481.8510079       -133641244.85688257        1364669178.2467897     
  -1749928859.7098415       -105453205.79938668        1383300557.3474667     
  -1722069036.3012085       -81491162.517004669        1402725851.8700774     
  -1695477011.6251101       -61755115.009736598        1422945061.8146231     
  -1.0296571287900982E-002   4.1489247934669909E-004   1490683820.4721026     
  -1.3411936396643788E-002  -1.5597184715937583E-003   1494930174.1777449     
  -1.6137206040298693E-002  -2.2336642608793496E-003   1501900995.8066440     
  -1.8465140131215411E-002  -1.5828112630091240E-003   1511596285.3587987     
  -2.0401354598361225E-002   3.7273298001186048E-004   1524016042.8342102     
  -415077501.46707267       -12801253.318043917        1472330532.9190207     
  -405654755.97921818       -8202269.2203696370        1474630359.1487377     
  -396684807.77981246       -5112609.4175256491        1480392679.1944861     
  -388167656.86884922       -3532273.9094898105        1489617493.0562692     
  -380103303.24633425       -3461262.6962805837        1502304800.7340806     
  -836016170.55513453       -27360856.925890148        1454922977.2917461     
  -815062034.16837716       -17530295.106184930        1454748012.5418906     
  -795013492.35890722       -10718381.877438307        1458773567.5008450     
  -775870545.12672234       -6925117.2396418154        1466999642.1686058     
  -757633192.47182512       -6150501.1928038001        1479426236.5451777     
  -1262816007.2744799       -43678810.823121488        1438461153.5902812     
  -1228221834.5808890       -27984077.659006417        1435283134.3572059     
  -1194986053.7534232       -16817317.381978273        1437043660.7257164     
  -1163108664.7920864       -10178529.992044389        1443742732.6958110     
  -1132589667.6968739       -8067715.4891923070        1455380350.2674911     
  -1695477011.6251101       -61755115.009736598        1422945061.8146231     
  -1645134157.2167525       -39563616.878829896        1416235724.5946829     
  -1596602491.9633617       -23409415.931147873        1415202958.8691027     
  -1549882015.8649366       -13292512.166685343        1419846764.6378844     
  -1504972728.9214809       -9212905.5854516029        1430167141.9010260     
  -2.0401354598361225E-002   3.7273298001186048E-004   1524016042.8342102     
  -2.5568146501108183E-002   2.4589533705913179E-003   1517160943.4869227     
  -3.0402283255006941E-002   5.6554120361122038E-003   1514916593.5716169     
  -3.4907893883188240E-002   9.9466108426627675E-003   1517282993.0882881     
  -3.9082565023101978E-002   1.5340247387381470E-002   1524260142.0369411     
  -380103303.24633425       -3461262.6962805837        1502304800.7340806     
  -368228610.85706902       -2955019.9376183450        1496240297.6386361     
  -356367848.70764416       -2495211.3117560446        1494582598.6246424     
  -344521016.79806340       -2081836.8187074959        1497331703.6920986     
  -332688115.12832361       -1714896.4584619701        1504487612.8410046     
  -757633192.47182512       -6150501.1928038001        1479426236.5451777     
  -734466508.68964100       -5312825.9780174196        1474136077.7547047     
  -711327685.38747072       -4568019.0299460292        1473048777.6951535     
  -688216722.56531453       -3916080.3485869169        1476164336.3665230     
  -665133620.22317374       -3357009.9339468479        1483482753.7688122     
  -1132589667.6968739       -8067715.4891923070        1455380350.2674911     
  -1098713693.5232832       -7073418.1187381148        1450848283.8351254     
  -1064879510.0698797       -6218423.1489075422        1450315130.7831495     
  -1031087117.3366616       -5502730.5796951056        1453780891.1115682     
  -997336515.32363224       -4926340.4111109376        1461245564.8203740     
  -1504972728.9214809       -9212905.5854516029        1430167141.9010260     
  -1460970165.3579965       -8236796.3597794175        1426376915.8798990     
  -1417023322.7548733       -7446423.6686474085        1426381657.8886330     
  -1373132201.1121058       -6841787.5120307803        1430181367.9272273     
  -1329296800.4297018       -6422887.8899617195        1437776045.9956841     
  -3.9082565023101978E-002   1.5340247387381470E-002   1524260142.0369411     
  -3.7364616895024738E-002   1.9769167987608326E-002   1517093271.3669696     
  -3.7782780567211849E-002   1.7079103699068079E-002   1515423052.9278452     
  -4.0331268544637977E-002   7.2876114483692456E-003   1519249486.7195663     
  -4.5013535023938803E-002  -9.6171696979689674E-003   1528572572.7421348     
  -332688115.12832361       -1714896.4584619701        1504487612.8410046     
  -318194712.27464610       -726211.06291359663        1497309587.8389702     
  -303803690.38103640       -78795.534257695079        1495555523.8634973     
  -289515049.44750261        227350.12747938931        1499225420.9145792     
  -275328789.47403497        192225.92232745886        1508319278.9922171     
  -665133620.22317374       -3357009.9339468479        1483482753.7688122     
  -636354503.67264271       -1441945.8937925696        1476174129.9837923     
  -607780149.04012263       -209421.58034092188        1474216776.0210388     
  -579410556.32561350        340563.00640597939        1477610691.8805528     
  -551245725.52911544        208007.86644941568        1486355877.5623357     
  -997336515.32363224       -4926340.4111109376        1461245564.8203740     
  -954479374.23136473       -2147204.4729000330        1453686897.8014345     
  -911929376.01504362       -391878.12117958069        1451406809.4004738     
  -869686520.67467451        339638.64403587580        1454405299.6174929     
  -827750808.21025348        47345.822756588459        1462682368.4524858     
  -1329296800.4297018       -6422887.8899617195        1437776045.9956841     
  -1272569323.9508066       -2841986.8002184033        1429847891.2918978     
  -1216251371.3057966       -626165.15676212311        1427125624.0018013     
  -1160342942.4946778        224577.04039293528        1429609244.1253929     
  -1104844037.5174491       -289760.20875358582        1437298751.6626749     
  -4.5013535023938803E-002  -9.6171696979689674E-003   1528572572.7421348     
  -4.4240526992727264E-002  -2.8215204897760474E-002   1524559707.3193736     
  -4.3526263179796715E-002  -4.7009054158488620E-002   1523649328.6015933     
  -4.2876416702800464E-002  -6.6018321761721455E-002   1525841436.5887983     
  -4.2286046459266272E-002  -8.5224455697713739E-002   1531136031.2809889     
  -275328789.47403497        192225.92232745886        1508319278.9922171     
  -267351581.42824569       -1819293.4418982416        1504314330.1827714     
  -259346945.99211541       -3739388.1716530025        1503807405.3211927     
  -251314883.16563985       -5568058.2669238895        1506798504.4074752     
  -243255392.94882572       -7305303.7277345359        1513287627.4416263     
  -551245725.52911544        208007.86644941568        1486355877.5623357     
  -534161203.03007752       -3475998.9209318161        1482390843.9883437     
  -517021825.75029427       -6977156.4391613901        1482319371.6050987     
  -499827593.68976611       -10295464.688241810        1486141460.4126036     
  -482578506.84849495       -13430923.668178469        1493857110.4108481     
  -827750808.21025348        47345.822756588459        1462682368.4524858     
  -800428864.84973609       -4970116.4653120935        1458789248.7360859     
  -773024639.31807113       -9713304.8495571017        1459185227.4533141     
  -745538131.61525667       -14182219.329970658        1463870304.6041677     
  -717969341.74129522       -18376859.906557590        1472844480.1886528     
  -1104844037.5174491       -289760.20875358582        1437298751.6626749     
  -1066154566.8872179       -6301646.0750343800        1433509544.4260020     
  -1027355386.6954405       -11947833.402825475        1434404972.8658373     
  -988446496.94210684       -17228322.192098558        1439985036.9821825     
  -949427897.62722909       -22143112.442890108        1450249736.7750359     
  -4.2286046459266272E-002  -8.5224455697713739E-002   1531136031.2809889     
  -9.8201666578698679E-003  -8.7365188343808617E-002   1526235497.6880388     
   2.7666788274291448E-002  -7.2767616108573019E-002   1531012602.5321832     
   7.0169694230950166E-002  -4.1450554069707962E-002   1545467345.8134215     
  0.11768370161153167        6.5680977140619504E-003   1569599727.5317588     
  -243255392.94882572       -7305303.7277345359        1513287627.4416263     
  -219235490.45646888       -4424955.1581565142        1508910241.5389934     
  -195355452.48782569       -2010821.6676237136        1512667369.4210908     
  -171615279.04289293       -62903.256127022207        1524559011.0879185     
  -148014970.12167710        1418800.0763155520        1544585166.5394754     
  -482578506.84849495       -13430923.668178469        1493857110.4108481     
  -438947629.47443306       -8992904.8003491461        1489839696.9150133     
  -395596481.15281051       -5487316.1073179394        1492413672.5515459     
  -352525061.88363171       -2914157.5891014487        1501579037.3204448     
  -309733371.66689545       -1273429.2456942499        1517335791.2217166     
  -717969341.74129522       -18376859.906557590        1472844480.1886528     
  -659136417.06370664       -13703849.013927966        1469023863.8160954     
  -600723085.96729243       -10429483.391872734        1470251511.9235442     
  -542729348.45204663       -8553763.0403878689        1476527424.5110023     
  -485155204.51797086       -8076687.9594611824        1487851601.5784600     
  -949427897.62722909       -22143112.442890108        1450249736.7750359     
  -879801853.22429574       -18557787.798908055        1446462742.2422459     
  -810735266.93126285       -16837323.521259129        1446180887.5370963     
  -742228138.74813366       -16981719.609957099        1449404172.6595857     
  -674280468.67490339       -18990976.064985245        1456132597.6097255     
  -1756032265.6716118       -526809679.70148355        680027586.42647648     
  -1784089401.1206691       -500071109.22220623        806449064.51185071     
  -1809219836.2025008       -463576870.85217667        925755291.36335695     
  -1831423570.9171071       -417326964.59139436        1037946266.9809959     
  -1850700605.2644877       -361321390.43986046        1143021991.3647673     
  -2201692709.1290493       -660507812.73871481        696421734.74134660     
  -2238366863.1933756       -613879779.48541021        813856680.72627985     
  -2272998649.9221110       -560443855.11346698        927188526.06240547     
  -2305588069.3152552       -500200039.62288475        1036417270.7497238     
  -2336135121.3728065       -433148333.01366353        1141542914.7882347     
  -2685613810.3568139       -805684143.10704422        721975808.74464703     
  -2722298838.5076666       -736584803.72108972        829392500.75889969     
  -2757825832.3545618       -663625349.98860967        935718242.70940506     
  -2792194791.8974996       -586805781.90960407        1040953034.5961633     
  -2825405717.1364794       -506126099.48407310        1145096876.4191742     
  -3207795569.3549061       -962338670.80647182        756689808.43637824     
  -3235885327.0635409       -868186181.92924404        853056524.60971045     
  -3263701383.4998531       -773121355.47760439        951344441.30435562     
  -3291243738.6638403       -677144191.45155239        1051553558.5203140     
  -3318512392.5555048       -580254689.85108805        1153683876.2575855     
  -3768237986.1233249       -1130471395.8369975        800563733.81654012     
  -3779126328.8610001       -1008683914.1098738        884848752.27871227     
  -3790625303.3579841       -888931871.58045101        974067121.84725761     
  -3802734909.6142783       -771215268.24872971        1068218842.5221763     
  -3815455147.6298847       -655534104.11470997        1167303914.3034685     
  -1850700605.2644877       -361321390.43986046        1143021991.3647673     
  -1835318601.4663451       -295605435.54160947        1190515861.7322214     
  -1823316483.1103346       -241155765.45046425        1240315439.0552526     
  -1814694250.1964564       -197972380.16642749        1292420723.3338602     
  -1809451902.7247095       -166055279.68949431        1346831714.5680454     
  -2336135121.3728065       -433148333.01366353        1141542914.7882347     
  -2312490099.2333884       -352044292.00849211        1182779817.4745247     
  -2292341480.3832808       -282594928.63435900        1224516084.3661609     
  -2275689264.8224859       -224800242.89126205        1266751715.4631419     
  -2262533452.5509996       -178660234.77920139        1309486710.7654705     
  -2825405717.1364794       -506126099.48407310        1145096876.4191742     
  -2798658655.9421592       -411182266.15789342        1179940873.9359238     
  -2775524515.8843307       -328281503.28668320        1213477892.9077885     
  -2756003296.9629917       -257423810.87044036        1245707933.3347673     
  -2740094999.1781440       -198609188.90916765        1276630995.2168620     
  -3318512392.5555048       -580254689.85108805        1153683876.2575855     
  -3293824271.5926590       -473019357.98981333        1181999031.1164186     
  -3272865589.6134810       -378215489.40743756        1207200864.6801362     
  -3255636346.6179748       -295843084.10396314        1229289376.9487371     
  -3242136542.6061378       -225902142.07938814        1248264567.9222226     
  -3815455147.6298847       -655534104.11470997        1167303914.3034685     
  -3797986946.1848855       -537555567.50425041        1188954289.0160091     
  -3784364701.5707355       -432396886.99662375        1205684999.6832032     
  -3774588413.7874322       -340058062.59182584        1217496046.3050504     
  -3768658082.8349824       -260539094.28986311        1224387428.8815496     
  -1809451902.7247095       -166055279.68949431        1346831714.5680454     
  -1779056481.8510079       -133641244.85688257        1364669178.2467897     
  -1749928859.7098415       -105453205.79938668        1383300557.3474667     
  -1722069036.3012085       -81491162.517004669        1402725851.8700774     
  -1695477011.6251101       -61755115.009736598        1422945061.8146231     
  -2262533452.5509996       -178660234.77920139        1309486710.7654705     
  -2223379162.5349908       -134376625.26297688        1317547685.1660116     
  -2187095024.3412266       -99660188.487569809        1328813203.1732535     
  -2153681037.9697051       -74510924.452973962        1343283264.7871945     
  -2123137203.4204278       -58928833.159189820        1360957870.0078368     
  -2740094999.1781440       -198609188.90916765        1276630995.2168620     
  -2685294330.9204941       -140389751.97952902        1273046068.4012063     
  -2634966167.5747972       -97078664.756405234        1275076313.3770165     
  -2589110509.1410565       -68675927.239798188        1282721730.1442935     
  -2547727355.6192684       -55181539.429705024        1295982318.7030380     
  -3242136542.6061378       -225902142.07938814        1248264567.9222226     
  -3164801987.0075126       -151680625.00653446        1231164327.9523735     
  -3093542289.4105525       -97708634.605896115        1222089887.9587576     
  -3028357449.8152599       -63986170.877477884        1221041247.9413745     
  -2969247468.2216306       -50513233.821275592        1228018407.9002240     
  -3768658082.8349824       -260539094.28986311        1224387428.8815496     
  -3661902130.7960520       -168249244.34399664        1191902463.8195126     
  -3562823389.8484960       -101550098.03604639        1169853926.9184756     
  -3471421859.9923177       -60441655.366015911        1158241818.1784372     
  -3387697541.2275109       -44923916.333899498        1157066137.5993986     
  -1695477011.6251101       -61755115.009736598        1422945061.8146231     
  -1645134157.2167525       -39563616.878829896        1416235724.5946829     
  -1596602491.9633617       -23409415.931147873        1415202958.8691027     
  -1549882015.8649366       -13292512.166685343        1419846764.6378844     
  -1504972728.9214809       -9212905.5854516029        1430167141.9010260     
  -2123137203.4204278       -58928833.159189820        1360957870.0078368     
  -2059693681.9375148       -39806799.691689968        1353222488.9776554     
  -1997553611.2079837       -25029602.068799853        1350596310.6635561     
  -1936716991.2318361       -14597240.290519476        1353079335.0655420     
  -1877183822.0090740       -8509714.3568588495        1360671562.1836100     
  -2547727355.6192684       -55181539.429705024        1295982318.7030380     
  -2472804220.7140174       -39615286.721267700        1287813255.3311274     
  -2398676798.1605668       -26701408.518837094        1284186025.8970218     
  -2325345087.9589195       -16439904.822411299        1285100630.4007242     
  -2252809090.1090713       -8830775.6319900751        1290557068.8422327     
  -2969247468.2216306       -50513233.821275592        1228018407.9002240     
  -2884465773.5462608       -38989077.967569113        1220008023.6550975     
  -2799972052.8211136       -28424835.281264663        1215972104.5694995     
  -2715766306.0461836       -18820505.762350917        1215910650.6434307     
  -2631848533.2214732       -10176089.410840392        1219823661.8768909     
  -3387697541.2275109       -44923916.333899498        1157066137.5993986     
  -3294678340.4342465       -37928173.430591583        1149806793.9495687     
  -3201439375.1896200       -30199882.356079459        1145954546.6809905     
  -3107980645.4936290       -21739043.110350847        1145509395.7936654     
  -3014302151.3462763       -12545655.693414450        1148471341.2875898     
  -1504972728.9214809       -9212905.5854516029        1430167141.9010260     
  -1460970165.3579965       -8236796.3597794175        1426376915.8798990     
  -1417023322.7548733       -7446423.6686474085        1426381657.8886330     
  -1373132201.1121058       -6841787.5120307803        1430181367.9272273     
  -1329296800.4297018       -6422887.8899617195        1437776045.9956841     
  -1877183822.0090740       -8509714.3568588495        1360671562.1836100     
  -1822520520.1831071       -6328893.6628252268        1355639856.8734605     
  -1768166346.7382085       -5178500.9056870937        1354735741.0888143     
  -1714121301.6743855       -5058536.0854680538        1357959214.8296714     
  -1660385384.9916272       -5968999.2021346092        1365310278.0960305     
  -2252809090.1090713       -8830775.6319900751        1290557068.8422327     
  -2186534702.8902144       -5160139.3304662704        1283988242.2522311     
  -2120822851.4731431       -3364622.3682199717        1281879626.6833754     
  -2055673535.8578501       -3444224.7452425957        1284231222.1356633     
  -1991086756.0443435       -5398946.4615461826        1291043028.6090968     
  -2631848533.2214732       -10176089.410840392        1219823661.8768909     
  -2553012713.4793229       -4730533.3627071381        1211422072.0162101     
  -2474992836.9596715       -2004788.0562293530        1207813314.6723137     
  -2397788903.6625061       -1998853.4913804531        1208997389.8452036     
  -2321400913.5878391       -4712729.6681858301        1214974297.5348804     
  -3014302151.3462763       -12545655.693414450        1148471341.2875898     
  -2921954551.9504313       -5040075.7595528364        1137941346.1653965     
  -2830676303.1977911       -1098997.9697073698        1132536805.0556312     
  -2740467405.0883570       -722422.32388091087        1132257717.9582930     
  -2651327857.6221271       -3910348.8220734596        1137104084.8733826     
  -1329296800.4297018       -6422887.8899617195        1437776045.9956841     
  -1272569323.9508066       -2841986.8002184033        1429847891.2918978     
  -1216251371.3057966       -626165.15676212311        1427125624.0018013     
  -1160342942.4946778        224577.04039293528        1429609244.1253929     
  -1104844037.5174491       -289760.20875358582        1437298751.6626749     
  -1660385384.9916272       -5968999.2021346092        1365310278.0960305     
  -1590378665.7229505       -2872881.1179476380        1357080126.7374573     
  -1520639516.6940255       -668663.83293515444        1353970763.1124630     
  -1451167937.9048555        643652.65289574862        1355982187.2210498     
  -1381963929.3554306        1064068.3395680189        1363114399.0632122     
  -1991086756.0443435       -5398946.4615461826        1291043028.6090968     
  -1908043935.9290540       -2860553.9658671618        1282676493.1222270     
  -1825126732.4593790       -740883.62223875523        1279345645.6888268     
  -1742335145.6353235        960064.56932830811        1281050486.3088951     
  -1659669175.4568808        2242290.6088488102        1287791014.9824328     
  -2321400913.5878391       -4712729.6681858301        1214974297.5348804     
  -2225565134.5691118       -2805005.3439687490        1206636990.4462068     
  -2129713018.6018627       -842824.52468478680        1203250271.7308941     
  -2033844565.6860936        1173812.7896685600        1204814141.3889422     
  -1937959775.8218071        3244906.5990819931        1211328599.4203482     
  -2651327857.6221271       -3910348.8220734596        1137104084.8733826     
  -2542942261.6431293       -2706235.2522643805        1128961618.7093987     
  -2434398375.1214743       -974486.54026663303        1125684641.2386644     
  -2325696198.0571675        1284897.3139064312        1127273152.4611802     
  -2216835730.4501967        4071916.3102858067        1133727152.3769462     
  -1104844037.5174491       -289760.20875358582        1437298751.6626749     
  -1066154566.8872179       -6301646.0750343800        1433509544.4260020     
  -1027355386.6954405       -11947833.402825475        1434404972.8658373     
  -988446496.94210684       -17228322.192098558        1439985036.9821825     
  -949427897.62722909       -22143112.442890108        1450249736.7750359     
  -1381963929.3554306        1064068.3395680189        1363114399.0632122     
  -1331707190.8410401       -4631841.7668962479        1358902042.9548330     
  -1281467812.7127895       -10385619.827169240        1358830032.0593424     
  -1231245794.9706936       -16197265.841280401        1362898366.3767397     
  -1181041137.6147361       -22066779.809196830        1371107045.9070234     
  -1659669175.4568808        2242290.6088488102        1287791014.9824328     
  -1599400284.6686716       -3604178.4208900928        1283007261.7300375     
  -1539275824.2143030       -9932081.8967697024        1281819563.2269065     
  -1479295794.0937791       -16741419.818795621        1284227919.4730439     
  -1419460194.3070986       -24032192.186966896        1290232330.4684510     
  -1937959775.8218071        3244906.5990819931        1211328599.4203482     
  -1869233848.3701205       -3218656.0370295048        1205825200.7516162     
  -1800779421.1999717       -10587219.611608148        1203373566.3685308     
  -1732596494.3113689       -18860784.124663591        1203973696.2710946     
  -1664685067.7043047       -28039349.576186776        1207625590.4593019     
  -2216835730.4501967        4071916.3102858067        1133727152.3769462     
  -2141207881.9453855       -3475274.6153271198        1127355860.0195706     
  -2065978603.6698048       -12351032.971703410        1123492041.4842165     
  -1991147895.6234665       -22555358.758891582        1122135696.7708926     
  -1916715757.8063648       -34088251.976866126        1123286825.8795910     
  -949427897.62722909       -22143112.442890108        1450249736.7750359     
  -879801853.22429574       -18557787.798908055        1446462742.2422459     
  -810735266.93126285       -16837323.521259129        1446180887.5370963     
  -742228138.74813366       -16981719.609957099        1449404172.6595857     
  -674280468.67490339       -18990976.064985245        1456132597.6097255     
  -1181041137.6147361       -22066779.809196830        1371107045.9070234     
  -1100804108.6470716       -19586708.036279678        1365071434.5982375     
  -1020984967.0356778       -18499594.117590725        1363948037.6356988     
  -941583712.78055811       -18805438.053149343        1367736855.0194008     
  -862600345.88170505       -20504239.842931658        1376437886.7493463     
  -1419460194.3070986       -24032192.186966896        1290232330.4684510     
  -1324591967.8644049       -21451309.412005186        1282113268.2629013     
  -1230000058.0243580       -19791481.979192734        1280313494.9221957     
  -1135684464.7869480       -19052709.888513148        1284833010.4463432     
  -1041645188.1521827       -19234993.139974296        1295671814.8353236     
  -1664685067.7043047       -28039349.576186776        1207625590.4593019     
  -1551165430.8762965       -24151591.926108181        1197588243.2362251     
  -1437780539.8973012       -20712987.106071591        1195277259.3965962     
  -1324530394.7673116       -17723535.116071403        1200692638.9404197     
  -1211414995.4863484       -15183235.956126571        1213834381.8676848     
  -1916715757.8063648       -34088251.976866126        1123286825.8795910     
  -1780524497.6827426       -27687555.578567505        1111496359.5182190     
  -1644326412.6545095       -21264109.498232543        1108839331.0588984     
  -1508121502.7216611       -14817913.735834360        1115315740.5016246     
  -1371909767.8841891       -8348968.2913814187        1130925587.8464019     
  -3768237986.1233249       -1130471395.8369975        800563733.81654012     
  -3779126328.8610001       -1008683914.1098738        884848752.27871227     
  -3790625303.3579841       -888931871.58045101        974067121.84725761     
  -3802734909.6142783       -771215268.24872971        1068218842.5221763     
  -3815455147.6298847       -655534104.11470997        1167303914.3034685     
  -4339773638.3055010       -1301932091.4916503        858748152.19991553     
  -4335252999.0629768       -1125722881.8801126        942352896.68128693     
  -4331870281.8235674       -953306745.61229360        1020318492.8369586     
  -4329625486.5872736       -784683682.68819284        1092644940.6669295     
  -4328518613.3540955       -619853693.10781002        1159332240.1712008     
  -4895235103.5448656       -1468570531.0634596        936393630.90128779     
  -4905512623.5566349       -1247001735.9378564        1018702929.4507526     
  -4917455355.8153276       -1030983648.3019896        1084800580.2424440     
  -4931063300.3209429       -820516268.15585828        1134686583.2763615     
  -4946336457.0734739       -615599595.49946129        1168360938.5525055     
  -5434622381.8414154       -1630386714.5524247        1033500169.9206568     
  -5489905202.3419790       -1372520476.2831059        1113898850.5871091     
  -5547380525.3332691       -1121962579.6495392        1167513384.0637143     
  -5607048350.8152828       -878713024.65172470        1194343770.3504727     
  -5668908678.7880249       -642771811.28966331        1194390009.4473839     
  -5957935473.1951532       -1787380641.9585462        1150067769.2580225     
  -6088430735.4190044       -1502279102.9158595        1227940660.0903563     
  -6221645790.3773870       -1226243539.6549420        1268456904.3007696     
  -6357580638.0702991       -959273952.17579436        1271616501.8892624     
  -6496235278.4977427       -701370340.47841620        1237419452.8558347     
  -3815455147.6298847       -655534104.11470997        1167303914.3034685     
  -3797986946.1848855       -537555567.50425041        1188954289.0160091     
  -3784364701.5707355       -432396886.99662375        1205684999.6832032     
  -3774588413.7874322       -340058062.59182584        1217496046.3050504     
  -3768658082.8349824       -260539094.28986311        1224387428.8815496     
  -4328518613.3540955       -619853693.10781002        1159332240.1712008     
  -4298230284.0776424       -464093152.12903249        1141374575.4580774     
  -4278556045.1593380       -343712912.34409583        1129479287.4987319     
  -4269495896.5991855       -258712973.75299621        1123646376.2931635     
  -4271049838.3971882       -209093336.35573792        1123875841.8413734     
  -4946336457.0734739       -615599595.49946129        1168360938.5525055     
  -4871850740.5394955       -412643872.32454562        1102899078.6318657     
  -4814747247.8909683       -267628895.43447757        1054481636.2641281     
  -4775025979.1278973       -180554664.82925510        1023108611.4492930     
  -4752686934.2502794       -151421180.50888038        1008780004.1873600     
  -5668908678.7880249       -642771811.28966331        1194390009.4473839     
  -5518848315.5704479       -383207728.09078741        1073527798.5373744     
  -5392938309.7656269       -204144836.26776528        980692045.97939134     
  -5291178661.3735638       -105583135.82060027        915882751.77343655     
  -5213569370.3942566       -87522626.749287128        879099915.91950846     
  -6496235278.4977427       -701370340.47841620        1237419452.8558347     
  -6239223009.1704988       -375784719.42775893        1053260735.1746036     
  -6013129230.7833138       -153260734.84396505        908110516.64452291     
  -5817953943.3361855       -33798386.727031469        801968797.26559615     
  -5653697146.8291187       -17397675.076960325        734835577.03781962     
  -3768658082.8349824       -260539094.28986311        1224387428.8815496     
  -3661902130.7960520       -168249244.34399664        1191902463.8195126     
  -3562823389.8484960       -101550098.03604639        1169853926.9184756     
  -3471421859.9923177       -60441655.366015911        1158241818.1784372     
  -3387697541.2275109       -44923916.333899498        1157066137.5993986     
  -4271049838.3971882       -209093336.35573792        1123875841.8413734     
  -4148418675.1572232       -145003692.59890223        1090527815.9757102     
  -4030196844.7361279       -95611824.904956102        1065462802.7626959     
  -3916384347.1338968       -60917733.273898602        1048680802.2023284     
  -3806981182.3505321       -40921417.705731869        1040181814.2946118     
  -4752686934.2502794       -151421180.50888038        1008780004.1873600     
  -4620333175.5474291       -117377527.66251898        978381442.16932976     
  -4489120871.3909349       -87138723.304018021        954112477.29559660     
  -4359050021.7808018       -60704767.433382511        935973109.56616104     
  -4230120626.7170277       -38075660.050611019        923963338.98102379     
  -5213569370.3942566       -87522626.749287128        879099915.91950846     
  -5077645631.9666595       -85370749.534842491        855463342.40037107     
  -4939595469.8129168       -76130793.233232737        835802950.51717949     
  -4799418883.9330235       -59802757.844462156        820118740.26993465     
  -4657115874.3269787       -36386643.368523359        808410711.65863848     
  -5653697146.8291187       -17397675.076960325        734835577.03781962     
  -5520356044.4149246       -48983358.215876341        721773516.66883349     
  -5381620640.0020742       -62588034.692600727        710534222.42744219     
  -5237490933.5905685       -58211704.507135391        701117694.31364954     
  -5087966925.1804037       -35854367.659482241        693523932.32745135     
  -3387697541.2275109       -44923916.333899498        1157066137.5993986     
  -3294678340.4342465       -37928173.430591583        1149806793.9495687     
  -3201439375.1896200       -30199882.356079459        1145954546.6809905     
  -3107980645.4936290       -21739043.110350847        1145509395.7936654     
  -3014302151.3462763       -12545655.693414450        1148471341.2875898     
  -3806981182.3505321       -40921417.705731869        1040181814.2946118     
  -3702762804.1924167       -30054087.730845451        1031813900.4991593     
  -3599128642.4060054       -21134145.661648989        1027760198.9712079     
  -3496078696.9913011       -14161591.498142242        1028020709.7107586     
  -3393612967.9483056       -9136425.2403283119        1032595432.7178112     
  -4230120626.7170277       -38075660.050611019        923963338.98102379     
  -4112111311.5190520       -22559215.101634741        913548877.41303408     
  -3995490193.5158572       -11670094.135255814        908355743.99879384     
  -3880257272.7074409       -5408297.1514730453        908383938.73830652     
  -3766412549.0938025       -3773824.1502852440        913633461.63156998     
  -4657115874.3269787       -36386643.368523359        808410711.65863848     
  -4522723862.4141531       -15443555.542966127        795011724.69119251     
  -4390524028.5191765       -1807727.7769048214        787741181.76374722     
  -4260516372.6420498        4520839.9296536446        786599082.87630308     
  -4132700894.7827721        3542147.5767192841        791585428.02885842     
  -5087966925.1804037       -35854367.659482241        693523932.32745135     
  -4934600456.8777256       -8707109.0548379421        676202442.33363390     
  -4784230147.4159660        8452953.4134075642        665916512.26606834     
  -4636855996.7951307        15625819.745240450        662666142.12475097     
  -4492478005.0152140        12811489.940676928        666451331.90968704     
  -3014302151.3462763       -12545655.693414450        1148471341.2875898     
  -2921954551.9504313       -5040075.7595528364        1137941346.1653965     
  -2830676303.1977911       -1098997.9697073698        1132536805.0556312     
  -2740467405.0883570       -722422.32388091087        1132257717.9582930     
  -2651327857.6221271       -3910348.8220734596        1137104084.8733826     
  -3393612967.9483056       -9136425.2403283119        1032595432.7178112     
  -3289690921.1374755       -5432248.6411287785        1023150145.3960468     
  -3186343703.0026045       -3644167.6284651756        1018360072.0736873     
  -3083571313.5436969       -3772182.2023423910        1018225212.7507342     
  -2981373752.7607474       -5816292.3627489805        1022745567.4271891     
  -3766412549.0938025       -3773824.1502852440        913633461.63156998     
  -3652259597.7623339       -4274113.7540473938        905849824.40534961     
  -3538186953.1395802       -5042092.3868703842        902251161.16551518     
  -3424194615.2255440       -6077760.0487496853        902837471.91206706     
  -3310282584.0202274       -7381116.7396857738        907608756.64500129     
  -4132700894.7827721        3542147.5767192841        791585428.02885842     
  -4009660581.8250103       -1565671.0983152390        786040383.19330454     
  -3886206053.6087198       -5292772.2449278831        784210072.33111322     
  -3762337310.1339030       -7639155.8631117344        786094495.44228339     
  -3638054351.4005623       -8604821.9528822899        791693652.52682030     
  -4492478005.0152140        12811489.940676928        666451331.90968704     
  -4361893873.3254986        2693079.3260812759        663721821.75991189     
  -4230401004.4100208       -4396207.2026302814        664236805.57048213     
  -4097999398.2687688       -8456369.6454291344        667996283.34139454     
  -3964689054.9017458       -9487408.0023269653        675000255.07264757     
  -2651327857.6221271       -3910348.8220734596        1137104084.8733826     
  -2542942261.6431293       -2706235.2522643805        1128961618.7093987     
  -2434398375.1214743       -974486.54026663303        1125684641.2386644     
  -2325696198.0571675        1284897.3139064312        1127273152.4611802     
  -2216835730.4501967        4071916.3102858067        1133727152.3769462     
  -2981373752.7607474       -5816292.3627489805        1022745567.4271891     
  -2859871219.9968629       -2907816.0830740929        1015088900.4273876     
  -2738346982.8345037        73008.191509485245        1012263381.6358196     
  -2616801041.2736750        3126180.4609996080        1014269011.0524873     
  -2495233395.3143716        6251700.7253866196        1021105788.6773853     
  -3310282584.0202274       -7381116.7396857738        907608756.64500129     
  -3175761230.1429276       -2797712.4515814781        900278538.30783665     
  -3041354758.0113425        1402752.6841465235        897745127.69388497     
  -2907063167.6254673        5220278.6674972773        900008524.80315101     
  -2772886458.9853110        8654865.4984648228        907068729.63563490     
  -3638054351.4005623       -8604821.9528822899        791693652.52682030     
  -3490612292.0813212       -2375924.3577783108        784530532.35074174     
  -3343421700.6519852        3014746.9376440048        782129879.41286051     
  -3196482577.1125479        7567191.9334135056        784491693.71317923     
  -3049794921.4630079        11281410.629515648        791615975.25169575     
  -3964689054.9017458       -9487408.0023269653        675000255.07264757     
  -3804424405.8120532       -1642451.8016982079        667844882.55610549     
  -3644547810.7564416        4908990.9519896507        665417636.79274285     
  -3485059269.7349129        10166920.258737326        667718517.78256369     
  -3325958782.7474689        14131336.118533850        674747525.52556777     
  -2216835730.4501967        4071916.3102858067        1133727152.3769462     
  -2141207881.9453855       -3475274.6153271198        1127355860.0195706     
  -2065978603.6698048       -12351032.971703410        1123492041.4842165     
  -1991147895.6234665       -22555358.758891582        1122135696.7708926     
  -1916715757.8063648       -34088251.976866126        1123286825.8795910     
  -2495233395.3143716        6251700.7253866196        1021105788.6773853     
  -2413131107.0751624       -2811566.3087395430        1014773273.7101424     
  -2331280751.7943053       -12714609.870715976        1011263486.8954544     
  -2249682329.4718070       -23457429.960549355        1010576428.2333219     
  -2168335840.1076598       -35040026.578217864        1012712097.7237456     
  -2772886458.9853110        8654865.4984648228        907068729.63563490     
  -2683409004.3530521       -1654259.6466004848        900946068.87455654     
  -2594036845.4082575       -12314370.416557193        897961390.59656477     
  -2504769982.1509423       -23325466.811442137        898114694.80165732     
  -2415608414.5810952       -34687548.831216931        901405981.48983312     
  -3049794921.4630079        11281410.629515648        791615975.25169575     
  -2952041573.7790446       -3354.6288915872574        785874245.51281571     
  -2854246884.5116653       -11150314.609245181        783585752.58754873     
  -2756410853.6608810       -22159469.311577439        784750496.47589481     
  -2658533481.2266817       -33030818.735855222        789368477.17785370     
  -3325958782.7474689        14131336.118533850        674747525.52556777     
  -3219028815.3531432        2141148.7443951368        669557803.62491584     
  -3111910869.1045218       -9222442.4487577677        668136572.86840630     
  -3004604944.0016141       -19959437.460953951        670483833.25603461     
  -2897111040.0444002       -30069836.292136669        676599584.78781176     
  -1916715757.8063648       -34088251.976866126        1123286825.8795910     
  -1780524497.6827426       -27687555.578567505        1111496359.5182190     
  -1644326412.6545095       -21264109.498232543        1108839331.0588984     
  -1508121502.7216611       -14817913.735834360        1115315740.5016246     
  -1371909767.8841891       -8348968.2913814187        1130925587.8464019     
  -2168335840.1076598       -35040026.578217864        1012712097.7237456     
  -2009285308.3400178       -23905347.965108514        1001478124.6288499     
  -1850374450.7504535       -13236249.945583701        997602311.30850375     
  -1691603267.3389640       -3032732.5196516514        1001084657.7627015     
  -1532971758.1055522        6705204.3126874566        1011925163.9914527     
  -2415608414.5810952       -34687548.831216931        901405981.48983312     
  -2238770834.3908701       -20340554.969717741        890557586.06494284     
  -2062219427.4614067       -6947471.9774414301        885292072.28709686     
  -1885954193.7927253        5491700.1455917358        885609440.15630138     
  -1709975133.3848054        16976961.399389267        891509689.67253637     
  -2658533481.2266817       -33030818.735855222        789368477.17785370     
  -2468981075.8353004       -16993176.592402577        778734743.82649195     
  -2279861342.7873859       -2397775.5938117504        771908613.99467015     
  -2091174282.0829377        10755384.259887218        768890087.68239057     
  -1902919893.7219462        22466302.968724847        769679164.88965797     
  -2897111040.0444002       -30069836.292136669        676599584.78781176     
  -2699916032.6733117       -13863212.833152056        666009597.91350234     
  -2503300196.7283778        412839.20532155037        657451936.43123269     
  -2307263532.2096024        12758319.823270917        650926600.34100688     
  -2111806039.1169744        23173229.020694017        646433589.64281499     
  -5957935473.1951532       -1787380641.9585462        1150067769.2580225     
  -6088430735.4190044       -1502279102.9158595        1227940660.0903563     
  -6221645790.3773870       -1226243539.6549420        1268456904.3007696     
  -6357580638.0702991       -959273952.17579436        1271616501.8892624     
  -6496235278.4977427       -701370340.47841620        1237419452.8558347     
  -6810559000.5239639       -2043167700.1571891        1353792786.6477900     
  -6828507383.5348396       -1395465255.0349302        1202776589.9116919     
  -6897823674.4868488       -918989169.71645403        1092014430.0968254     
  -7018507873.3799934       -613739444.20176196        1021506307.2031914     
  -7190559980.2142725       -479716078.49085236        991252221.23078954     
  -8337877586.7457380       -2501363276.0237212        1712371579.8243635     
  -8021534280.4203444       -1424536481.7849019        1275710161.1121287     
  -7805206997.2426872       -681096431.37187958        956913462.86427784     
  -7688895737.2127705       -271043124.78465366        755981485.08081210     
  -7672600500.3305922       -194376562.02322674        672914227.76173031     
  -10539891231.860472       -3161967369.5581417        2225804148.7877436     
  -9667511426.0755157       -1589492783.1657741        1446741373.6916666     
  -8943795758.6448994       -512565324.62121630        863154002.60312665     
  -8368744229.5686312        68815006.075527191        475042035.52212381     
  -7942356838.8467054        154648208.92446184        282405472.44865751     
  -13416599935.868168       -4024979980.7604504        2894090493.5379291     
  -11766438820.500355       -1890334159.1775465        1715870227.6503057     
  -10313589958.693493       -413395849.46446753        810736049.31337178     
  -9058053350.4475746        405834948.37878704        178687958.52712661     
  -7999828995.7626028        567358234.35221577       -180274044.70842871     
  -6496235278.4977427       -701370340.47841620        1237419452.8558347     
  -6239223009.1704988       -375784719.42775893        1053260735.1746036     
  -6013129230.7833138       -153260734.84396505        908110516.64452291     
  -5817953943.3361855       -33798386.727031469        801968797.26559615     
  -5653697146.8291187       -17397675.076960325        734835577.03781962     
  -7190559980.2142725       -479716078.49085236        991252221.23078954     
  -6900484303.6160688       -304385290.43360782        846932119.34458506     
  -6623214947.2196350       -171742236.38226628        723711100.74490786     
  -6358751911.0249720       -81786916.336831808        621589165.43176031     
  -6107095195.0320835       -34519330.297303438        540566313.40513861     
  -7672600500.3305922       -194376562.02322674        672914227.76173031     
  -7400631176.0746384       -184651534.84335566        589563607.53188789     
  -7123356001.2821684       -157240339.20843363        509402654.72394949     
  -6840774975.9531860       -112142975.11846209        432431369.33791488     
  -6552888100.0876837       -49359442.573434830        358649751.37378484     
  -7942356838.8467054        154648208.92446184        282405472.44865751     
  -7739663626.5462112       -16583452.657003880        281155199.73651147     
  -7513552392.9709167       -109755043.32246399        265185178.58164588     
  -7264023138.1208153       -124866563.07191372        234495408.98406285     
  -6991075861.9959173       -61918011.905358791        189085890.94375628     
  -7999828995.7626028        567358234.35221577       -180274044.70842871     
  -7917581655.0307827        199818956.12544537       -78293104.041542768     
  -7793804122.2858725       -29286348.724356651       -8941327.6820011474     
  -7628496397.5278769       -119957680.19720078        27781284.370200679     
  -7421658480.7567854       -72195038.293072224        31874732.115054376     
  -5653697146.8291187       -17397675.076960325        734835577.03781962     
  -5520356044.4149246       -48983358.215876341        721773516.66883349     
  -5381620640.0020742       -62588034.692600727        710534222.42744219     
  -5237490933.5905685       -58211704.507135391        701117694.31364954     
  -5087966925.1804037       -35854367.659482241        693523932.32745135     
  -6107095195.0320835       -34519330.297303438        540566313.40513861     
  -5959220937.3991423       -36321072.679726601        534215463.58006412     
  -5810365364.5626497       -34851764.383649826        530347980.69800675     
  -5660528476.5226078       -30111405.409073353        528963864.75897223     
  -5509710273.2790174       -22099995.755995750        530063115.76295537     
  -6552888100.0876837       -49359442.573434830        358649751.37378484     
  -6388593256.3347816       -20811014.929002762        353861627.49832737     
  -6227730084.1734371       -3701492.5897595882        352217471.38131583     
  -6070298583.6036520        1969124.4442849159        353717283.02274644     
  -5916298754.6254177       -3799163.8268456459        358361062.42261994     
  -6991075861.9959173       -61918011.905358791        189085890.94375628     
  -6808473001.2218475       -2453184.9637117386        180712008.42362836     
  -6633714798.8344393        30862780.689065933        176142694.47736648     
  -6466801254.8337002        38029885.052950144        175377949.10497126     
  -6307732369.2196188        19048128.127961159        178417772.30644211     
  -7421658480.7567854       -72195038.293072224        31874732.115054376     
  -7218860172.0603342        18752417.216161728        14766606.355958210     
  -7028319508.5456562        68841055.452823639        2123649.9861563263     
  -6850036490.2127495        78070876.416907310       -6054136.9943547575     
  -6684011117.0616131        46441880.108433247       -9766754.5855764430     
  -5087966925.1804037       -35854367.659482241        693523932.32745135     
  -4934600456.8777256       -8707109.0548379421        676202442.33363390     
  -4784230147.4159660        8452953.4134075642        665916512.26606834     
  -4636855996.7951307        15625819.745240450        662666142.12475097     
  -4492478005.0152140        12811489.940676928        666451331.90968704     
  -5509710273.2790174       -22099995.755995750        530063115.76295537     
  -5344442884.1158152       -9710228.9499871731        514986910.54322988     
  -5180128061.9954720       -495685.62017226219        505435274.93580323     
  -5016765806.9179869        5543634.2334461212        501408208.94067413     
  -4854356118.8833618        8407730.6108634472        502905712.55784398     
  -5916298754.6254177       -3799163.8268456459        358361062.42261994     
  -5743447559.7844162       -7462023.3742902279        347914332.40805840     
  -5569505340.1882114       -7488133.7377238274        341481181.69184327     
  -5394472095.8368015       -3877494.9171440601        339061610.27397436     
  -5218347826.7301865        3369893.0874514580        340655618.15445071     
  -6307732369.2196188        19048128.127961159        178417772.30644211     
  -6131614483.8835354       -1962492.3277480602        174984707.92812070     
  -5952361981.9941874       -12524390.939244270        174054232.53418821     
  -5769974863.5515699       -12637567.706516027        175626346.12464887     
  -5584453128.5556860       -2302022.6295635700        179701048.69950706     
  -6684011117.0616131        46441880.108433247       -9766754.5855764430     
  -6508943656.4131660        6788364.1896350384       -3801962.8965903111     
  -6328697987.4133968       -15604457.224734545        3154427.4628363657     
  -6143274110.0622959       -20736584.134674788        11102416.492705349     
  -5952672024.3598652       -8608016.5401859283        20042004.193010073     
  -4492478005.0152140        12811489.940676928        666451331.90968704     
  -4361893873.3254986        2693079.3260812759        663721821.75991189     
  -4230401004.4100208       -4396207.2026302814        664236805.57048213     
  -4097999398.2687688       -8456369.6454291344        667996283.34139454     
  -3964689054.9017458       -9487408.0023269653        675000255.07264757     
  -4854356118.8833618        8407730.6108634472        502905712.55784398     
  -4713707568.0508089        3490540.1939289570        500066598.85924989     
  -4572932568.1756639       -1005153.4143750668        500524570.49534708     
  -4432031119.2579250       -5079350.2140393257        504279627.46613479     
  -4291003221.2975993       -8732050.2050647736        511331769.77161151     
  -5218347826.7301865        3369893.0874514580        340655618.15445071     
  -5067484595.6852236        3699001.1890575886        336794231.35999662     
  -4917277203.7808590        1841978.8220071793        336282521.27458149     
  -4767725651.0170774       -2201174.0136513710        339120487.89819926     
  -4618829937.3938818       -8430457.3179361820        345308131.23085827     
  -5584453128.5556860       -2302022.6295635700        179701048.69950706     
  -5423224956.2287579        3318462.3114376068        173904719.26214397     
  -5263434911.2255974        4145189.5065417290        171510657.90817434     
  -5105082993.5462036        178158.95576071739        172518864.63758287     
  -4948169203.1905832       -8582629.3409345150        176929339.45037845     
  -5952672024.3598652       -8608016.5401859283        20042004.193010073     
  -5780928649.6814022        2348923.5610914230        11398062.565704184     
  -5611405690.5098896        5904478.6391935349        6208980.3961289851     
  -5444103146.8453236        2058648.6941437721        4474757.6842928817     
  -5279021018.6877012       -9188566.2740507126        6195394.4301777007     
  -3964689054.9017458       -9487408.0023269653        675000255.07264757     
  -3804424405.8120532       -1642451.8016982079        667844882.55610549     
  -3644547810.7564416        4908990.9519896507        665417636.79274285     
  -3485059269.7349129        10166920.258737326        667718517.78256369     
  -3325958782.7474689        14131336.118533850        674747525.52556777     
  -4291003221.2975993       -8732050.2050647736        511331769.77161151     
  -4118780241.5409055       -2804806.9349806309        503524544.87676877     
  -3946537720.4605112        3187574.0807621479        500630458.26425719     
  -3774275658.0564203        9245092.8421635628        502649509.93406928     
  -3601994054.3286381        15367749.349217892        509581699.88621479     
  -4618829937.3938818       -8430457.3179361820        345308131.23085827     
  -4434120022.6011906       -4262345.6676883698        337324581.87512636     
  -4248982971.1270280        1329554.9207942486        334439182.33086747     
  -4063418782.9713821        8345244.4475600719        336651932.59808451     
  -3877427458.1342616        16784722.912570715        343962832.67678052     
  -4948169203.1905832       -8582629.3409345150        176929339.45037845     
  -4750443748.9929075       -6015067.9998350143        169244993.55116707     
  -4551883562.7559834       -665066.52789688110        166843808.99257311     
  -4352488644.4798002        7467375.0749096870        169725785.77460870     
  -4152258994.1643548        18382256.808573723        177890923.89726326     
  -5279021018.6877012       -9188566.2740507126        6195394.4301777007     
  -5067751420.7160587       -8062973.9314050674       -714220.09510576562     
  -4855239495.3473806       -2796290.2653243542       -2155661.7506152545     
  -4641485242.5816593        6611484.7242336273        1871069.4636338607     
  -4426488662.4189091        20160351.037244558        11365973.547664639     
  -3325958782.7474689        14131336.118533850        674747525.52556777     
  -3219028815.3531432        2141148.7443951368        669557803.62491584     
  -3111910869.1045218       -9222442.4487577677        668136572.86840630     
  -3004604944.0016141       -19959437.460953951        670483833.25603461     
  -2897111040.0444002       -30069836.292136669        676599584.78781176     
  -3601994054.3286381        15367749.349217892        509581699.88621479     
  -3485539349.3772979        4672990.4781532288        504419612.42784983     
  -3369149908.2190065       -6239314.3697583675        502516809.98387706     
  -3252825730.8537769       -17369165.194530725        503873292.55429411     
  -3136566817.2816024       -28716561.996158600        508489060.13910776     
  -3877427458.1342616        16784722.912570715        343962832.67678052     
  -3752902890.2823334        6948930.1476488113        338532929.90545768     
  -3628696828.8708110       -3948550.7519648075        335853106.01877832     
  -3504809273.8996925       -15907719.786256790        335923361.01674289     
  -3381240225.3689766       -28928576.955227137        338743694.89934319     
  -4152258994.1643548        18382256.808573723        177890923.89726326     
  -4021119438.0682640        8968967.7528686523        171897756.05774558     
  -3890551631.0599332       -2350151.5953586102        168145460.97311425     
  -3760555573.1393595       -15575101.236103058        166634038.64337838     
  -3631131264.3065319       -30705881.169355631        167363489.06853786     
  -4426488662.4189091        20160351.037244558        11365973.547664639     
  -4290188992.7350864        10733103.293833733        4514090.8847039435     
  -4154714314.7863793       -1444116.8999626637       -606125.15311095561     
  -4020064628.5727615       -16371309.544054985       -3994674.5657867822     
  -3886239934.0942607       -34048474.638536453       -5651557.3533238564     
  -2897111040.0444002       -30069836.292136669        676599584.78781176     
  -2699916032.6733117       -13863212.833152056        666009597.91350234     
  -2503300196.7283778        412839.20532155037        657451936.43123269     
  -2307263532.2096024        12758319.823270917        650926600.34100688     
  -2111806039.1169744        23173229.020694017        646433589.64281499     
  -3136566817.2816024       -28716561.996158600        508489060.13910776     
  -2931458364.9519014       -13715785.860325933        496805609.34015435     
  -2726486861.1520910        828495.17587089539        489455370.96113271     
  -2521652305.8821688        14916281.112442017        486438345.00204158     
  -2316954699.1421351        28547571.949370623        487754531.46287978     
  -3381240225.3689766       -28928576.955227137        338743694.89934319     
  -3161644365.1438270       -13161459.261485338        326482706.88806266     
  -2941743230.5523086        3623239.6534786224        320855818.32459885     
  -2721536821.5944200        21425519.789699435        321863029.20895684     
  -2501025138.2701330        40245381.147195935        329504339.54113549     
  -3631131264.3065319       -30705881.169355631        167363489.06853786     
  -3390474033.2491078       -12200233.036685705        155040890.55722642     
  -3149069304.9290400        8797072.6381372213        151653278.52162725     
  -2906917079.3463416        32286035.855076313        157200652.96174157     
  -2664017356.5009947        58266656.614148974        171683013.87757167     
  -3886239934.0942607       -34048474.638536453       -5651557.3533238564     
  -3617947369.2677274       -10832107.185861111       -17519839.652344689     
  -3348465084.2822933        16349994.129817724       -18152248.447770175     
  -3077793079.1379547        47497829.308522224       -7548783.7395863803     
  -2805931353.8346944        82611398.350277185        14290554.472194362     
 </DataArray>
 <DataArray  type="Float64" Name="VM" NumberOfComponents="1" format="ascii">
   12935661981.023870     
   11340748495.148252     
   10210255506.479332     
   9272804067.7349262     
   8303940292.1486778     
   10130309225.197449     
   9322017305.5676785     
   8826382651.1654282     
   8443548156.8332310     
   8035700220.6852942     
   7982331074.1273336     
   7734963311.0412436     
   7669165542.1609592     
   7669620833.1304922     
   7666397305.9363670     
   6491640679.2351465     
   6586873776.1798716     
   6757438407.6820393     
   6961251263.9476089     
   7171652250.8812084     
   5657790536.3204088     
   5890910273.7890253     
   6116391530.7348480     
   6331777172.6122389     
   6536845348.1758814     
   8303940292.1486778     
   8020504922.4720535     
   7779217708.9820871     
   7569383449.1691580     
   7386031939.1656313     
   8035700220.6852942     
   7746706555.4945660     
   7473408526.2463541     
   7213844640.4963121     
   6968024286.1751127     
   7666397305.9363670     
   7381033520.4716587     
   7101078757.8708305     
   6826611467.5136480     
   6557836597.2112951     
   7171652250.8812084     
   6910919631.6461544     
   6658097262.5774574     
   6409326916.8469067     
   6161462998.9078903     
   6536845348.1758814     
   6328711383.4038887     
   6142770508.9589005     
   5965111467.1777534     
   5786724712.4062662     
   7386031939.1656313     
   7228299874.3230619     
   7062992614.2067604     
   6889411679.4956551     
   6707373977.4434252     
   6968024286.1751127     
   6814438984.4823160     
   6656195473.0431862     
   6493009219.5834103     
   6324831987.6613588     
   6557836597.2112951     
   6407593771.3099184     
   6255697822.5734959     
   6102116820.7533264     
   5946881229.0914526     
   6161462998.9078903     
   6012765303.0081272     
   5865395619.4459963     
   5719392552.8276834     
   5574812270.5535622     
   5786724712.4062662     
   5636416918.3174324     
   5490310515.7629299     
   5348318864.0306072     
   5210488793.2772789     
   6707373977.4434252     
   6512343821.5162067     
   6320912566.2157755     
   6132962258.8375082     
   5948473978.6433620     
   6324831987.6613588     
   6138120700.0558796     
   5953747134.7574797     
   5771688230.2276888     
   5591971379.4007378     
   5946881229.0914526     
   5771266842.0616455     
   5597103607.9756842     
   5424418449.6297035     
   5253274162.0975943     
   5574812270.5535622     
   5413585024.7733822     
   5253337388.8544092     
   5094115387.8123512     
   4936030855.3531780     
   5210488793.2772789     
   5067458989.2435112     
   4925414178.9887667     
   4784402953.9034977     
   4644625951.6138783     
   5948473978.6433620     
   5782137172.1316099     
   5614370558.2737980     
   5445138278.9940281     
   5274443653.9907780     
   5591971379.4007378     
   5433240769.5744333     
   5273881862.5405703     
   5113909482.4904613     
   4953372164.1208048     
   5253274162.0975943     
   5102788404.8763790     
   4952568405.8872986     
   4802679070.1816473     
   4653217739.5376997     
   4936030855.3531780     
   4794340874.1025944     
   4653889912.9911633     
   4514787661.9378567     
   4377179020.2665815     
   4644625951.6138783     
   4512144979.0103874     
   4381934032.7820311     
   4254136044.5003643     
   4128935785.9170876     
   5274443653.9907780     
   5063724899.2932930     
   4853843390.2718048     
   4644795644.5246239     
   4436646868.8232403     
   4953372164.1208048     
   4756480774.1357403     
   4560715697.7282267     
   4366135059.0788574     
   4172871444.8551044     
   4653217739.5376997     
   4470335827.5667782     
   4288945792.7635050     
   4109179436.7453899     
   3931251487.3050976     
   4377179020.2665815     
   4208731051.5477033     
   4042232376.8955259     
   3877899603.3398442     
   3716042572.9255972     
   4128935785.9170876     
   3975606813.5217981     
   3824785718.1836543     
   3676780909.5684276     
   3532004307.8315349     
   4436646868.8232403     
   4295572716.7805090     
   4153992577.2859817     
   4011909992.5426383     
   3869340435.2300444     
   4172871444.8551044     
   4036606716.4933567     
   3900265736.9928451     
   3763874397.1203766     
   3627477310.3726835     
   3931251487.3050976     
   3801870682.3640170     
   3673080464.6224380     
   3544957135.3110013     
   3417608773.4132195     
   3716042572.9255972     
   3595637874.0439754     
   3476745357.4070153     
   3359515283.4762816     
   3244146728.5870638     
   3532004307.8315349     
   3422567234.5712237     
   3315809754.9965477     
   3211965867.7114158     
   3111334426.2524428     
   3869340435.2300444     
   3612670943.1208835     
   3356817189.1026196     
   3101842311.5425992     
   2848243314.6254621     
   3627477310.3726835     
   3395027463.2582164     
   3164397828.7603116     
   2935847111.2107964     
   2709987460.6349959     
   3417608773.4132195     
   3205359470.5931010     
   2995558440.7416081     
   2788605295.6239719     
   2585173199.9239526     
   3244146728.5870638     
   3048585975.9513941     
   2855641758.3138995     
   2665789435.1287584     
   2479707830.0035582     
   3111334426.2524428     
   2929678414.7568197     
   2750322644.8549638     
   2573748415.0260949     
   2400589149.9555817     
   5657790536.3204088     
   5890910273.7890253     
   6116391530.7348480     
   6331777172.6122389     
   6536845348.1758814     
   5151418537.2508316     
   5311325280.3309965     
   5467864287.3062019     
   5618141373.9509735     
   5760691711.4479799     
   4643439156.9145050     
   4755539049.0956182     
   4868763220.0668058     
   4980477435.7133245     
   5088756855.5162220     
   4134116229.5912657     
   4224389188.8077483     
   4320583549.6425982     
   4421042610.4671974     
   4524311822.5976591     
   3624969615.9453926     
   3719699860.7354136     
   3825683297.2611489     
   3942855950.4358916     
   4071124814.8666492     
   6536845348.1758814     
   6328711383.4038887     
   6142770508.9589005     
   5965111467.1777534     
   5786724712.4062662     
   5760691711.4479799     
   5652172623.9720564     
   5559657263.3606920     
   5474082921.8161736     
   5389908207.9963083     
   5088756855.5162220     
   5054109652.6911516     
   5029974688.0713854     
   5011144935.5990391     
   4994418413.9157667     
   4524311822.5976591     
   4539118257.1245995     
   4558591429.5305347     
   4580250775.9779816     
   4602372150.1519661     
   4071124814.8666492     
   4112527046.3978705     
   4151272660.4578791     
   4186462447.5297260     
   4217363551.9474196     
   5786724712.4062662     
   5636416918.3174324     
   5490310515.7629299     
   5348318864.0306072     
   5210488793.2772789     
   5389908207.9963083     
   5248975472.0182095     
   5111266349.7439041     
   4976822656.3186264     
   4845738238.5428562     
   4994418413.9157667     
   4867301469.0965357     
   4743375902.4071980     
   4622610088.3415632     
   4505044993.4285164     
   4602372150.1519661     
   4494065008.5531378     
   4389980262.5379133     
   4289801200.7890038     
   4193438665.1434569     
   4217363551.9474196     
   4133233263.0831232     
   4055600140.0542550     
   3983613531.4635754     
   3916979740.6173043     
   5210488793.2772789     
   5067458989.2435112     
   4925414178.9887667     
   4784402953.9034977     
   4644625951.6138783     
   4845738238.5428562     
   4720334059.0650377     
   4596778888.4343433     
   4475209007.8434992     
   4355879972.9733973     
   4505044993.4285164     
   4395556507.1111898     
   4288680543.4734497     
   4184605633.5528555     
   4083606526.0941606     
   4193438665.1434569     
   4098047370.3814373     
   4005868471.0679650     
   3917108181.6461687     
   3832029089.4550533     
   3916979740.6173043     
   3833738354.6495919     
   3754074917.0075650     
   3678182578.5312514     
   3606288635.3375254     
   4644625951.6138783     
   4512144979.0103874     
   4381934032.7820311     
   4254136044.5003643     
   4128935785.9170876     
   4355879972.9733973     
   4233754961.6816044     
   4114245132.9736900     
   3997540866.4272041     
   3883882750.0142465     
   4083606526.0941606     
   3973046687.1115947     
   3865633705.6740985     
   3761606142.5164008     
   3661263805.1236081     
   3832029089.4550533     
   3734264868.3697066     
   3640379047.9069610     
   3550653775.5922723     
   3465444881.8090200     
   3606288635.3375254     
   3522477601.8639946     
   3443477526.8869138     
   3369600119.4535608     
   3301242823.8657207     
   4128935785.9170876     
   3975606813.5217981     
   3824785718.1836543     
   3676780909.5684276     
   3532004307.8315349     
   3883882750.0142465     
   3744669659.2756381     
   3608841749.4753265     
   3476784171.9368391     
   3348992367.7212720     
   3661263805.1236081     
   3536677351.8932762     
   3416422974.9215016     
   3300949140.1824193     
   3190814037.4157395     
   3465444881.8090200     
   3355856418.0144572     
   3251580475.2437901     
   3153103698.7764225     
   3061012794.5132427     
   3301242823.8657207     
   3206765329.6133451     
   3118560861.0936756     
   3037118209.4110136     
   2963007892.9429598     
   3532004307.8315349     
   3422567234.5712237     
   3315809754.9965477     
   3211965867.7114158     
   3111334426.2524428     
   3348992367.7212720     
   3250743690.2137690     
   3155478371.1910119     
   3063447609.9601712     
   2974959755.2866707     
   3190814037.4157395     
   3103443091.6059875     
   3019310988.4570780     
   2938676883.5956950     
   2861847992.7015071     
   3061012794.5132427     
   2984245190.5802474     
   2910902231.0968652     
   2841239732.9532285     
   2775551648.1076050     
   2963007892.9429598     
   2896573094.3148675     
   2833655990.0944262     
   2774496926.7429338     
   2719364575.4498844     
   3111334426.2524428     
   2929678414.7568197     
   2750322644.8549638     
   2573748415.0260949     
   2400589149.9555817     
   2974959755.2866707     
   2805972895.7455521     
   2641937852.9536767     
   2483785988.7123442     
   2332719117.1287708     
   2861847992.7015071     
   2710396499.8606577     
   2567040354.1761508     
   2433130229.3700795     
   2310346712.5822258     
   2775551648.1076050     
   2645494576.0848947     
   2526895308.3840575     
   2421345102.1836576     
   2330730329.3350949     
   2719364575.4498844     
   2613045768.1832619     
   2521481778.7776022     
   2446240058.3557873     
   2389085627.8670578     
   3624969615.9453926     
   3719699860.7354136     
   3825683297.2611489     
   3942855950.4358916     
   4071124814.8666492     
   3137961249.9534373     
   3255528600.9537759     
   3382513097.0062590     
   3518445350.1896787     
   3662867330.9944963     
   2694742885.7905483     
   2830537041.7077713     
   2973641653.3785963     
   3122973966.2889924     
   3277622627.6085362     
   2298803127.3500118     
   2449517203.8101459     
   2604950621.3715568     
   2763179954.0827122     
   2922774782.4668565     
   1955350484.2232132     
   2119423228.2899907     
   2284849237.6874933     
   2448666782.3772373     
   2608916629.5035925     
   4071124814.8666492     
   4112527046.3978705     
   4151272660.4578791     
   4186462447.5297260     
   4217363551.9474196     
   3662867330.9944963     
   3702208547.8110781     
   3740167034.5489383     
   3775843054.3475852     
   3808486424.1965332     
   3277622627.6085362     
   3320780588.6567855     
   3364184524.1938472     
   3407011165.9948187     
   3448582065.5523028     
   2922774782.4668565     
   2975626151.3538742     
   3030710181.1035409     
   3087345300.6653128     
   3144998995.6240749     
   2608916629.5035925     
   2676794881.7385678     
   2749196788.8173461     
   2825615494.5843968     
   2905699314.1739001     
   4217363551.9474196     
   4133233263.0831232     
   4055600140.0542550     
   3983613531.4635754     
   3916979740.6173043     
   3808486424.1965332     
   3755826978.5371418     
   3709150328.9949083     
   3667982451.4364586     
   3632228441.7401848     
   3448582065.5523028     
   3422786291.5639524     
   3402077422.5267792     
   3386225798.3493819     
   3375215944.8503494     
   3144998995.6240749     
   3141734791.0369616     
   3142066848.9011445     
   3145894294.8399458     
   3153203001.0096526     
   2905699314.1739001     
   2920978007.9799442     
   2937583544.3862300     
   2955460812.4726820     
   2974570483.2891335     
   3916979740.6173043     
   3833738354.6495919     
   3754074917.0075650     
   3678182578.5312514     
   3606288635.3375254     
   3632228441.7401848     
   3560120646.7244973     
   3492395624.8655434     
   3429277602.6410713     
   3371032130.7703223     
   3375215944.8503494     
   3315683666.8146520     
   3261551248.3037624     
   3213055008.4316392     
   3170480306.0485158     
   3153203001.0096526     
   3107340686.9485307     
   3068090631.2527771     
   3035668974.2094221     
   3010348570.9915824     
   2974570483.2891335     
   2942807350.1731124     
   2919025561.8088527     
   2903377969.4308319     
   2896083006.7228823     
   3606288635.3375254     
   3522477601.8639946     
   3443477526.8869138     
   3369600119.4535608     
   3301242823.8657207     
   3371032130.7703223     
   3302794194.4458222     
   3239918322.3090649     
   3182707473.0471826     
   3131528685.3629961     
   3170480306.0485158     
   3116978541.5919185     
   3069268846.4284706     
   3027618675.2069349     
   2992337239.1345572     
   3010348570.9915824     
   2970414925.0823221     
   2936530159.8647923     
   2908904633.7426248     
   2887770919.3356390     
   2896083006.7228823     
   2868121558.3209200     
   2846252394.2846041     
   2830618379.1010890     
   2821370799.3791122     
   3301242823.8657207     
   3206765329.6133451     
   3118560861.0936756     
   3037118209.4110136     
   2963007892.9429598     
   3131528685.3629961     
   3052019625.4360776     
   2979482660.8926420     
   2914385663.1396341     
   2857260584.4661093     
   2992337239.1345572     
   2927619978.6184530     
   2870524651.5211563     
   2821467079.5022097     
   2780907289.8711028     
   2887770919.3356390     
   2837206900.4025846     
   2794823549.3212895     
   2760957428.5273809     
   2735971222.9369898     
   2821370799.3791122     
   2783741926.2771807     
   2754735714.2952337     
   2734593964.9642611     
   2723571808.4017282     
   2963007892.9429598     
   2896573094.3148675     
   2833655990.0944262     
   2774496926.7429338     
   2719364575.4498844     
   2857260584.4661093     
   2801798058.8666983     
   2751032021.9870472     
   2705222023.4523277     
   2664650932.6348562     
   2780907289.8711028     
   2736905668.3088675     
   2698770956.0550094     
   2666749867.6474676     
   2641104020.7743292     
   2735971222.9369898     
   2703172492.7774606     
   2677352413.5264621     
   2658714278.4350224     
   2647468022.5344586     
   2723571808.4017282     
   2700899032.5293684     
   2686239015.4942946     
   2679732213.7498732     
   2681520698.8043427     
   2719364575.4498844     
   2613045768.1832619     
   2521481778.7776022     
   2446240058.3557873     
   2389085627.8670578     
   2664650932.6348562     
   2582999647.4264035     
   2514741409.6965556     
   2460936400.3810201     
   2422714456.8305168     
   2641104020.7743292     
   2580316473.7844472     
   2531117590.3252568     
   2494171592.9947443     
   2470152828.9615889     
   2647468022.5344586     
   2604006962.3552365     
   2570005345.8274465     
   2545847393.5400405     
   2531907696.4601426     
   2681520698.8043427     
   2652325754.8344817     
   2630255127.2123804     
   2615512195.5509510     
   2608289858.9442844     
   1955350484.2232132     
   2119423228.2899907     
   2284849237.6874933     
   2448666782.3772373     
   2608916629.5035925     
   1653872623.1355422     
   1820333833.1004703     
   1988490243.0049119     
   2155644219.6444702     
   2320036985.4241638     
   1393701156.0732584     
   1571086662.1246841     
   1749475827.8319414     
   1926864121.7789018     
   2102000721.7000620     
   1207152915.0574758     
   1399105370.1728888     
   1590633668.4705732     
   1780960708.8465340     
   1969627765.3308547     
   1136916791.2668331     
   1335243691.2652965     
   1533877230.8154001     
   1732817409.9171438     
   1932064228.5705280     
   2608916629.5035925     
   2676794881.7385678     
   2749196788.8173461     
   2825615494.5843968     
   2905699314.1739001     
   2320036985.4241638     
   2407032999.2177796     
   2496479148.5091820     
   2587987182.9384546     
   2681282549.4646220     
   2102000721.7000620     
   2205695046.6693730     
   2309300714.5912523     
   2412582344.2462344     
   2515373647.2859344     
   1969627765.3308547     
   2086718523.5996411     
   2200951414.4976749     
   2312251664.7968302     
   2420567292.1731467     
   1932064228.5705280     
   2058664223.9532855     
   2179827425.4871082     
   2295553833.1719985     
   2405843447.0079546     
   2905699314.1739001     
   2920978007.9799442     
   2937583544.3862300     
   2955460812.4726820     
   2974570483.2891335     
   2681282549.4646220     
   2703363914.2249994     
   2727803150.2975049     
   2754583149.1947002     
   2783696333.3572073     
   2515373647.2859344     
   2544128962.7207942     
   2576297633.6165233     
   2611881540.2886820     
   2650886671.3980970     
   2420567292.1731467     
   2454399263.0632234     
   2492698569.2430897     
   2535468682.2082076     
   2582713938.1938219     
   2405843447.0079546     
   2441602309.0928702     
   2482871374.4662766     
   2529650643.1281757     
   2581940115.0785646     
   2974570483.2891335     
   2942807350.1731124     
   2919025561.8088527     
   2903377969.4308319     
   2896083006.7228823     
   2783696333.3572073     
   2766776889.3694777     
   2757437484.2334847     
   2755769559.7821527     
   2761898427.4991460     
   2650886671.3980970     
   2645603993.9327774     
   2647206271.1764288     
   2655732274.8728867     
   2671234176.7667212     
   2582713938.1938219     
   2585517328.7145705     
   2594232899.1057734     
   2608868781.5036330     
   2629436062.5309844     
   2581940115.0785646     
   2589295015.4436455     
   2601368832.6753983     
   2618161566.7738228     
   2639673217.7389183     
   2896083006.7228823     
   2868121558.3209200     
   2846252394.2846041     
   2830618379.1010890     
   2821370799.3791122     
   2761898427.4991460     
   2741228261.2171025     
   2727201331.7275462     
   2719914293.9932275     
   2719468142.1379213     
   2671234176.7667212     
   2656087105.6466131     
   2648089252.3788815     
   2647290298.4963450     
   2653741581.9807415     
   2629436062.5309844     
   2617387629.6491394     
   2612938286.4490719     
   2616101779.5585451     
   2626892218.6743302     
   2639673217.7389183     
   2627799837.3784842     
   2623912509.2952118     
   2628011233.4890928     
   2640096009.9601355     
   2821370799.3791122     
   2783741926.2771807     
   2754735714.2952337     
   2734593964.9642611     
   2723571808.4017282     
   2719468142.1379213     
   2692322940.1428213     
   2674135963.9994454     
   2665058060.3522930     
   2665244777.8580503     
   2653741581.9807415     
   2634635027.9627385     
   2624731372.7244568     
   2624102533.1712079     
   2632821289.1711378     
   2626892218.6743302     
   2612819421.8342543     
   2608128011.5920296     
   2612836662.4903088     
   2626964036.0378079     
   2640096009.9601355     
   2627682625.8284698     
   2624789722.6321678     
   2631417300.3712273     
   2647565359.0456514     
   2723571808.4017282     
   2700899032.5293684     
   2686239015.4942946     
   2679732213.7498732     
   2681520698.8043427     
   2665244777.8580503     
   2649703957.3145370     
   2641555867.4799452     
   2640871761.6545014     
   2647722842.5182157     
   2632821289.1711378     
   2622199720.1646872     
   2618313400.8258605     
   2621189993.7864814     
   2630856919.0794277     
   2626964036.0378079     
   2619136995.0465331     
   2617367983.1680651     
   2621662838.0508595     
   2632027323.0238910     
   2647565359.0456514     
   2640614872.2494922     
   2639038050.0561671     
   2642834892.4656839     
   2652005399.4780426     
   2681520698.8043427     
   2652325754.8344817     
   2630255127.2123804     
   2615512195.5509510     
   2608289858.9442844     
   2647722842.5182157     
   2626729762.0344005     
   2615268684.6865444     
   2613500648.5127683     
   2621570049.1686382     
   2630856919.0794277     
   2616806344.9034019     
   2614622656.0064683     
   2624399724.4309068     
   2646217237.7320871     
   2632027323.0238910     
   2622507201.9360671     
   2627215766.2814260     
   2646182447.8811436     
   2679430995.1788135     
   2652005399.4780426     
   2643517426.3108549     
   2651791614.6139965     
   2676827964.3874660     
   2718626475.6312728     
   1136916791.2668331     
   1335243691.2652965     
   1533877230.8154001     
   1732817409.9171438     
   1932064228.5705280     
   1207152915.0618579     
   1399105370.1772344     
   1590633668.4749231     
   1780960708.8509216     
   1969627765.3353066     
   1393701156.0805113     
   1571086662.1321537     
   1749475827.8396370     
   1926864121.7868493     
   2102000721.7082863     
   1653872623.1440902     
   1820333833.1096022     
   1988490243.0146015     
   2155644219.6547222     
   2320036985.4349985     
   1955350484.2319391     
   2119423228.2996140     
   2284849237.6979752     
   2448666782.3885756     
   2608916629.5158062     
   1932064228.5705280     
   2058664223.9532855     
   2179827425.4871082     
   2295553833.1719985     
   2405843447.0079546     
   1969627765.3353066     
   2086718523.6045582     
   2200951414.5030828     
   2312251664.8027520     
   2420567292.1796079     
   2102000721.7082863     
   2205695046.6784587     
   2309300714.6012397     
   2412582344.2571640     
   2515373647.2978377     
   2320036985.4349985     
   2407032999.2297635     
   2496479148.5223713     
   2587987182.9528971     
   2681282549.4803638     
   2608916629.5158062     
   2676794881.7520719     
   2749196788.8322201     
   2825615494.6007018     
   2905699314.1916962     
   2405843447.0079546     
   2441602309.0928702     
   2482871374.4662766     
   2529650643.1281757     
   2581940115.0785646     
   2420567292.1796079     
   2454399263.0693717     
   2492698569.2488313     
   2535468682.2134461     
   2582713938.1984568     
   2515373647.2978377     
   2544128962.7323165     
   2576297633.6274929     
   2611881540.2989221     
   2650886671.4074249     
   2681282549.4803638     
   2703363914.2405653     
   2727803150.3126650     
   2754583149.2092175     
   2783696333.3708434     
   2905699314.1916962     
   2920978007.9980087     
   2937583544.4042988     
   2955460812.4904861     
   2974570483.3064003     
   2581940115.0785646     
   2589295015.4436455     
   2601368832.6753983     
   2618161566.7738228     
   2639673217.7389183     
   2582713938.1984568     
   2585517328.7215195     
   2594232899.1153059     
   2608868781.5160217     
   2629436062.5464854     
   2650886671.4074249     
   2645603993.9462075     
   2647206271.1944804     
   2655732274.8960757     
   2671234176.7955594     
   2783696333.3708434     
   2766776889.3882656     
   2757437484.2581654     
   2755769559.8134723     
   2761898427.5378642     
   2974570483.3064003     
   2942807350.1957431     
   2919025561.8377800     
   2903377969.4670229     
   2896083006.7673321     
   2639673217.7389183     
   2627799837.3784842     
   2623912509.2952118     
   2628011233.4890928     
   2640096009.9601355     
   2629436062.5464854     
   2617387629.6687770     
   2612938286.4735880     
   2616101779.5886631     
   2626892218.7107654     
   2671234176.7955594     
   2656087105.6825953     
   2648089252.4234781     
   2647290298.5510077     
   2653741582.0469189     
   2761898427.5378642     
   2741228261.2643499     
   2727201331.7854886     
   2719914294.0640607     
   2719468142.2238536     
   2896083006.7673321     
   2868121558.3733258     
   2846252394.3477859     
   2830618379.1779466     
   2821370799.4726243     
   2640096009.9601355     
   2627682625.8284698     
   2624789722.6321678     
   2631417300.3712273     
   2647565359.0456514     
   2626892218.7107654     
   2612819421.8669915     
   2608128011.6205263     
   2612836662.5140505     
   2626964036.0563269     
   2653741582.0469189     
   2634635028.0236287     
   2624731372.7791114     
   2624102533.2187195     
   2632821289.2106733     
   2719468142.2238536     
   2692322940.2241445     
   2674135964.0749979     
   2665058060.4209352     
   2665244777.9186673     
   2821370799.4726243     
   2783741926.3689322     
   2754735714.3840585     
   2734593965.0489707     
   2723571808.4811230     
   2647565359.0456514     
   2640614872.2494922     
   2639038050.0561671     
   2642834892.4656839     
   2652005399.4780426     
   2626964036.0563269     
   2619136995.0656953     
   2617367983.1872535     
   2621662838.0694618     
   2632027323.0413208     
   2632821289.2106733     
   2622199720.2057519     
   2618313400.8671741     
   2621189993.8267975     
   2630856919.1175075     
   2665244777.9186673     
   2649703957.3782196     
   2641555867.5447240     
   2640871761.7184224     
   2647722842.5793777     
   2723571808.4811230     
   2700899032.6143723     
   2686239015.5822244     
   2679732213.8380618     
   2681520698.8901138     
   2652005399.4780426     
   2643517426.3108549     
   2651791614.6139965     
   2676827964.3874660     
   2718626475.6312728     
   2632027323.0413208     
   2622507201.9640446     
   2627215766.3156867     
   2646182447.9173865     
   2679430995.2126069     
   2630856919.1175075     
   2616806344.9604416     
   2614622656.0733190     
   2624399724.4982815     
   2646217237.7905102     
   2647722842.5793777     
   2626729762.1228309     
   2615268684.7874889     
   2613500648.6111484     
   2621570049.2489672     
   2681520698.8901138     
   2652325754.9578152     
   2630255127.3522496     
   2615512195.6857023     
   2608289859.0516343     
   1955350484.2319391     
   2119423228.2996140     
   2284849237.6979752     
   2448666782.3885756     
   2608916629.5158062     
   2298803127.3581758     
   2449517203.8193569     
   2604950621.3818064     
   2763179954.0940075     
   2922774782.4792123     
   2694742885.7976532     
   2830537041.7159376     
   2973641653.3878527     
   3122973966.2993689     
   3277622627.6200600     
   3137961249.9591341     
   3255528600.9604387     
   3382513097.0139546     
   3518445350.1984658     
   3662867331.0044332     
   3624969615.9494123     
   3719699860.7402220     
   3825683297.2668433     
   3942855950.4425650     
   4071124814.8743911     
   2608916629.5158062     
   2676794881.7520719     
   2749196788.8322201     
   2825615494.6007018     
   2905699314.1916962     
   2922774782.4792123     
   2975626151.3674984     
   3030710181.1185246     
   3087345300.6817331     
   3144998995.6420112     
   3277622627.6200600     
   3320780588.6694813     
   3364184524.2078114     
   3407011166.0101380     
   3448582065.5690622     
   3662867331.0044332     
   3702208547.8220210     
   3740167034.5609818     
   3775843054.3608136     
   3808486424.2110286     
   4071124814.8743911     
   4112527046.4064002     
   4151272660.4672813     
   4186462447.5400724     
   4217363551.9587760     
   2905699314.1916962     
   2920978007.9980087     
   2937583544.4042988     
   2955460812.4904861     
   2974570483.3064003     
   3144998995.6420112     
   3141734791.0556254     
   3142066848.9203315     
   3145894294.8594398     
   3153203001.0292377     
   3448582065.5690622     
   3422786291.5817518     
   3402077422.5454669     
   3386225798.3688049     
   3375215944.8703494     
   3808486424.2110286     
   3755826978.5528073     
   3709150329.0116558     
   3667982451.4541879     
   3632228441.7587967     
   4217363551.9587760     
   4133233263.0956068     
   4055600140.0678244     
   3983613531.4781818     
   3916979740.6329036     
   2974570483.3064003     
   2942807350.1957431     
   2919025561.8377800     
   2903377969.4670229     
   2896083006.7673321     
   3153203001.0292377     
   3107340686.9727893     
   3068090631.2826185     
   3035668974.2458220     
   3010348571.0355825     
   3375215944.8703494     
   3315683666.8375926     
   3261551248.3304529     
   3213055008.4629669     
   3170480306.0854721     
   3632228441.7587967     
   3560120646.7435145     
   3492395624.8855877     
   3429277602.6628604     
   3371032130.7946782     
   3916979740.6329036     
   3833738354.6624694     
   3754074917.0181036     
   3678182578.5399141     
   3606288635.3448758     
   2896083006.7673321     
   2868121558.3733258     
   2846252394.3477859     
   2830618379.1779466     
   2821370799.4726243     
   3010348571.0355825     
   2970414925.1316104     
   2936530159.9220057     
   2908904633.8105140     
   2887770919.4170856     
   3170480306.0854721     
   3116978541.6311765     
   3069268846.4725580     
   3027618675.2585354     
   2992337239.1965365     
   3371032130.7946782     
   3302794194.4693685     
   3239918322.3342543     
   3182707473.0766869     
   3131528685.3997183     
   3606288635.3448758     
   3522477601.8674488     
   3443477526.8888841     
   3369600119.4567266     
   3301242823.8730431     
   2821370799.4726243     
   2783741926.3689322     
   2754735714.3840585     
   2734593965.0489707     
   2723571808.4811230     
   2887770919.4170856     
   2837206900.4834223     
   2794823549.4007583     
   2760957428.6046395     
   2735971223.0111213     
   2992337239.1965365     
   2927619978.6826258     
   2870524651.5873513     
   2821467079.5701361     
   2780907289.9403305     
   3131528685.3997183     
   3052019625.4788451     
   2979482660.9420352     
   2914385663.1961122     
   2857260584.5299535     
   3301242823.8730431     
   3206765329.6310630     
   3118560861.1232443     
   3037118209.4537940     
   2963007893.0001788     
   2723571808.4811230     
   2700899032.6143723     
   2686239015.5822244     
   2679732213.8380618     
   2681520698.8901138     
   2735971223.0111213     
   2703172492.8588133     
   2677352413.6119413     
   2658714278.5214448     
   2647468022.6185479     
   2780907289.9403305     
   2736905668.3897557     
   2698770956.1441598     
   2666749867.7412887     
   2641104020.8690133     
   2857260584.5299535     
   2801798058.9492183     
   2751032022.0847397     
   2705222023.5613809     
   2664650932.7510900     
   2963007893.0001788     
   2896573094.3999720     
   2833655990.2040443     
   2774496926.8732653     
   2719364575.5966358     
   2681520698.8901138     
   2652325754.9578152     
   2630255127.3522496     
   2615512195.6857023     
   2608289859.0516343     
   2647468022.6185479     
   2604006962.4970350     
   2570005346.0091982     
   2545847393.7427058     
   2531907696.6633754     
   2641104020.8690133     
   2580316473.9671769     
   2531117590.5824137     
   2494171593.3106680     
   2470152829.3183155     
   2664650932.7510900     
   2582999647.6683240     
   2514741410.0558910     
   2460936400.8467641     
   2422714457.3883119     
   2719364575.5966358     
   2613045768.4970751     
   2521481779.2571726     
   2446240058.9967656     
   2389085628.6609039     
   3624969615.9494123     
   3719699860.7402220     
   3825683297.2668433     
   3942855950.4425650     
   4071124814.8743911     
   4134116229.5934644     
   4224389188.8105268     
   4320583549.6459856     
   4421042610.4712381     
   4524311822.6024103     
   4643439156.9148445     
   4755539049.0963240     
   4868763220.0678349     
   4980477435.7146711     
   5088756855.5179052     
   5151418537.2492580     
   5311325280.3295956     
   5467864287.3048573     
   5618141373.9496222     
   5760691711.4466105     
   5657790536.3168516     
   5890910273.7854776     
   6116391530.7311211     
   6331777172.6082220     
   6536845348.1715231     
   4071124814.8743911     
   4112527046.4064002     
   4151272660.4672813     
   4186462447.5400724     
   4217363551.9587760     
   4524311822.6024103     
   4539118257.1296253     
   4558591429.5359211     
   4580250775.9838095     
   4602372150.1583166     
   5088756855.5179052     
   5054109652.6925354     
   5029974688.0725651     
   5011144935.6001091     
   4994418413.9168262     
   5760691711.4466105     
   5652172623.9697733     
   5559657263.3576078     
   5474082921.8123865     
   5389908207.9919310     
   6536845348.1715231     
   6328711383.3979864     
   6142770508.9515762     
   5965111467.1691055     
   5786724712.3964043     
   4217363551.9587760     
   4133233263.0956068     
   4055600140.0678244     
   3983613531.4781818     
   3916979740.6329036     
   4602372150.1583166     
   4494065008.5603724     
   4389980262.5460749     
   4289801200.7981224     
   4193438665.1535711     
   4994418413.9168262     
   4867301469.0981998     
   4743375902.4095650     
   4622610088.3447342     
   4505044993.4325933     
   5389908207.9919310     
   5248975472.0140734     
   5111266349.7401638     
   4976822656.3154287     
   4845738238.5403585     
   5786724712.3964043     
   5636416918.3073406     
   5490310515.7528076     
   5348318864.0206490     
   5210488793.2676802     
   3916979740.6329036     
   3833738354.6624694     
   3754074917.0181036     
   3678182578.5399141     
   3606288635.3448758     
   4193438665.1535711     
   4098047370.3858500     
   4005868471.0664840     
   3917108181.6386738     
   3832029089.4415016     
   4505044993.4325933     
   4395556507.1078720     
   4288680543.4621143     
   4184605633.5328970     
   4083606526.0650349     
   4845738238.5403585     
   4720334059.0548153     
   4596778888.4154615     
   4475209007.8150034     
   4355879972.9343367     
   5210488793.2676802     
   5067458989.2272215     
   4925414178.9646626     
   4784402953.8703928     
   4644625951.5705376     
   3606288635.3448758     
   3522477601.8674488     
   3443477526.8888841     
   3369600119.4567266     
   3301242823.8730431     
   3832029089.4415016     
   3734264868.3476381     
   3640379047.8778696     
   3550653775.5578761     
   3465444881.7712793     
   4083606526.0650349     
   3973046687.0703807     
   3865633705.6214466     
   3761606142.4531112     
   3661263805.0506568     
   4355879972.9343367     
   4233754961.6283040     
   4114245132.9060593     
   3997540866.3452301     
   3883882749.9179826     
   4644625951.5705376     
   4512144978.9523029     
   4381934032.7084932     
   4254136044.4106646     
   4128935785.8104920     
   3301242823.8730431     
   3206765329.6310630     
   3118560861.1232443     
   3037118209.4537940     
   2963007893.0001788     
   3465444881.7712793     
   3355856417.9869699     
   3251580475.2292881     
   3153103698.7776012     
   3061012794.5327077     
   3661263805.0506568     
   3536677351.8304081     
   3416422974.8726807     
   3300949140.1516681     
   3190814037.4071221     
   3883882749.9179826     
   3744669659.1887875     
   3608841749.4030037     
   3476784171.8843541     
   3348992367.6940894     
   4128935785.8104920     
   3975606813.4230399     
   3824785718.0989041     
   3676780909.5041809     
   3532004307.7945905     
   2963007893.0001788     
   2896573094.3999720     
   2833655990.2040443     
   2774496926.8732653     
   2719364575.5966358     
   3061012794.5327077     
   2984245190.6351266     
   2910902231.1847696     
   2841239733.0713639     
   2775551648.2526870     
   3190814037.4071221     
   3103443091.6400485     
   3019310988.5323462     
   2938676883.7103319     
   2861847992.8532157     
   3348992367.6940894     
   3250743690.2358470     
   3155478371.2616787     
   3063447610.0784507     
   2974959755.4512010     
   3532004307.7945905     
   3422567234.5891228     
   3315809755.0692830     
   3211965867.8387518     
   3111334426.4338770     
   2719364575.5966358     
   2613045768.4970751     
   2521481779.2571726     
   2446240058.9967656     
   2389085628.6609039     
   2775551648.2526870     
   2645494576.4158506     
   2526895308.9045486     
   2421345102.8968964     
   2330730330.2431116     
   2861847992.8532157     
   2710396500.1762371     
   2567040354.6585808     
   2433130230.0241475     
   2310346713.4147196     
   2974959755.4512010     
   2805972896.0177264     
   2641937853.3297501     
   2483785989.1912117     
   2332719117.7133007     
   3111334426.4338770     
   2929678414.9634199     
   2750322645.0712972     
   2573748415.2387633     
   2400589150.1548944     
   5657790536.3168516     
   5890910273.7854776     
   6116391530.7311211     
   6331777172.6082220     
   6536845348.1715231     
   6491640679.2302485     
   6586873776.1737900     
   6757438407.6748562     
   6961251263.9395390     
   7171652250.8725271     
   7982331074.1224298     
   7734963311.0340004     
   7669165542.1516104     
   7669620833.1194029     
   7666397305.9239349     
   10130309225.193825     
   9322017305.5605736     
   8826382651.1551304     
   8443548156.8201370     
   8035700220.6697598     
   12935661981.022797     
   11340748495.142496     
   10210255506.469177     
   9272804067.7207851     
   8303940292.1308088     
   6536845348.1715231     
   6328711383.3979864     
   6142770508.9515762     
   5965111467.1691055     
   5786724712.3964043     
   7171652250.8725271     
   6910919631.6357126     
   6658097262.5652933     
   6409326916.8330307     
   6161462998.8923092     
   7666397305.9239349     
   7381033520.4572916     
   7101078757.8545027     
   6826611467.4953346     
   6557836597.1909475     
   8035700220.6697598     
   7746706555.4769239     
   7473408526.2265511     
   7213844640.4742994     
   6968024286.1508398     
   8303940292.1308088     
   8020504922.4518690     
   7779217708.9595213     
   7569383449.1441717     
   7386031939.1381683     
   5786724712.3964043     
   5636416918.3073406     
   5490310515.7528076     
   5348318864.0206490     
   5210488793.2676802     
   6161462998.8923092     
   6012765302.9915686     
   5865395619.4286337     
   5719392552.8097067     
   5574812270.5351725     
   6557836597.1909475     
   6407593771.2875500     
   6255697822.5492506     
   6102116820.7273493     
   5946881229.0639095     
   6968024286.1508398     
   6814438984.4547272     
   6656195473.0123720     
   6493009219.5494576     
   6324831987.6243572     
   7386031939.1381683     
   7228299874.2907610     
   7062992614.1696520     
   6889411679.4537439     
   6707373977.3967161     
   5210488793.2676802     
   5067458989.2272215     
   4925414178.9646626     
   4784402953.8703928     
   4644625951.5705376     
   5574812270.5351725     
   5413585024.7502460     
   5253337388.8257456     
   5094115387.7773218     
   4936030855.3108807     
   5946881229.0639095     
   5771266842.0314016     
   5597103607.9422865     
   5424418449.5926552     
   5253274162.0563526     
   6324831987.6243572     
   6138120700.0181427     
   5953747134.7188549     
   5771688230.1880054     
   5591971379.3597879     
   6707373977.3967161     
   6512343821.4704790     
   6320912566.1711740     
   6132962258.7941570     
   5948473978.6013651     
   4644625951.5705376     
   4512144978.9523029     
   4381934032.7084932     
   4254136044.4106646     
   4128935785.8104920     
   4936030855.3108807     
   4794340874.0496340     
   4653889912.9265089     
   4514787661.8604307     
   4377179020.1752081     
   5253274162.0563526     
   5102788404.8325882     
   4952568405.8399992     
   4802679070.1298113     
   4653217739.4801760     
   5591971379.3597879     
   5433240769.5429020     
   5273881862.5178862     
   5113909482.4760056     
   4953372164.1138535     
   5948473978.6013651     
   5782137172.1146603     
   5614370558.2819271     
   5445138279.0273218     
   5274443654.0492897     
   4128935785.8104920     
   3975606813.4230399     
   3824785718.0989041     
   3676780909.5041809     
   3532004307.7945905     
   4377179020.1752081     
   4208731051.4624996     
   4042232376.8207955     
   3877899603.2801590     
   3716042572.8858366     
   4653217739.4801760     
   4470335827.5152798     
   4288945792.7206078     
   4109179436.7138915     
   3931251487.2880182     
   4953372164.1138535     
   4756480774.1370773     
   4560715697.7389603     
   4366135059.1002293     
   4172871444.8884788     
   5274443654.0492897     
   5063724899.3654079     
   4853843390.3574219     
   4644795644.6237202     
   4436646868.9358063     
   3532004307.7945905     
   3422567234.5891228     
   3315809755.0692830     
   3211965867.8387518     
   3111334426.4338770     
   3716042572.8858366     
   3595637874.0487733     
   3476745357.4584436     
   3359515283.5765247     
   3244146728.7385163     
   3931251487.2880182     
   3801870682.3676014     
   3673080464.6488771     
   3544957135.3627071     
   3417608773.4930081     
   4172871444.8884788     
   4036606716.5103559     
   3900265736.9941669     
   3763874397.1068139     
   3627477310.3453312     
   4436646868.9358063     
   4295572716.8272047     
   4153992577.2648029     
   4011909992.4513798     
   3869340435.0664792     
   3111334426.4338770     
   2929678414.9634199     
   2750322645.0712972     
   2573748415.2387633     
   2400589150.1548944     
   3244146728.7385163     
   3048585976.0635958     
   2855641758.3686643     
   2665789435.1074386     
   2479707829.8876143     
   3417608773.4930081     
   3205359470.6109529     
   2995558440.6830478     
   2788605295.4723949     
   2585173199.6600423     
   3627477310.3453312     
   3395027463.1800089     
   3164397828.6255875     
   2935847111.0112329     
   2709987460.3582902     
   3869340435.0664792     
   3612670942.9430428     
   3356817188.9170127     
   3101842311.3540444     
   2848243314.4355011     
 </DataArray>
 <DataArray  type="Float64" Name="strain" NumberOfComponents="3" format="ascii">
  0.20348509902738388        0.0000000000000000       0.12541058805320529     
  0.18665564287922948       -2.7326624782911195E-002   7.4354376531453673E-002
  0.16982618673107508       -4.4678018969122317E-002   3.5131895470207321E-002
  0.15299673058292068       -5.2054182558633366E-002   7.7431448694661974E-003
  0.13616727443476628       -4.9455115551444342E-002  -7.8118752707696942E-003
  0.15985501701665747        0.0000000000000000        9.6451513113992721E-002
  0.15317772651890937       -2.1846010744313971E-002   6.2692126193193504E-002
  0.14650043602116122       -3.6176223382928099E-002   3.7403340112701591E-002
  0.13982314552341307       -4.2990637915842393E-002   2.0585154872516991E-002
  0.13314585502566495       -4.2289254343056859E-002   1.2237570472639618E-002
  0.12645781006578249        0.0000000000000000        7.4202768458877522E-002
  0.12656955559824268       -1.6365396705716743E-002   5.5280773648030454E-002
  0.12668130113070286       -2.7674427796733878E-002   4.1466250057292736E-002
  0.12679304666316304       -3.3927093273051420E-002   3.2759197686664368E-002
  0.12690479219562328       -3.5123393134669341E-002   2.9159616536145346E-002
  0.10329347817475890        0.0000000000000000        5.8664354087859645E-002
  0.10683113011722947       -1.0884782667119515E-002   5.2120318895964496E-002
  0.11036878205970002       -1.9172632210539657E-002   4.7320625303980769E-002
  0.11390643400217058       -2.4863548630260433E-002   4.4265273311908389E-002
  0.11744408594464116       -2.7957531926281851E-002   4.2954262919747410E-002
   9.0362021343586729E-002   0.0000000000000000        4.9836270000939119E-002
   9.3962450075869716E-002  -5.4041686285222863E-003   5.3210761936995657E-002
   9.7562878808152689E-002  -1.0670836624345439E-002   5.4966465852765642E-002
  0.10116330754043568       -1.5800003987469460E-002   5.5103381748249060E-002
  0.10476373627271865       -2.0791670717894353E-002   5.3621509623445945E-002
  0.13616727443476628       -4.9455115551444342E-002  -7.8118752707696942E-003
  0.13295878903147551       -4.2918224210681831E-002  -3.3927011751808261E-003
  0.12975030362818479       -3.8480914799472521E-002  -3.8745753291432455E-004
  0.12654181822489402       -3.6143187317816169E-002   1.2038556560297550E-003
  0.12333333282160330       -3.5905041765713047E-002   1.3812383916515236E-003
  0.13314585502566495       -4.2289254343056859E-002   1.2237570472639618E-002
  0.12891147651278509       -3.8421927255202770E-002   1.2183391988463393E-002
  0.12467709799990523       -3.5738511242911539E-002   1.1491357738431400E-002
  0.12044271948702535       -3.4239006306183040E-002   1.0161467722543437E-002
  0.11620834097414548       -3.3923412445017370E-002   8.1937219407996753E-003
  0.12690479219562328       -3.5123393134669341E-002   2.9159616536145346E-002
  0.12242059526062080       -3.3925630299723716E-002   2.5547756326194330E-002
  0.11793639832561834       -3.2996107686350612E-002   2.2074115037854052E-002
  0.11345220139061586       -3.2334825294549917E-002   1.8738692671124477E-002
  0.10896800445561340       -3.1941783124321735E-002   1.5541489226005421E-002
  0.11744408594464116       -2.7957531926281851E-002   4.2954262919747410E-002
  0.11348614527498264       -2.9429333344244656E-002   3.6700391838011978E-002
  0.10952820460532410       -3.0253704129789644E-002   3.1360814365353852E-002
  0.10557026393566558       -3.0430644282916783E-002   2.6935530501772768E-002
  0.10161232326600705       -2.9960153803626106E-002   2.3424540247268949E-002
  0.10476373627271865       -2.0791670717894353E-002   5.3621509623445945E-002
  0.10210812655587061       -2.4933036388765595E-002   4.5641298523916414E-002
   9.9452516839022551E-002  -2.7511300573228696E-002   3.9351455720930566E-002
   9.6796907122174480E-002  -2.8526463271283650E-002   3.4751981214488456E-002
   9.4141297405326452E-002  -2.7978524482930436E-002   3.1842875004590113E-002
  0.12333333282160330       -3.5905041765713047E-002   1.3812383916515236E-003
  0.12040809828762400       -3.6406841147402308E-002   6.3988627542149734E-004
  0.11748286375364467       -3.6288948467123057E-002   9.2024832698378578E-005
  0.11455762921966538       -3.5551363724875398E-002  -2.6234593651785348E-004
  0.11163239468568603       -3.4194086920659394E-002  -4.2322603222710864E-004
  0.11620834097414548       -3.3923412445017370E-002   8.1937219407996753E-003
  0.11346228409600782       -3.4001478590191286E-002   7.8308536982561877E-003
  0.11071622721787018       -3.3682953672481190E-002   7.6328500938892124E-003
  0.10797017033973247       -3.2967837691887311E-002   7.5997111276986107E-003
  0.10522411346159488       -3.1856130648409531E-002   7.7314367996842159E-003
  0.10896800445561340       -3.1941783124321735E-002   1.5541489226005421E-002
  0.10637249919798686       -3.1596116032980223E-002   1.5334003858064070E-002
  0.10377699394036030       -3.1076958877839320E-002   1.5262757092968596E-002
  0.10118148868273376       -3.0384311658899134E-002   1.5327748930718905E-002
   9.8585983425107201E-002  -2.9518174376159723E-002   1.5528979371315074E-002
  0.10161232326600705       -2.9960153803626106E-002   2.3424540247268949E-002
   9.9138743593561118E-002  -2.9190753475769125E-002   2.3149336754845019E-002
   9.6665163921115155E-002  -2.8470964083197464E-002   2.2981745829936433E-002
   9.4191584248669177E-002  -2.7800785625911029E-002   2.2921767472543236E-002
   9.1718004576223214E-002  -2.7180218103909887E-002   2.2969401682665206E-002
   9.4141297405326452E-002  -2.7978524482930436E-002   3.1842875004590113E-002
   9.1761017282730534E-002  -2.6785390918558104E-002   3.1276852388599063E-002
   8.9380737160134616E-002  -2.5864969288555594E-002   3.0789816304792918E-002
   8.7000457037538725E-002  -2.5217259592922845E-002   3.0381766753171415E-002
   8.4620176914942780E-002  -2.4842261831660051E-002   3.0052703733734865E-002
  0.11163239468568603       -3.4194086920659394E-002  -4.2322603222710864E-004
  0.10851633609526545       -3.2657857685445019E-002  -1.6475172553814810E-004
  0.10540027750484485       -3.1383415650202570E-002   1.3669185689121899E-004
  0.10228421891442425       -3.0370760814931629E-002   4.8110471506135344E-004
   9.9168160324003662E-002  -2.9619893179632706E-002   8.6848684897217199E-004
  0.10522411346159488       -3.1856130648409531E-002   7.7314367996842159E-003
  0.10218376227038573       -3.0625364214145315E-002   7.5826706768063884E-003
   9.9143411079176624E-002  -2.9553070061191927E-002   7.5423500766107626E-003
   9.6103059887967510E-002  -2.8639248189549167E-002   7.6104749990977480E-003
   9.3062708696758367E-002  -2.7883898599217360E-002   7.7870454442669490E-003
   9.8585983425107201E-002  -2.9518174376159723E-002   1.5528979371315074E-002
   9.5686815880051374E-002  -2.8592870742845597E-002   1.5076287737531363E-002
   9.2787648334995532E-002  -2.7722724472181291E-002   1.4797517873371704E-002
   8.9888480789939718E-002  -2.6907735564166764E-002   1.4692669778836296E-002
   8.6989313244883820E-002  -2.6147904018802098E-002   1.4761743453924905E-002
   9.1718004576223214E-002  -2.7180218103909887E-002   2.2969401682665206E-002
   8.9025496924262412E-002  -2.6560377271545831E-002   2.2316099456636561E-002
   8.6332989272301583E-002  -2.5892378883170596E-002   2.1902195247173864E-002
   8.3640481620340754E-002  -2.5176222938784260E-002   2.1727689054277084E-002
   8.0947973968379938E-002  -2.4411909438386739E-002   2.1792580877946267E-002
   8.4620176914942780E-002  -2.4842261831660051E-002   3.0052703733734865E-002
   8.2199805403018786E-002  -2.4527883800246106E-002   2.9302105834122349E-002
   7.9779433891094764E-002  -2.4062033294159957E-002   2.8856382198017491E-002
   7.7359062379170757E-002  -2.3444710313401715E-002   2.8715532825420303E-002
   7.4938690867246777E-002  -2.2675914857971435E-002   2.8879557716330800E-002
   9.9168160324003662E-002  -2.9619893179632706E-002   8.6848684897217199E-004
   9.6360555446099005E-002  -2.8943791974556710E-002   4.9391604505066855E-004
   9.3552950568194404E-002  -2.8155436429955147E-002   2.6905581792446842E-004
   9.0745345690289775E-002  -2.7254826545827875E-002   1.9390616759405732E-004
   8.7937740812385146E-002  -2.6241962322174572E-002   2.6846709405903280E-004
   9.3062708696758367E-002  -2.7883898599217360E-002   7.7870454442669490E-003
   9.0403674915840504E-002  -2.7171432486636005E-002   7.5358711685748481E-003
   8.7744641134922585E-002  -2.6386261048244652E-002   7.4321285100607815E-003
   8.5085607354004722E-002  -2.5528384284043235E-002   7.4758174687246520E-003
   8.2426573573086748E-002  -2.4597802194031848E-002   7.6669380445664181E-003
   8.6989313244883820E-002  -2.6147904018802098E-002   1.4761743453924905E-002
   8.4476571601334982E-002  -2.5399072998715272E-002   1.4594416692746859E-002
   8.1963829957786158E-002  -2.4617085666534054E-002   1.4572242589129057E-002
   7.9451088314237306E-002  -2.3801942022258819E-002   1.4695221143071552E-002
   7.6938346670688440E-002  -2.2953642065889124E-002   1.4963352354574161E-002
   8.0947973968379938E-002  -2.4411909438386739E-002   2.1792580877946267E-002
   7.8579245502582523E-002  -2.3626713510794470E-002   2.1669552617566354E-002
   7.6210517036785039E-002  -2.2847910284823730E-002   2.1689398055129205E-002
   7.3841788570987513E-002  -2.2075499760474290E-002   2.1852117190634620E-002
   7.1473060105190070E-002  -2.1309481937746400E-002   2.2157710024082518E-002
   7.4938690867246777E-002  -2.2675914857971435E-002   2.8879557716330800E-002
   7.2711696619583016E-002  -2.1854354022873737E-002   2.8761278943033541E-002
   7.0484702371919269E-002  -2.1078734903113225E-002   2.8783594908061261E-002
   6.8257708124255551E-002  -2.0349057498689798E-002   2.8946505611413639E-002
   6.6030713876591818E-002  -1.9665321809603620E-002   2.9250011053091107E-002
   8.7937740812385146E-002  -2.6241962322174572E-002   2.6846709405903280E-004
   8.4422208807680976E-002  -2.5204374204625346E-002  -3.0949535808344475E-005
   8.0906676802976862E-002  -2.4229592638808944E-002  -9.3412007860727009E-005
   7.7391144798272749E-002  -2.3317617624725277E-002   8.1079677902301528E-005
   7.3875612793568579E-002  -2.2468449162374671E-002   4.9252552148038031E-004
   8.2426573573086748E-002  -2.4597802194031848E-002   7.6669380445664181E-003
   7.9143987143045463E-002  -2.3651967612055264E-002   7.3339497216403371E-003
   7.5861400713004151E-002  -2.2748333371957669E-002   7.2298983902252256E-003
   7.2578814282962853E-002  -2.1886899473739417E-002   7.3547840503201262E-003
   6.9296227852921555E-002  -2.1067665917400391E-002   7.7086067019255244E-003
   7.6938346670688440E-002  -2.2953642065889124E-002   1.4963352354574161E-002
   7.3880688649005169E-002  -2.2099561019485209E-002   1.4617398548443683E-002
   7.0823030627321953E-002  -2.1267074105106629E-002   1.4492364567518831E-002
   6.7765372605638710E-002  -2.0456181322753560E-002   1.4588250411799591E-002
   6.4707714583955439E-002  -1.9666882672425834E-002   1.4905056081286311E-002
   7.1473060105190070E-002  -2.1309481937746400E-002   2.2157710024082518E-002
   6.8632313325560204E-002  -2.0547154426915140E-002   2.1819396944600881E-002
   6.5791566545930213E-002  -1.9785814838255637E-002   2.1693986524020287E-002
   6.2950819766300251E-002  -1.9025463171767537E-002   2.1781478762340899E-002
   6.0110072986670343E-002  -1.8266099427451304E-002   2.2081873659562094E-002
   6.6030713876591818E-002  -1.9665321809603620E-002   2.9250011053091107E-002
   6.3398861172710402E-002  -1.8994747834345099E-002   2.8939944910112564E-002
   6.0767008468828987E-002  -1.8304555571404452E-002   2.8834764259730222E-002
   5.8135155764947571E-002  -1.7594745020781712E-002   2.8934469101943749E-002
   5.5503303061066100E-002  -1.6865316182476942E-002   2.9239059436753478E-002
   7.3875612793568579E-002  -2.2468449162374671E-002   4.9252552148038031E-004
   7.1556815394634543E-002  -2.1629830018219942E-002   1.9561060716821732E-004
   6.9238017995700563E-002  -2.0749502958723492E-002  -2.6265421027515945E-005
   6.6919220596766527E-002  -1.9827467983886411E-002  -1.7310256310579253E-004
   6.4600423197832546E-002  -1.8863725093706485E-002  -2.4490081906758387E-004
   6.9296227852921555E-002  -2.1067665917400391E-002   7.7086067019255244E-003
   6.7063502139708797E-002  -2.0255079985665170E-002   7.4489027629050519E-003
   6.4830776426496095E-002  -1.9413588961258305E-002   7.2863033092102625E-003
   6.2598050713283365E-002  -1.8543192844180038E-002   7.2208083408409895E-003
   6.0365325000070635E-002  -1.7643891634430364E-002   7.2524178577977327E-003
   6.4707714583955439E-002  -1.9666882672425834E-002   1.4905056081286311E-002
   6.2583126155672852E-002  -1.8880329953110120E-002   1.4669760294887729E-002
   6.0458537727390238E-002  -1.8077674963792770E-002   1.4553634593023487E-002
   5.8333949299107610E-002  -1.7258917704474106E-002   1.4556678975693814E-002
   5.6209360870825065E-002  -1.6424058175153577E-002   1.4678893442898966E-002
   6.0110072986670343E-002  -1.8266099427451304E-002   2.2081873659562094E-002
   5.8115687442526695E-002  -1.7505579920555098E-002   2.1858183203115451E-002
   5.6121301898383005E-002  -1.6741760966327408E-002   2.1775728430412058E-002
   5.4126916354239357E-002  -1.5974642564767952E-002   2.1834509341452417E-002
   5.2132530810095716E-002  -1.5204224715877013E-002   2.2034525936235602E-002
   5.5503303061066100E-002  -1.6865316182476942E-002   2.9239059436753478E-002
   5.3661186000270256E-002  -1.6130829888000214E-002   2.9014171487588780E-002
   5.1819068939474411E-002  -1.5405846968862005E-002   2.8952584821376220E-002
   4.9976951878678538E-002  -1.4690367425062235E-002   2.9054299438116021E-002
   4.8134834817882666E-002  -1.3984391256600559E-002   2.9319315337808072E-002
   6.4600423197832546E-002  -1.8863725093706485E-002  -2.4490081906758387E-004
   6.0244962288185988E-002  -1.7909201727423163E-002  -7.5919304942884125E-004
   5.5889501378539430E-002  -1.7014825324273175E-002  -7.8659742725506465E-004
   5.1534040468892733E-002  -1.6180595884256840E-002  -3.2711395254633735E-004
   4.7178579559246314E-002  -1.5406513407373534E-002   6.1925737469659126E-004
   6.0365325000070635E-002  -1.7643891634430364E-002   7.2524178577977327E-003
   5.6446899390475314E-002  -1.6749032948198739E-002   6.7184385920485146E-003
   5.2528473780880103E-002  -1.5891964401675729E-002   6.5716420738669568E-003
   4.8610048171284836E-002  -1.5072685994860835E-002   6.8120283032532258E-003
   4.4691622561689570E-002  -1.4291197727754668E-002   7.4395972802068222E-003
   5.6209360870825065E-002  -1.6424058175153577E-002   1.4678893442898966E-002
   5.2628265456313938E-002  -1.5588864168974093E-002   1.4147583965186394E-002
   4.9047170041802743E-002  -1.4769103479078088E-002   1.3903752130074803E-002
   4.5466074627291374E-002  -1.3964776105465281E-002   1.3947397937563277E-002
   4.1884979212780393E-002  -1.3175882048135579E-002   1.4278521387653287E-002
   5.2132530810095716E-002  -1.5204224715877013E-002   2.2034525936235602E-002
   4.8789060485701530E-002  -1.4428695389749557E-002   2.1528243069985159E-002
   4.5445590161307350E-002  -1.3646242556480323E-002   2.1209732741368309E-002
   4.2102119836913275E-002  -1.2856866216069390E-002   2.1078994950384577E-002
   3.8758649512519103E-002  -1.2060566368516712E-002   2.1136029697034320E-002
   4.8134834817882666E-002  -1.3984391256600559E-002   2.9319315337808072E-002
   4.4929284478638309E-002  -1.3268526610524967E-002   2.8860415906444337E-002
   4.1723734139394009E-002  -1.2523381633882696E-002   2.8489583907747085E-002
   3.8518183800149694E-002  -1.1748956326673728E-002   2.8206819341716149E-002
   3.5312633460905296E-002  -1.0945250688897845E-002   2.8012122208351364E-002
   9.0362021343586729E-002   0.0000000000000000        4.9836270000939119E-002
   9.3962450075869716E-002  -5.4041686285222863E-003   5.3210761936995657E-002
   9.7562878808152689E-002  -1.0670836624345439E-002   5.4966465852765642E-002
  0.10116330754043568       -1.5800003987469460E-002   5.5103381748249060E-002
  0.10476373627271865       -2.0791670717894353E-002   5.3621509623445945E-002
   8.2425106124690589E-002   0.0000000000000000        4.4785007362962766E-002
   8.4635817657715148E-002  -4.5741847403399684E-003   4.8268950191838536E-002
   8.6846529190739721E-002  -9.0375262991981668E-003   5.0592246642484018E-002
   8.9057240723764294E-002  -1.3390024676574594E-002   5.1754896714899246E-002
   9.1267952256788853E-002  -1.7631679872469247E-002   5.1756900409084206E-002
   7.4244399070495057E-002   0.0000000000000000        4.0577057338777409E-002
   7.5523535046317508E-002  -3.7442008521576492E-003   4.4143793609255029E-002
   7.6802671022139946E-002  -7.4042159740508907E-003   4.7008025143558681E-002
   7.8081806997962397E-002  -1.0980045365679723E-002   4.9169751941688329E-002
   7.9360942973784848E-002  -1.4471689027044151E-002   5.0628974003644044E-002
   6.5819900181000160E-002   0.0000000000000000        3.7212419928383061E-002
   6.6625602241676768E-002  -2.9142169639753300E-003   4.0835292189245177E-002
   6.7431304302353376E-002  -5.7709056489036155E-003   4.4213801355989596E-002
   6.8237006363029998E-002  -8.5700660547848549E-003   4.7347947428616331E-002
   6.9042708423706620E-002  -1.1311698181619055E-002   5.0237730407125404E-002
   5.7151609456205871E-002   0.0000000000000000        3.4691095131779710E-002
   5.7942019243792942E-002  -2.0842330757930121E-003   3.8343445931808946E-002
   5.8732429031380019E-002  -4.1375953237563420E-003   4.2209575279776805E-002
   5.9522838818967090E-002  -6.1600867438899882E-003   4.6289483175683266E-002
   6.0313248606554168E-002  -8.1517073361939540E-003   5.0583169619528315E-002
  0.10476373627271865       -2.0791670717894353E-002   5.3621509623445945E-002
  0.10210812655587061       -2.4933036388765595E-002   4.5641298523916414E-002
   9.9452516839022551E-002  -2.7511300573228696E-002   3.9351455720930566E-002
   9.6796907122174480E-002  -2.8526463271283650E-002   3.4751981214488456E-002
   9.4141297405326452E-002  -2.7978524482930436E-002   3.1842875004590113E-002
   9.1267952256788853E-002  -1.7631679872469247E-002   5.1756900409084206E-002
   9.0064766619170358E-002  -2.1207446109691806E-002   4.6519537936301529E-002
   8.8861580981551849E-002  -2.3562277611051927E-002   4.2496655325434153E-002
   8.7658395343933326E-002  -2.4696174376549661E-002   3.9688252576482161E-002
   8.6455209706314817E-002  -2.4609136406184923E-002   3.8094329689445545E-002
   7.9360942973784848E-002  -1.4471689027044151E-002   5.0628974003644044E-002
   7.9134292980767462E-002  -1.7481855830618023E-002   4.7792293407062494E-002
   7.8907642987750104E-002  -1.9613254648875183E-002   4.5694204237767905E-002
   7.8680992994732746E-002  -2.0865885481815651E-002   4.4334706495760254E-002
   7.8454343001715401E-002  -2.1239748329439416E-002   4.3713800181039555E-002
   6.9042708423706620E-002  -1.1311698181619055E-002   5.0237730407125404E-002
   6.9316705640662002E-002  -1.3756265551544236E-002   4.9459564936199289E-002
   6.9590702857617412E-002  -1.5664231686698435E-002   4.8944102457931751E-002
   6.9864700074572766E-002  -1.7035596587081654E-002   4.8691342972322728E-002
   7.0138697291528163E-002  -1.7870360252693892E-002   4.8701286479372288E-002
   6.0313248606554168E-002  -8.1517073361939540E-003   5.0583169619528315E-002
   6.0612004598853922E-002  -1.0030675272470448E-002   5.1521352523711920E-002
   6.0910760591153662E-002  -1.1715208724521673E-002   5.2246349985925658E-002
   6.1209516583453409E-002  -1.3205307692347654E-002   5.2758162006169576E-002
   6.1508272575753156E-002  -1.4500972175948389E-002   5.3056788584443647E-002
   9.4141297405326452E-002  -2.7978524482930436E-002   3.1842875004590113E-002
   9.1761017282730534E-002  -2.6785390918558104E-002   3.1276852388599063E-002
   8.9380737160134616E-002  -2.5864969288555594E-002   3.0789816304792918E-002
   8.7000457037538725E-002  -2.5217259592922845E-002   3.0381766753171415E-002
   8.4620176914942780E-002  -2.4842261831660051E-002   3.0052703733734865E-002
   8.6455209706314817E-002  -2.4609136406184923E-002   3.8094329689445545E-002
   8.4200573451919170E-002  -2.3965382334298627E-002   3.7070078170287624E-002
   8.1945937197523466E-002  -2.3429130795231658E-002   3.6218127855345492E-002
   7.9691300943127819E-002  -2.3000381788983948E-002   3.5538478744619038E-002
   7.7436664688732143E-002  -2.2679135315555543E-002   3.5031130838108243E-002
   7.8454343001715401E-002  -2.1239748329439416E-002   4.3713800181039555E-002
   7.6418665287550924E-002  -2.1145373750039189E-002   4.2396529160265324E-002
   7.4382987573386419E-002  -2.0993292301907725E-002   4.1344874015737713E-002
   7.2347309859221914E-002  -2.0783503985045013E-002   4.0558834747456793E-002
   7.0311632145057437E-002  -2.0516008799451063E-002   4.0038411355422521E-002
   7.0138697291528163E-002  -1.7870360252693892E-002   4.8701286479372288E-002
   6.8415292789625784E-002  -1.8325365165779761E-002   4.7256205358532241E-002
   6.6691888287723405E-002  -1.8557453808583802E-002   4.6170054785969805E-002
   6.4968483785821027E-002  -1.8566626181106067E-002   4.5442834761684883E-002
   6.3245079283918648E-002  -1.8352882283346597E-002   4.5074545285677628E-002
   6.1508272575753156E-002  -1.4500972175948389E-002   5.3056788584443647E-002
   6.0190455958143818E-002  -1.5505356581520285E-002   5.1649106765088361E-002
   5.8872639340534487E-002  -1.6121615315259880E-002   5.0693670166041579E-002
   5.7554822722925156E-002  -1.6349748377167142E-002   5.0190478787303219E-002
   5.6237006105315832E-002  -1.6189755767242076E-002   5.0139532628873468E-002
   8.4620176914942780E-002  -2.4842261831660051E-002   3.0052703733734865E-002
   8.2199805403018786E-002  -2.4527883800246106E-002   2.9302105834122349E-002
   7.9779433891094764E-002  -2.4062033294159957E-002   2.8856382198017491E-002
   7.7359062379170757E-002  -2.3444710313401715E-002   2.8715532825420303E-002
   7.4938690867246777E-002  -2.2675914857971435E-002   2.8879557716330800E-002
   7.7436664688732143E-002  -2.2679135315555543E-002   3.5031130838108243E-002
   7.5301513262771014E-002  -2.2356226719782893E-002   3.4450508069576849E-002
   7.3166361836809857E-002  -2.1922491346502579E-002   3.4135451209463395E-002
   7.1031210410848700E-002  -2.1377929195714341E-002   3.4085960257768083E-002
   6.8896058984887584E-002  -2.0722540267418349E-002   3.4302035214490809E-002
   7.0311632145057437E-002  -2.0516008799451063E-002   4.0038411355422521E-002
   6.8422392449969532E-002  -2.0184569639319798E-002   3.9587118020807832E-002
   6.6533152754881641E-002  -1.9782949398845034E-002   3.9362082239521499E-002
   6.4643913059793792E-002  -1.9311148078026870E-002   3.9363304011563675E-002
   6.2754673364705860E-002  -1.8769165676865263E-002   3.9590783336934249E-002
   6.3245079283918648E-002  -1.8352882283346597E-002   4.5074545285677628E-002
   6.1562442964614383E-002  -1.8012912558856630E-002   4.4711935687815257E-002
   5.9879806645310119E-002  -1.7643407451187629E-002   4.4536275288191769E-002
   5.8197170326005840E-002  -1.7244366960339406E-002   4.4547564086806976E-002
   5.6514534006701596E-002  -1.6815791086312204E-002   4.4745802083661176E-002
   5.6237006105315832E-002  -1.6189755767242076E-002   5.0139532628873468E-002
   5.4721664806705567E-002  -1.5841255478393504E-002   4.9824961070599250E-002
   5.3206323508095295E-002  -1.5503865503530077E-002   4.9658030355474087E-002
   5.1690982209485037E-002  -1.5177585842651975E-002   4.9638740483498207E-002
   5.0175640910874758E-002  -1.4862416495759062E-002   4.9767091454671564E-002
   7.4938690867246777E-002  -2.2675914857971435E-002   2.8879557716330800E-002
   7.2711696619583016E-002  -2.1854354022873737E-002   2.8761278943033541E-002
   7.0484702371919269E-002  -2.1078734903113225E-002   2.8783594908061261E-002
   6.8257708124255551E-002  -2.0349057498689798E-002   2.8946505611413639E-002
   6.6030713876591818E-002  -1.9665321809603620E-002   2.9250011053091107E-002
   6.8896058984887584E-002  -2.0722540267418349E-002   3.4302035214490809E-002
   6.6819848009152832E-002  -2.0022208391631033E-002   3.4061749938044047E-002
   6.4743637033418150E-002  -1.9342817398368795E-002   3.3982436467130207E-002
   6.2667426057683426E-002  -1.8684367287631537E-002   3.4064094801749642E-002
   6.0591215081948757E-002  -1.8046858059419385E-002   3.4306724941902234E-002
   6.2754673364705860E-002  -1.8769165676865263E-002   3.9590783336934249E-002
   6.0849622728108385E-002  -1.8190062760388377E-002   3.9253492390149941E-002
   5.8944572091510897E-002  -1.7606899893624371E-002   3.9097550316107031E-002
   5.7039521454913471E-002  -1.7019677076573224E-002   3.9122957114805554E-002
   5.5134470818315934E-002  -1.6428394309235012E-002   3.9329712786245280E-002
   5.6514534006701596E-002  -1.6815791086312204E-002   4.4745802083661176E-002
   5.4801020776449591E-002  -1.6357917129145767E-002   4.4336506299351611E-002
   5.3087507546197614E-002  -1.5870982388880000E-002   4.4128936454991691E-002
   5.1373994315945630E-002  -1.5354986865515046E-002   4.4123092550581333E-002
   4.9660481085693660E-002  -1.4809930559050763E-002   4.4318974586120587E-002
   5.0175640910874758E-002  -1.4862416495759062E-002   4.9767091454671564E-002
   4.8674042154176450E-002  -1.4525771497903045E-002   4.9310791665649029E-002
   4.7172443397478184E-002  -1.4135064884135622E-002   4.9076594883784144E-002
   4.5670844640779883E-002  -1.3690296654456686E-002   4.9064501109077251E-002
   4.4169245884081582E-002  -1.3191466808866348E-002   4.9274510341528133E-002
   6.6030713876591818E-002  -1.9665321809603620E-002   2.9250011053091107E-002
   6.3398861172710402E-002  -1.8994747834345099E-002   2.8939944910112564E-002
   6.0767008468828987E-002  -1.8304555571404452E-002   2.8834764259730222E-002
   5.8135155764947571E-002  -1.7594745020781712E-002   2.8934469101943749E-002
   5.5503303061066100E-002  -1.6865316182476942E-002   2.9239059436753478E-002
   6.0591215081948757E-002  -1.8046858059419385E-002   3.4306724941902234E-002
   5.8164991914512548E-002  -1.7413462722861983E-002   3.3996323067231965E-002
   5.5738768747076367E-002  -1.6767354287088858E-002   3.3892294772855894E-002
   5.3312545579640186E-002  -1.6108532752100016E-002   3.3994640058774193E-002
   5.0886322412203977E-002  -1.5436998117895562E-002   3.4303358924986954E-002
   5.5134470818315934E-002  -1.6428394309235012E-002   3.9329712786245280E-002
   5.2915365275023198E-002  -1.5832177611378687E-002   3.9012069991417021E-002
   5.0696259731730461E-002  -1.5230153002773042E-002   3.8902288864581108E-002
   4.8477154188437725E-002  -1.4622320483418317E-002   3.9000369405737721E-002
   4.6258048645144947E-002  -1.4008680053314210E-002   3.9306311614886888E-002
   4.9660481085693660E-002  -1.4809930559050763E-002   4.4318974586120587E-002
   4.7649981254242461E-002  -1.4250892499895453E-002   4.3987185682667754E-002
   4.5639481422791298E-002  -1.3692951718457309E-002   4.3864746534905408E-002
   4.3628981591340134E-002  -1.3136108214736467E-002   4.3951657142833861E-002
   4.1618481759888984E-002  -1.2580361988732927E-002   4.4247917506453030E-002
   4.4169245884081582E-002  -1.3191466808866348E-002   4.9274510341528133E-002
   4.2368839852170215E-002  -1.2669607388412274E-002   4.8921670140984086E-002
   4.0568433820258862E-002  -1.2155750434141577E-002   4.8779667783829167E-002
   3.8768027788347509E-002  -1.1649895946054936E-002   4.8848503270062960E-002
   3.6967621756436142E-002  -1.1152043924151533E-002   4.9128176599685602E-002
   5.5503303061066100E-002  -1.6865316182476942E-002   2.9239059436753478E-002
   5.3661186000270256E-002  -1.6130829888000214E-002   2.9014171487588780E-002
   5.1819068939474411E-002  -1.5405846968862005E-002   2.8952584821376220E-002
   4.9976951878678538E-002  -1.4690367425062235E-002   2.9054299438116021E-002
   4.8134834817882666E-002  -1.3984391256600559E-002   2.9319315337808072E-002
   5.0886322412203977E-002  -1.5436998117895562E-002   3.4303358924986954E-002
   4.9200676123876935E-002  -1.4760151957407042E-002   3.4054550636149095E-002
   4.7515029835549921E-002  -1.4085395843566245E-002   3.3955382609296633E-002
   4.5829383547222893E-002  -1.3412729776372888E-002   3.4005854844429577E-002
   4.4143737258895865E-002  -1.2742153755827268E-002   3.4205967341548016E-002
   4.6258048645144947E-002  -1.4008680053314210E-002   3.9306311614886888E-002
   4.4715212108319982E-002  -1.3389474026813966E-002   3.9040996315066467E-002
   4.3172375571495086E-002  -1.2764944718270478E-002   3.8911660256264739E-002
   4.1629539034670100E-002  -1.2135092127683706E-002   3.8918303438481752E-002
   4.0086702497845156E-002  -1.1499916255053699E-002   3.9060925861717333E-002
   4.1618481759888984E-002  -1.2580361988732927E-002   4.4247917506453030E-002
   4.0204793953599383E-002  -1.2018796096220759E-002   4.3973508524341030E-002
   3.8791106147309809E-002  -1.1444493592974659E-002   4.3821417762280955E-002
   3.7377418341020222E-002  -1.0857454478994385E-002   4.3791645220272943E-002
   3.5963730534730634E-002  -1.0257678754280214E-002   4.3884190898316751E-002
   3.6967621756436142E-002  -1.1152043924151533E-002   4.9128176599685602E-002
   3.5669421659715178E-002  -1.0648118165627690E-002   4.8852087263972943E-002
   3.4371221562994186E-002  -1.0124042467678993E-002   4.8684655127345239E-002
   3.3073021466273222E-002  -9.5798168303052982E-003   4.8625880189802920E-002
   3.1774821369552259E-002  -9.0154412535067285E-003   4.8675762451345861E-002
   4.8134834817882666E-002  -1.3984391256600559E-002   2.9319315337808072E-002
   4.4929284478638309E-002  -1.3268526610524967E-002   2.8860415906444337E-002
   4.1723734139394009E-002  -1.2523381633882696E-002   2.8489583907747085E-002
   3.8518183800149694E-002  -1.1748956326673728E-002   2.8206819341716149E-002
   3.5312633460905296E-002  -1.0945250688897845E-002   2.8012122208351364E-002
   4.4143737258895865E-002  -1.2742153755827268E-002   3.4205967341548016E-002
   4.1064718711905562E-002  -1.2061685764132524E-002   3.3745172227464371E-002
   3.7985700164915287E-002  -1.1359343783492043E-002   3.3449373265222598E-002
   3.4906681617924970E-002  -1.0635127813906305E-002   3.3318570454822796E-002
   3.1827663070934764E-002  -9.8890378553747604E-003   3.3352763796264950E-002
   4.0086702497845156E-002  -1.1499916255053699E-002   3.9060925861717333E-002
   3.7211144462284490E-002  -1.0854844917739886E-002   3.8590828723292891E-002
   3.4335586426723845E-002  -1.0195305933101542E-002   3.8362656455885782E-002
   3.1460028391163131E-002  -9.5212993011389892E-003   3.8376409059495999E-002
   2.8584470355602465E-002  -8.8328250218518978E-003   3.8632086534124033E-002
   3.5963730534730634E-002  -1.0257678754280214E-002   4.3884190898316751E-002
   3.3368561729775176E-002  -9.6480040713472909E-003   4.3397385393930170E-002
   3.0773392924819724E-002  -9.0312680827110761E-003   4.3229433479736207E-002
   2.8178224119864169E-002  -8.4074707883716199E-003   4.3380335155735535E-002
   2.5583055314908766E-002  -7.7766121883289241E-003   4.3850090421927473E-002
   3.1774821369552259E-002  -9.0154412535067285E-003   4.8675762451345861E-002
   2.9536970514377536E-002  -8.4411632249547508E-003   4.8164842239375727E-002
   2.7299119659202883E-002  -7.8672302323203047E-003   4.8049704336774079E-002
   2.5061268804028168E-002  -7.2936422756042854E-003   4.8330348743541224E-002
   2.2823417948853453E-002  -6.7203993548059504E-003   4.9006775459676577E-002
   5.7151609456205871E-002   0.0000000000000000        3.4691095131779710E-002
   5.7942019243792942E-002  -2.0842330757930121E-003   3.8343445931808946E-002
   5.8732429031380019E-002  -4.1375953237563420E-003   4.2209575279776805E-002
   5.9522838818967090E-002  -6.1600867438899882E-003   4.6289483175683266E-002
   6.0313248606554168E-002  -8.1517073361939540E-003   5.0583169619528315E-002
   4.8651566135188243E-002   0.0000000000000000        3.2789891698657272E-002
   4.9590491208038004E-002  -1.7096569364776631E-003   3.6965782732837502E-002
   5.0529416280887772E-002  -3.4331509928365936E-003   4.1224925789604495E-002
   5.1468341353737540E-002  -5.1704821690767948E-003   4.5567320868958282E-002
   5.2407266426587287E-002  -6.9216504651982650E-003   4.9992967970898819E-002
   4.0731809457023323E-002   0.0000000000000000        3.1285618378705651E-002
   4.1688723289783930E-002  -1.3350807971623151E-003   3.5940341699325924E-002
   4.2645637122544551E-002  -2.7287066619168486E-003   4.0547790517181125E-002
   4.3602550955305172E-002  -4.1808775942636040E-003   4.5107964832271259E-002
   4.4559464788065793E-002  -5.6915935942025769E-003   4.9620864644596328E-002
   3.3392339421711090E-002   0.0000000000000000        3.0178275171924857E-002
   3.4236715489030727E-002  -9.6050465784696748E-004   3.5267122831274207E-002
   3.5081091556350363E-002  -2.0242623309971045E-003   4.0178169462506672E-002
   3.5925467623670000E-002  -3.1912730194504127E-003   4.4911415065622219E-002
   3.6769843690989630E-002  -4.4615367232068888E-003   4.9466859640620864E-002
   2.6633156029251561E-002   0.0000000000000000        2.9467862078314887E-002
   2.7234467805778380E-002  -5.8592851853161900E-004   3.4946126128682378E-002
   2.7835779582305202E-002  -1.3198180000773569E-003   4.0116062625581123E-002
   2.8437091358832024E-002  -2.2016684446372215E-003   4.4977671569011141E-002
   2.9038403135358846E-002  -3.2314798522111972E-003   4.9530952958972439E-002
   6.0313248606554168E-002  -8.1517073361939540E-003   5.0583169619528315E-002
   6.0612004598853922E-002  -1.0030675272470448E-002   5.1521352523711920E-002
   6.0910760591153662E-002  -1.1715208724521673E-002   5.2246349985925658E-002
   6.1209516583453409E-002  -1.3205307692347654E-002   5.2758162006169576E-002
   6.1508272575753156E-002  -1.4500972175948389E-002   5.3056788584443647E-002
   5.2407266426587287E-002  -6.9216504651982650E-003   4.9992967970898819E-002
   5.2531974403172324E-002  -8.5854653913963880E-003   5.1219958014759495E-002
   5.2656682379757326E-002  -1.0060736457866542E-002   5.2312037469160563E-002
   5.2781390356342342E-002  -1.1347463664608749E-002   5.3269206334102030E-002
   5.2906098332927358E-002  -1.2445647011622964E-002   5.4091464609583848E-002
   4.4559464788065793E-002  -5.6915935942025769E-003   4.9620864644596328E-002
   4.4588399601446289E-002  -7.1402555103223225E-003   5.1130771203636814E-002
   4.4617334414826806E-002  -8.4062641912114062E-003   5.2584042025727910E-002
   4.4646269228207323E-002  -9.4896196368698064E-003   5.3980677110869603E-002
   4.4675204041587827E-002  -1.0390321847297556E-002   5.5320676459061885E-002
   3.6769843690989630E-002  -4.4615367232068888E-003   4.9466859640620864E-002
   3.6781280193675867E-002  -5.6950456292482543E-003   5.1253792090343864E-002
   3.6792716696362096E-002  -6.7517919245562571E-003   5.3062363655627651E-002
   3.6804153199048333E-002  -7.6317756091308893E-003   5.4892574336472336E-002
   3.6815589701734548E-002  -8.3349966829721327E-003   5.6744424132877710E-002
   2.9038403135358846E-002  -3.2314798522111972E-003   4.9530952958972439E-002
   2.9110616179861014E-002  -4.2498357481741984E-003   5.1589020674880616E-002
   2.9182829224363188E-002  -5.0973196579011228E-003   5.3747002358859826E-002
   2.9255042268865359E-002  -5.7739315813919575E-003   5.6004898010910124E-002
   2.9327255313367537E-002  -6.2796715186467372E-003   5.8362707631031477E-002
   6.1508272575753156E-002  -1.4500972175948389E-002   5.3056788584443647E-002
   6.0190455958143818E-002  -1.5505356581520285E-002   5.1649106765088361E-002
   5.8872639340534487E-002  -1.6121615315259880E-002   5.0693670166041579E-002
   5.7554822722925156E-002  -1.6349748377167142E-002   5.0190478787303219E-002
   5.6237006105315832E-002  -1.6189755767242076E-002   5.0139532628873468E-002
   5.2906098332927358E-002  -1.2445647011622964E-002   5.4091464609583848E-002
   5.1988296658290911E-002  -1.3295999518179558E-002   5.3350454210889034E-002
   5.1070494983654471E-002  -1.3839234203548779E-002   5.2957228477831415E-002
   5.0152693309018025E-002  -1.4075351067730685E-002   5.2911787410411075E-002
   4.9234891634381578E-002  -1.4004350110725233E-002   5.3214131008627999E-002
   4.4675204041587827E-002  -1.0390321847297556E-002   5.5320676459061885E-002
   4.4052956755253010E-002  -1.1086642454838791E-002   5.5165329630382440E-002
   4.3430709468918187E-002  -1.1556853091837682E-002   5.5253306912669130E-002
   4.2808462182583391E-002  -1.1800953758294243E-002   5.5584608305921712E-002
   4.2186214896248561E-002  -1.1818944454208447E-002   5.6159233810140326E-002
   3.6815589701734548E-002  -8.3349966829721327E-003   5.6744424132877710E-002
   3.6384436249030115E-002  -8.8772853914980444E-003   5.7093733023568814E-002
   3.5953282796325675E-002  -9.2744719801265973E-003   5.7581905470554647E-002
   3.5522129343621242E-002  -9.5265564488577793E-003   5.8208941473835242E-002
   3.5090975890916802E-002  -9.6335387976916181E-003   5.8974841033410601E-002
   2.9327255313367537E-002  -6.2796715186467372E-003   5.8362707631031477E-002
   2.8982735139622223E-002  -6.6679283281572896E-003   5.9135664390448019E-002
   2.8638214965876901E-002  -6.9920908684154778E-003   5.9943024151488070E-002
   2.8293694792131580E-002  -7.2521591394213211E-003   6.0784786914151630E-002
   2.7949174618386273E-002  -7.4481331411748036E-003   6.1660952678438699E-002
   5.6237006105315832E-002  -1.6189755767242076E-002   5.0139532628873468E-002
   5.4721664806705567E-002  -1.5841255478393504E-002   4.9824961070599250E-002
   5.3206323508095295E-002  -1.5503865503530077E-002   4.9658030355474087E-002
   5.1690982209485037E-002  -1.5177585842651975E-002   4.9638740483498207E-002
   5.0175640910874758E-002  -1.4862416495759062E-002   4.9767091454671564E-002
   4.9234891634381578E-002  -1.4004350110725233E-002   5.3214131008627999E-002
   4.7879484169118136E-002  -1.3772510901625803E-002   5.2867014357860259E-002
   4.6524076703854694E-002  -1.3526113009525539E-002   5.2692124530637201E-002
   4.5168669238591252E-002  -1.3265156434424535E-002   5.2689461526958498E-002
   4.3813261773327838E-002  -1.2989641176322647E-002   5.2859025346824184E-002
   4.2186214896248561E-002  -1.1818944454208447E-002   5.6159233810140326E-002
   4.1015327244727201E-002  -1.1703766324858096E-002   5.5805241063865405E-002
   3.9844439593205855E-002  -1.1548360515520922E-002   5.5648061121530062E-002
   3.8673551941684502E-002  -1.1352727026196986E-002   5.5687693983134647E-002
   3.7502664290163155E-002  -1.1116865856886246E-002   5.5924139648678754E-002
   3.5090975890916802E-002  -9.6335387976916181E-003   5.8974841033410601E-002
   3.4129194033532782E-002  -9.6350217480903784E-003   5.8639641188614283E-002
   3.3167412176148776E-002  -9.5706080215163577E-003   5.8525840128152977E-002
   3.2205630318764771E-002  -9.4402976179694485E-003   5.8633437852026675E-002
   3.1243848461380765E-002  -9.2440905374498103E-003   5.8962434360235280E-002
   2.7949174618386273E-002  -7.4481331411748036E-003   6.1660952678438699E-002
   2.7221084535534866E-002  -7.5662771713227092E-003   6.1370214732107090E-002
   2.6492994452683456E-002  -7.5928555275117625E-003   6.1325461550505674E-002
   2.5764904369832038E-002  -7.5278682097420216E-003   6.1526693133634569E-002
   2.5036814286980638E-002  -7.3713152180134300E-003   6.1973909481493672E-002
   5.0175640910874758E-002  -1.4862416495759062E-002   4.9767091454671564E-002
   4.8674042154176450E-002  -1.4525771497903045E-002   4.9310791665649029E-002
   4.7172443397478184E-002  -1.4135064884135622E-002   4.9076594883784144E-002
   4.5670844640779883E-002  -1.3690296654456686E-002   4.9064501109077251E-002
   4.4169245884081582E-002  -1.3191466808866348E-002   4.9274510341528133E-002
   4.3813261773327838E-002  -1.2989641176322647E-002   5.2859025346824184E-002
   4.2526559224710783E-002  -1.2686221345241597E-002   5.2494956452541833E-002
   4.1239856676093728E-002  -1.2341551051203055E-002   5.2338576967264142E-002
   3.9953154127476659E-002  -1.1955630294206850E-002   5.2389886890991243E-002
   3.8666451578859617E-002  -1.1528459074253095E-002   5.2648886223722852E-002
   3.7502664290163155E-002  -1.1116865856886246E-002   5.5924139648678754E-002
   3.6416444351474224E-002  -1.0846671192580218E-002   5.5639490496182796E-002
   3.5330224412785299E-002  -1.0548037218270464E-002   5.5548117154538362E-002
   3.4244004474096354E-002  -1.0220963933957015E-002   5.5650019623745536E-002
   3.3157784535407450E-002  -9.8654513396398136E-003   5.5945197903804200E-002
   3.1243848461380765E-002  -9.2440905374498103E-003   5.8962434360235280E-002
   3.0343697534466814E-002  -9.0071210399188043E-003   5.8744393796571800E-002
   2.9443546607552891E-002  -8.7545233853379683E-003   5.8705215445606758E-002
   2.8543395680638940E-002  -8.4862975737071515E-003   5.8844899307340222E-002
   2.7643244753725017E-002  -8.2024436050265465E-003   5.9163445381772026E-002
   2.5036814286980638E-002  -7.3713152180134300E-003   6.1973909481493672E-002
   2.4308318773688581E-002  -7.1675708872573907E-003   6.1809666353708909E-002
   2.3579823260396503E-002  -6.9610095524052784E-003   6.1809871840469460E-002
   2.2851327747104442E-002  -6.7516312134572945E-003   6.1974525941775216E-002
   2.2122832233812367E-002  -6.5394358704132238E-003   6.2303628657626398E-002
   4.4169245884081582E-002  -1.3191466808866348E-002   4.9274510341528133E-002
   4.2368839852170215E-002  -1.2669607388412274E-002   4.8921670140984086E-002
   4.0568433820258862E-002  -1.2155750434141577E-002   4.8779667783829167E-002
   3.8768027788347509E-002  -1.1649895946054936E-002   4.8848503270062960E-002
   3.6967621756436142E-002  -1.1152043924151533E-002   4.9128176599685602E-002
   3.8666451578859617E-002  -1.1528459074253095E-002   5.2648886223722852E-002
   3.7078727216740617E-002  -1.1081075584527297E-002   5.2287602916553585E-002
   3.5491002854621631E-002  -1.0634518018214731E-002   5.2140845105580313E-002
   3.3903278492502610E-002  -1.0188786375315628E-002   5.2208612790802800E-002
   3.2315554130383645E-002  -9.7438806558299840E-003   5.2490905972221141E-002
   3.3157784535407450E-002  -9.8654513396398136E-003   5.5945197903804200E-002
   3.1786429495887759E-002  -9.4925437806422930E-003   5.5582648032779958E-002
   3.0415074456368069E-002  -9.1132856022878295E-003   5.5438311310758590E-002
   2.9043719416848399E-002  -8.7276768045765410E-003   5.5512187737739943E-002
   2.7672364377328687E-002  -8.3357173875082957E-003   5.5804277313723991E-002
   2.7643244753725017E-002  -8.2024436050265465E-003   5.9163445381772026E-002
   2.6491946689611606E-002  -7.9040119767573025E-003   5.8806805489663092E-002
   2.5340648625498174E-002  -7.5920531863609558E-003   5.8672066399363891E-002
   2.4189350561384736E-002  -7.2665672338373989E-003   5.8759228110874598E-002
   2.3038052497271335E-002  -6.9275541191867324E-003   5.9068290624194719E-002
   2.2122832233812367E-002  -6.5394358704132238E-003   6.2303628657626398E-002
   2.1195278797912165E-002  -6.3154801728724230E-003   6.1960075287203042E-002
   2.0267725362011949E-002  -6.0708207704340683E-003   6.1842110371396392E-002
   1.9340171926111732E-002  -5.8054576630981701E-003   6.1949733910206403E-002
   1.8412618490211530E-002  -5.5193908508650580E-003   6.2282945903633147E-002
   3.6967621756436142E-002  -1.1152043924151533E-002   4.9128176599685602E-002
   3.5669421659715178E-002  -1.0648118165627690E-002   4.8852087263972943E-002
   3.4371221562994186E-002  -1.0124042467678993E-002   4.8684655127345239E-002
   3.3073021466273222E-002  -9.5798168303052982E-003   4.8625880189802920E-002
   3.1774821369552259E-002  -9.0154412535067285E-003   4.8675762451345861E-002
   3.2315554130383645E-002  -9.7438806558299840E-003   5.2490905972221141E-002
   3.1137804192785959E-002  -9.2925249742510652E-003   5.2252425363056049E-002
   2.9960054255188232E-002  -8.8274434450724970E-003   5.2146187873052433E-002
   2.8782304317590532E-002  -8.3486360682945640E-003   5.2172193502210078E-002
   2.7604554379992832E-002  -7.8561028439166347E-003   5.2330442250529074E-002
   2.7672364377328687E-002  -8.3357173875082957E-003   5.5804277313723991E-002
   2.6638650518930315E-002  -7.9369317828743985E-003   5.5596981339281676E-002
   2.5604936660531909E-002  -7.5308444224661195E-003   5.5545514404076658E-002
   2.4571222802133520E-002  -7.1174553062835540E-003   5.5649876508108986E-002
   2.3537508943735123E-002  -6.6967644343264854E-003   5.5910067651378709E-002
   2.3038052497271335E-002  -6.9275541191867324E-003   5.9068290624194719E-002
   2.2171960638148303E-002  -6.5813385914976971E-003   5.8885755192649873E-002
   2.1305868779025267E-002  -6.2342453998597384E-003   5.8882634720418180E-002
   2.0439776919902241E-002  -5.8862745442726820E-003   5.9058929207499861E-002
   1.9573685060779202E-002  -5.5374260247364748E-003   5.9414638653895006E-002
   1.8412618490211530E-002  -5.5193908508650580E-003   6.2282945903633147E-002
   1.7737734550439893E-002  -5.2257454001211068E-003   6.2118746923160162E-002
   1.7062850610668270E-002  -4.9376463772533019E-003   6.2157548822076664E-002
   1.6387966670896655E-002  -4.6550937822617960E-003   6.2399351600382513E-002
   1.5713082731125039E-002  -4.3780876151462422E-003   6.2844155258077850E-002
   3.1774821369552259E-002  -9.0154412535067285E-003   4.8675762451345861E-002
   2.9536970514377536E-002  -8.4411632249547508E-003   4.8164842239375727E-002
   2.7299119659202883E-002  -7.8672302323203047E-003   4.8049704336774079E-002
   2.5061268804028168E-002  -7.2936422756042854E-003   4.8330348743541224E-002
   2.2823417948853453E-002  -6.7203993548059504E-003   4.9006775459676577E-002
   2.7604554379992832E-002  -7.8561028439166347E-003   5.2330442250529074E-002
   2.5731999219654397E-002  -7.3533006197506745E-003   5.1895490535357663E-002
   2.3859444059315942E-002  -6.8436862436084822E-003   5.1795347900490202E-002
   2.1986888898977552E-002  -6.3272597154892946E-003   5.2030014345926787E-002
   2.0114333738639079E-002  -5.8040210353939026E-003   5.2599489871667293E-002
   2.3537508943735123E-002  -6.6967644343264854E-003   5.5910067651378709E-002
   2.1969276249168418E-002  -6.2654380145469035E-003   5.5558241620900700E-002
   2.0401043554601702E-002  -5.8201422548960907E-003   5.5480251441661826E-002
   1.8832810860035014E-002  -5.3608771553743835E-003   5.5676097113662691E-002
   1.7264578165468225E-002  -4.8876427159817437E-003   5.6145778636902677E-002
   1.9573685060779202E-002  -5.5374260247364748E-003   5.9414638653895006E-002
   1.8248801602919619E-002  -5.1775754093428689E-003   5.9153095496004379E-002
   1.6923918145060012E-002  -4.7965982661839282E-003   5.9104414960288801E-002
   1.5599034687200435E-002  -4.3944945952595991E-003   5.9268597046748396E-002
   1.4274151229340795E-002  -3.9712643965696404E-003   5.9645641755382034E-002
   1.5713082731125039E-002  -4.3780876151462422E-003   6.2844155258077850E-002
   1.4570575280908007E-002  -4.0897128041391118E-003   6.2680052160669575E-002
   1.3428067830690976E-002  -3.7730542774717657E-003   6.2667838456371583E-002
   1.2285560380473959E-002  -3.4281120351445371E-003   6.2807514145183707E-002
   1.1143052930256914E-002  -3.0548860771575370E-003   6.3099079227106447E-002
   2.6633156029251561E-002   0.0000000000000000        2.9467862078314887E-002
   2.7234467805778380E-002  -5.8592851853161900E-004   3.4946126128682378E-002
   2.7835779582305202E-002  -1.3198180000773569E-003   4.0116062625581123E-002
   2.8437091358832024E-002  -2.2016684446372215E-003   4.4977671569011141E-002
   2.9038403135358846E-002  -3.2314798522111972E-003   4.9530952958972439E-002
   2.0116803724144018E-002   0.0000000000000000        2.9019907545921257E-002
   2.0449287849535647E-002  -4.3944638889341792E-004   3.4313581187835791E-002
   2.0781771974927282E-002  -9.8986350004826723E-004   3.9377927080948685E-002
   2.1114256100318914E-002  -1.6512513334645462E-003   4.4212945225259925E-002
   2.1446740225710546E-002  -2.4236098891422531E-003   4.8818635620769525E-002
   1.3505826950887746E-002   0.0000000000000000        2.8699940022789486E-002
   1.3648483229811282E-002  -2.9296425925521641E-004   3.3846013497003752E-002
   1.3791139508734814E-002  -6.5990900001917322E-004   3.8841759027083464E-002
   1.3933795787658349E-002  -1.1008342222918752E-003   4.3687176613028608E-002
   1.4076452066581882E-002  -1.6157399260733119E-003   4.8382266254839219E-002
   6.8002257094827529E-003   0.0000000000000000        2.8507959508919566E-002
   6.8320539466052753E-003  -1.4648212961701512E-004   3.3543423056186246E-002
   6.8638821837277994E-003  -3.2995449999008225E-004   3.8507558463985465E-002
   6.8957104208503235E-003  -5.5041711111919857E-004   4.3400365732317231E-002
   6.9275386579728451E-003  -8.0786996300437450E-004   4.8221844861181508E-002
  -7.0968404763949167E-014   0.0000000000000000        2.8443966004311507E-002
  -8.2366405362854778E-014   2.1186177812104745E-014   3.3405809865383301E-002
  -9.3764622802194886E-014   3.9012196251242415E-014   3.8375325391654724E-002
  -1.0516316550218674E-013   5.3471116423509102E-014   4.3352512583125766E-002
  -1.1656084084044060E-013   6.4573346669760667E-014   4.8337371439796439E-002
   2.9038403135358846E-002  -3.2314798522111972E-003   4.9530952958972439E-002
   2.9110616179861014E-002  -4.2498357481741984E-003   5.1589020674880616E-002
   2.9182829224363188E-002  -5.0973196579011228E-003   5.3747002358859826E-002
   2.9255042268865359E-002  -5.7739315813919575E-003   5.6004898010910124E-002
   2.9327255313367537E-002  -6.2796715186467372E-003   5.8362707631031477E-002
   2.1446740225710546E-002  -2.4236098891422531E-003   4.8818635620769525E-002
   2.1589375430983753E-002  -3.1873768111122121E-003   5.1218099267853798E-002
   2.1732010636256953E-002  -3.8229897434052442E-003   5.3658493268409081E-002
   2.1874645841530167E-002  -4.3304486860213220E-003   5.6139817622435376E-002
   2.2017281046803363E-002  -4.7097536389604858E-003   5.8662072329932709E-002
   1.4076452066581882E-002  -1.6157399260733119E-003   4.8382266254839219E-002
   1.4230525818026071E-002  -2.1249178740502328E-003   5.1080407836540456E-002
   1.4384599569470266E-002  -2.5486598289093582E-003   5.3760496157112696E-002
   1.4538673320914453E-002  -2.8869657906506817E-003   5.6422531216555848E-002
   1.4692747072358649E-002  -3.1398357592742412E-003   5.9066513014870016E-002
   6.9275386579728451E-003  -8.0786996300437450E-004   4.8221844861181508E-002
   7.0340673409879772E-003  -1.0624589369882501E-003   5.1175946380940598E-002
   7.1405960240031111E-003  -1.2743299144134725E-003   5.4053011024970586E-002
   7.2471247070182441E-003  -1.4434828952800576E-003   5.6853038793271513E-002
   7.3536533900333762E-003  -1.5699178795879933E-003   5.9576029685843308E-002
  -1.1656084084044060E-013   6.4573346669760667E-014   4.8337371439796439E-002
  -1.3053056899248183E-013   7.3727482452490278E-014   5.1504714901054204E-002
  -1.4450138134669555E-013   8.2414977620182128E-014   5.4536037871982801E-002
  -1.5847382000416799E-013   9.0599836660709698E-014   5.7431340352582322E-002
  -1.7244192185295049E-013   9.8254737679326354E-014   6.0190622342852731E-002
   2.9327255313367537E-002  -6.2796715186467372E-003   5.8362707631031477E-002
   2.8982735139622223E-002  -6.6679283281572896E-003   5.9135664390448019E-002
   2.8638214965876901E-002  -6.9920908684154778E-003   5.9943024151488070E-002
   2.8293694792131580E-002  -7.2521591394213211E-003   6.0784786914151630E-002
   2.7949174618386273E-002  -7.4481331411748036E-003   6.1660952678438699E-002
   2.2017281046803363E-002  -4.7097536389604858E-003   5.8662072329932709E-002
   2.1720095635134738E-002  -5.0009462460926316E-003   5.9489483627516611E-002
   2.1422910223466110E-002  -5.2440681512876692E-003   6.0377161447630404E-002
   2.1125724811797478E-002  -5.4391193545456247E-003   6.1325105790274059E-002
   2.0828539400128843E-002  -5.5860998558665137E-003   6.2333316655447647E-002
   1.4692747072358649E-002  -3.1398357592742412E-003   5.9066513014870016E-002
   1.4468759943673082E-002  -3.3339641640279631E-003   5.9932355283306052E-002
   1.4244772814987509E-002  -3.4960454341598744E-003   6.0884327595178311E-002
   1.4020785686301943E-002  -3.6260795696699431E-003   6.1922429950486808E-002
   1.3796798557616370E-002  -3.7240665705582029E-003   6.3046662349231564E-002
   7.3536533900333762E-003  -1.5699178795879933E-003   5.9576029685843308E-002
   7.2287280652372481E-003  -1.6669820819632860E-003   6.0464279357816196E-002
   7.1038027404411244E-003  -1.7480227170320797E-003   6.1464522594131682E-002
   6.9788774156449964E-003  -1.8130397847942819E-003   6.2576759394789794E-002
   6.8539520908488701E-003  -1.8620332852499165E-003   6.3800989759790566E-002
  -1.7244192185295049E-013   9.8254737679326354E-014   6.0190622342852731E-002
  -1.7275243735515033E-013   1.0135642325437288E-013   6.1085255851047147E-002
  -1.7306295285735018E-013   9.5722041404400215E-014   6.2117746444490571E-002
  -1.7337737148737098E-013   8.1412307451067534E-014   6.3288094123183036E-002
  -1.7368398386174988E-013   5.8397731095283234E-014   6.4596298887124454E-002
   2.7949174618386273E-002  -7.4481331411748036E-003   6.1660952678438699E-002
   2.7221084535534866E-002  -7.5662771713227092E-003   6.1370214732107090E-002
   2.6492994452683456E-002  -7.5928555275117625E-003   6.1325461550505674E-002
   2.5764904369832038E-002  -7.5278682097420216E-003   6.1526693133634569E-002
   2.5036814286980638E-002  -7.3713152180134300E-003   6.1973909481493672E-002
   2.0828539400128843E-002  -5.5860998558665137E-003   6.2333316655447647E-002
   2.0330443521000694E-002  -5.6747078784817745E-003   6.2195602488570506E-002
   1.9832347641872548E-002  -5.6946416456229131E-003   6.2271891964409631E-002
   1.9334251762744410E-002  -5.6459011572900153E-003   6.2562185082965113E-002
   1.8836155883616257E-002  -5.5284864134829970E-003   6.3066481844236771E-002
   1.3796798557616370E-002  -3.7240665705582029E-003   6.3046662349231564E-002
   1.3496715760197538E-002  -3.7831385856408155E-003   6.3039080543324175E-002
   1.3196632962778711E-002  -3.7964277637341486E-003   6.3213521258119076E-002
   1.2896550165359885E-002  -3.7639341048380372E-003   6.3569984493616297E-002
   1.2596467367941042E-002  -3.6856576089525916E-003   6.4108470249815863E-002
   6.8539520908488701E-003  -1.8620332852499165E-003   6.3800989759790566E-002
   6.7199012531254012E-003  -1.8915692927999241E-003   6.3900648896368109E-002
   6.5858504154019341E-003  -1.8982138818453139E-003   6.4150349431634071E-002
   6.4517995776784635E-003  -1.8819670523861005E-003   6.4550091365588452E-002
   6.3177487399549990E-003  -1.8428288044221863E-003   6.5099874698231197E-002
  -1.7368398386174988E-013   5.8397731095283234E-014   6.4596298887124454E-002
  -2.1573368091942768E-013   4.1064374123322978E-014   6.4780307547702282E-002
  -2.5778511270058146E-013   4.3458292520170971E-014   6.5082376484954574E-002
  -2.9983827920521122E-013   6.5945512939258322E-014   6.5502505698881275E-002
  -3.4188624153941305E-013   1.0821898932533713E-013   6.6040695189482440E-002
   2.5036814286980638E-002  -7.3713152180134300E-003   6.1973909481493672E-002
   2.4308318773688581E-002  -7.1675708872573907E-003   6.1809666353708909E-002
   2.3579823260396503E-002  -6.9610095524052784E-003   6.1809871840469460E-002
   2.2851327747104442E-002  -6.7516312134572945E-003   6.1974525941775216E-002
   2.2122832233812367E-002  -6.5394358704132238E-003   6.2303628657626398E-002
   1.8836155883616257E-002  -5.5284864134829970E-003   6.3066481844236771E-002
   1.8276527800807879E-002  -5.3756781654007990E-003   6.2870092298665664E-002
   1.7716899717999519E-002  -5.2207571642424386E-003   6.2846988999516656E-002
   1.7157271635191138E-002  -5.0637234100078445E-003   6.2997171946789707E-002
   1.6597643552382774E-002  -4.9045769026971331E-003   6.3320641140484746E-002
   1.2596467367941042E-002  -3.6856576089525916E-003   6.4108470249815863E-002
   1.2214544347493153E-002  -3.5837854435442906E-003   6.3879230035438633E-002
   1.1832621327045273E-002  -3.4805047760795155E-003   6.3832113699360205E-002
   1.1450698306597389E-002  -3.3758156065585056E-003   6.3967121241580716E-002
   1.1068775286149503E-002  -3.2697179349810701E-003   6.4284252662100014E-002
   6.3177487399549990E-003  -1.8428288044221863E-003   6.5099874698231197E-002
   6.1223684137443873E-003  -1.7918927216876990E-003   6.4837079564027900E-002
   5.9269880875337678E-003  -1.7402523879167173E-003   6.4765245940000243E-002
   5.7316077613231578E-003  -1.6879078031091111E-003   6.4884373826148325E-002
   5.5362274351125462E-003  -1.6348589672650488E-003   6.5194463222471993E-002
  -3.4188624153941305E-013   1.0821898932533713E-013   6.6040695189482440E-002
  -4.3843054187142627E-013   1.6882328868206287E-013   6.5743640884433324E-002
  -5.3498178109734340E-013   2.4626828354357144E-013   6.5646385721436731E-002
  -6.3153128559978455E-013   3.4031631679365404E-013   6.5748929700492481E-002
  -7.2807732065527375E-013   4.5108361490520110E-013   6.6051272821600782E-002
   2.2122832233812367E-002  -6.5394358704132238E-003   6.2303628657626398E-002
   2.1195278797912165E-002  -6.3154801728724230E-003   6.1960075287203042E-002
   2.0267725362011949E-002  -6.0708207704340683E-003   6.1842110371396392E-002
   1.9340171926111732E-002  -5.8054576630981701E-003   6.1949733910206403E-002
   1.8412618490211530E-002  -5.5193908508650580E-003   6.2282945903633147E-002
   1.6597643552382774E-002  -4.9045769026971331E-003   6.3320641140484746E-002
   1.5897253547189245E-002  -4.7366101295252261E-003   6.2993098903119660E-002
   1.5196863541995710E-002  -4.5531155777072257E-003   6.2894295072551121E-002
   1.4496473536802182E-002  -4.3540932472429968E-003   6.3024229648779226E-002
   1.3796083531608654E-002  -4.1395431381326397E-003   6.3382902631804183E-002
   1.1068775286149503E-002  -3.2697179349810701E-003   6.4284252662100014E-002
   1.0598698663842644E-002  -3.1577400861780847E-003   6.3967545631541681E-002
   1.0128622041535792E-002  -3.0354103849802791E-003   6.3882726959959973E-002
   9.6585454192289373E-003  -2.9027288313875476E-003   6.4029796647355017E-002
   9.1884687969220821E-003  -2.7596954254001105E-003   6.4408754693726644E-002
   5.5362274351125462E-003  -1.6348589672650488E-003   6.5194463222471993E-002
   5.2996141478723656E-003  -1.5788700428308600E-003   6.4883415472469119E-002
   5.0630008606321834E-003  -1.5177051922532180E-003   6.4807406033622950E-002
   4.8263875733920020E-003  -1.4513644155321808E-003   6.4966434905933373E-002
   4.5897742861518206E-003  -1.3798477126677478E-003   6.5360502089400516E-002
  -7.2807732065527375E-013   4.5108361490520110E-013   6.6051272821600782E-002
  -7.2158945485512049E-013   5.1630921760192905E-013   6.5740708425902017E-002
  -7.1510852794887114E-013   4.7356563115386052E-013   6.5668332293539966E-002
  -7.0862586631914581E-013   3.2311653352934400E-013   6.5834144424514546E-002
  -7.0213973524246853E-013   6.4781513486877884E-014   6.6238144818825839E-002
   1.8412618490211530E-002  -5.5193908508650580E-003   6.2282945903633147E-002
   1.7737734550439893E-002  -5.2257454001211068E-003   6.2118746923160162E-002
   1.7062850610668270E-002  -4.9376463772533019E-003   6.2157548822076664E-002
   1.6387966670896655E-002  -4.6550937822617960E-003   6.2399351600382513E-002
   1.5713082731125039E-002  -4.3780876151462422E-003   6.2844155258077850E-002
   1.3796083531608654E-002  -4.1395431381326397E-003   6.3382902631804183E-002
   1.3315630497621453E-002  -3.9193090501531413E-003   6.3214200777250429E-002
   1.2835177463634235E-002  -3.7032347830816131E-003   6.3231359854876018E-002
   1.2354724429647032E-002  -3.4913203369177533E-003   6.3434379864681228E-002
   1.1874271395659816E-002  -3.2835657116619954E-003   6.3823260806665505E-002
   9.1884687969220821E-003  -2.7596954254001105E-003   6.4408754693726644E-002
   8.8853067215092611E-003  -2.6128727001850649E-003   6.4236936572060380E-002
   8.5821446460964505E-003  -2.4688231889095913E-003   6.4233839435363579E-002
   8.2789825706836313E-003  -2.3275468915737660E-003   6.4399463283636174E-002
   7.9758204952708189E-003  -2.1890438081776376E-003   6.4733808116878094E-002
   4.5897742861518206E-003  -1.3798477126677478E-003   6.5360502089400516E-002
   4.4467632221033594E-003  -1.3064363502170162E-003   6.5186954307590028E-002
   4.3037521580549009E-003  -1.2344115947378193E-003   6.5164987563538918E-002
   4.1607410940064458E-003  -1.1637734462299175E-003   6.5294601857247225E-002
   4.0177300299579881E-003  -1.0945219046933907E-003   6.5575797188714868E-002
  -7.0213973524246853E-013   6.4781513486877884E-014   6.6238144818825839E-002
  -5.9626609205665204E-013  -2.4905077999903824E-013   6.6064253983839527E-002
  -4.9039244887083555E-013  -5.6585292007582666E-013   6.6024804239402379E-002
  -3.8451533623806711E-013  -8.8592327918135538E-013   6.6119795585514590E-002
  -2.7864516249920257E-013  -1.2089773626655642E-012   6.6349228022176188E-002
   1.5713082731125039E-002  -4.3780876151462422E-003   6.2844155258077850E-002
   1.4570575280908007E-002  -4.0897128041391118E-003   6.2680052160669575E-002
   1.3428067830690976E-002  -3.7730542774717657E-003   6.2667838456371583E-002
   1.2285560380473959E-002  -3.4281120351445371E-003   6.2807514145183707E-002
   1.1143052930256914E-002  -3.0548860771575370E-003   6.3099079227106447E-002
   1.1874271395659816E-002  -3.2835657116619954E-003   6.3823260806665505E-002
   1.0917087705948555E-002  -3.0672846034560108E-003   6.3657700762963232E-002
   9.9599040162373018E-003  -2.8297907084416374E-003   6.3710898847162106E-002
   9.0027203265260203E-003  -2.5710840266189444E-003   6.3982855059262086E-002
   8.0455366368148151E-003  -2.2911645579879458E-003   6.4473569399263519E-002
   7.9758204952708189E-003  -2.1890438081776376E-003   6.4733808116878094E-002
   7.2708293008562665E-003  -2.0448564027729932E-003   6.4559720198029774E-002
   6.5658381064417209E-003  -1.8865271394114536E-003   6.4671259141873827E-002
   5.8608469120271928E-003  -1.7140560180931852E-003   6.5068424948410170E-002
   5.1558557176126230E-003  -1.5274430388182436E-003   6.5751217617638358E-002
   4.0177300299579881E-003  -1.0945219046933907E-003   6.5575797188714868E-002
   3.6318000656311300E-003  -1.0224282020899894E-003   6.5386110465869243E-002
   3.2458701013042806E-003  -9.4326357038118647E-004   6.5548919340506898E-002
   2.8599401369774190E-003  -8.5702800956750924E-004   6.6064223812627568E-002
   2.4740101726505800E-003  -7.6372151964854140E-004   6.6932023882231684E-002
  -2.7864516249920257E-013  -1.2089773626655642E-012   6.6349228022176188E-002
   2.7315649742121195E-013  -1.4069856391074609E-012   6.6136871566481681E-002
   8.2495121844772257E-013  -1.3511275431810077E-012   6.6343879443061277E-002
   1.3767476741977092E-012  -1.0416910389832168E-012   6.6970251651914933E-002
   1.9285545382885516E-012  -4.7895021282329253E-013   6.8015988193042887E-002
  -7.0968404763949167E-014   0.0000000000000000        2.8443966004311507E-002
  -8.2366405362854778E-014   2.1186177812104745E-014   3.3405809865383301E-002
  -9.3764622802194886E-014   3.9012196251242415E-014   3.8375325391654724E-002
  -1.0516316550218674E-013   5.3471116423509102E-014   4.3352512583125766E-002
  -1.1656084084044060E-013   6.4573346669760667E-014   4.8337371439796439E-002
  -6.8002257096221449E-003   0.0000000000000000        2.8507959508964231E-002
  -6.8320539467673228E-003   1.4648212965753370E-004   3.3543423056229711E-002
  -6.8638821839124989E-003   3.2995450006498284E-004   3.8507558464028022E-002
  -6.8957104210576768E-003   5.5041711122234653E-004   4.3400365732359142E-002
  -6.9275386582028538E-003   8.0786996312961872E-004   4.8221844861223065E-002
  -1.3505826951019505E-002   0.0000000000000000        2.8699940022876659E-002
  -1.3648483229965267E-002   2.9296425929388123E-004   3.3846013497089114E-002
  -1.3791139508911029E-002   6.5990900009095261E-004   3.8841759027167563E-002
  -1.3933795787856791E-002   1.1008342223912185E-003   4.3687176613112062E-002
  -1.4076452066802551E-002   1.6157399261946676E-003   4.8382266254922535E-002
  -2.0116803724263048E-002   0.0000000000000000        2.9019907546048804E-002
  -2.0449287849676204E-002   4.3944638893022745E-004   3.4313581187961496E-002
  -2.0781771975089351E-002   9.8986350011692282E-004   3.9377927081073405E-002
  -2.1114256100502504E-002   1.6512513335600870E-003   4.4212945225384499E-002
  -2.1446740225915653E-002   2.4236098892597129E-003   4.8818635620894821E-002
  -2.6633156029352779E-002   0.0000000000000000        2.9467862078480650E-002
  -2.7234467805900123E-002   5.8592851856657541E-004   3.4946126128846865E-002
  -2.7835779582447467E-002   1.3198180001428930E-003   4.0116062625745470E-002
  -2.8437091358994814E-002   2.2016684447289624E-003   4.4977671569176488E-002
  -2.9038403135542158E-002   3.2314798523247635E-003   4.9530952959139916E-002
  -1.1656084084044060E-013   6.4573346669760667E-014   4.8337371439796439E-002
  -1.3053056899248183E-013   7.3727482452490278E-014   5.1504714901054204E-002
  -1.4450138134669555E-013   8.2414977620182128E-014   5.4536037871982801E-002
  -1.5847382000416799E-013   9.0599836660709698E-014   5.7431340352582322E-002
  -1.7244192185295049E-013   9.8254737679326354E-014   6.0190622342852731E-002
  -6.9275386582028538E-003   8.0786996312961872E-004   4.8221844861223065E-002
  -7.0340673412454344E-003   1.0624589371315239E-003   5.1175946380987380E-002
  -7.1405960242880151E-003   1.2743299145727793E-003   5.4053011025023585E-002
  -7.2471247073305949E-003   1.4434828954533853E-003   5.6853038793331701E-002
  -7.3536533903731747E-003   1.5699178797733485E-003   5.9576029685911726E-002
  -1.4076452066802551E-002   1.6157399261946676E-003   4.8382266254922535E-002
  -1.4230525818272711E-002   2.1249178741893195E-003   5.1080407836633215E-002
  -1.4384599569742865E-002   2.5486598290631645E-003   5.3760496157216849E-002
  -1.4538673321213029E-002   2.8869657908162051E-003   5.6422531216673448E-002
  -1.4692747072683180E-002   3.1398357594484561E-003   5.9066513015002924E-002
  -2.1446740225915653E-002   2.4236098892597129E-003   4.8818635620894821E-002
  -2.1589375431212351E-002   3.1873768112471016E-003   5.1218099267991771E-002
  -2.1732010636509060E-002   3.8229897435535392E-003   5.3658493268562646E-002
  -2.1874645841805759E-002   4.3304486861790292E-003   5.6139817622607502E-002
  -2.2017281047102471E-002   4.7097536391235498E-003   5.8662072330126359E-002
  -2.9038403135542158E-002   3.2314798523247635E-003   4.9530952959139916E-002
  -2.9110616180064372E-002   4.2498357483049011E-003   5.1589020675062928E-002
  -2.9182829224586589E-002   5.0973196580439365E-003   5.3747002359060943E-002
  -2.9255042269108803E-002   5.7739315815418238E-003   5.6004898011133945E-002
  -2.9327255313631020E-002   6.2796715187986435E-003   5.8362707631281971E-002
  -1.7244192185295049E-013   9.8254737679326354E-014   6.0190622342852731E-002
  -1.7275243735515033E-013   1.0135642325437288E-013   6.1085255851047147E-002
  -1.7306295285735018E-013   9.5722041404400215E-014   6.2117746444490571E-002
  -1.7337737148737098E-013   8.1412307451067534E-014   6.3288094123183036E-002
  -1.7368398386174988E-013   5.8397731095283234E-014   6.4596298887124454E-002
  -7.3536533903731747E-003   1.5699178797733485E-003   5.9576029685911726E-002
  -7.2287280655784622E-003   1.6669820821527889E-003   6.0464279357878285E-002
  -7.1038027407837514E-003   1.7480227172116270E-003   6.1464522594185902E-002
  -6.9788774159890441E-003   1.8130397849500557E-003   6.2576759394834550E-002
  -6.8539520911943246E-003   1.8620332853679644E-003   6.3800989759824234E-002
  -1.4692747072683180E-002   3.1398357594484561E-003   5.9066513015002924E-002
  -1.4468759944001418E-002   3.3339641642041833E-003   5.9932355283429842E-002
  -1.4244772815319653E-002   3.4960454343275736E-003   6.0884327595289833E-002
  -1.4020785686637883E-002   3.6260795698186852E-003   6.1922429950582912E-002
  -1.3796798557956125E-002   3.7240665706775034E-003   6.3046662349309002E-002
  -2.2017281047102471E-002   4.7097536391235498E-003   5.8662072330126359E-002
  -2.1720095635441611E-002   5.0009462462555828E-003   5.9489483627701838E-002
  -2.1422910223780768E-002   5.2440681514434994E-003   6.0377161447802391E-002
  -2.1125724812119908E-002   5.4391193546872944E-003   6.1325105790428026E-002
  -2.0828539400459058E-002   5.5860998559870423E-003   6.2333316655578855E-002
  -2.9327255313631020E-002   6.2796715187986435E-003   5.8362707631281971E-002
  -2.8982735139899053E-002   6.6679283283069962E-003   5.9135664390694218E-002
  -2.8638214966167093E-002   6.9920908685594287E-003   5.9943024151723555E-002
  -2.8293694792435122E-002   7.2521591395559660E-003   6.0784786914370018E-002
  -2.7949174618703155E-002   7.4481331412966090E-003   6.1660952678633668E-002
  -1.7368398386174988E-013   5.8397731095283234E-014   6.4596298887124454E-002
  -2.1573368091942768E-013   4.1064374123322978E-014   6.4780307547702282E-002
  -2.5778511270058146E-013   4.3458292520170971E-014   6.5082376484954574E-002
  -2.9983827920521122E-013   6.5945512939258322E-014   6.5502505698881275E-002
  -3.4188624153941305E-013   1.0821898932533713E-013   6.6040695189482440E-002
  -6.8539520911943246E-003   1.8620332853679644E-003   6.3800989759824234E-002
  -6.7199012535517884E-003   1.8915692928899303E-003   6.3900648896445297E-002
  -6.5858504159092461E-003   1.8982138819403013E-003   6.4150349431761067E-002
  -6.4517995782667047E-003   1.8819670525194159E-003   6.4550091365771667E-002
  -6.3177487406241677E-003   1.8428288046269947E-003   6.5099874698476820E-002
  -1.3796798557956125E-002   3.7240665706775034E-003   6.3046662349309002E-002
  -1.3496715760608693E-002   3.7831385857388031E-003   6.3039080543481923E-002
  -1.3196632963261262E-002   3.7964277638372311E-003   6.3213521258369945E-002
  -1.2896550165913829E-002   3.7639341049729149E-003   6.3569984493972914E-002
  -1.2596467368566400E-002   3.6856576091457288E-003   6.4108470250291039E-002
  -2.0828539400459058E-002   5.5860998559870423E-003   6.2333316655578855E-002
  -2.0330443521386455E-002   5.6747078785876724E-003   6.2195602488812257E-002
  -1.9832347642313831E-002   5.6946416457341453E-003   6.2271891964781043E-002
  -1.9334251763241217E-002   5.6459011574263585E-003   6.2562185083485142E-002
  -1.8836155884168603E-002   5.5284864136644976E-003   6.3066481844924610E-002
  -2.7949174618703155E-002   7.4481331412966090E-003   6.1660952678633668E-002
  -2.7221084535885058E-002   7.5662771714365973E-003   6.1370214732436257E-002
  -2.6492994453066958E-002   7.5928555276310108E-003   6.1325461550994456E-002
  -2.5764904370248851E-002   7.5278682098799277E-003   6.1526693134308329E-002
  -2.5036814287430757E-002   7.3713152181832109E-003   6.1973909482377798E-002
  -3.4188624153941305E-013   1.0821898932533713E-013   6.6040695189482440E-002
  -4.3843054187142627E-013   1.6882328868206287E-013   6.5743640884433324E-002
  -5.3498178109734340E-013   2.4626828354357144E-013   6.5646385721436731E-002
  -6.3153128559978455E-013   3.4031631679365404E-013   6.5748929700492481E-002
  -7.2807732065527375E-013   4.5108361490520110E-013   6.6051272821600782E-002
  -6.3177487406241677E-003   1.8428288046269947E-003   6.5099874698476820E-002
  -6.1223684145963915E-003   1.7918927219917058E-003   6.4837079564340899E-002
  -5.9269880885686223E-003   1.7402523883422866E-003   6.4765245940401173E-002
  -5.7316077625408531E-003   1.6879078036785254E-003   6.4884373826657613E-002
  -5.5362274365130838E-003   1.6348589680005854E-003   6.5194463223110205E-002
  -1.2596467368566400E-002   3.6856576091457288E-003   6.4108470250291039E-002
  -1.2214544348270597E-002   3.5837854438145814E-003   6.3879230036037210E-002
  -1.1832621327974781E-002   3.4805047764382528E-003   6.3832113700123316E-002
  -1.1450698307678975E-002   3.3758156070167909E-003   6.3967121242549330E-002
  -1.1068775287383160E-002   3.2697179355500872E-003   6.4284252663315194E-002
  -1.8836155884168603E-002   5.5284864136644976E-003   6.3066481844924610E-002
  -1.8276527801461027E-002   5.3756781656374465E-003   6.2870092299522104E-002
  -1.7716899718753457E-002   5.2207571645342728E-003   6.2846989000603148E-002
  -1.7157271636045884E-002   5.0637234103550564E-003   6.2997171948167952E-002
  -1.6597643553338315E-002   4.9045769030996444E-003   6.3320641142216208E-002
  -2.5036814287430757E-002   7.3713152181832109E-003   6.1973909482377798E-002
  -2.4308318774167711E-002   7.1675708874603256E-003   6.1809666354795623E-002
  -2.3579823260904655E-002   6.9610095526302443E-003   6.1809871841840766E-002
  -2.2851327747641613E-002   6.7516312136933505E-003   6.1974525943513180E-002
  -2.2122832234378553E-002   6.5394358706491462E-003   6.2303628659812982E-002
  -7.2807732065527375E-013   4.5108361490520110E-013   6.6051272821600782E-002
  -7.2158945485512049E-013   5.1630921760192905E-013   6.5740708425902017E-002
  -7.1510852794887114E-013   4.7356563115386052E-013   6.5668332293539966E-002
  -7.0862586631914581E-013   3.2311653352934400E-013   6.5834144424514546E-002
  -7.0213973524246853E-013   6.4781513486877884E-014   6.6238144818825839E-002
  -5.5362274365130838E-003   1.6348589680005854E-003   6.5194463223110205E-002
  -5.2996141492628671E-003   1.5788700436580039E-003   6.4883415473022038E-002
  -5.0630008620126520E-003   1.5177051930008872E-003   6.4807406034084886E-002
  -4.8263875747624413E-003   1.4513644160288365E-003   6.4966434906298429E-002
  -4.5897742875122202E-003   1.3798477127422992E-003   6.5360502089662736E-002
  -1.1068775287383160E-002   3.2697179355500872E-003   6.4284252663315194E-002
  -1.0598698665075082E-002   3.1577400868000038E-003   6.3967545632631004E-002
  -1.0128622042767006E-002   3.0354103855282644E-003   6.3882726960911684E-002
  -9.6585454204589222E-003   2.9027288317348340E-003   6.4029796648157292E-002
  -9.1884687981508371E-003   2.7596954254197337E-003   6.4408754694367881E-002
  -1.6597643553338315E-002   4.9045769030996444E-003   6.3320641142216208E-002
  -1.5897253548158245E-002   4.7366101299418234E-003   6.2993098904728831E-002
  -1.5196863542978162E-002   4.5531155780555582E-003   6.2894295074020529E-002
  -1.4496473537798088E-002   4.3540932474406373E-003   6.3024229650091357E-002
  -1.3796083532618008E-002   4.1395431380972098E-003   6.3382902632941052E-002
  -2.2122832234378553E-002   6.5394358706491462E-003   6.2303628659812982E-002
  -2.1195278798512351E-002   6.3154801730837262E-003   6.1960075289315575E-002
  -2.0267725362646136E-002   6.0708207705829492E-003   6.1842110373411391E-002
  -1.9340171926779927E-002   5.8054576631466036E-003   6.1949733912100360E-002
  -1.8412618490913718E-002   5.5193908507746858E-003   6.2282945905382581E-002
  -7.0213973524246853E-013   6.4781513486877884E-014   6.6238144818825839E-002
  -5.9626609205665204E-013  -2.4905077999903824E-013   6.6064253983839527E-002
  -4.9039244887083555E-013  -5.6585292007582666E-013   6.6024804239402379E-002
  -3.8451533623806711E-013  -8.8592327918135538E-013   6.6119795585514590E-002
  -2.7864516249920257E-013  -1.2089773626655642E-012   6.6349228022176188E-002
  -4.5897742875122202E-003   1.3798477127422992E-003   6.5360502089662736E-002
  -4.4467632232612700E-003   1.3064363497762577E-003   6.5186954307920097E-002
  -4.3037521590103250E-003   1.2344115937663602E-003   6.5164987563918350E-002
  -4.1607410947593782E-003   1.1637734447128012E-003   6.5294601857657258E-002
  -4.0177300305084228E-003   1.0945219026152198E-003   6.5575797189137142E-002
  -9.1884687981508371E-003   2.7596954254197337E-003   6.4408754694367881E-002
  -8.8853067225632999E-003   2.6128726998015245E-003   6.4236936572828224E-002
  -8.5821446469757645E-003   2.4688231880987815E-003   6.4233839436220949E-002
  -8.2789825713882256E-003   2.3275468903114667E-003   6.4399463284546155E-002
  -7.9758204958006902E-003   2.1890438064395001E-003   6.4733808117803424E-002
  -1.3796083532618008E-002   4.1395431380972098E-003   6.3382902632941052E-002
  -1.3315630498502373E-002   3.9193090498268121E-003   6.3214200778563726E-002
  -1.2835177464386734E-002   3.7032347824310710E-003   6.3231359856310274E-002
  -1.2354724430271092E-002   3.4913203359101062E-003   6.3434379866180599E-002
  -1.1874271396155467E-002   3.2835657102638499E-003   6.3823260808174950E-002
  -1.8412618490913718E-002   5.5193908507746858E-003   6.2282945905382581E-002
  -1.7737734551078459E-002   5.2257453998521830E-003   6.2118746925126755E-002
  -1.7062850611243213E-002   4.9376463767634438E-003   6.2157548824186282E-002
  -1.6387966671407954E-002   4.6550937815088914E-003   6.2399351602561243E-002
  -1.5713082731572701E-002   4.3780876140879776E-003   6.2844155260251555E-002
  -2.7864516249920257E-013  -1.2089773626655642E-012   6.6349228022176188E-002
   2.7315649742121195E-013  -1.4069856391074609E-012   6.6136871566481681E-002
   8.2495121844772257E-013  -1.3511275431810077E-012   6.6343879443061277E-002
   1.3767476741977092E-012  -1.0416910389832168E-012   6.6970251651914933E-002
   1.9285545382885516E-012  -4.7895021282329253E-013   6.8015988193042887E-002
  -4.0177300305084228E-003   1.0945219026152198E-003   6.5575797189137142E-002
  -3.6318000651503653E-003   1.0224281996464024E-003   6.5386110466689712E-002
  -3.2458700997923095E-003   9.4326356797873323E-004   6.5548919341580608E-002
  -2.8599401344342468E-003   8.5702800761234751E-004   6.6064223813809803E-002
  -2.4740101690761962E-003   7.6372151854697812E-004   6.6932023883377267E-002
  -7.9758204958006902E-003   2.1890438064395001E-003   6.4733808117803424E-002
  -7.2708293005721378E-003   2.0448564006996794E-003   6.4559720199650575E-002
  -6.5658381053435855E-003   1.8865271373087536E-003   6.4671259143900317E-002
  -5.8608469101150210E-003   1.7140560162664676E-003   6.5068424950552609E-002
  -5.1558557148864530E-003   1.5274430375729064E-003   6.5751217619607727E-002
  -1.1874271396155467E-002   3.2835657102638499E-003   6.3823260808174950E-002
  -1.0917087705992139E-002   3.0672846017530675E-003   6.3657700765364131E-002
  -9.9599040158288438E-003   2.8297907066385831E-003   6.3710898850020251E-002
  -9.0027203256655055E-003   2.5710840249204359E-003   6.3982855062143434E-002
  -8.0455366355022088E-003   2.2911645565988348E-003   6.4473569401733266E-002
  -1.5713082731572701E-002   4.3780876140879776E-003   6.2844155260251555E-002
  -1.4570575281410390E-002   4.0897128028063445E-003   6.2680052163830657E-002
  -1.3428067831248086E-002   3.7730542759686625E-003   6.2667838459940839E-002
  -1.2285560381085775E-002   3.4281120335747164E-003   6.2807514148582044E-002
  -1.1143052930923464E-002   3.0548860756247631E-003   6.3099079229754773E-002
  -2.6633156029352779E-002   0.0000000000000000        2.9467862078480650E-002
  -2.7234467805900123E-002   5.8592851856657541E-004   3.4946126128846865E-002
  -2.7835779582447467E-002   1.3198180001428930E-003   4.0116062625745470E-002
  -2.8437091358994814E-002   2.2016684447289624E-003   4.4977671569176488E-002
  -2.9038403135542158E-002   3.2314798523247635E-003   4.9530952959139916E-002
  -3.3392339421790582E-002   0.0000000000000000        3.0178275172125020E-002
  -3.4236715489129210E-002   9.6050465787670802E-004   3.5267122831472125E-002
  -3.5081091556467853E-002   2.0242623310527735E-003   4.0178169462704236E-002
  -3.5925467623806495E-002   3.1912730195281964E-003   4.4911415065821365E-002
  -3.6769843691145131E-002   4.4615367233029751E-003   4.9466859640823507E-002
  -4.0731809457078348E-002   0.0000000000000000        3.1285618378934704E-002
  -4.1688723289855664E-002   1.3350807971868389E-003   3.5940341699552319E-002
  -4.2645637122632987E-002   2.7287066619626488E-003   4.0547790517407555E-002
  -4.3602550955410303E-002   4.1808775943274288E-003   4.5107964832500409E-002
  -4.4559464788187626E-002   5.6915935942811790E-003   4.9620864644830884E-002
  -4.8651566135216075E-002   0.0000000000000000        3.2789891698909723E-002
  -4.9590491208079464E-002   1.7096569364969711E-003   3.6965782733087454E-002
  -5.0529416280942860E-002   3.4331509928725249E-003   4.1224925789855413E-002
  -5.1468341353806249E-002   5.1704821691266637E-003   4.5567320869213605E-002
  -5.2407266426669638E-002   6.9216504652593897E-003   4.9992967971162039E-002
  -5.7151609456203761E-002   0.0000000000000000        3.4691095132050070E-002
  -5.7942019243800630E-002   2.0842330758071032E-003   3.8343445932077530E-002
  -5.8732429031397478E-002   4.1375953237824028E-003   4.2209575280047831E-002
  -5.9522838818994325E-002   6.1600867439258970E-003   4.6289483175960974E-002
  -6.0313248606591194E-002   8.1517073362375909E-003   5.0583169619816966E-002
  -2.9038403135542158E-002   3.2314798523247635E-003   4.9530952959139916E-002
  -2.9110616180064372E-002   4.2498357483049011E-003   5.1589020675062928E-002
  -2.9182829224586589E-002   5.0973196580439365E-003   5.3747002359060943E-002
  -2.9255042269108803E-002   5.7739315815418238E-003   5.6004898011133945E-002
  -2.9327255313631020E-002   6.2796715187986435E-003   5.8362707631281971E-002
  -3.6769843691145131E-002   4.4615367233029751E-003   4.9466859640823507E-002
  -3.6781280193847347E-002   5.6950456293587415E-003   5.1253792090562744E-002
  -3.6792716696549557E-002   6.7517919246770884E-003   5.3062363655866973E-002
  -3.6804153199251788E-002   7.6317756092580619E-003   5.4892574336736152E-002
  -3.6815589701953991E-002   8.3349966831016420E-003   5.6744424133170393E-002
  -4.4559464788187626E-002   5.6915935942811790E-003   4.9620864644830884E-002
  -4.4588399601579856E-002   7.1402555104125732E-003   5.1130771203890035E-002
  -4.4617334414972100E-002   8.4062641913102681E-003   5.2584042026004169E-002
  -4.4646269228364323E-002   9.4896196369742836E-003   5.3980677111173256E-002
  -4.4675204041756560E-002   1.0390321847404592E-002   5.5320676459397353E-002
  -5.2407266426669638E-002   6.9216504652593897E-003   4.9992967971162039E-002
  -5.2531974403261912E-002   8.5854653914664049E-003   5.1219958015044802E-002
  -5.2656682379854165E-002   1.0060736457943446E-002   5.2312037469472571E-002
  -5.2781390356446425E-002   1.1347463664690485E-002   5.3269206334445277E-002
  -5.2906098333038686E-002   1.2445647011707552E-002   5.4091464609962982E-002
  -6.0313248606591194E-002   8.1517073362375909E-003   5.0583169619816966E-002
  -6.0612004598893501E-002   1.0030675272520252E-002   5.1521352524027064E-002
  -6.0910760591195802E-002   1.1715208724576614E-002   5.2246349986272145E-002
  -6.1209516583498075E-002   1.3205307692406732E-002   5.2758162006552180E-002
  -6.1508272575800396E-002   1.4500972176010526E-002   5.3056788584867148E-002
  -2.9327255313631020E-002   6.2796715187986435E-003   5.8362707631281971E-002
  -2.8982735139899053E-002   6.6679283283069962E-003   5.9135664390694218E-002
  -2.8638214966167093E-002   6.9920908685594287E-003   5.9943024151723555E-002
  -2.8293694792435122E-002   7.2521591395559660E-003   6.0784786914370018E-002
  -2.7949174618703155E-002   7.4481331412966090E-003   6.1660952678633668E-002
  -3.6815589701953991E-002   8.3349966831016420E-003   5.6744424133170393E-002
  -3.6384436249268293E-002   8.8772853916253384E-003   5.7093733023860505E-002
  -3.5953282796582595E-002   9.2744719802466367E-003   5.7581905470840987E-002
  -3.5522129343896883E-002   9.5265564489656271E-003   5.8208941474111764E-002
  -3.5090975891211185E-002   9.6335387977823095E-003   5.8974841033672926E-002
  -4.4675204041756560E-002   1.0390321847404592E-002   5.5320676459397353E-002
  -4.4052956755443920E-002   1.1086642454943653E-002   5.5165329630718934E-002
  -4.3430709469131260E-002   1.1556853091933899E-002   5.5253306913004049E-002
  -4.2808462182818620E-002   1.1800953758375313E-002   5.5584608306252718E-002
  -4.2186214896505952E-002   1.1818944454267927E-002   5.6159233810464983E-002
  -5.2906098333038686E-002   1.2445647011707552E-002   5.4091464609962982E-002
  -5.1988296658425873E-002   1.3295999518261988E-002   5.3350454211269521E-002
  -5.1070494983813060E-002   1.3839234203621160E-002   5.2957228478212832E-002
  -5.0152693309200275E-002   1.4075351067785001E-002   5.2911787410792901E-002
  -4.9234891634587462E-002   1.4004350110753558E-002   5.3214131009009707E-002
  -6.1508272575800396E-002   1.4500972176010526E-002   5.3056788584867148E-002
  -6.0190455958214220E-002   1.5505356581580317E-002   5.1649106765512216E-002
  -5.8872639340628037E-002   1.6121615315308375E-002   5.0693670166467281E-002
  -5.7554822723041882E-002   1.6349748377194655E-002   5.0190478787732286E-002
  -5.6237006105455692E-002   1.6189755767239231E-002   5.0139532629307274E-002
  -2.7949174618703155E-002   7.4481331412966090E-003   6.1660952678633668E-002
  -2.7221084535885058E-002   7.5662771714365973E-003   6.1370214732436257E-002
  -2.6492994453066958E-002   7.5928555276310108E-003   6.1325461550994456E-002
  -2.5764904370248851E-002   7.5278682098799277E-003   6.1526693134308329E-002
  -2.5036814287430757E-002   7.3713152181832109E-003   6.1973909482377798E-002
  -3.5090975891211185E-002   9.6335387977823095E-003   5.8974841033672926E-002
  -3.4129194033833465E-002   9.6350217481594100E-003   5.8639641189031734E-002
  -3.3167412176455732E-002   9.5706080215599218E-003   5.8525840128754100E-002
  -3.2205630319078006E-002   9.4402976179838571E-003   5.8633437852840149E-002
  -3.1243848461700273E-002   9.2440905374310545E-003   5.8962434361289770E-002
  -4.2186214896505952E-002   1.1818944454267927E-002   5.6159233810464983E-002
  -4.1015327244960618E-002   1.1703766324882292E-002   5.5805241064348858E-002
  -3.9844439593415264E-002   1.1548360515488885E-002   5.5648061122204273E-002
  -3.8673551941869937E-002   1.1352727026087743E-002   5.5687693984031381E-002
  -3.7502664290324575E-002   1.1116865856678856E-002   5.5924139649830083E-002
  -4.9234891634587462E-002   1.4004350110753558E-002   5.3214131009009707E-002
  -4.7879484169266504E-002   1.3772510901605153E-002   5.2867014358387560E-002
  -4.6524076703945566E-002   1.3526113009417822E-002   5.2692124531344982E-002
  -4.5168669238624636E-002   1.3265156434191735E-002   5.2689461527881995E-002
  -4.3813261773303684E-002   1.2989641175926693E-002   5.2859025347998606E-002
  -5.6237006105455692E-002   1.6189755767239231E-002   5.0139532629307274E-002
  -5.4721664806751155E-002   1.5841255478328042E-002   4.9824961071147977E-002
  -5.3206323508046605E-002   1.5503865503346776E-002   4.9658030356176254E-002
  -5.1690982209342068E-002   1.5177585842295633E-002   4.9638740484392166E-002
  -5.0175640910637531E-002   1.4862416495174474E-002   4.9767091455795553E-002
  -2.5036814287430757E-002   7.3713152181832109E-003   6.1973909482377798E-002
  -2.4308318774167711E-002   7.1675708874603256E-003   6.1809666354795623E-002
  -2.3579823260904655E-002   6.9610095526302443E-003   6.1809871841840766E-002
  -2.2851327747641613E-002   6.7516312136933505E-003   6.1974525943513180E-002
  -2.2122832234378553E-002   6.5394358706491462E-003   6.2303628659812982E-002
  -3.1243848461700273E-002   9.2440905374310545E-003   5.8962434361289770E-002
  -3.0343697534737660E-002   9.0071210398684487E-003   5.8744393797849959E-002
  -2.9443546607775043E-002   8.7545233852629259E-003   5.8705215447181956E-002
  -2.8543395680812420E-002   8.4862975736141270E-003   5.8844899309285756E-002
  -2.7643244753849782E-002   8.2024436049225602E-003   5.9163445384161323E-002
  -3.7502664290324575E-002   1.1116865856678856E-002   5.5924139649830083E-002
  -3.6416444351517911E-002   1.0846671192276634E-002   5.5639490497596679E-002
  -3.5330224412711282E-002   1.0548037217895382E-002   5.5548117156279594E-002
  -3.4244004473904618E-002   1.0220963933535207E-002   5.5650019625878747E-002
  -3.3157784535097989E-002   9.8654513391959464E-003   5.5945197906394198E-002
  -4.3813261773303684E-002   1.2989641175926693E-002   5.2859025347998606E-002
  -4.2526559224508514E-002   1.2686221344684830E-002   5.2494956454035770E-002
  -4.1239856675713372E-002   1.2341551050527868E-002   5.2338576969133591E-002
  -3.9953154126918203E-002   1.1955630293456192E-002   5.2389886893292159E-002
  -3.8666451578123054E-002   1.1528459073469430E-002   5.2648886226511482E-002
  -5.0175640910637531E-002   1.4862416495174474E-002   4.9767091455795553E-002
  -4.8674042153709428E-002   1.4525771497092943E-002   4.9310791667167175E-002
  -4.7172443396781311E-002   1.4135064883160499E-002   4.9076594885744021E-002
  -4.5670844639853207E-002   1.3690296653377102E-002   4.9064501111526028E-002
  -4.4169245882925090E-002   1.3191466807742747E-002   4.9274510344513245E-002
  -2.2122832234378553E-002   6.5394358706491462E-003   6.2303628659812982E-002
  -2.1195278798512351E-002   6.3154801730837262E-003   6.1960075289315575E-002
  -2.0267725362646136E-002   6.0708207705829492E-003   6.1842110373411391E-002
  -1.9340171926779927E-002   5.8054576631466036E-003   6.1949733912100360E-002
  -1.8412618490913718E-002   5.5193908507746858E-003   6.2282945905382581E-002
  -2.7643244753849782E-002   8.2024436049225602E-003   5.9163445384161323E-002
  -2.6491946689792770E-002   7.9040119766489586E-003   5.8806805491956479E-002
  -2.5340648625735748E-002   7.5920531862545410E-003   5.8672066401540060E-002
  -2.4189350561678737E-002   7.2665672337392066E-003   5.8759228112912155E-002
  -2.3038052497621680E-002   6.9275541191032852E-003   5.9068290626072523E-002
  -3.3157784535097989E-002   9.8654513391959464E-003   5.5945197906394198E-002
  -3.1786429495654897E-002   9.4925437802141494E-003   5.5582648035296500E-002
  -3.0415074456211791E-002   9.1132856019262506E-003   5.5438311313182491E-002
  -2.9043719416768702E-002   8.7276768043320890E-003   5.5512187740052121E-002
  -2.7672364377325592E-002   8.3357173874318846E-003   5.5804277315905426E-002
  -3.8666451578123054E-002   1.1528459073469430E-002   5.2648886226511482E-002
  -3.7078727216098693E-002   1.1081075583779416E-002   5.2287602919335624E-002
  -3.5491002854074291E-002   1.0634518017597901E-002   5.2140845108338746E-002
  -3.3903278492049903E-002   1.0188786374924944E-002   5.2208612793520827E-002
  -3.2315554130025528E-002   9.7438806557604007E-003   5.2490905974881756E-002
  -4.4169245882925090E-002   1.3191466807742747E-002   4.9274510344513245E-002
  -4.2368839851124163E-002   1.2669607387344572E-002   4.8921670144073948E-002
  -4.0568433819323235E-002   1.2155750433269594E-002   4.8779667787008790E-002
  -3.8768027787522329E-002   1.1649895945517613E-002   4.8848503273317814E-002
  -3.6967621755721380E-002   1.1152043924089083E-002   4.9128176603001006E-002
  -1.8412618490913718E-002   5.5193908507746858E-003   6.2282945905382581E-002
  -1.7737734551078459E-002   5.2257453998521830E-003   6.2118746925126755E-002
  -1.7062850611243213E-002   4.9376463767634438E-003   6.2157548824186282E-002
  -1.6387966671407954E-002   4.6550937815088914E-003   6.2399351602561243E-002
  -1.5713082731572701E-002   4.3780876140879776E-003   6.2844155260251555E-002
  -2.3038052497621680E-002   6.9275541191032852E-003   5.9068290626072523E-002
  -2.2171960638516189E-002   6.5813385914235967E-003   5.8885755194709427E-002
  -2.1305868779410646E-002   6.2342453997777936E-003   5.8882634722571506E-002
  -2.0439776920305155E-002   5.8862745441654596E-003   5.9058929209658724E-002
  -1.9573685061199619E-002   5.5374260245870666E-003   5.9414638655971019E-002
  -2.7672364377325592E-002   8.3357173874318846E-003   5.5804277315905426E-002
  -2.6638650519040078E-002   7.9369317829951908E-003   5.5596981341634960E-002
  -2.5604936660754533E-002   7.5308444227920185E-003   5.5545514406499283E-002
  -2.4571222802469008E-002   7.1174553068223019E-003   5.5649876510498568E-002
  -2.3537508944183473E-002   6.6967644350860445E-003   5.5910067653632878E-002
  -3.2315554130025528E-002   9.7438806557604007E-003   5.2490905974881756E-002
  -3.1137804192650193E-002   9.2925249745667779E-003   5.2252425365903368E-002
  -2.9960054255274822E-002   8.8274434458063891E-003   5.2146187875969668E-002
  -2.8782304317899497E-002   8.3486360694791182E-003   5.2172193505080768E-002
  -2.7604554380524143E-002   7.8561028455850779E-003   5.2330442253236416E-002
  -3.6967621755721380E-002   1.1152043924089083E-002   4.9128176603001006E-002
  -3.5669421659346459E-002   1.0648118166138143E-002   4.8852087267514721E-002
  -3.4371221562971566E-002   1.0124042468820635E-002   4.8684655130982718E-002
  -3.3073021466596651E-002   9.5798168321358061E-003   4.8625880193405344E-002
  -3.1774821370221751E-002   9.0154412560840558E-003   4.8675762454782279E-002
  -1.5713082731572701E-002   4.3780876140879776E-003   6.2844155260251555E-002
  -1.4570575281410390E-002   4.0897128028063445E-003   6.2680052163830657E-002
  -1.3428067831248086E-002   3.7730542759686625E-003   6.2667838459940839E-002
  -1.2285560381085775E-002   3.4281120335747164E-003   6.2807514148582044E-002
  -1.1143052930923464E-002   3.0548860756247631E-003   6.3099079229754773E-002
  -1.9573685061199619E-002   5.5374260245870666E-003   5.9414638655971019E-002
  -1.8248801603936462E-002   5.1775754092973636E-003   5.9153095499256958E-002
  -1.6923918146673343E-002   4.7965982665518769E-003   5.9104414964213620E-002
  -1.5599034689410221E-002   4.3944945963503013E-003   5.9268597050840699E-002
  -1.4274151232147092E-002   3.9712643986929974E-003   5.9645641759138335E-002
  -2.3537508944183473E-002   6.6967644350860445E-003   5.5910067653632878E-002
  -2.1969276250680056E-002   6.2654380157886047E-003   5.5558241624725724E-002
  -2.0401043557176670E-002   5.8201422571352440E-003   5.5480251446628479E-002
  -1.8832810863673236E-002   5.3608771591261879E-003   5.5676097119341537E-002
  -1.7264578170169843E-002   4.8876427217613427E-003   5.6145778642864019E-002
  -2.7604554380524143E-002   7.8561028455850779E-003   5.2330442253236416E-002
  -2.5731999221641065E-002   7.3533006222796793E-003   5.1895490540236427E-002
  -2.3859444062757994E-002   6.8436862477186458E-003   5.1795347907185832E-002
  -2.1986888903874836E-002   6.3272597219020347E-003   5.2030014354084851E-002
  -2.0114333744991841E-002   5.8040210448296325E-003   5.2599489880933006E-002
  -3.1774821370221751E-002   9.0154412560840558E-003   4.8675762454782279E-002
  -2.9536970516819541E-002   8.4411632287709204E-003   4.8164842245789485E-002
  -2.7299119663417332E-002   7.8672302383020060E-003   4.8049704345885597E-002
  -2.5061268810015178E-002   7.2936422846777323E-003   4.8330348755070404E-002
  -2.2823417956612913E-002   6.7203993678979224E-003   4.9006775473344089E-002
  -5.7151609456203761E-002   0.0000000000000000        3.4691095132050070E-002
  -5.7942019243800630E-002   2.0842330758071032E-003   3.8343445932077530E-002
  -5.8732429031397478E-002   4.1375953237824028E-003   4.2209575280047831E-002
  -5.9522838818994325E-002   6.1600867439258970E-003   4.6289483175960974E-002
  -6.0313248606591194E-002   8.1517073362375909E-003   5.0583169619816966E-002
  -6.5819900180966770E-002   0.0000000000000000        3.7212419928663004E-002
  -6.6625602241649040E-002   2.9142169639796694E-003   4.0835292189522435E-002
  -6.7431304302331324E-002   5.7709056489129431E-003   4.4213801356268206E-002
  -6.8237006363013594E-002   8.5700660547998186E-003   4.7347947428900278E-002
  -6.9042708423695864E-002   1.1311698181640305E-002   5.0237730407418697E-002
  -7.4244399070430456E-002   0.0000000000000000        4.0577057339055804E-002
  -7.5523535046254642E-002   3.7442008521522347E-003   4.4143793609532612E-002
  -7.6802671022078856E-002   7.4042159740434826E-003   4.7008025143839241E-002
  -7.8081806997903083E-002   1.0980045365673742E-002   4.9169751941975669E-002
  -7.9360942973727269E-002   1.4471689027043018E-002   5.0628974003941909E-002
  -8.2425106124594805E-002   0.0000000000000000        4.4785007363228463E-002
  -8.4635817657617463E-002   4.5741847403248000E-003   4.8268950192108064E-002
  -8.6846529190640120E-002   9.0375262991740229E-003   5.0592246642760956E-002
  -8.9057240723662751E-002   1.3390024676547667E-002   5.1754896715187154E-002
  -9.1267952256685436E-002   1.7631679872445738E-002   5.1756900409386637E-002
  -9.0362021343459831E-002   0.0000000000000000        4.9836270001180981E-002
  -9.3962450075737447E-002   5.4041686284973661E-003   5.3210761937248781E-002
  -9.7562878808015063E-002   1.0670836624304562E-002   5.4966465853033351E-002
 -0.10116330754029268        1.5800003987421589E-002   5.5103381748534706E-002
 -0.10476373627257030        2.0791670717848442E-002   5.3621509623752839E-002
  -6.0313248606591194E-002   8.1517073362375909E-003   5.0583169619816966E-002
  -6.0612004598893501E-002   1.0030675272520252E-002   5.1521352524027064E-002
  -6.0910760591195802E-002   1.1715208724576614E-002   5.2246349986272145E-002
  -6.1209516583498075E-002   1.3205307692406732E-002   5.2758162006552180E-002
  -6.1508272575800396E-002   1.4500972176010526E-002   5.3056788584867148E-002
  -6.9042708423695864E-002   1.1311698181640305E-002   5.0237730407418697E-002
  -6.9316705640648874E-002   1.3756265551571001E-002   4.9459564936516688E-002
  -6.9590702857601813E-002   1.5664231686728421E-002   4.8944102458278377E-002
  -6.9864700074554781E-002   1.7035596587112657E-002   4.8691342972703756E-002
  -7.0138697291507776E-002   1.7870360252723642E-002   4.8701286479792848E-002
  -7.9360942973727269E-002   1.4471689027043018E-002   5.0628974003941909E-002
  -7.9134292980702195E-002   1.7481855830621718E-002   4.7792293407380851E-002
  -7.8907642987677093E-002   1.9613254648880217E-002   4.5694204238112220E-002
  -7.8680992994652019E-002   2.0865885481818568E-002   4.4334706496136030E-002
  -7.8454343001626917E-002   2.1239748329436724E-002   4.3713800181452267E-002
  -9.1267952256685436E-002   1.7631679872445738E-002   5.1756900409386637E-002
  -9.0064766619053535E-002   2.1207446109672453E-002   4.6519537936619559E-002
  -8.8861580981421634E-002   2.3562277611032051E-002   4.2496655325773625E-002
  -8.7658395343789719E-002   2.4696174376524476E-002   3.9688252576848916E-002
  -8.6455209706157846E-002   2.4609136406149833E-002   3.8094329689845365E-002
 -0.10476373627257030        2.0791670717848442E-002   5.3621509623752839E-002
 -0.10210812655570285        2.4933036388723177E-002   4.5641298524232821E-002
  -9.9452516838835409E-002   2.7511300573183819E-002   3.9351455721262661E-002
  -9.6796907121967937E-002   2.8526463271230405E-002   3.4751981214842499E-002
  -9.4141297405100507E-002   2.7978524482862921E-002   3.1842875004972182E-002
  -6.1508272575800396E-002   1.4500972176010526E-002   5.3056788584867148E-002
  -6.0190455958214220E-002   1.5505356581580317E-002   5.1649106765512216E-002
  -5.8872639340628037E-002   1.6121615315308375E-002   5.0693670166467281E-002
  -5.7554822723041882E-002   1.6349748377194655E-002   5.0190478787732286E-002
  -5.6237006105455692E-002   1.6189755767239231E-002   5.0139532629307274E-002
  -7.0138697291507776E-002   1.7870360252723642E-002   4.8701286479792848E-002
  -6.8415292789625881E-002   1.8325365165804415E-002   4.7256205358947444E-002
  -6.6691888287744014E-002   1.8557453808598037E-002   4.6170054786383488E-002
  -6.4968483785862119E-002   1.8566626181104506E-002   4.5442834762100898E-002
  -6.3245079283980210E-002   1.8352882283323796E-002   4.5074545286099846E-002
  -7.8454343001626917E-002   2.1239748329436724E-002   4.3713800181452267E-002
  -7.6418665287477885E-002   2.1145373750028496E-002   4.2396529160670958E-002
  -7.4382987573328826E-002   2.0993292301887709E-002   4.1344874016142522E-002
  -7.2347309859179781E-002   2.0783503985014298E-002   4.0558834747866979E-002
  -7.0311632145030736E-002   2.0516008799408285E-002   4.0038411355844364E-002
  -8.6455209706157846E-002   2.4609136406149833E-002   3.8094329689845365E-002
  -8.4200573451770122E-002   2.3965382334252591E-002   3.7070078170682745E-002
  -8.1945937197382440E-002   2.3429130795177368E-002   3.6218127855744443E-002
  -7.9691300942994744E-002   2.3000381788924079E-002   3.5538478745030501E-002
  -7.7436664688607035E-002   2.2679135315492840E-002   3.5031130838541001E-002
  -9.4141297405100507E-002   2.7978524482862921E-002   3.1842875004972182E-002
  -9.1761017282502702E-002   2.6785390918476686E-002   3.1276852388982784E-002
  -8.9380737159904911E-002   2.5864969288467030E-002   3.0789816305189163E-002
  -8.7000457037307133E-002   2.5217259592833923E-002   3.0381766753591478E-002
  -8.4620176914709314E-002   2.4842261831577311E-002   3.0052703734189556E-002
  -5.6237006105455692E-002   1.6189755767239231E-002   5.0139532629307274E-002
  -5.4721664806751155E-002   1.5841255478328042E-002   4.9824961071147977E-002
  -5.3206323508046605E-002   1.5503865503346776E-002   4.9658030356176254E-002
  -5.1690982209342068E-002   1.5177585842295633E-002   4.9638740484392166E-002
  -5.0175640910637531E-002   1.4862416495174474E-002   4.9767091455795553E-002
  -6.3245079283980210E-002   1.8352882283323796E-002   4.5074545286099846E-002
  -6.1562442964552717E-002   1.8012912558781326E-002   4.4711935688296907E-002
  -5.9879806645125176E-002   1.7643407451002541E-002   4.4536275288752342E-002
  -5.8197170325697642E-002   1.7244366959987469E-002   4.4547564087466206E-002
  -5.6514534006270115E-002   1.6815791085736054E-002   4.4745802084438485E-002
  -7.0311632145030736E-002   2.0516008799408285E-002   4.0038411355844364E-002
  -6.8422392449809355E-002   2.0184569639234679E-002   3.9587118021231479E-002
  -6.6533152754588015E-002   1.9782949398658357E-002   3.9362082239947735E-002
  -6.4643913059366648E-002   1.9311148077679318E-002   3.9363304011993283E-002
  -6.2754673364145280E-002   1.8769165676297592E-002   3.9590783337368034E-002
  -7.7436664688607035E-002   2.2679135315492840E-002   3.5031130838541001E-002
  -7.5301513262521061E-002   2.2356226719687997E-002   3.4450508069951674E-002
  -7.3166361836435087E-002   2.1922491346314136E-002   3.4135451209762378E-002
  -7.1031210410349099E-002   2.1377929195371143E-002   3.4085960257973134E-002
  -6.8896058984263125E-002   2.0722540266859178E-002   3.4302035214583866E-002
  -8.4620176914709314E-002   2.4842261831577311E-002   3.0052703734189556E-002
  -8.2199805402687898E-002   2.4527883800141329E-002   2.9302105834457470E-002
  -7.9779433890666468E-002   2.4062033293969956E-002   2.8856382198196293E-002
  -7.7359062378645038E-002   2.3444710313062989E-002   2.8715532825405878E-002
  -7.4938690866623608E-002   2.2675914857420681E-002   2.8879557716086440E-002
  -5.0175640910637531E-002   1.4862416495174474E-002   4.9767091455795553E-002
  -4.8674042153709428E-002   1.4525771497092943E-002   4.9310791667167175E-002
  -4.7172443396781311E-002   1.4135064883160499E-002   4.9076594885744021E-002
  -4.5670844639853207E-002   1.3690296653377102E-002   4.9064501111526028E-002
  -4.4169245882925090E-002   1.3191466807742747E-002   4.9274510344513245E-002
  -5.6514534006270115E-002   1.6815791085736054E-002   4.4745802084438485E-002
  -5.4801020775752288E-002   1.6357917128335231E-002   4.4336506300495362E-002
  -5.3087507545234412E-002   1.5870982387871935E-002   4.4128936456526449E-002
  -5.1373994314716565E-002   1.5354986864346110E-002   4.4123092552531815E-002
  -4.9660481084198717E-002   1.4809930557757922E-002   4.4318974588511528E-002
  -6.2754673364145280E-002   1.8769165676297592E-002   3.9590783337368034E-002
  -6.0849622727268661E-002   1.8190062759577547E-002   3.9253492390898481E-002
  -5.8944572090391986E-002   1.7606899892583395E-002   3.9097550317172325E-002
  -5.7039521453515318E-002   1.7019677075315227E-002   3.9122957116189572E-002
  -5.5134470816638699E-002   1.6428394307773042E-002   3.9329712787950055E-002
  -6.8896058984263125E-002   2.0722540266859178E-002   3.4302035214583866E-002
  -6.6819848008258589E-002   2.0022208390819793E-002   3.4061749938376532E-002
  -6.4743637032254026E-002   1.9342817397294799E-002   3.3982436467681572E-002
  -6.2667426056249489E-002   1.8684367286284320E-002   3.4064094802498945E-002
  -6.0591215080244960E-002   1.8046858057788107E-002   3.4306724942828881E-002
  -7.4938690866623608E-002   2.2675914857420681E-002   2.8879557716086440E-002
  -7.2711696618722038E-002   2.1854354022062178E-002   2.8761278942929513E-002
  -7.0484702370820537E-002   2.1078734902006270E-002   2.8783594908054225E-002
  -6.8257708122919009E-002   2.0349057497253360E-002   2.8946505611460428E-002
  -6.6030713875017466E-002   1.9665321807803282E-002   2.9250011053148062E-002
  -4.4169245882925090E-002   1.3191466807742747E-002   4.9274510344513245E-002
  -4.2368839851124163E-002   1.2669607387344572E-002   4.8921670144073948E-002
  -4.0568433819323235E-002   1.2155750433269594E-002   4.8779667787008790E-002
  -3.8768027787522329E-002   1.1649895945517613E-002   4.8848503273317814E-002
  -3.6967621755721380E-002   1.1152043924089083E-002   4.9128176603001006E-002
  -4.9660481084198717E-002   1.4809930557757922E-002   4.4318974588511528E-002
  -4.7649981252865674E-002   1.4250892498599746E-002   4.3987185685186794E-002
  -4.5639481421532610E-002   1.3692951717364343E-002   4.3864746537552179E-002
  -4.3628981590199581E-002   1.3136108214051700E-002   4.3951657145607781E-002
  -4.1618481758866462E-002   1.2580361988661637E-002   4.4247917509353363E-002
  -5.5134470816638699E-002   1.6428394307773042E-002   3.9329712787950055E-002
  -5.2915365273457554E-002   1.5832177609854947E-002   3.9012069993339588E-002
  -5.0696259730276444E-002   1.5230153001459155E-002   3.8902288866735017E-002
  -4.8477154187095271E-002   1.4622320482585624E-002   3.9000369408136545E-002
  -4.6258048643914175E-002   1.4008680053234301E-002   3.9306311617544179E-002
  -6.0591215080244960E-002   1.8046858057788107E-002   3.4306724942828881E-002
  -5.8164991912899797E-002   1.7413462721110301E-002   3.3996323068532140E-002
  -5.5738768745554640E-002   1.6767354285553992E-002   3.3892294774557290E-002
  -5.3312545578209532E-002   1.6108532751119630E-002   3.3994640060904434E-002
  -5.0886322410864375E-002   1.5436998117806966E-002   3.4303358927573482E-002
  -6.6030713875017466E-002   1.9665321807803282E-002   2.9250011053148062E-002
  -6.3398861171192394E-002   1.8994747832365294E-002   2.8939944910764570E-002
  -6.0767008467367309E-002   1.8304555569648703E-002   2.8834764261018858E-002
  -5.8135155763542230E-002   1.7594745019653520E-002   2.8934469103911092E-002
  -5.5503303059717152E-002   1.6865316182379575E-002   2.9239059439441273E-002
  -3.6967621755721380E-002   1.1152043924089083E-002   4.9128176603001006E-002
  -3.5669421659346459E-002   1.0648118166138143E-002   4.8852087267514721E-002
  -3.4371221562971566E-002   1.0124042468820635E-002   4.8684655130982718E-002
  -3.3073021466596651E-002   9.5798168321358061E-003   4.8625880193405344E-002
  -3.1774821370221751E-002   9.0154412560840558E-003   4.8675762454782279E-002
  -4.1618481758866462E-002   1.2580361988661637E-002   4.4247917509353363E-002
  -4.0204793953042349E-002   1.2018796096896822E-002   4.3973508527439503E-002
  -3.8791106147218174E-002   1.1444493594459593E-002   4.3821417765469689E-002
  -3.7377418341394034E-002   1.0857454481349879E-002   4.3791645223443948E-002
  -3.5963730535569907E-002   1.0257678757568001E-002   4.3884190901362308E-002
  -4.6258048643914175E-002   1.4008680053234301E-002   3.9306311617544179E-002
  -4.4715212107651198E-002   1.3389474027655252E-002   3.9040996317897453E-002
  -4.3172375571388172E-002   1.2764944720098668E-002   3.8911660259184473E-002
  -4.1629539035125160E-002   1.2135092130564009E-002   3.8918303441405150E-002
  -4.0086702498862176E-002   1.1499916259051862E-002   3.9060925864559434E-002
  -5.0886322410864375E-002   1.5436998117806966E-002   3.4303358927573482E-002
  -4.9200676123172950E-002   1.4760151958413695E-002   3.4054550638888681E-002
  -4.7515029835481531E-002   1.4085395845737574E-002   3.3955382612127112E-002
  -4.5829383547790127E-002   1.3412729779778112E-002   3.4005854847288776E-002
  -4.4143737260098750E-002   1.2742153760535821E-002   3.4205967344373658E-002
  -5.5503303059717152E-002   1.6865316182379575E-002   2.9239059439441273E-002
  -5.3661185999607702E-002   1.6130829889172305E-002   2.9014171490413021E-002
  -5.1819068939498239E-002   1.5405846971376647E-002   2.8952584824297606E-002
  -4.9976951879388797E-002   1.4690367428992171E-002   2.9054299441094833E-002
  -4.8134834819279326E-002   1.3984391262019724E-002   2.9319315340805174E-002
  -3.1774821370221751E-002   9.0154412560840558E-003   4.8675762454782279E-002
  -2.9536970516819541E-002   8.4411632287709204E-003   4.8164842245789485E-002
  -2.7299119663417332E-002   7.8672302383020060E-003   4.8049704345885597E-002
  -2.5061268810015178E-002   7.2936422846777323E-003   4.8330348755070404E-002
  -2.2823417956612913E-002   6.7203993678979224E-003   4.9006775473344089E-002
  -3.5963730535569907E-002   1.0257678757568001E-002   4.3884190901362308E-002
  -3.3368561732508087E-002   9.6480040756149466E-003   4.3397385400583494E-002
  -3.0773392929446308E-002   9.0312680879925389E-003   4.3229433490035163E-002
  -2.8178224126384474E-002   8.4074707947006250E-003   4.3380335169717066E-002
  -2.5583055323322640E-002   7.7766121957392187E-003   4.3850090439629619E-002
  -4.0086702498862176E-002   1.1499916259051862E-002   3.9060925864559434E-002
  -3.7211144464999249E-002   1.0854844922459056E-002   3.8590828729480858E-002
  -3.4335586431136239E-002   1.0195305937683009E-002   3.8362656465774199E-002
  -3.1460028397273382E-002   9.5212993047234882E-003   3.8376409073439727E-002
  -2.8584470363410372E-002   8.8328250235805150E-003   3.8632086552476574E-002
  -4.4143737260098750E-002   1.2742153760535821E-002   3.4205967344373658E-002
  -4.1064718714292993E-002   1.2061685769303124E-002   3.3745172232481316E-002
  -3.7985700168487374E-002   1.1359343787373400E-002   3.3449373273102372E-002
  -3.4906681622681734E-002   1.0635127814746143E-002   3.3318570466236923E-002
  -3.1827663076876060E-002   9.8890378514218114E-003   3.3352763811885178E-002
  -4.8134834819279326E-002   1.3984391262019724E-002   2.9319315340805174E-002
  -4.4929284480389436E-002   1.3268526616147358E-002   2.8860415909585102E-002
  -4.1723734141499574E-002   1.2523381637063916E-002   2.8489583912020083E-002
  -3.8518183802609726E-002   1.1748956324769192E-002   2.8206819348110299E-002
  -3.5312633463719711E-002   1.0945250679263108E-002   2.8012122217855318E-002
  -9.0362021343459831E-002   0.0000000000000000        4.9836270001180981E-002
  -9.3962450075737447E-002   5.4041686284973661E-003   5.3210761937248781E-002
  -9.7562878808015063E-002   1.0670836624304562E-002   5.4966465853033351E-002
 -0.10116330754029268        1.5800003987421589E-002   5.5103381748534706E-002
 -0.10476373627257030        2.0791670717848442E-002   5.3621509623752839E-002
 -0.10329347817461346        0.0000000000000000        5.8664354088070900E-002
 -0.10683113011707268        1.0884782667092027E-002   5.2120318896173315E-002
 -0.11036878205953188        1.9172632210493340E-002   4.7320625304195771E-002
 -0.11390643400199109        2.4863548630203937E-002   4.4265273312138295E-002
 -0.11744408594445029        2.7957531926223828E-002   4.2954262920000881E-002
 -0.12645781006564369        0.0000000000000000        7.4202768459055754E-002
 -0.12656955559808122        1.6365396705686687E-002   5.5280773648192241E-002
 -0.12668130113051873        2.7674427796682114E-002   4.1466250057452039E-002
 -0.12679304666295624        3.3927093272986292E-002   3.2759197686835190E-002
 -0.12690479219539375        3.5123393134599189E-002   2.9159616536341647E-002
 -0.15985501701655050        0.0000000000000000        9.6451513114135551E-002
 -0.15317772651876307        2.1846010744281351E-002   6.2692126193305553E-002
 -0.14650043602097559        3.6176223382870895E-002   3.7403340112802157E-002
 -0.13982314552318817        4.2990637915768619E-002   2.0585154872625366E-002
 -0.13314585502540072        4.2289254342974550E-002   1.2237570472775159E-002
 -0.20348509902733389        0.0000000000000000       0.12541058805331026     
 -0.18665564287911821        2.7326624782876004E-002   7.4354376531513250E-002
 -0.16982618673090252        4.4678018969059666E-002   3.5131895470246109E-002
 -0.15299673058268684        5.2054182558550988E-002   7.7431448695088195E-003
 -0.13616727443447113        4.9455115551349946E-002  -7.8118752706985775E-003
 -0.10476373627257030        2.0791670717848442E-002   5.3621509623752839E-002
 -0.10210812655570285        2.4933036388723177E-002   4.5641298524232821E-002
  -9.9452516838835409E-002   2.7511300573183819E-002   3.9351455721262661E-002
  -9.6796907121967937E-002   2.8526463271230405E-002   3.4751981214842499E-002
  -9.4141297405100507E-002   2.7978524482862921E-002   3.1842875004972182E-002
 -0.11744408594445029        2.7957531926223828E-002   4.2954262920000881E-002
 -0.11348614527476644        2.9429333344186882E-002   3.6700391838265352E-002
 -0.10952820460508257        3.0253704129727069E-002   3.1360814365612673E-002
 -0.10557026393539871        3.0430644282844331E-002   2.6935530502042945E-002
 -0.10161232326571489        2.9960153803538697E-002   2.3424540247556008E-002
 -0.12690479219539375        3.5123393134599189E-002   2.9159616536341647E-002
 -0.12242059526036053        3.3925630299650601E-002   2.5547756326381808E-002
 -0.11793639832532732        3.2996107686270280E-002   2.2074115038037811E-002
 -0.11345220139029412        3.2334825294458226E-002   1.8738692671309645E-002
 -0.10896800445526088        3.1941783124214501E-002   1.5541489226197344E-002
 -0.13314585502540072        4.2289254342974550E-002   1.2237570472775159E-002
 -0.12891147651248516        3.8421927255114327E-002   1.2183391988582164E-002
 -0.12467709799956962        3.5738511242813513E-002   1.1491357738537988E-002
 -0.12044271948665401        3.4239006306072177E-002   1.0161467722642724E-002
 -0.11620834097373850        3.3923412444890277E-002   8.1937219408961051E-003
 -0.13616727443447113        4.9455115551349946E-002  -7.8118752706985775E-003
 -0.13295878903114028        4.2918224210578004E-002  -3.3927011751335202E-003
 -0.12975030362780943        3.8480914799356752E-002  -3.8745753288671643E-004
 -0.12654181822447860        3.6143187317686030E-002   1.2038556560420295E-003
 -0.12333333282114772        3.5905041765566054E-002   1.3812383916523563E-003
  -9.4141297405100507E-002   2.7978524482862921E-002   3.1842875004972182E-002
  -9.1761017282502702E-002   2.6785390918476686E-002   3.1276852388982784E-002
  -8.9380737159904911E-002   2.5864969288467030E-002   3.0789816305189163E-002
  -8.7000457037307133E-002   2.5217259592833923E-002   3.0381766753591478E-002
  -8.4620176914709314E-002   2.4842261831577311E-002   3.0052703734189556E-002
 -0.10161232326571489        2.9960153803538697E-002   2.3424540247556008E-002
  -9.9138743593253739E-002   2.9190753475666936E-002   2.3149336755136113E-002
  -9.6665163920792579E-002   2.8470964083085751E-002   2.2981745830246959E-002
  -9.4191584248331434E-002   2.7800785625795153E-002   2.2921767472888797E-002
  -9.1718004575870316E-002   2.7180218103795159E-002   2.2969401683061400E-002
 -0.10896800445526088        3.1941783124214501E-002   1.5541489226197344E-002
 -0.10637249919760133        3.1596116032857190E-002   1.5334003858260854E-002
 -0.10377699393994183        3.1076958877704529E-002   1.5262757093190353E-002
 -0.10118148868228230        3.0384311658756345E-002   1.5327748930985680E-002
  -9.8585983424622728E-002   2.9518174376012993E-002   1.5528979371646864E-002
 -0.11620834097373850        3.3923412444890277E-002   8.1937219408961051E-003
 -0.11346228409554558        3.4001478590047381E-002   7.8308536983572284E-003
 -0.11071622721735265        3.3682953672323296E-002   7.6328500940192143E-003
 -0.10797017033915975        3.2967837691717669E-002   7.5997111278820880E-003
 -0.10522411346096679        3.1856130648230778E-002   7.7314367999458244E-003
 -0.12333333282114772        3.5905041765566054E-002   1.3812383916523563E-003
 -0.12040809828708637        3.6406841147237703E-002   6.3988627542485577E-004
 -0.11748286375302505        3.6288948466942007E-002   9.2024832733440809E-005
 -0.11455762921896370        3.5551363724678868E-002  -2.6234593642203950E-004
 -0.11163239468490238        3.4194086920448619E-002  -4.2322603204164588E-004
  -8.4620176914709314E-002   2.4842261831577311E-002   3.0052703734189556E-002
  -8.2199805402687898E-002   2.4527883800141329E-002   2.9302105834457470E-002
  -7.9779433890666468E-002   2.4062033293969956E-002   2.8856382198196293E-002
  -7.7359062378645038E-002   2.3444710313062989E-002   2.8715532825405878E-002
  -7.4938690866623608E-002   2.2675914857420681E-002   2.8879557716086440E-002
  -9.1718004575870316E-002   2.7180218103795159E-002   2.2969401683061400E-002
  -8.9025496923846981E-002   2.6560377271412625E-002   2.2316099456873295E-002
  -8.6332989271823674E-002   2.5892378882974489E-002   2.1902195247218141E-002
  -8.3640481619800339E-002   2.5176222938480701E-002   2.1727689054095879E-002
  -8.0947973967777018E-002   2.4411909437931201E-002   2.1792580877506573E-002
  -9.8585983424622728E-002   2.9518174376012993E-002   1.5528979371646864E-002
  -9.5686815879535495E-002   2.8592870742683914E-002   1.5076287737682530E-002
  -9.2787648334448247E-002   2.7722724471978995E-002   1.4797517873313210E-002
  -8.9888480789360972E-002   2.6907735563898270E-002   1.4692669778538888E-002
  -8.6989313244273697E-002   2.6147904018441789E-002   1.4761743453359531E-002
 -0.10522411346096679        3.1856130648230778E-002   7.7314367999458244E-003
 -0.10218376226975351        3.0625364213955206E-002   7.5826706768852307E-003
  -9.9143411078540231E-002   2.9553070060983528E-002   7.5423500764814893E-003
  -9.6103059887326911E-002   2.8639248189315913E-002   7.6104749987347840E-003
  -9.3062708696113619E-002   2.7883898598952371E-002   7.7870454436453056E-003
 -0.11163239468490238        3.4194086920448619E-002  -4.2322603204164588E-004
 -0.10851633609450095        3.2657857685226416E-002  -1.6475172551891348E-004
 -0.10540027750409961        3.1383415649988075E-002   1.3669185672290918E-004
 -0.10228421891369822        3.0370760814733565E-002   4.8110471468389843E-004
  -9.9168160323296839E-002   2.9619893179462897E-002   8.6848684836376977E-004
  -7.4938690866623608E-002   2.2675914857420681E-002   2.8879557716086440E-002
  -7.2711696618722038E-002   2.1854354022062178E-002   2.8761278942929513E-002
  -7.0484702370820537E-002   2.1078734902006270E-002   2.8783594908054225E-002
  -6.8257708122919009E-002   2.0349057497253360E-002   2.8946505611460428E-002
  -6.6030713875017466E-002   1.9665321807803282E-002   2.9250011053148062E-002
  -8.0947973967777018E-002   2.4411909437931201E-002   2.1792580877506573E-002
  -7.8579245501816455E-002   2.3626713510152858E-002   2.1669552617234161E-002
  -7.6210517035855851E-002   2.2847910283972067E-002   2.1689398054798373E-002
  -7.3841788569895234E-002   2.2075499759388974E-002   2.1852117190199173E-002
  -7.1473060103934671E-002   2.1309481936403585E-002   2.2157710023436500E-002
  -8.6989313244273697E-002   2.6147904018441789E-002   1.4761743453359531E-002
  -8.4476571600699019E-002   2.5399072998243746E-002   1.4594416692266521E-002
  -8.1963829957124354E-002   2.4617085665937750E-002   1.4572242588565199E-002
  -7.9451088313549689E-002   2.3801942021524528E-002   1.4695221142255301E-002
  -7.6938346669975011E-002   2.2953642065003804E-002   1.4963352353337192E-002
  -9.3062708696113619E-002   2.7883898598952371E-002   7.7870454436453056E-003
  -9.0403674915369825E-002   2.7171432486334419E-002   7.5358711680262383E-003
  -8.7744641134625989E-002   2.6386261047903682E-002   7.4321285093542208E-003
  -8.5085607353882195E-002   2.5528384283660364E-002   7.4758174676285913E-003
  -8.2426573573138387E-002   2.4597802193604010E-002   7.6669380428497323E-003
  -9.9168160323296839E-002   2.9619893179462897E-002   8.6848684836376977E-004
  -9.6360555445828833E-002   2.8943791974425204E-002   4.9391604451384796E-004
  -9.3552950568360799E-002   2.8155436429869340E-002   2.6905581716558935E-004
  -9.0745345690892779E-002   2.7254826545795682E-002   1.9390616631935823E-004
  -8.7937740813424758E-002   2.6241962322204326E-002   2.6846709197436702E-004
  -6.6030713875017466E-002   1.9665321807803282E-002   2.9250011053148062E-002
  -6.3398861171192394E-002   1.8994747832365294E-002   2.8939944910764570E-002
  -6.0767008467367309E-002   1.8304555569648703E-002   2.8834764261018858E-002
  -5.8135155763542230E-002   1.7594745019653520E-002   2.8934469103911092E-002
  -5.5503303059717152E-002   1.6865316182379575E-002   2.9239059439441273E-002
  -7.1473060103934671E-002   2.1309481936403585E-002   2.2157710023436500E-002
  -6.8632313324340194E-002   2.0547154425454850E-002   2.1819396944659980E-002
  -6.5791566544745661E-002   1.9785814836981927E-002   2.1693986524784478E-002
  -6.2950819765151156E-002   1.9025463170984826E-002   2.1781478763809668E-002
  -6.0110072985556720E-002   1.8266099427463489E-002   2.2081873661735973E-002
  -7.6938346669975011E-002   2.2953642065003804E-002   1.4963352353337192E-002
  -7.3880688648348056E-002   2.2099561018544475E-002   1.4617398547922142E-002
  -7.0823030626721115E-002   2.1267074104315047E-002   1.4492364567670925E-002
  -6.7765372605094173E-002   2.0456181322316247E-002   1.4588250412583662E-002
  -6.4707714583467218E-002   1.9666882672547487E-002   1.4905056082660489E-002
  -8.2426573573138387E-002   2.4597802193604010E-002   7.6669380428497323E-003
  -7.9143987143215952E-002   2.3651967611633955E-002   7.3339497205505734E-003
  -7.5861400713293572E-002   2.2748333371648301E-002   7.2298983896781684E-003
  -7.2578814283371221E-002   2.1886899473647498E-002   7.3547840502330439E-003
  -6.9296227853448772E-002   2.1067665917631331E-002   7.7086067022147410E-003
  -8.7937740813424758E-002   2.6241962322204326E-002   2.6846709197436702E-004
  -8.4422208808943966E-002   2.5204374204723545E-002  -3.0949537454583176E-005
  -8.0906676804463062E-002   2.4229592638981501E-002  -9.3412009193327705E-005
  -7.7391144799982159E-002   2.3317617624978859E-002   8.1079676757467301E-005
  -7.3875612795501366E-002   2.2468449162715287E-002   4.9252552039880104E-004
  -5.5503303059717152E-002   1.6865316182379575E-002   2.9239059439441273E-002
  -5.3661185999607702E-002   1.6130829889172305E-002   2.9014171490413021E-002
  -5.1819068939498239E-002   1.5405846971376647E-002   2.8952584824297606E-002
  -4.9976951879388797E-002   1.4690367428992171E-002   2.9054299441094833E-002
  -4.8134834819279326E-002   1.3984391262019724E-002   2.9319315340805174E-002
  -6.0110072985556720E-002   1.8266099427463489E-002   2.2081873661735973E-002
  -5.8115687442012398E-002   1.7505579921522380E-002   2.1858183205206827E-002
  -5.6121301898467986E-002   1.6741760968265726E-002   2.1775728432634672E-002
  -5.4126916354923629E-002   1.5974642567693372E-002   2.1834509344019412E-002
  -5.2132530811379252E-002   1.5204224719805370E-002   2.2034525939361338E-002
  -6.4707714583467218E-002   1.9666882672547487E-002   1.4905056082660489E-002
  -6.2583126155443800E-002   1.8880329953872482E-002   1.4669760295903167E-002
  -6.0458537727420353E-002   1.8077674965154639E-002   1.4553634594147061E-002
  -5.8333949299396927E-002   1.7258917706394185E-002   1.4556678977392191E-002
  -5.6209360871373473E-002   1.6424058177591100E-002   1.4678893445638205E-002
  -6.9296227853448772E-002   2.1067665917631331E-002   7.7086067022147410E-003
  -6.7063502139902073E-002   2.0255079986222460E-002   7.4489027625023081E-003
  -6.4830776426355430E-002   1.9413588962043690E-002   7.2863033088349516E-003
  -6.2598050712808814E-002   1.8543192845095081E-002   7.2208083412130634E-003
  -6.0365324999262088E-002   1.7643891635376732E-002   7.2524178596366402E-003
  -7.3875612795501366E-002   2.2468449162715287E-002   4.9252552039880104E-004
  -7.1556815395387274E-002   2.1629830018572660E-002   1.9561060500383753E-004
  -6.9238017995273182E-002   2.0749502958932520E-002  -2.6265423301474744E-005
  -6.6919220595159090E-002   1.9827467983796226E-002  -1.7310256451742723E-004
  -6.4600423195044998E-002   1.8863725093162365E-002  -2.4490081864403379E-004
  -4.8134834819279326E-002   1.3984391262019724E-002   2.9319315340805174E-002
  -4.4929284480389436E-002   1.3268526616147358E-002   2.8860415909585102E-002
  -4.1723734141499574E-002   1.2523381637063916E-002   2.8489583912020083E-002
  -3.8518183802609726E-002   1.1748956324769192E-002   2.8206819348110299E-002
  -3.5312633463719711E-002   1.0945250679263108E-002   2.8012122217855318E-002
  -5.2132530811379252E-002   1.5204224719805370E-002   2.2034525939361338E-002
  -4.8789060486563396E-002   1.4428695393754076E-002   2.1528243071406689E-002
  -4.5445590161747540E-002   1.3646242558691637E-002   2.1209732741649084E-002
  -4.2102119836931684E-002   1.2856866214618210E-002   2.1078994950088470E-002
  -3.8758649512115773E-002   1.2060566361533520E-002   2.1136029696724790E-002
  -5.6209360871373473E-002   1.6424058177591100E-002   1.4678893445638205E-002
  -5.2628265456089687E-002   1.5588864171361044E-002   1.4147583965149382E-002
  -4.9047170040805867E-002   1.4769103480319519E-002   1.3903752127399284E-002
  -4.5466074625522157E-002   1.3964776104467088E-002   1.3947397932388129E-002
  -4.1884979210238205E-002   1.3175882043803933E-002   1.4278521380115872E-002
  -6.0365324999262088E-002   1.7643891635376732E-002   7.2524178596366402E-003
  -5.6446899388968366E-002   1.6749032948967443E-002   6.7184385908131451E-003
  -5.2528473778674686E-002   1.5891964401947487E-002   6.5716420692705137E-003
  -4.8610048168381076E-002   1.5072685994316312E-002   6.8120282950088007E-003
  -4.4691622558087327E-002   1.4291197726074123E-002   7.4395972680281058E-003
  -6.4600423195044998E-002   1.8863725093162365E-002  -2.4490081864403379E-004
  -6.0244962285199488E-002   1.7909201726574286E-002  -7.5919305160160322E-004
  -5.5889501375353978E-002   1.7014825323575095E-002  -7.8659743273670757E-004
  -5.1534040465508524E-002   1.6180595884165143E-002  -3.2711396204874316E-004
  -4.7178579555662958E-002   1.5406513408344757E-002   6.1925736046175572E-004
 </DataArray>
 </PointData>
 </Piece>
 <Piece  NumberOfPoints="          1600 "  NumberOfCells="         1024 ">
 <Points>
 <DataArray  type="Float64" NumberOfComponents="3"  format="ascii" >
  0.50000000000000000        0.0000000000000000        0.0000000000000000     
  0.53125000000000000        0.0000000000000000        0.0000000000000000     
  0.56250000000000000        0.0000000000000000        0.0000000000000000     
  0.59375000000000000        0.0000000000000000        0.0000000000000000     
  0.62500000000000000        0.0000000000000000        0.0000000000000000     
  0.50000000000000000        3.1250000000000000E-002   0.0000000000000000     
  0.53125000000000000        3.1250000000000000E-002   0.0000000000000000     
  0.56250000000000000        3.1250000000000000E-002   0.0000000000000000     
  0.59375000000000000        3.1250000000000000E-002   0.0000000000000000     
  0.62500000000000000        3.1250000000000000E-002   0.0000000000000000     
  0.50000000000000000        6.2500000000000000E-002   0.0000000000000000     
  0.53125000000000000        6.2500000000000000E-002   0.0000000000000000     
  0.56250000000000000        6.2500000000000000E-002   0.0000000000000000     
  0.59375000000000000        6.2500000000000000E-002   0.0000000000000000     
  0.62500000000000000        6.2500000000000000E-002   0.0000000000000000     
  0.50000000000000000        9.3750000000000000E-002   0.0000000000000000     
  0.53125000000000000        9.3750000000000000E-002   0.0000000000000000     
  0.56250000000000000        9.3750000000000000E-002   0.0000000000000000     
  0.59375000000000000        9.3750000000000000E-002   0.0000000000000000     
  0.62500000000000000        9.3750000000000000E-002   0.0000000000000000     
  0.50000000000000000       0.12500000000000000        0.0000000000000000     
  0.53125000000000000       0.12500000000000000        0.0000000000000000     
  0.56250000000000000       0.12500000000000000        0.0000000000000000     
  0.59375000000000000       0.12500000000000000        0.0000000000000000     
  0.62500000000000000       0.12500000000000000        0.0000000000000000     
  0.62500000000000000        0.0000000000000000        0.0000000000000000     
  0.65625000000000000        0.0000000000000000        0.0000000000000000     
  0.68750000000000000        0.0000000000000000        0.0000000000000000     
  0.71875000000000000        0.0000000000000000        0.0000000000000000     
  0.75000000000000000        0.0000000000000000        0.0000000000000000     
  0.62500000000000000        3.1250000000000000E-002   0.0000000000000000     
  0.65625000000000000        3.1250000000000000E-002   0.0000000000000000     
  0.68750000000000000        3.1250000000000000E-002   0.0000000000000000     
  0.71875000000000000        3.1250000000000000E-002   0.0000000000000000     
  0.75000000000000000        3.1250000000000000E-002   0.0000000000000000     
  0.62500000000000000        6.2500000000000000E-002   0.0000000000000000     
  0.65625000000000000        6.2500000000000000E-002   0.0000000000000000     
  0.68750000000000000        6.2500000000000000E-002   0.0000000000000000     
  0.71875000000000000        6.2500000000000000E-002   0.0000000000000000     
  0.75000000000000000        6.2500000000000000E-002   0.0000000000000000     
  0.62500000000000000        9.3750000000000000E-002   0.0000000000000000     
  0.65625000000000000        9.3750000000000000E-002   0.0000000000000000     
  0.68750000000000000        9.3750000000000000E-002   0.0000000000000000     
  0.71875000000000000        9.3750000000000000E-002   0.0000000000000000     
  0.75000000000000000        9.3750000000000000E-002   0.0000000000000000     
  0.62500000000000000       0.12500000000000000        0.0000000000000000     
  0.65625000000000000       0.12500000000000000        0.0000000000000000     
  0.68750000000000000       0.12500000000000000        0.0000000000000000     
  0.71875000000000000       0.12500000000000000        0.0000000000000000     
  0.75000000000000000       0.12500000000000000        0.0000000000000000     
  0.75000000000000000        0.0000000000000000        0.0000000000000000     
  0.78125000000000000        0.0000000000000000        0.0000000000000000     
  0.81250000000000000        0.0000000000000000        0.0000000000000000     
  0.84375000000000000        0.0000000000000000        0.0000000000000000     
  0.87500000000000000        0.0000000000000000        0.0000000000000000     
  0.75000000000000000        3.1250000000000000E-002   0.0000000000000000     
  0.78125000000000000        3.1250000000000000E-002   0.0000000000000000     
  0.81250000000000000        3.1250000000000000E-002   0.0000000000000000     
  0.84375000000000000        3.1250000000000000E-002   0.0000000000000000     
  0.87500000000000000        3.1250000000000000E-002   0.0000000000000000     
  0.75000000000000000        6.2500000000000000E-002   0.0000000000000000     
  0.78125000000000000        6.2500000000000000E-002   0.0000000000000000     
  0.81250000000000000        6.2500000000000000E-002   0.0000000000000000     
  0.84375000000000000        6.2500000000000000E-002   0.0000000000000000     
  0.87500000000000000        6.2500000000000000E-002   0.0000000000000000     
  0.75000000000000000        9.3750000000000000E-002   0.0000000000000000     
  0.78125000000000000        9.3750000000000000E-002   0.0000000000000000     
  0.81250000000000000        9.3750000000000000E-002   0.0000000000000000     
  0.84375000000000000        9.3750000000000000E-002   0.0000000000000000     
  0.87500000000000000        9.3750000000000000E-002   0.0000000000000000     
  0.75000000000000000       0.12500000000000000        0.0000000000000000     
  0.78125000000000000       0.12500000000000000        0.0000000000000000     
  0.81250000000000000       0.12500000000000000        0.0000000000000000     
  0.84375000000000000       0.12500000000000000        0.0000000000000000     
  0.87500000000000000       0.12500000000000000        0.0000000000000000     
  0.87500000000000000        0.0000000000000000        0.0000000000000000     
  0.90625000000000000        0.0000000000000000        0.0000000000000000     
  0.93750000000000000        0.0000000000000000        0.0000000000000000     
  0.96875000000000000        0.0000000000000000        0.0000000000000000     
   1.0000000000000000        0.0000000000000000        0.0000000000000000     
  0.87500000000000000        3.1250000000000000E-002   0.0000000000000000     
  0.90625000000000000        3.1250000000000000E-002   0.0000000000000000     
  0.93750000000000000        3.1250000000000000E-002   0.0000000000000000     
  0.96875000000000000        3.1250000000000000E-002   0.0000000000000000     
   1.0000000000000000        3.1250000000000000E-002   0.0000000000000000     
  0.87500000000000000        6.2500000000000000E-002   0.0000000000000000     
  0.90625000000000000        6.2500000000000000E-002   0.0000000000000000     
  0.93750000000000000        6.2500000000000000E-002   0.0000000000000000     
  0.96875000000000000        6.2500000000000000E-002   0.0000000000000000     
   1.0000000000000000        6.2500000000000000E-002   0.0000000000000000     
  0.87500000000000000        9.3750000000000000E-002   0.0000000000000000     
  0.90625000000000000        9.3750000000000000E-002   0.0000000000000000     
  0.93750000000000000        9.3750000000000000E-002   0.0000000000000000     
  0.96875000000000000        9.3750000000000000E-002   0.0000000000000000     
   1.0000000000000000        9.3750000000000000E-002   0.0000000000000000     
  0.87500000000000000       0.12500000000000000        0.0000000000000000     
  0.90625000000000000       0.12500000000000000        0.0000000000000000     
  0.93750000000000000       0.12500000000000000        0.0000000000000000     
  0.96875000000000000       0.12500000000000000        0.0000000000000000     
   1.0000000000000000       0.12500000000000000        0.0000000000000000     
   1.0000000000000000        0.0000000000000000        0.0000000000000000     
   1.0312500000000000        0.0000000000000000        0.0000000000000000     
   1.0625000000000000        0.0000000000000000        0.0000000000000000     
   1.0937500000000000        0.0000000000000000        0.0000000000000000     
   1.1250000000000000        0.0000000000000000        0.0000000000000000     
   1.0000000000000000        3.1250000000000000E-002   0.0000000000000000     
   1.0312500000000000        3.1250000000000000E-002   0.0000000000000000     
   1.0625000000000000        3.1250000000000000E-002   0.0000000000000000     
   1.0937500000000000        3.1250000000000000E-002   0.0000000000000000     
   1.1250000000000000        3.1250000000000000E-002   0.0000000000000000     
   1.0000000000000000        6.2500000000000000E-002   0.0000000000000000     
   1.0312500000000000        6.2500000000000000E-002   0.0000000000000000     
   1.0625000000000000        6.2500000000000000E-002   0.0000000000000000     
   1.0937500000000000        6.2500000000000000E-002   0.0000000000000000     
   1.1250000000000000        6.2500000000000000E-002   0.0000000000000000     
   1.0000000000000000        9.3750000000000000E-002   0.0000000000000000     
   1.0312500000000000        9.3750000000000000E-002   0.0000000000000000     
   1.0625000000000000        9.3750000000000000E-002   0.0000000000000000     
   1.0937500000000000        9.3750000000000000E-002   0.0000000000000000     
   1.1250000000000000        9.3750000000000000E-002   0.0000000000000000     
   1.0000000000000000       0.12500000000000000        0.0000000000000000     
   1.0312500000000000       0.12500000000000000        0.0000000000000000     
   1.0625000000000000       0.12500000000000000        0.0000000000000000     
   1.0937500000000000       0.12500000000000000        0.0000000000000000     
   1.1250000000000000       0.12500000000000000        0.0000000000000000     
   1.1250000000000000        0.0000000000000000        0.0000000000000000     
   1.1562500000000000        0.0000000000000000        0.0000000000000000     
   1.1875000000000000        0.0000000000000000        0.0000000000000000     
   1.2187500000000000        0.0000000000000000        0.0000000000000000     
   1.2500000000000000        0.0000000000000000        0.0000000000000000     
   1.1250000000000000        3.1250000000000000E-002   0.0000000000000000     
   1.1562500000000000        3.1250000000000000E-002   0.0000000000000000     
   1.1875000000000000        3.1250000000000000E-002   0.0000000000000000     
   1.2187500000000000        3.1250000000000000E-002   0.0000000000000000     
   1.2500000000000000        3.1250000000000000E-002   0.0000000000000000     
   1.1250000000000000        6.2500000000000000E-002   0.0000000000000000     
   1.1562500000000000        6.2500000000000000E-002   0.0000000000000000     
   1.1875000000000000        6.2500000000000000E-002   0.0000000000000000     
   1.2187500000000000        6.2500000000000000E-002   0.0000000000000000     
   1.2500000000000000        6.2500000000000000E-002   0.0000000000000000     
   1.1250000000000000        9.3750000000000000E-002   0.0000000000000000     
   1.1562500000000000        9.3750000000000000E-002   0.0000000000000000     
   1.1875000000000000        9.3750000000000000E-002   0.0000000000000000     
   1.2187500000000000        9.3750000000000000E-002   0.0000000000000000     
   1.2500000000000000        9.3750000000000000E-002   0.0000000000000000     
   1.1250000000000000       0.12500000000000000        0.0000000000000000     
   1.1562500000000000       0.12500000000000000        0.0000000000000000     
   1.1875000000000000       0.12500000000000000        0.0000000000000000     
   1.2187500000000000       0.12500000000000000        0.0000000000000000     
   1.2500000000000000       0.12500000000000000        0.0000000000000000     
   1.2500000000000000        0.0000000000000000        0.0000000000000000     
   1.2812500000000000        0.0000000000000000        0.0000000000000000     
   1.3125000000000000        0.0000000000000000        0.0000000000000000     
   1.3437500000000000        0.0000000000000000        0.0000000000000000     
   1.3750000000000000        0.0000000000000000        0.0000000000000000     
   1.2500000000000000        3.1250000000000000E-002   0.0000000000000000     
   1.2812500000000000        3.1250000000000000E-002   0.0000000000000000     
   1.3125000000000000        3.1250000000000000E-002   0.0000000000000000     
   1.3437500000000000        3.1250000000000000E-002   0.0000000000000000     
   1.3750000000000000        3.1250000000000000E-002   0.0000000000000000     
   1.2500000000000000        6.2500000000000000E-002   0.0000000000000000     
   1.2812500000000000        6.2500000000000000E-002   0.0000000000000000     
   1.3125000000000000        6.2500000000000000E-002   0.0000000000000000     
   1.3437500000000000        6.2500000000000000E-002   0.0000000000000000     
   1.3750000000000000        6.2500000000000000E-002   0.0000000000000000     
   1.2500000000000000        9.3750000000000000E-002   0.0000000000000000     
   1.2812500000000000        9.3750000000000000E-002   0.0000000000000000     
   1.3125000000000000        9.3750000000000000E-002   0.0000000000000000     
   1.3437500000000000        9.3750000000000000E-002   0.0000000000000000     
   1.3750000000000000        9.3750000000000000E-002   0.0000000000000000     
   1.2500000000000000       0.12500000000000000        0.0000000000000000     
   1.2812500000000000       0.12500000000000000        0.0000000000000000     
   1.3125000000000000       0.12500000000000000        0.0000000000000000     
   1.3437500000000000       0.12500000000000000        0.0000000000000000     
   1.3750000000000000       0.12500000000000000        0.0000000000000000     
   1.3750000000000000        0.0000000000000000        0.0000000000000000     
   1.4062500000000000        0.0000000000000000        0.0000000000000000     
   1.4375000000000000        0.0000000000000000        0.0000000000000000     
   1.4687500000000000        0.0000000000000000        0.0000000000000000     
   1.5000000000000000        0.0000000000000000        0.0000000000000000     
   1.3750000000000000        3.1250000000000000E-002   0.0000000000000000     
   1.4062500000000000        3.1250000000000000E-002   0.0000000000000000     
   1.4375000000000000        3.1250000000000000E-002   0.0000000000000000     
   1.4687500000000000        3.1250000000000000E-002   0.0000000000000000     
   1.5000000000000000        3.1250000000000000E-002   0.0000000000000000     
   1.3750000000000000        6.2500000000000000E-002   0.0000000000000000     
   1.4062500000000000        6.2500000000000000E-002   0.0000000000000000     
   1.4375000000000000        6.2500000000000000E-002   0.0000000000000000     
   1.4687500000000000        6.2500000000000000E-002   0.0000000000000000     
   1.5000000000000000        6.2500000000000000E-002   0.0000000000000000     
   1.3750000000000000        9.3750000000000000E-002   0.0000000000000000     
   1.4062500000000000        9.3750000000000000E-002   0.0000000000000000     
   1.4375000000000000        9.3750000000000000E-002   0.0000000000000000     
   1.4687500000000000        9.3750000000000000E-002   0.0000000000000000     
   1.5000000000000000        9.3750000000000000E-002   0.0000000000000000     
   1.3750000000000000       0.12500000000000000        0.0000000000000000     
   1.4062500000000000       0.12500000000000000        0.0000000000000000     
   1.4375000000000000       0.12500000000000000        0.0000000000000000     
   1.4687500000000000       0.12500000000000000        0.0000000000000000     
   1.5000000000000000       0.12500000000000000        0.0000000000000000     
  0.50000000000000000       0.12500000000000000        0.0000000000000000     
  0.53125000000000000       0.12500000000000000        0.0000000000000000     
  0.56250000000000000       0.12500000000000000        0.0000000000000000     
  0.59375000000000000       0.12500000000000000        0.0000000000000000     
  0.62500000000000000       0.12500000000000000        0.0000000000000000     
  0.50000000000000000       0.15625000000000000        0.0000000000000000     
  0.53125000000000000       0.15625000000000000        0.0000000000000000     
  0.56250000000000000       0.15625000000000000        0.0000000000000000     
  0.59375000000000000       0.15625000000000000        0.0000000000000000     
  0.62500000000000000       0.15625000000000000        0.0000000000000000     
  0.50000000000000000       0.18750000000000000        0.0000000000000000     
  0.53125000000000000       0.18750000000000000        0.0000000000000000     
  0.56250000000000000       0.18750000000000000        0.0000000000000000     
  0.59375000000000000       0.18750000000000000        0.0000000000000000     
  0.62500000000000000       0.18750000000000000        0.0000000000000000     
  0.50000000000000000       0.21875000000000000        0.0000000000000000     
  0.53125000000000000       0.21875000000000000        0.0000000000000000     
  0.56250000000000000       0.21875000000000000        0.0000000000000000     
  0.59375000000000000       0.21875000000000000        0.0000000000000000     
  0.62500000000000000       0.21875000000000000        0.0000000000000000     
  0.50000000000000000       0.25000000000000000        0.0000000000000000     
  0.53125000000000000       0.25000000000000000        0.0000000000000000     
  0.56250000000000000       0.25000000000000000        0.0000000000000000     
  0.59375000000000000       0.25000000000000000        0.0000000000000000     
  0.62500000000000000       0.25000000000000000        0.0000000000000000     
  0.62500000000000000       0.12500000000000000        0.0000000000000000     
  0.65625000000000000       0.12500000000000000        0.0000000000000000     
  0.68750000000000000       0.12500000000000000        0.0000000000000000     
  0.71875000000000000       0.12500000000000000        0.0000000000000000     
  0.75000000000000000       0.12500000000000000        0.0000000000000000     
  0.62500000000000000       0.15625000000000000        0.0000000000000000     
  0.65625000000000000       0.15625000000000000        0.0000000000000000     
  0.68750000000000000       0.15625000000000000        0.0000000000000000     
  0.71875000000000000       0.15625000000000000        0.0000000000000000     
  0.75000000000000000       0.15625000000000000        0.0000000000000000     
  0.62500000000000000       0.18750000000000000        0.0000000000000000     
  0.65625000000000000       0.18750000000000000        0.0000000000000000     
  0.68750000000000000       0.18750000000000000        0.0000000000000000     
  0.71875000000000000       0.18750000000000000        0.0000000000000000     
  0.75000000000000000       0.18750000000000000        0.0000000000000000     
  0.62500000000000000       0.21875000000000000        0.0000000000000000     
  0.65625000000000000       0.21875000000000000        0.0000000000000000     
  0.68750000000000000       0.21875000000000000        0.0000000000000000     
  0.71875000000000000       0.21875000000000000        0.0000000000000000     
  0.75000000000000000       0.21875000000000000        0.0000000000000000     
  0.62500000000000000       0.25000000000000000        0.0000000000000000     
  0.65625000000000000       0.25000000000000000        0.0000000000000000     
  0.68750000000000000       0.25000000000000000        0.0000000000000000     
  0.71875000000000000       0.25000000000000000        0.0000000000000000     
  0.75000000000000000       0.25000000000000000        0.0000000000000000     
  0.75000000000000000       0.12500000000000000        0.0000000000000000     
  0.78125000000000000       0.12500000000000000        0.0000000000000000     
  0.81250000000000000       0.12500000000000000        0.0000000000000000     
  0.84375000000000000       0.12500000000000000        0.0000000000000000     
  0.87500000000000000       0.12500000000000000        0.0000000000000000     
  0.75000000000000000       0.15625000000000000        0.0000000000000000     
  0.78125000000000000       0.15625000000000000        0.0000000000000000     
  0.81250000000000000       0.15625000000000000        0.0000000000000000     
  0.84375000000000000       0.15625000000000000        0.0000000000000000     
  0.87500000000000000       0.15625000000000000        0.0000000000000000     
  0.75000000000000000       0.18750000000000000        0.0000000000000000     
  0.78125000000000000       0.18750000000000000        0.0000000000000000     
  0.81250000000000000       0.18750000000000000        0.0000000000000000     
  0.84375000000000000       0.18750000000000000        0.0000000000000000     
  0.87500000000000000       0.18750000000000000        0.0000000000000000     
  0.75000000000000000       0.21875000000000000        0.0000000000000000     
  0.78125000000000000       0.21875000000000000        0.0000000000000000     
  0.81250000000000000       0.21875000000000000        0.0000000000000000     
  0.84375000000000000       0.21875000000000000        0.0000000000000000     
  0.87500000000000000       0.21875000000000000        0.0000000000000000     
  0.75000000000000000       0.25000000000000000        0.0000000000000000     
  0.78125000000000000       0.25000000000000000        0.0000000000000000     
  0.81250000000000000       0.25000000000000000        0.0000000000000000     
  0.84375000000000000       0.25000000000000000        0.0000000000000000     
  0.87500000000000000       0.25000000000000000        0.0000000000000000     
  0.87500000000000000       0.12500000000000000        0.0000000000000000     
  0.90625000000000000       0.12500000000000000        0.0000000000000000     
  0.93750000000000000       0.12500000000000000        0.0000000000000000     
  0.96875000000000000       0.12500000000000000        0.0000000000000000     
   1.0000000000000000       0.12500000000000000        0.0000000000000000     
  0.87500000000000000       0.15625000000000000        0.0000000000000000     
  0.90625000000000000       0.15625000000000000        0.0000000000000000     
  0.93750000000000000       0.15625000000000000        0.0000000000000000     
  0.96875000000000000       0.15625000000000000        0.0000000000000000     
   1.0000000000000000       0.15625000000000000        0.0000000000000000     
  0.87500000000000000       0.18750000000000000        0.0000000000000000     
  0.90625000000000000       0.18750000000000000        0.0000000000000000     
  0.93750000000000000       0.18750000000000000        0.0000000000000000     
  0.96875000000000000       0.18750000000000000        0.0000000000000000     
   1.0000000000000000       0.18750000000000000        0.0000000000000000     
  0.87500000000000000       0.21875000000000000        0.0000000000000000     
  0.90625000000000000       0.21875000000000000        0.0000000000000000     
  0.93750000000000000       0.21875000000000000        0.0000000000000000     
  0.96875000000000000       0.21875000000000000        0.0000000000000000     
   1.0000000000000000       0.21875000000000000        0.0000000000000000     
  0.87500000000000000       0.25000000000000000        0.0000000000000000     
  0.90625000000000000       0.25000000000000000        0.0000000000000000     
  0.93750000000000000       0.25000000000000000        0.0000000000000000     
  0.96875000000000000       0.25000000000000000        0.0000000000000000     
   1.0000000000000000       0.25000000000000000        0.0000000000000000     
   1.0000000000000000       0.12500000000000000        0.0000000000000000     
   1.0312500000000000       0.12500000000000000        0.0000000000000000     
   1.0625000000000000       0.12500000000000000        0.0000000000000000     
   1.0937500000000000       0.12500000000000000        0.0000000000000000     
   1.1250000000000000       0.12500000000000000        0.0000000000000000     
   1.0000000000000000       0.15625000000000000        0.0000000000000000     
   1.0312500000000000       0.15625000000000000        0.0000000000000000     
   1.0625000000000000       0.15625000000000000        0.0000000000000000     
   1.0937500000000000       0.15625000000000000        0.0000000000000000     
   1.1250000000000000       0.15625000000000000        0.0000000000000000     
   1.0000000000000000       0.18750000000000000        0.0000000000000000     
   1.0312500000000000       0.18750000000000000        0.0000000000000000     
   1.0625000000000000       0.18750000000000000        0.0000000000000000     
   1.0937500000000000       0.18750000000000000        0.0000000000000000     
   1.1250000000000000       0.18750000000000000        0.0000000000000000     
   1.0000000000000000       0.21875000000000000        0.0000000000000000     
   1.0312500000000000       0.21875000000000000        0.0000000000000000     
   1.0625000000000000       0.21875000000000000        0.0000000000000000     
   1.0937500000000000       0.21875000000000000        0.0000000000000000     
   1.1250000000000000       0.21875000000000000        0.0000000000000000     
   1.0000000000000000       0.25000000000000000        0.0000000000000000     
   1.0312500000000000       0.25000000000000000        0.0000000000000000     
   1.0625000000000000       0.25000000000000000        0.0000000000000000     
   1.0937500000000000       0.25000000000000000        0.0000000000000000     
   1.1250000000000000       0.25000000000000000        0.0000000000000000     
   1.1250000000000000       0.12500000000000000        0.0000000000000000     
   1.1562500000000000       0.12500000000000000        0.0000000000000000     
   1.1875000000000000       0.12500000000000000        0.0000000000000000     
   1.2187500000000000       0.12500000000000000        0.0000000000000000     
   1.2500000000000000       0.12500000000000000        0.0000000000000000     
   1.1250000000000000       0.15625000000000000        0.0000000000000000     
   1.1562500000000000       0.15625000000000000        0.0000000000000000     
   1.1875000000000000       0.15625000000000000        0.0000000000000000     
   1.2187500000000000       0.15625000000000000        0.0000000000000000     
   1.2500000000000000       0.15625000000000000        0.0000000000000000     
   1.1250000000000000       0.18750000000000000        0.0000000000000000     
   1.1562500000000000       0.18750000000000000        0.0000000000000000     
   1.1875000000000000       0.18750000000000000        0.0000000000000000     
   1.2187500000000000       0.18750000000000000        0.0000000000000000     
   1.2500000000000000       0.18750000000000000        0.0000000000000000     
   1.1250000000000000       0.21875000000000000        0.0000000000000000     
   1.1562500000000000       0.21875000000000000        0.0000000000000000     
   1.1875000000000000       0.21875000000000000        0.0000000000000000     
   1.2187500000000000       0.21875000000000000        0.0000000000000000     
   1.2500000000000000       0.21875000000000000        0.0000000000000000     
   1.1250000000000000       0.25000000000000000        0.0000000000000000     
   1.1562500000000000       0.25000000000000000        0.0000000000000000     
   1.1875000000000000       0.25000000000000000        0.0000000000000000     
   1.2187500000000000       0.25000000000000000        0.0000000000000000     
   1.2500000000000000       0.25000000000000000        0.0000000000000000     
   1.2500000000000000       0.12500000000000000        0.0000000000000000     
   1.2812500000000000       0.12500000000000000        0.0000000000000000     
   1.3125000000000000       0.12500000000000000        0.0000000000000000     
   1.3437500000000000       0.12500000000000000        0.0000000000000000     
   1.3750000000000000       0.12500000000000000        0.0000000000000000     
   1.2500000000000000       0.15625000000000000        0.0000000000000000     
   1.2812500000000000       0.15625000000000000        0.0000000000000000     
   1.3125000000000000       0.15625000000000000        0.0000000000000000     
   1.3437500000000000       0.15625000000000000        0.0000000000000000     
   1.3750000000000000       0.15625000000000000        0.0000000000000000     
   1.2500000000000000       0.18750000000000000        0.0000000000000000     
   1.2812500000000000       0.18750000000000000        0.0000000000000000     
   1.3125000000000000       0.18750000000000000        0.0000000000000000     
   1.3437500000000000       0.18750000000000000        0.0000000000000000     
   1.3750000000000000       0.18750000000000000        0.0000000000000000     
   1.2500000000000000       0.21875000000000000        0.0000000000000000     
   1.2812500000000000       0.21875000000000000        0.0000000000000000     
   1.3125000000000000       0.21875000000000000        0.0000000000000000     
   1.3437500000000000       0.21875000000000000        0.0000000000000000     
   1.3750000000000000       0.21875000000000000        0.0000000000000000     
   1.2500000000000000       0.25000000000000000        0.0000000000000000     
   1.2812500000000000       0.25000000000000000        0.0000000000000000     
   1.3125000000000000       0.25000000000000000        0.0000000000000000     
   1.3437500000000000       0.25000000000000000        0.0000000000000000     
   1.3750000000000000       0.25000000000000000        0.0000000000000000     
   1.3750000000000000       0.12500000000000000        0.0000000000000000     
   1.4062500000000000       0.12500000000000000        0.0000000000000000     
   1.4375000000000000       0.12500000000000000        0.0000000000000000     
   1.4687500000000000       0.12500000000000000        0.0000000000000000     
   1.5000000000000000       0.12500000000000000        0.0000000000000000     
   1.3750000000000000       0.15625000000000000        0.0000000000000000     
   1.4062500000000000       0.15625000000000000        0.0000000000000000     
   1.4375000000000000       0.15625000000000000        0.0000000000000000     
   1.4687500000000000       0.15625000000000000        0.0000000000000000     
   1.5000000000000000       0.15625000000000000        0.0000000000000000     
   1.3750000000000000       0.18750000000000000        0.0000000000000000     
   1.4062500000000000       0.18750000000000000        0.0000000000000000     
   1.4375000000000000       0.18750000000000000        0.0000000000000000     
   1.4687500000000000       0.18750000000000000        0.0000000000000000     
   1.5000000000000000       0.18750000000000000        0.0000000000000000     
   1.3750000000000000       0.21875000000000000        0.0000000000000000     
   1.4062500000000000       0.21875000000000000        0.0000000000000000     
   1.4375000000000000       0.21875000000000000        0.0000000000000000     
   1.4687500000000000       0.21875000000000000        0.0000000000000000     
   1.5000000000000000       0.21875000000000000        0.0000000000000000     
   1.3750000000000000       0.25000000000000000        0.0000000000000000     
   1.4062500000000000       0.25000000000000000        0.0000000000000000     
   1.4375000000000000       0.25000000000000000        0.0000000000000000     
   1.4687500000000000       0.25000000000000000        0.0000000000000000     
   1.5000000000000000       0.25000000000000000        0.0000000000000000     
  0.50000000000000000       0.25000000000000000        0.0000000000000000     
  0.53125000000000000       0.25000000000000000        0.0000000000000000     
  0.56250000000000000       0.25000000000000000        0.0000000000000000     
  0.59375000000000000       0.25000000000000000        0.0000000000000000     
  0.62500000000000000       0.25000000000000000        0.0000000000000000     
  0.50000000000000000       0.28125000000000000        0.0000000000000000     
  0.53125000000000000       0.28125000000000000        0.0000000000000000     
  0.56250000000000000       0.28125000000000000        0.0000000000000000     
  0.59375000000000000       0.28125000000000000        0.0000000000000000     
  0.62500000000000000       0.28125000000000000        0.0000000000000000     
  0.50000000000000000       0.31250000000000000        0.0000000000000000     
  0.53125000000000000       0.31250000000000000        0.0000000000000000     
  0.56250000000000000       0.31250000000000000        0.0000000000000000     
  0.59375000000000000       0.31250000000000000        0.0000000000000000     
  0.62500000000000000       0.31250000000000000        0.0000000000000000     
  0.50000000000000000       0.34375000000000000        0.0000000000000000     
  0.53125000000000000       0.34375000000000000        0.0000000000000000     
  0.56250000000000000       0.34375000000000000        0.0000000000000000     
  0.59375000000000000       0.34375000000000000        0.0000000000000000     
  0.62500000000000000       0.34375000000000000        0.0000000000000000     
  0.50000000000000000       0.37500000000000000        0.0000000000000000     
  0.53125000000000000       0.37500000000000000        0.0000000000000000     
  0.56250000000000000       0.37500000000000000        0.0000000000000000     
  0.59375000000000000       0.37500000000000000        0.0000000000000000     
  0.62500000000000000       0.37500000000000000        0.0000000000000000     
  0.62500000000000000       0.25000000000000000        0.0000000000000000     
  0.65625000000000000       0.25000000000000000        0.0000000000000000     
  0.68750000000000000       0.25000000000000000        0.0000000000000000     
  0.71875000000000000       0.25000000000000000        0.0000000000000000     
  0.75000000000000000       0.25000000000000000        0.0000000000000000     
  0.62500000000000000       0.28125000000000000        0.0000000000000000     
  0.65625000000000000       0.28125000000000000        0.0000000000000000     
  0.68750000000000000       0.28125000000000000        0.0000000000000000     
  0.71875000000000000       0.28125000000000000        0.0000000000000000     
  0.75000000000000000       0.28125000000000000        0.0000000000000000     
  0.62500000000000000       0.31250000000000000        0.0000000000000000     
  0.65625000000000000       0.31250000000000000        0.0000000000000000     
  0.68750000000000000       0.31250000000000000        0.0000000000000000     
  0.71875000000000000       0.31250000000000000        0.0000000000000000     
  0.75000000000000000       0.31250000000000000        0.0000000000000000     
  0.62500000000000000       0.34375000000000000        0.0000000000000000     
  0.65625000000000000       0.34375000000000000        0.0000000000000000     
  0.68750000000000000       0.34375000000000000        0.0000000000000000     
  0.71875000000000000       0.34375000000000000        0.0000000000000000     
  0.75000000000000000       0.34375000000000000        0.0000000000000000     
  0.62500000000000000       0.37500000000000000        0.0000000000000000     
  0.65625000000000000       0.37500000000000000        0.0000000000000000     
  0.68750000000000000       0.37500000000000000        0.0000000000000000     
  0.71875000000000000       0.37500000000000000        0.0000000000000000     
  0.75000000000000000       0.37500000000000000        0.0000000000000000     
  0.75000000000000000       0.25000000000000000        0.0000000000000000     
  0.78125000000000000       0.25000000000000000        0.0000000000000000     
  0.81250000000000000       0.25000000000000000        0.0000000000000000     
  0.84375000000000000       0.25000000000000000        0.0000000000000000     
  0.87500000000000000       0.25000000000000000        0.0000000000000000     
  0.75000000000000000       0.28125000000000000        0.0000000000000000     
  0.78125000000000000       0.28125000000000000        0.0000000000000000     
  0.81250000000000000       0.28125000000000000        0.0000000000000000     
  0.84375000000000000       0.28125000000000000        0.0000000000000000     
  0.87500000000000000       0.28125000000000000        0.0000000000000000     
  0.75000000000000000       0.31250000000000000        0.0000000000000000     
  0.78125000000000000       0.31250000000000000        0.0000000000000000     
  0.81250000000000000       0.31250000000000000        0.0000000000000000     
  0.84375000000000000       0.31250000000000000        0.0000000000000000     
  0.87500000000000000       0.31250000000000000        0.0000000000000000     
  0.75000000000000000       0.34375000000000000        0.0000000000000000     
  0.78125000000000000       0.34375000000000000        0.0000000000000000     
  0.81250000000000000       0.34375000000000000        0.0000000000000000     
  0.84375000000000000       0.34375000000000000        0.0000000000000000     
  0.87500000000000000       0.34375000000000000        0.0000000000000000     
  0.75000000000000000       0.37500000000000000        0.0000000000000000     
  0.78125000000000000       0.37500000000000000        0.0000000000000000     
  0.81250000000000000       0.37500000000000000        0.0000000000000000     
  0.84375000000000000       0.37500000000000000        0.0000000000000000     
  0.87500000000000000       0.37500000000000000        0.0000000000000000     
  0.87500000000000000       0.25000000000000000        0.0000000000000000     
  0.90625000000000000       0.25000000000000000        0.0000000000000000     
  0.93750000000000000       0.25000000000000000        0.0000000000000000     
  0.96875000000000000       0.25000000000000000        0.0000000000000000     
   1.0000000000000000       0.25000000000000000        0.0000000000000000     
  0.87500000000000000       0.28125000000000000        0.0000000000000000     
  0.90625000000000000       0.28125000000000000        0.0000000000000000     
  0.93750000000000000       0.28125000000000000        0.0000000000000000     
  0.96875000000000000       0.28125000000000000        0.0000000000000000     
   1.0000000000000000       0.28125000000000000        0.0000000000000000     
  0.87500000000000000       0.31250000000000000        0.0000000000000000     
  0.90625000000000000       0.31250000000000000        0.0000000000000000     
  0.93750000000000000       0.31250000000000000        0.0000000000000000     
  0.96875000000000000       0.31250000000000000        0.0000000000000000     
   1.0000000000000000       0.31250000000000000        0.0000000000000000     
  0.87500000000000000       0.34375000000000000        0.0000000000000000     
  0.90625000000000000       0.34375000000000000        0.0000000000000000     
  0.93750000000000000       0.34375000000000000        0.0000000000000000     
  0.96875000000000000       0.34375000000000000        0.0000000000000000     
   1.0000000000000000       0.34375000000000000        0.0000000000000000     
  0.87500000000000000       0.37500000000000000        0.0000000000000000     
  0.90625000000000000       0.37500000000000000        0.0000000000000000     
  0.93750000000000000       0.37500000000000000        0.0000000000000000     
  0.96875000000000000       0.37500000000000000        0.0000000000000000     
   1.0000000000000000       0.37500000000000000        0.0000000000000000     
   1.0000000000000000       0.25000000000000000        0.0000000000000000     
   1.0312500000000000       0.25000000000000000        0.0000000000000000     
   1.0625000000000000       0.25000000000000000        0.0000000000000000     
   1.0937500000000000       0.25000000000000000        0.0000000000000000     
   1.1250000000000000       0.25000000000000000        0.0000000000000000     
   1.0000000000000000       0.28125000000000000        0.0000000000000000     
   1.0312500000000000       0.28125000000000000        0.0000000000000000     
   1.0625000000000000       0.28125000000000000        0.0000000000000000     
   1.0937500000000000       0.28125000000000000        0.0000000000000000     
   1.1250000000000000       0.28125000000000000        0.0000000000000000     
   1.0000000000000000       0.31250000000000000        0.0000000000000000     
   1.0312500000000000       0.31250000000000000        0.0000000000000000     
   1.0625000000000000       0.31250000000000000        0.0000000000000000     
   1.0937500000000000       0.31250000000000000        0.0000000000000000     
   1.1250000000000000       0.31250000000000000        0.0000000000000000     
   1.0000000000000000       0.34375000000000000        0.0000000000000000     
   1.0312500000000000       0.34375000000000000        0.0000000000000000     
   1.0625000000000000       0.34375000000000000        0.0000000000000000     
   1.0937500000000000       0.34375000000000000        0.0000000000000000     
   1.1250000000000000       0.34375000000000000        0.0000000000000000     
   1.0000000000000000       0.37500000000000000        0.0000000000000000     
   1.0312500000000000       0.37500000000000000        0.0000000000000000     
   1.0625000000000000       0.37500000000000000        0.0000000000000000     
   1.0937500000000000       0.37500000000000000        0.0000000000000000     
   1.1250000000000000       0.37500000000000000        0.0000000000000000     
   1.1250000000000000       0.25000000000000000        0.0000000000000000     
   1.1562500000000000       0.25000000000000000        0.0000000000000000     
   1.1875000000000000       0.25000000000000000        0.0000000000000000     
   1.2187500000000000       0.25000000000000000        0.0000000000000000     
   1.2500000000000000       0.25000000000000000        0.0000000000000000     
   1.1250000000000000       0.28125000000000000        0.0000000000000000     
   1.1562500000000000       0.28125000000000000        0.0000000000000000     
   1.1875000000000000       0.28125000000000000        0.0000000000000000     
   1.2187500000000000       0.28125000000000000        0.0000000000000000     
   1.2500000000000000       0.28125000000000000        0.0000000000000000     
   1.1250000000000000       0.31250000000000000        0.0000000000000000     
   1.1562500000000000       0.31250000000000000        0.0000000000000000     
   1.1875000000000000       0.31250000000000000        0.0000000000000000     
   1.2187500000000000       0.31250000000000000        0.0000000000000000     
   1.2500000000000000       0.31250000000000000        0.0000000000000000     
   1.1250000000000000       0.34375000000000000        0.0000000000000000     
   1.1562500000000000       0.34375000000000000        0.0000000000000000     
   1.1875000000000000       0.34375000000000000        0.0000000000000000     
   1.2187500000000000       0.34375000000000000        0.0000000000000000     
   1.2500000000000000       0.34375000000000000        0.0000000000000000     
   1.1250000000000000       0.37500000000000000        0.0000000000000000     
   1.1562500000000000       0.37500000000000000        0.0000000000000000     
   1.1875000000000000       0.37500000000000000        0.0000000000000000     
   1.2187500000000000       0.37500000000000000        0.0000000000000000     
   1.2500000000000000       0.37500000000000000        0.0000000000000000     
   1.2500000000000000       0.25000000000000000        0.0000000000000000     
   1.2812500000000000       0.25000000000000000        0.0000000000000000     
   1.3125000000000000       0.25000000000000000        0.0000000000000000     
   1.3437500000000000       0.25000000000000000        0.0000000000000000     
   1.3750000000000000       0.25000000000000000        0.0000000000000000     
   1.2500000000000000       0.28125000000000000        0.0000000000000000     
   1.2812500000000000       0.28125000000000000        0.0000000000000000     
   1.3125000000000000       0.28125000000000000        0.0000000000000000     
   1.3437500000000000       0.28125000000000000        0.0000000000000000     
   1.3750000000000000       0.28125000000000000        0.0000000000000000     
   1.2500000000000000       0.31250000000000000        0.0000000000000000     
   1.2812500000000000       0.31250000000000000        0.0000000000000000     
   1.3125000000000000       0.31250000000000000        0.0000000000000000     
   1.3437500000000000       0.31250000000000000        0.0000000000000000     
   1.3750000000000000       0.31250000000000000        0.0000000000000000     
   1.2500000000000000       0.34375000000000000        0.0000000000000000     
   1.2812500000000000       0.34375000000000000        0.0000000000000000     
   1.3125000000000000       0.34375000000000000        0.0000000000000000     
   1.3437500000000000       0.34375000000000000        0.0000000000000000     
   1.3750000000000000       0.34375000000000000        0.0000000000000000     
   1.2500000000000000       0.37500000000000000        0.0000000000000000     
   1.2812500000000000       0.37500000000000000        0.0000000000000000     
   1.3125000000000000       0.37500000000000000        0.0000000000000000     
   1.3437500000000000       0.37500000000000000        0.0000000000000000     
   1.3750000000000000       0.37500000000000000        0.0000000000000000     
   1.3750000000000000       0.25000000000000000        0.0000000000000000     
   1.4062500000000000       0.25000000000000000        0.0000000000000000     
   1.4375000000000000       0.25000000000000000        0.0000000000000000     
   1.4687500000000000       0.25000000000000000        0.0000000000000000     
   1.5000000000000000       0.25000000000000000        0.0000000000000000     
   1.3750000000000000       0.28125000000000000        0.0000000000000000     
   1.4062500000000000       0.28125000000000000        0.0000000000000000     
   1.4375000000000000       0.28125000000000000        0.0000000000000000     
   1.4687500000000000       0.28125000000000000        0.0000000000000000     
   1.5000000000000000       0.28125000000000000        0.0000000000000000     
   1.3750000000000000       0.31250000000000000        0.0000000000000000     
   1.4062500000000000       0.31250000000000000        0.0000000000000000     
   1.4375000000000000       0.31250000000000000        0.0000000000000000     
   1.4687500000000000       0.31250000000000000        0.0000000000000000     
   1.5000000000000000       0.31250000000000000        0.0000000000000000     
   1.3750000000000000       0.34375000000000000        0.0000000000000000     
   1.4062500000000000       0.34375000000000000        0.0000000000000000     
   1.4375000000000000       0.34375000000000000        0.0000000000000000     
   1.4687500000000000       0.34375000000000000        0.0000000000000000     
   1.5000000000000000       0.34375000000000000        0.0000000000000000     
   1.3750000000000000       0.37500000000000000        0.0000000000000000     
   1.4062500000000000       0.37500000000000000        0.0000000000000000     
   1.4375000000000000       0.37500000000000000        0.0000000000000000     
   1.4687500000000000       0.37500000000000000        0.0000000000000000     
   1.5000000000000000       0.37500000000000000        0.0000000000000000     
  0.50000000000000000       0.37500000000000000        0.0000000000000000     
  0.53125000000000000       0.37500000000000000        0.0000000000000000     
  0.56250000000000000       0.37500000000000000        0.0000000000000000     
  0.59375000000000000       0.37500000000000000        0.0000000000000000     
  0.62500000000000000       0.37500000000000000        0.0000000000000000     
  0.50000000000000000       0.40625000000000000        0.0000000000000000     
  0.53125000000000000       0.40625000000000000        0.0000000000000000     
  0.56250000000000000       0.40625000000000000        0.0000000000000000     
  0.59375000000000000       0.40625000000000000        0.0000000000000000     
  0.62500000000000000       0.40625000000000000        0.0000000000000000     
  0.50000000000000000       0.43750000000000000        0.0000000000000000     
  0.53125000000000000       0.43750000000000000        0.0000000000000000     
  0.56250000000000000       0.43750000000000000        0.0000000000000000     
  0.59375000000000000       0.43750000000000000        0.0000000000000000     
  0.62500000000000000       0.43750000000000000        0.0000000000000000     
  0.50000000000000000       0.46875000000000000        0.0000000000000000     
  0.53125000000000000       0.46875000000000000        0.0000000000000000     
  0.56250000000000000       0.46875000000000000        0.0000000000000000     
  0.59375000000000000       0.46875000000000000        0.0000000000000000     
  0.62500000000000000       0.46875000000000000        0.0000000000000000     
  0.50000000000000000       0.50000000000000000        0.0000000000000000     
  0.53125000000000000       0.50000000000000000        0.0000000000000000     
  0.56250000000000000       0.50000000000000000        0.0000000000000000     
  0.59375000000000000       0.50000000000000000        0.0000000000000000     
  0.62500000000000000       0.50000000000000000        0.0000000000000000     
  0.62500000000000000       0.37500000000000000        0.0000000000000000     
  0.65625000000000000       0.37500000000000000        0.0000000000000000     
  0.68750000000000000       0.37500000000000000        0.0000000000000000     
  0.71875000000000000       0.37500000000000000        0.0000000000000000     
  0.75000000000000000       0.37500000000000000        0.0000000000000000     
  0.62500000000000000       0.40625000000000000        0.0000000000000000     
  0.65625000000000000       0.40625000000000000        0.0000000000000000     
  0.68750000000000000       0.40625000000000000        0.0000000000000000     
  0.71875000000000000       0.40625000000000000        0.0000000000000000     
  0.75000000000000000       0.40625000000000000        0.0000000000000000     
  0.62500000000000000       0.43750000000000000        0.0000000000000000     
  0.65625000000000000       0.43750000000000000        0.0000000000000000     
  0.68750000000000000       0.43750000000000000        0.0000000000000000     
  0.71875000000000000       0.43750000000000000        0.0000000000000000     
  0.75000000000000000       0.43750000000000000        0.0000000000000000     
  0.62500000000000000       0.46875000000000000        0.0000000000000000     
  0.65625000000000000       0.46875000000000000        0.0000000000000000     
  0.68750000000000000       0.46875000000000000        0.0000000000000000     
  0.71875000000000000       0.46875000000000000        0.0000000000000000     
  0.75000000000000000       0.46875000000000000        0.0000000000000000     
  0.62500000000000000       0.50000000000000000        0.0000000000000000     
  0.65625000000000000       0.50000000000000000        0.0000000000000000     
  0.68750000000000000       0.50000000000000000        0.0000000000000000     
  0.71875000000000000       0.50000000000000000        0.0000000000000000     
  0.75000000000000000       0.50000000000000000        0.0000000000000000     
  0.75000000000000000       0.37500000000000000        0.0000000000000000     
  0.78125000000000000       0.37500000000000000        0.0000000000000000     
  0.81250000000000000       0.37500000000000000        0.0000000000000000     
  0.84375000000000000       0.37500000000000000        0.0000000000000000     
  0.87500000000000000       0.37500000000000000        0.0000000000000000     
  0.75000000000000000       0.40625000000000000        0.0000000000000000     
  0.78125000000000000       0.40625000000000000        0.0000000000000000     
  0.81250000000000000       0.40625000000000000        0.0000000000000000     
  0.84375000000000000       0.40625000000000000        0.0000000000000000     
  0.87500000000000000       0.40625000000000000        0.0000000000000000     
  0.75000000000000000       0.43750000000000000        0.0000000000000000     
  0.78125000000000000       0.43750000000000000        0.0000000000000000     
  0.81250000000000000       0.43750000000000000        0.0000000000000000     
  0.84375000000000000       0.43750000000000000        0.0000000000000000     
  0.87500000000000000       0.43750000000000000        0.0000000000000000     
  0.75000000000000000       0.46875000000000000        0.0000000000000000     
  0.78125000000000000       0.46875000000000000        0.0000000000000000     
  0.81250000000000000       0.46875000000000000        0.0000000000000000     
  0.84375000000000000       0.46875000000000000        0.0000000000000000     
  0.87500000000000000       0.46875000000000000        0.0000000000000000     
  0.75000000000000000       0.50000000000000000        0.0000000000000000     
  0.78125000000000000       0.50000000000000000        0.0000000000000000     
  0.81250000000000000       0.50000000000000000        0.0000000000000000     
  0.84375000000000000       0.50000000000000000        0.0000000000000000     
  0.87500000000000000       0.50000000000000000        0.0000000000000000     
  0.87500000000000000       0.37500000000000000        0.0000000000000000     
  0.90625000000000000       0.37500000000000000        0.0000000000000000     
  0.93750000000000000       0.37500000000000000        0.0000000000000000     
  0.96875000000000000       0.37500000000000000        0.0000000000000000     
   1.0000000000000000       0.37500000000000000        0.0000000000000000     
  0.87500000000000000       0.40625000000000000        0.0000000000000000     
  0.90625000000000000       0.40625000000000000        0.0000000000000000     
  0.93750000000000000       0.40625000000000000        0.0000000000000000     
  0.96875000000000000       0.40625000000000000        0.0000000000000000     
   1.0000000000000000       0.40625000000000000        0.0000000000000000     
  0.87500000000000000       0.43750000000000000        0.0000000000000000     
  0.90625000000000000       0.43750000000000000        0.0000000000000000     
  0.93750000000000000       0.43750000000000000        0.0000000000000000     
  0.96875000000000000       0.43750000000000000        0.0000000000000000     
   1.0000000000000000       0.43750000000000000        0.0000000000000000     
  0.87500000000000000       0.46875000000000000        0.0000000000000000     
  0.90625000000000000       0.46875000000000000        0.0000000000000000     
  0.93750000000000000       0.46875000000000000        0.0000000000000000     
  0.96875000000000000       0.46875000000000000        0.0000000000000000     
   1.0000000000000000       0.46875000000000000        0.0000000000000000     
  0.87500000000000000       0.50000000000000000        0.0000000000000000     
  0.90625000000000000       0.50000000000000000        0.0000000000000000     
  0.93750000000000000       0.50000000000000000        0.0000000000000000     
  0.96875000000000000       0.50000000000000000        0.0000000000000000     
   1.0000000000000000       0.50000000000000000        0.0000000000000000     
   1.0000000000000000       0.37500000000000000        0.0000000000000000     
   1.0312500000000000       0.37500000000000000        0.0000000000000000     
   1.0625000000000000       0.37500000000000000        0.0000000000000000     
   1.0937500000000000       0.37500000000000000        0.0000000000000000     
   1.1250000000000000       0.37500000000000000        0.0000000000000000     
   1.0000000000000000       0.40625000000000000        0.0000000000000000     
   1.0312500000000000       0.40625000000000000        0.0000000000000000     
   1.0625000000000000       0.40625000000000000        0.0000000000000000     
   1.0937500000000000       0.40625000000000000        0.0000000000000000     
   1.1250000000000000       0.40625000000000000        0.0000000000000000     
   1.0000000000000000       0.43750000000000000        0.0000000000000000     
   1.0312500000000000       0.43750000000000000        0.0000000000000000     
   1.0625000000000000       0.43750000000000000        0.0000000000000000     
   1.0937500000000000       0.43750000000000000        0.0000000000000000     
   1.1250000000000000       0.43750000000000000        0.0000000000000000     
   1.0000000000000000       0.46875000000000000        0.0000000000000000     
   1.0312500000000000       0.46875000000000000        0.0000000000000000     
   1.0625000000000000       0.46875000000000000        0.0000000000000000     
   1.0937500000000000       0.46875000000000000        0.0000000000000000     
   1.1250000000000000       0.46875000000000000        0.0000000000000000     
   1.0000000000000000       0.50000000000000000        0.0000000000000000     
   1.0312500000000000       0.50000000000000000        0.0000000000000000     
   1.0625000000000000       0.50000000000000000        0.0000000000000000     
   1.0937500000000000       0.50000000000000000        0.0000000000000000     
   1.1250000000000000       0.50000000000000000        0.0000000000000000     
   1.1250000000000000       0.37500000000000000        0.0000000000000000     
   1.1562500000000000       0.37500000000000000        0.0000000000000000     
   1.1875000000000000       0.37500000000000000        0.0000000000000000     
   1.2187500000000000       0.37500000000000000        0.0000000000000000     
   1.2500000000000000       0.37500000000000000        0.0000000000000000     
   1.1250000000000000       0.40625000000000000        0.0000000000000000     
   1.1562500000000000       0.40625000000000000        0.0000000000000000     
   1.1875000000000000       0.40625000000000000        0.0000000000000000     
   1.2187500000000000       0.40625000000000000        0.0000000000000000     
   1.2500000000000000       0.40625000000000000        0.0000000000000000     
   1.1250000000000000       0.43750000000000000        0.0000000000000000     
   1.1562500000000000       0.43750000000000000        0.0000000000000000     
   1.1875000000000000       0.43750000000000000        0.0000000000000000     
   1.2187500000000000       0.43750000000000000        0.0000000000000000     
   1.2500000000000000       0.43750000000000000        0.0000000000000000     
   1.1250000000000000       0.46875000000000000        0.0000000000000000     
   1.1562500000000000       0.46875000000000000        0.0000000000000000     
   1.1875000000000000       0.46875000000000000        0.0000000000000000     
   1.2187500000000000       0.46875000000000000        0.0000000000000000     
   1.2500000000000000       0.46875000000000000        0.0000000000000000     
   1.1250000000000000       0.50000000000000000        0.0000000000000000     
   1.1562500000000000       0.50000000000000000        0.0000000000000000     
   1.1875000000000000       0.50000000000000000        0.0000000000000000     
   1.2187500000000000       0.50000000000000000        0.0000000000000000     
   1.2500000000000000       0.50000000000000000        0.0000000000000000     
   1.2500000000000000       0.37500000000000000        0.0000000000000000     
   1.2812500000000000       0.37500000000000000        0.0000000000000000     
   1.3125000000000000       0.37500000000000000        0.0000000000000000     
   1.3437500000000000       0.37500000000000000        0.0000000000000000     
   1.3750000000000000       0.37500000000000000        0.0000000000000000     
   1.2500000000000000       0.40625000000000000        0.0000000000000000     
   1.2812500000000000       0.40625000000000000        0.0000000000000000     
   1.3125000000000000       0.40625000000000000        0.0000000000000000     
   1.3437500000000000       0.40625000000000000        0.0000000000000000     
   1.3750000000000000       0.40625000000000000        0.0000000000000000     
   1.2500000000000000       0.43750000000000000        0.0000000000000000     
   1.2812500000000000       0.43750000000000000        0.0000000000000000     
   1.3125000000000000       0.43750000000000000        0.0000000000000000     
   1.3437500000000000       0.43750000000000000        0.0000000000000000     
   1.3750000000000000       0.43750000000000000        0.0000000000000000     
   1.2500000000000000       0.46875000000000000        0.0000000000000000     
   1.2812500000000000       0.46875000000000000        0.0000000000000000     
   1.3125000000000000       0.46875000000000000        0.0000000000000000     
   1.3437500000000000       0.46875000000000000        0.0000000000000000     
   1.3750000000000000       0.46875000000000000        0.0000000000000000     
   1.2500000000000000       0.50000000000000000        0.0000000000000000     
   1.2812500000000000       0.50000000000000000        0.0000000000000000     
   1.3125000000000000       0.50000000000000000        0.0000000000000000     
   1.3437500000000000       0.50000000000000000        0.0000000000000000     
   1.3750000000000000       0.50000000000000000        0.0000000000000000     
   1.3750000000000000       0.37500000000000000        0.0000000000000000     
   1.4062500000000000       0.37500000000000000        0.0000000000000000     
   1.4375000000000000       0.37500000000000000        0.0000000000000000     
   1.4687500000000000       0.37500000000000000        0.0000000000000000     
   1.5000000000000000       0.37500000000000000        0.0000000000000000     
   1.3750000000000000       0.40625000000000000        0.0000000000000000     
   1.4062500000000000       0.40625000000000000        0.0000000000000000     
   1.4375000000000000       0.40625000000000000        0.0000000000000000     
   1.4687500000000000       0.40625000000000000        0.0000000000000000     
   1.5000000000000000       0.40625000000000000        0.0000000000000000     
   1.3750000000000000       0.43750000000000000        0.0000000000000000     
   1.4062500000000000       0.43750000000000000        0.0000000000000000     
   1.4375000000000000       0.43750000000000000        0.0000000000000000     
   1.4687500000000000       0.43750000000000000        0.0000000000000000     
   1.5000000000000000       0.43750000000000000        0.0000000000000000     
   1.3750000000000000       0.46875000000000000        0.0000000000000000     
   1.4062500000000000       0.46875000000000000        0.0000000000000000     
   1.4375000000000000       0.46875000000000000        0.0000000000000000     
   1.4687500000000000       0.46875000000000000        0.0000000000000000     
   1.5000000000000000       0.46875000000000000        0.0000000000000000     
   1.3750000000000000       0.50000000000000000        0.0000000000000000     
   1.4062500000000000       0.50000000000000000        0.0000000000000000     
   1.4375000000000000       0.50000000000000000        0.0000000000000000     
   1.4687500000000000       0.50000000000000000        0.0000000000000000     
   1.5000000000000000       0.50000000000000000        0.0000000000000000     
  0.50000000000000000       0.50000000000000000        0.0000000000000000     
  0.53125000000000000       0.50000000000000000        0.0000000000000000     
  0.56250000000000000       0.50000000000000000        0.0000000000000000     
  0.59375000000000000       0.50000000000000000        0.0000000000000000     
  0.62500000000000000       0.50000000000000000        0.0000000000000000     
  0.50000000000000000       0.53125000000000000        0.0000000000000000     
  0.53125000000000000       0.53125000000000000        0.0000000000000000     
  0.56250000000000000       0.53125000000000000        0.0000000000000000     
  0.59375000000000000       0.53125000000000000        0.0000000000000000     
  0.62500000000000000       0.53125000000000000        0.0000000000000000     
  0.50000000000000000       0.56250000000000000        0.0000000000000000     
  0.53125000000000000       0.56250000000000000        0.0000000000000000     
  0.56250000000000000       0.56250000000000000        0.0000000000000000     
  0.59375000000000000       0.56250000000000000        0.0000000000000000     
  0.62500000000000000       0.56250000000000000        0.0000000000000000     
  0.50000000000000000       0.59375000000000000        0.0000000000000000     
  0.53125000000000000       0.59375000000000000        0.0000000000000000     
  0.56250000000000000       0.59375000000000000        0.0000000000000000     
  0.59375000000000000       0.59375000000000000        0.0000000000000000     
  0.62500000000000000       0.59375000000000000        0.0000000000000000     
  0.50000000000000000       0.62500000000000000        0.0000000000000000     
  0.53125000000000000       0.62500000000000000        0.0000000000000000     
  0.56250000000000000       0.62500000000000000        0.0000000000000000     
  0.59375000000000000       0.62500000000000000        0.0000000000000000     
  0.62500000000000000       0.62500000000000000        0.0000000000000000     
  0.62500000000000000       0.50000000000000000        0.0000000000000000     
  0.65625000000000000       0.50000000000000000        0.0000000000000000     
  0.68750000000000000       0.50000000000000000        0.0000000000000000     
  0.71875000000000000       0.50000000000000000        0.0000000000000000     
  0.75000000000000000       0.50000000000000000        0.0000000000000000     
  0.62500000000000000       0.53125000000000000        0.0000000000000000     
  0.65625000000000000       0.53125000000000000        0.0000000000000000     
  0.68750000000000000       0.53125000000000000        0.0000000000000000     
  0.71875000000000000       0.53125000000000000        0.0000000000000000     
  0.75000000000000000       0.53125000000000000        0.0000000000000000     
  0.62500000000000000       0.56250000000000000        0.0000000000000000     
  0.65625000000000000       0.56250000000000000        0.0000000000000000     
  0.68750000000000000       0.56250000000000000        0.0000000000000000     
  0.71875000000000000       0.56250000000000000        0.0000000000000000     
  0.75000000000000000       0.56250000000000000        0.0000000000000000     
  0.62500000000000000       0.59375000000000000        0.0000000000000000     
  0.65625000000000000       0.59375000000000000        0.0000000000000000     
  0.68750000000000000       0.59375000000000000        0.0000000000000000     
  0.71875000000000000       0.59375000000000000        0.0000000000000000     
  0.75000000000000000       0.59375000000000000        0.0000000000000000     
  0.62500000000000000       0.62500000000000000        0.0000000000000000     
  0.65625000000000000       0.62500000000000000        0.0000000000000000     
  0.68750000000000000       0.62500000000000000        0.0000000000000000     
  0.71875000000000000       0.62500000000000000        0.0000000000000000     
  0.75000000000000000       0.62500000000000000        0.0000000000000000     
  0.75000000000000000       0.50000000000000000        0.0000000000000000     
  0.78125000000000000       0.50000000000000000        0.0000000000000000     
  0.81250000000000000       0.50000000000000000        0.0000000000000000     
  0.84375000000000000       0.50000000000000000        0.0000000000000000     
  0.87500000000000000       0.50000000000000000        0.0000000000000000     
  0.75000000000000000       0.53125000000000000        0.0000000000000000     
  0.78125000000000000       0.53125000000000000        0.0000000000000000     
  0.81250000000000000       0.53125000000000000        0.0000000000000000     
  0.84375000000000000       0.53125000000000000        0.0000000000000000     
  0.87500000000000000       0.53125000000000000        0.0000000000000000     
  0.75000000000000000       0.56250000000000000        0.0000000000000000     
  0.78125000000000000       0.56250000000000000        0.0000000000000000     
  0.81250000000000000       0.56250000000000000        0.0000000000000000     
  0.84375000000000000       0.56250000000000000        0.0000000000000000     
  0.87500000000000000       0.56250000000000000        0.0000000000000000     
  0.75000000000000000       0.59375000000000000        0.0000000000000000     
  0.78125000000000000       0.59375000000000000        0.0000000000000000     
  0.81250000000000000       0.59375000000000000        0.0000000000000000     
  0.84375000000000000       0.59375000000000000        0.0000000000000000     
  0.87500000000000000       0.59375000000000000        0.0000000000000000     
  0.75000000000000000       0.62500000000000000        0.0000000000000000     
  0.78125000000000000       0.62500000000000000        0.0000000000000000     
  0.81250000000000000       0.62500000000000000        0.0000000000000000     
  0.84375000000000000       0.62500000000000000        0.0000000000000000     
  0.87500000000000000       0.62500000000000000        0.0000000000000000     
  0.87500000000000000       0.50000000000000000        0.0000000000000000     
  0.90625000000000000       0.50000000000000000        0.0000000000000000     
  0.93750000000000000       0.50000000000000000        0.0000000000000000     
  0.96875000000000000       0.50000000000000000        0.0000000000000000     
   1.0000000000000000       0.50000000000000000        0.0000000000000000     
  0.87500000000000000       0.53125000000000000        0.0000000000000000     
  0.90625000000000000       0.53125000000000000        0.0000000000000000     
  0.93750000000000000       0.53125000000000000        0.0000000000000000     
  0.96875000000000000       0.53125000000000000        0.0000000000000000     
   1.0000000000000000       0.53125000000000000        0.0000000000000000     
  0.87500000000000000       0.56250000000000000        0.0000000000000000     
  0.90625000000000000       0.56250000000000000        0.0000000000000000     
  0.93750000000000000       0.56250000000000000        0.0000000000000000     
  0.96875000000000000       0.56250000000000000        0.0000000000000000     
   1.0000000000000000       0.56250000000000000        0.0000000000000000     
  0.87500000000000000       0.59375000000000000        0.0000000000000000     
  0.90625000000000000       0.59375000000000000        0.0000000000000000     
  0.93750000000000000       0.59375000000000000        0.0000000000000000     
  0.96875000000000000       0.59375000000000000        0.0000000000000000     
   1.0000000000000000       0.59375000000000000        0.0000000000000000     
  0.87500000000000000       0.62500000000000000        0.0000000000000000     
  0.90625000000000000       0.62500000000000000        0.0000000000000000     
  0.93750000000000000       0.62500000000000000        0.0000000000000000     
  0.96875000000000000       0.62500000000000000        0.0000000000000000     
   1.0000000000000000       0.62500000000000000        0.0000000000000000     
   1.0000000000000000       0.50000000000000000        0.0000000000000000     
   1.0312500000000000       0.50000000000000000        0.0000000000000000     
   1.0625000000000000       0.50000000000000000        0.0000000000000000     
   1.0937500000000000       0.50000000000000000        0.0000000000000000     
   1.1250000000000000       0.50000000000000000        0.0000000000000000     
   1.0000000000000000       0.53125000000000000        0.0000000000000000     
   1.0312500000000000       0.53125000000000000        0.0000000000000000     
   1.0625000000000000       0.53125000000000000        0.0000000000000000     
   1.0937500000000000       0.53125000000000000        0.0000000000000000     
   1.1250000000000000       0.53125000000000000        0.0000000000000000     
   1.0000000000000000       0.56250000000000000        0.0000000000000000     
   1.0312500000000000       0.56250000000000000        0.0000000000000000     
   1.0625000000000000       0.56250000000000000        0.0000000000000000     
   1.0937500000000000       0.56250000000000000        0.0000000000000000     
   1.1250000000000000       0.56250000000000000        0.0000000000000000     
   1.0000000000000000       0.59375000000000000        0.0000000000000000     
   1.0312500000000000       0.59375000000000000        0.0000000000000000     
   1.0625000000000000       0.59375000000000000        0.0000000000000000     
   1.0937500000000000       0.59375000000000000        0.0000000000000000     
   1.1250000000000000       0.59375000000000000        0.0000000000000000     
   1.0000000000000000       0.62500000000000000        0.0000000000000000     
   1.0312500000000000       0.62500000000000000        0.0000000000000000     
   1.0625000000000000       0.62500000000000000        0.0000000000000000     
   1.0937500000000000       0.62500000000000000        0.0000000000000000     
   1.1250000000000000       0.62500000000000000        0.0000000000000000     
   1.1250000000000000       0.50000000000000000        0.0000000000000000     
   1.1562500000000000       0.50000000000000000        0.0000000000000000     
   1.1875000000000000       0.50000000000000000        0.0000000000000000     
   1.2187500000000000       0.50000000000000000        0.0000000000000000     
   1.2500000000000000       0.50000000000000000        0.0000000000000000     
   1.1250000000000000       0.53125000000000000        0.0000000000000000     
   1.1562500000000000       0.53125000000000000        0.0000000000000000     
   1.1875000000000000       0.53125000000000000        0.0000000000000000     
   1.2187500000000000       0.53125000000000000        0.0000000000000000     
   1.2500000000000000       0.53125000000000000        0.0000000000000000     
   1.1250000000000000       0.56250000000000000        0.0000000000000000     
   1.1562500000000000       0.56250000000000000        0.0000000000000000     
   1.1875000000000000       0.56250000000000000        0.0000000000000000     
   1.2187500000000000       0.56250000000000000        0.0000000000000000     
   1.2500000000000000       0.56250000000000000        0.0000000000000000     
   1.1250000000000000       0.59375000000000000        0.0000000000000000     
   1.1562500000000000       0.59375000000000000        0.0000000000000000     
   1.1875000000000000       0.59375000000000000        0.0000000000000000     
   1.2187500000000000       0.59375000000000000        0.0000000000000000     
   1.2500000000000000       0.59375000000000000        0.0000000000000000     
   1.1250000000000000       0.62500000000000000        0.0000000000000000     
   1.1562500000000000       0.62500000000000000        0.0000000000000000     
   1.1875000000000000       0.62500000000000000        0.0000000000000000     
   1.2187500000000000       0.62500000000000000        0.0000000000000000     
   1.2500000000000000       0.62500000000000000        0.0000000000000000     
   1.2500000000000000       0.50000000000000000        0.0000000000000000     
   1.2812500000000000       0.50000000000000000        0.0000000000000000     
   1.3125000000000000       0.50000000000000000        0.0000000000000000     
   1.3437500000000000       0.50000000000000000        0.0000000000000000     
   1.3750000000000000       0.50000000000000000        0.0000000000000000     
   1.2500000000000000       0.53125000000000000        0.0000000000000000     
   1.2812500000000000       0.53125000000000000        0.0000000000000000     
   1.3125000000000000       0.53125000000000000        0.0000000000000000     
   1.3437500000000000       0.53125000000000000        0.0000000000000000     
   1.3750000000000000       0.53125000000000000        0.0000000000000000     
   1.2500000000000000       0.56250000000000000        0.0000000000000000     
   1.2812500000000000       0.56250000000000000        0.0000000000000000     
   1.3125000000000000       0.56250000000000000        0.0000000000000000     
   1.3437500000000000       0.56250000000000000        0.0000000000000000     
   1.3750000000000000       0.56250000000000000        0.0000000000000000     
   1.2500000000000000       0.59375000000000000        0.0000000000000000     
   1.2812500000000000       0.59375000000000000        0.0000000000000000     
   1.3125000000000000       0.59375000000000000        0.0000000000000000     
   1.3437500000000000       0.59375000000000000        0.0000000000000000     
   1.3750000000000000       0.59375000000000000        0.0000000000000000     
   1.2500000000000000       0.62500000000000000        0.0000000000000000     
   1.2812500000000000       0.62500000000000000        0.0000000000000000     
   1.3125000000000000       0.62500000000000000        0.0000000000000000     
   1.3437500000000000       0.62500000000000000        0.0000000000000000     
   1.3750000000000000       0.62500000000000000        0.0000000000000000     
   1.3750000000000000       0.50000000000000000        0.0000000000000000     
   1.4062500000000000       0.50000000000000000        0.0000000000000000     
   1.4375000000000000       0.50000000000000000        0.0000000000000000     
   1.4687500000000000       0.50000000000000000        0.0000000000000000     
   1.5000000000000000       0.50000000000000000        0.0000000000000000     
   1.3750000000000000       0.53125000000000000        0.0000000000000000     
   1.4062500000000000       0.53125000000000000        0.0000000000000000     
   1.4375000000000000       0.53125000000000000        0.0000000000000000     
   1.4687500000000000       0.53125000000000000        0.0000000000000000     
   1.5000000000000000       0.53125000000000000        0.0000000000000000     
   1.3750000000000000       0.56250000000000000        0.0000000000000000     
   1.4062500000000000       0.56250000000000000        0.0000000000000000     
   1.4375000000000000       0.56250000000000000        0.0000000000000000     
   1.4687500000000000       0.56250000000000000        0.0000000000000000     
   1.5000000000000000       0.56250000000000000        0.0000000000000000     
   1.3750000000000000       0.59375000000000000        0.0000000000000000     
   1.4062500000000000       0.59375000000000000        0.0000000000000000     
   1.4375000000000000       0.59375000000000000        0.0000000000000000     
   1.4687500000000000       0.59375000000000000        0.0000000000000000     
   1.5000000000000000       0.59375000000000000        0.0000000000000000     
   1.3750000000000000       0.62500000000000000        0.0000000000000000     
   1.4062500000000000       0.62500000000000000        0.0000000000000000     
   1.4375000000000000       0.62500000000000000        0.0000000000000000     
   1.4687500000000000       0.62500000000000000        0.0000000000000000     
   1.5000000000000000       0.62500000000000000        0.0000000000000000     
  0.50000000000000000       0.62500000000000000        0.0000000000000000     
  0.53125000000000000       0.62500000000000000        0.0000000000000000     
  0.56250000000000000       0.62500000000000000        0.0000000000000000     
  0.59375000000000000       0.62500000000000000        0.0000000000000000     
  0.62500000000000000       0.62500000000000000        0.0000000000000000     
  0.50000000000000000       0.65625000000000000        0.0000000000000000     
  0.53125000000000000       0.65625000000000000        0.0000000000000000     
  0.56250000000000000       0.65625000000000000        0.0000000000000000     
  0.59375000000000000       0.65625000000000000        0.0000000000000000     
  0.62500000000000000       0.65625000000000000        0.0000000000000000     
  0.50000000000000000       0.68750000000000000        0.0000000000000000     
  0.53125000000000000       0.68750000000000000        0.0000000000000000     
  0.56250000000000000       0.68750000000000000        0.0000000000000000     
  0.59375000000000000       0.68750000000000000        0.0000000000000000     
  0.62500000000000000       0.68750000000000000        0.0000000000000000     
  0.50000000000000000       0.71875000000000000        0.0000000000000000     
  0.53125000000000000       0.71875000000000000        0.0000000000000000     
  0.56250000000000000       0.71875000000000000        0.0000000000000000     
  0.59375000000000000       0.71875000000000000        0.0000000000000000     
  0.62500000000000000       0.71875000000000000        0.0000000000000000     
  0.50000000000000000       0.75000000000000000        0.0000000000000000     
  0.53125000000000000       0.75000000000000000        0.0000000000000000     
  0.56250000000000000       0.75000000000000000        0.0000000000000000     
  0.59375000000000000       0.75000000000000000        0.0000000000000000     
  0.62500000000000000       0.75000000000000000        0.0000000000000000     
  0.62500000000000000       0.62500000000000000        0.0000000000000000     
  0.65625000000000000       0.62500000000000000        0.0000000000000000     
  0.68750000000000000       0.62500000000000000        0.0000000000000000     
  0.71875000000000000       0.62500000000000000        0.0000000000000000     
  0.75000000000000000       0.62500000000000000        0.0000000000000000     
  0.62500000000000000       0.65625000000000000        0.0000000000000000     
  0.65625000000000000       0.65625000000000000        0.0000000000000000     
  0.68750000000000000       0.65625000000000000        0.0000000000000000     
  0.71875000000000000       0.65625000000000000        0.0000000000000000     
  0.75000000000000000       0.65625000000000000        0.0000000000000000     
  0.62500000000000000       0.68750000000000000        0.0000000000000000     
  0.65625000000000000       0.68750000000000000        0.0000000000000000     
  0.68750000000000000       0.68750000000000000        0.0000000000000000     
  0.71875000000000000       0.68750000000000000        0.0000000000000000     
  0.75000000000000000       0.68750000000000000        0.0000000000000000     
  0.62500000000000000       0.71875000000000000        0.0000000000000000     
  0.65625000000000000       0.71875000000000000        0.0000000000000000     
  0.68750000000000000       0.71875000000000000        0.0000000000000000     
  0.71875000000000000       0.71875000000000000        0.0000000000000000     
  0.75000000000000000       0.71875000000000000        0.0000000000000000     
  0.62500000000000000       0.75000000000000000        0.0000000000000000     
  0.65625000000000000       0.75000000000000000        0.0000000000000000     
  0.68750000000000000       0.75000000000000000        0.0000000000000000     
  0.71875000000000000       0.75000000000000000        0.0000000000000000     
  0.75000000000000000       0.75000000000000000        0.0000000000000000     
  0.75000000000000000       0.62500000000000000        0.0000000000000000     
  0.78125000000000000       0.62500000000000000        0.0000000000000000     
  0.81250000000000000       0.62500000000000000        0.0000000000000000     
  0.84375000000000000       0.62500000000000000        0.0000000000000000     
  0.87500000000000000       0.62500000000000000        0.0000000000000000     
  0.75000000000000000       0.65625000000000000        0.0000000000000000     
  0.78125000000000000       0.65625000000000000        0.0000000000000000     
  0.81250000000000000       0.65625000000000000        0.0000000000000000     
  0.84375000000000000       0.65625000000000000        0.0000000000000000     
  0.87500000000000000       0.65625000000000000        0.0000000000000000     
  0.75000000000000000       0.68750000000000000        0.0000000000000000     
  0.78125000000000000       0.68750000000000000        0.0000000000000000     
  0.81250000000000000       0.68750000000000000        0.0000000000000000     
  0.84375000000000000       0.68750000000000000        0.0000000000000000     
  0.87500000000000000       0.68750000000000000        0.0000000000000000     
  0.75000000000000000       0.71875000000000000        0.0000000000000000     
  0.78125000000000000       0.71875000000000000        0.0000000000000000     
  0.81250000000000000       0.71875000000000000        0.0000000000000000     
  0.84375000000000000       0.71875000000000000        0.0000000000000000     
  0.87500000000000000       0.71875000000000000        0.0000000000000000     
  0.75000000000000000       0.75000000000000000        0.0000000000000000     
  0.78125000000000000       0.75000000000000000        0.0000000000000000     
  0.81250000000000000       0.75000000000000000        0.0000000000000000     
  0.84375000000000000       0.75000000000000000        0.0000000000000000     
  0.87500000000000000       0.75000000000000000        0.0000000000000000     
  0.87500000000000000       0.62500000000000000        0.0000000000000000     
  0.90625000000000000       0.62500000000000000        0.0000000000000000     
  0.93750000000000000       0.62500000000000000        0.0000000000000000     
  0.96875000000000000       0.62500000000000000        0.0000000000000000     
   1.0000000000000000       0.62500000000000000        0.0000000000000000     
  0.87500000000000000       0.65625000000000000        0.0000000000000000     
  0.90625000000000000       0.65625000000000000        0.0000000000000000     
  0.93750000000000000       0.65625000000000000        0.0000000000000000     
  0.96875000000000000       0.65625000000000000        0.0000000000000000     
   1.0000000000000000       0.65625000000000000        0.0000000000000000     
  0.87500000000000000       0.68750000000000000        0.0000000000000000     
  0.90625000000000000       0.68750000000000000        0.0000000000000000     
  0.93750000000000000       0.68750000000000000        0.0000000000000000     
  0.96875000000000000       0.68750000000000000        0.0000000000000000     
   1.0000000000000000       0.68750000000000000        0.0000000000000000     
  0.87500000000000000       0.71875000000000000        0.0000000000000000     
  0.90625000000000000       0.71875000000000000        0.0000000000000000     
  0.93750000000000000       0.71875000000000000        0.0000000000000000     
  0.96875000000000000       0.71875000000000000        0.0000000000000000     
   1.0000000000000000       0.71875000000000000        0.0000000000000000     
  0.87500000000000000       0.75000000000000000        0.0000000000000000     
  0.90625000000000000       0.75000000000000000        0.0000000000000000     
  0.93750000000000000       0.75000000000000000        0.0000000000000000     
  0.96875000000000000       0.75000000000000000        0.0000000000000000     
   1.0000000000000000       0.75000000000000000        0.0000000000000000     
   1.0000000000000000       0.62500000000000000        0.0000000000000000     
   1.0312500000000000       0.62500000000000000        0.0000000000000000     
   1.0625000000000000       0.62500000000000000        0.0000000000000000     
   1.0937500000000000       0.62500000000000000        0.0000000000000000     
   1.1250000000000000       0.62500000000000000        0.0000000000000000     
   1.0000000000000000       0.65625000000000000        0.0000000000000000     
   1.0312500000000000       0.65625000000000000        0.0000000000000000     
   1.0625000000000000       0.65625000000000000        0.0000000000000000     
   1.0937500000000000       0.65625000000000000        0.0000000000000000     
   1.1250000000000000       0.65625000000000000        0.0000000000000000     
   1.0000000000000000       0.68750000000000000        0.0000000000000000     
   1.0312500000000000       0.68750000000000000        0.0000000000000000     
   1.0625000000000000       0.68750000000000000        0.0000000000000000     
   1.0937500000000000       0.68750000000000000        0.0000000000000000     
   1.1250000000000000       0.68750000000000000        0.0000000000000000     
   1.0000000000000000       0.71875000000000000        0.0000000000000000     
   1.0312500000000000       0.71875000000000000        0.0000000000000000     
   1.0625000000000000       0.71875000000000000        0.0000000000000000     
   1.0937500000000000       0.71875000000000000        0.0000000000000000     
   1.1250000000000000       0.71875000000000000        0.0000000000000000     
   1.0000000000000000       0.75000000000000000        0.0000000000000000     
   1.0312500000000000       0.75000000000000000        0.0000000000000000     
   1.0625000000000000       0.75000000000000000        0.0000000000000000     
   1.0937500000000000       0.75000000000000000        0.0000000000000000     
   1.1250000000000000       0.75000000000000000        0.0000000000000000     
   1.1250000000000000       0.62500000000000000        0.0000000000000000     
   1.1562500000000000       0.62500000000000000        0.0000000000000000     
   1.1875000000000000       0.62500000000000000        0.0000000000000000     
   1.2187500000000000       0.62500000000000000        0.0000000000000000     
   1.2500000000000000       0.62500000000000000        0.0000000000000000     
   1.1250000000000000       0.65625000000000000        0.0000000000000000     
   1.1562500000000000       0.65625000000000000        0.0000000000000000     
   1.1875000000000000       0.65625000000000000        0.0000000000000000     
   1.2187500000000000       0.65625000000000000        0.0000000000000000     
   1.2500000000000000       0.65625000000000000        0.0000000000000000     
   1.1250000000000000       0.68750000000000000        0.0000000000000000     
   1.1562500000000000       0.68750000000000000        0.0000000000000000     
   1.1875000000000000       0.68750000000000000        0.0000000000000000     
   1.2187500000000000       0.68750000000000000        0.0000000000000000     
   1.2500000000000000       0.68750000000000000        0.0000000000000000     
   1.1250000000000000       0.71875000000000000        0.0000000000000000     
   1.1562500000000000       0.71875000000000000        0.0000000000000000     
   1.1875000000000000       0.71875000000000000        0.0000000000000000     
   1.2187500000000000       0.71875000000000000        0.0000000000000000     
   1.2500000000000000       0.71875000000000000        0.0000000000000000     
   1.1250000000000000       0.75000000000000000        0.0000000000000000     
   1.1562500000000000       0.75000000000000000        0.0000000000000000     
   1.1875000000000000       0.75000000000000000        0.0000000000000000     
   1.2187500000000000       0.75000000000000000        0.0000000000000000     
   1.2500000000000000       0.75000000000000000        0.0000000000000000     
   1.2500000000000000       0.62500000000000000        0.0000000000000000     
   1.2812500000000000       0.62500000000000000        0.0000000000000000     
   1.3125000000000000       0.62500000000000000        0.0000000000000000     
   1.3437500000000000       0.62500000000000000        0.0000000000000000     
   1.3750000000000000       0.62500000000000000        0.0000000000000000     
   1.2500000000000000       0.65625000000000000        0.0000000000000000     
   1.2812500000000000       0.65625000000000000        0.0000000000000000     
   1.3125000000000000       0.65625000000000000        0.0000000000000000     
   1.3437500000000000       0.65625000000000000        0.0000000000000000     
   1.3750000000000000       0.65625000000000000        0.0000000000000000     
   1.2500000000000000       0.68750000000000000        0.0000000000000000     
   1.2812500000000000       0.68750000000000000        0.0000000000000000     
   1.3125000000000000       0.68750000000000000        0.0000000000000000     
   1.3437500000000000       0.68750000000000000        0.0000000000000000     
   1.3750000000000000       0.68750000000000000        0.0000000000000000     
   1.2500000000000000       0.71875000000000000        0.0000000000000000     
   1.2812500000000000       0.71875000000000000        0.0000000000000000     
   1.3125000000000000       0.71875000000000000        0.0000000000000000     
   1.3437500000000000       0.71875000000000000        0.0000000000000000     
   1.3750000000000000       0.71875000000000000        0.0000000000000000     
   1.2500000000000000       0.75000000000000000        0.0000000000000000     
   1.2812500000000000       0.75000000000000000        0.0000000000000000     
   1.3125000000000000       0.75000000000000000        0.0000000000000000     
   1.3437500000000000       0.75000000000000000        0.0000000000000000     
   1.3750000000000000       0.75000000000000000        0.0000000000000000     
   1.3750000000000000       0.62500000000000000        0.0000000000000000     
   1.4062500000000000       0.62500000000000000        0.0000000000000000     
   1.4375000000000000       0.62500000000000000        0.0000000000000000     
   1.4687500000000000       0.62500000000000000        0.0000000000000000     
   1.5000000000000000       0.62500000000000000        0.0000000000000000     
   1.3750000000000000       0.65625000000000000        0.0000000000000000     
   1.4062500000000000       0.65625000000000000        0.0000000000000000     
   1.4375000000000000       0.65625000000000000        0.0000000000000000     
   1.4687500000000000       0.65625000000000000        0.0000000000000000     
   1.5000000000000000       0.65625000000000000        0.0000000000000000     
   1.3750000000000000       0.68750000000000000        0.0000000000000000     
   1.4062500000000000       0.68750000000000000        0.0000000000000000     
   1.4375000000000000       0.68750000000000000        0.0000000000000000     
   1.4687500000000000       0.68750000000000000        0.0000000000000000     
   1.5000000000000000       0.68750000000000000        0.0000000000000000     
   1.3750000000000000       0.71875000000000000        0.0000000000000000     
   1.4062500000000000       0.71875000000000000        0.0000000000000000     
   1.4375000000000000       0.71875000000000000        0.0000000000000000     
   1.4687500000000000       0.71875000000000000        0.0000000000000000     
   1.5000000000000000       0.71875000000000000        0.0000000000000000     
   1.3750000000000000       0.75000000000000000        0.0000000000000000     
   1.4062500000000000       0.75000000000000000        0.0000000000000000     
   1.4375000000000000       0.75000000000000000        0.0000000000000000     
   1.4687500000000000       0.75000000000000000        0.0000000000000000     
   1.5000000000000000       0.75000000000000000        0.0000000000000000     
  0.50000000000000000       0.75000000000000000        0.0000000000000000     
  0.53125000000000000       0.75000000000000000        0.0000000000000000     
  0.56250000000000000       0.75000000000000000        0.0000000000000000     
  0.59375000000000000       0.75000000000000000        0.0000000000000000     
  0.62500000000000000       0.75000000000000000        0.0000000000000000     
  0.50000000000000000       0.78125000000000000        0.0000000000000000     
  0.53125000000000000       0.78125000000000000        0.0000000000000000     
  0.56250000000000000       0.78125000000000000        0.0000000000000000     
  0.59375000000000000       0.78125000000000000        0.0000000000000000     
  0.62500000000000000       0.78125000000000000        0.0000000000000000     
  0.50000000000000000       0.81250000000000000        0.0000000000000000     
  0.53125000000000000       0.81250000000000000        0.0000000000000000     
  0.56250000000000000       0.81250000000000000        0.0000000000000000     
  0.59375000000000000       0.81250000000000000        0.0000000000000000     
  0.62500000000000000       0.81250000000000000        0.0000000000000000     
  0.50000000000000000       0.84375000000000000        0.0000000000000000     
  0.53125000000000000       0.84375000000000000        0.0000000000000000     
  0.56250000000000000       0.84375000000000000        0.0000000000000000     
  0.59375000000000000       0.84375000000000000        0.0000000000000000     
  0.62500000000000000       0.84375000000000000        0.0000000000000000     
  0.50000000000000000       0.87500000000000000        0.0000000000000000     
  0.53125000000000000       0.87500000000000000        0.0000000000000000     
  0.56250000000000000       0.87500000000000000        0.0000000000000000     
  0.59375000000000000       0.87500000000000000        0.0000000000000000     
  0.62500000000000000       0.87500000000000000        0.0000000000000000     
  0.62500000000000000       0.75000000000000000        0.0000000000000000     
  0.65625000000000000       0.75000000000000000        0.0000000000000000     
  0.68750000000000000       0.75000000000000000        0.0000000000000000     
  0.71875000000000000       0.75000000000000000        0.0000000000000000     
  0.75000000000000000       0.75000000000000000        0.0000000000000000     
  0.62500000000000000       0.78125000000000000        0.0000000000000000     
  0.65625000000000000       0.78125000000000000        0.0000000000000000     
  0.68750000000000000       0.78125000000000000        0.0000000000000000     
  0.71875000000000000       0.78125000000000000        0.0000000000000000     
  0.75000000000000000       0.78125000000000000        0.0000000000000000     
  0.62500000000000000       0.81250000000000000        0.0000000000000000     
  0.65625000000000000       0.81250000000000000        0.0000000000000000     
  0.68750000000000000       0.81250000000000000        0.0000000000000000     
  0.71875000000000000       0.81250000000000000        0.0000000000000000     
  0.75000000000000000       0.81250000000000000        0.0000000000000000     
  0.62500000000000000       0.84375000000000000        0.0000000000000000     
  0.65625000000000000       0.84375000000000000        0.0000000000000000     
  0.68750000000000000       0.84375000000000000        0.0000000000000000     
  0.71875000000000000       0.84375000000000000        0.0000000000000000     
  0.75000000000000000       0.84375000000000000        0.0000000000000000     
  0.62500000000000000       0.87500000000000000        0.0000000000000000     
  0.65625000000000000       0.87500000000000000        0.0000000000000000     
  0.68750000000000000       0.87500000000000000        0.0000000000000000     
  0.71875000000000000       0.87500000000000000        0.0000000000000000     
  0.75000000000000000       0.87500000000000000        0.0000000000000000     
  0.75000000000000000       0.75000000000000000        0.0000000000000000     
  0.78125000000000000       0.75000000000000000        0.0000000000000000     
  0.81250000000000000       0.75000000000000000        0.0000000000000000     
  0.84375000000000000       0.75000000000000000        0.0000000000000000     
  0.87500000000000000       0.75000000000000000        0.0000000000000000     
  0.75000000000000000       0.78125000000000000        0.0000000000000000     
  0.78125000000000000       0.78125000000000000        0.0000000000000000     
  0.81250000000000000       0.78125000000000000        0.0000000000000000     
  0.84375000000000000       0.78125000000000000        0.0000000000000000     
  0.87500000000000000       0.78125000000000000        0.0000000000000000     
  0.75000000000000000       0.81250000000000000        0.0000000000000000     
  0.78125000000000000       0.81250000000000000        0.0000000000000000     
  0.81250000000000000       0.81250000000000000        0.0000000000000000     
  0.84375000000000000       0.81250000000000000        0.0000000000000000     
  0.87500000000000000       0.81250000000000000        0.0000000000000000     
  0.75000000000000000       0.84375000000000000        0.0000000000000000     
  0.78125000000000000       0.84375000000000000        0.0000000000000000     
  0.81250000000000000       0.84375000000000000        0.0000000000000000     
  0.84375000000000000       0.84375000000000000        0.0000000000000000     
  0.87500000000000000       0.84375000000000000        0.0000000000000000     
  0.75000000000000000       0.87500000000000000        0.0000000000000000     
  0.78125000000000000       0.87500000000000000        0.0000000000000000     
  0.81250000000000000       0.87500000000000000        0.0000000000000000     
  0.84375000000000000       0.87500000000000000        0.0000000000000000     
  0.87500000000000000       0.87500000000000000        0.0000000000000000     
  0.87500000000000000       0.75000000000000000        0.0000000000000000     
  0.90625000000000000       0.75000000000000000        0.0000000000000000     
  0.93750000000000000       0.75000000000000000        0.0000000000000000     
  0.96875000000000000       0.75000000000000000        0.0000000000000000     
   1.0000000000000000       0.75000000000000000        0.0000000000000000     
  0.87500000000000000       0.78125000000000000        0.0000000000000000     
  0.90625000000000000       0.78125000000000000        0.0000000000000000     
  0.93750000000000000       0.78125000000000000        0.0000000000000000     
  0.96875000000000000       0.78125000000000000        0.0000000000000000     
   1.0000000000000000       0.78125000000000000        0.0000000000000000     
  0.87500000000000000       0.81250000000000000        0.0000000000000000     
  0.90625000000000000       0.81250000000000000        0.0000000000000000     
  0.93750000000000000       0.81250000000000000        0.0000000000000000     
  0.96875000000000000       0.81250000000000000        0.0000000000000000     
   1.0000000000000000       0.81250000000000000        0.0000000000000000     
  0.87500000000000000       0.84375000000000000        0.0000000000000000     
  0.90625000000000000       0.84375000000000000        0.0000000000000000     
  0.93750000000000000       0.84375000000000000        0.0000000000000000     
  0.96875000000000000       0.84375000000000000        0.0000000000000000     
   1.0000000000000000       0.84375000000000000        0.0000000000000000     
  0.87500000000000000       0.87500000000000000        0.0000000000000000     
  0.90625000000000000       0.87500000000000000        0.0000000000000000     
  0.93750000000000000       0.87500000000000000        0.0000000000000000     
  0.96875000000000000       0.87500000000000000        0.0000000000000000     
   1.0000000000000000       0.87500000000000000        0.0000000000000000     
   1.0000000000000000       0.75000000000000000        0.0000000000000000     
   1.0312500000000000       0.75000000000000000        0.0000000000000000     
   1.0625000000000000       0.75000000000000000        0.0000000000000000     
   1.0937500000000000       0.75000000000000000        0.0000000000000000     
   1.1250000000000000       0.75000000000000000        0.0000000000000000     
   1.0000000000000000       0.78125000000000000        0.0000000000000000     
   1.0312500000000000       0.78125000000000000        0.0000000000000000     
   1.0625000000000000       0.78125000000000000        0.0000000000000000     
   1.0937500000000000       0.78125000000000000        0.0000000000000000     
   1.1250000000000000       0.78125000000000000        0.0000000000000000     
   1.0000000000000000       0.81250000000000000        0.0000000000000000     
   1.0312500000000000       0.81250000000000000        0.0000000000000000     
   1.0625000000000000       0.81250000000000000        0.0000000000000000     
   1.0937500000000000       0.81250000000000000        0.0000000000000000     
   1.1250000000000000       0.81250000000000000        0.0000000000000000     
   1.0000000000000000       0.84375000000000000        0.0000000000000000     
   1.0312500000000000       0.84375000000000000        0.0000000000000000     
   1.0625000000000000       0.84375000000000000        0.0000000000000000     
   1.0937500000000000       0.84375000000000000        0.0000000000000000     
   1.1250000000000000       0.84375000000000000        0.0000000000000000     
   1.0000000000000000       0.87500000000000000        0.0000000000000000     
   1.0312500000000000       0.87500000000000000        0.0000000000000000     
   1.0625000000000000       0.87500000000000000        0.0000000000000000     
   1.0937500000000000       0.87500000000000000        0.0000000000000000     
   1.1250000000000000       0.87500000000000000        0.0000000000000000     
   1.1250000000000000       0.75000000000000000        0.0000000000000000     
   1.1562500000000000       0.75000000000000000        0.0000000000000000     
   1.1875000000000000       0.75000000000000000        0.0000000000000000     
   1.2187500000000000       0.75000000000000000        0.0000000000000000     
   1.2500000000000000       0.75000000000000000        0.0000000000000000     
   1.1250000000000000       0.78125000000000000        0.0000000000000000     
   1.1562500000000000       0.78125000000000000        0.0000000000000000     
   1.1875000000000000       0.78125000000000000        0.0000000000000000     
   1.2187500000000000       0.78125000000000000        0.0000000000000000     
   1.2500000000000000       0.78125000000000000        0.0000000000000000     
   1.1250000000000000       0.81250000000000000        0.0000000000000000     
   1.1562500000000000       0.81250000000000000        0.0000000000000000     
   1.1875000000000000       0.81250000000000000        0.0000000000000000     
   1.2187500000000000       0.81250000000000000        0.0000000000000000     
   1.2500000000000000       0.81250000000000000        0.0000000000000000     
   1.1250000000000000       0.84375000000000000        0.0000000000000000     
   1.1562500000000000       0.84375000000000000        0.0000000000000000     
   1.1875000000000000       0.84375000000000000        0.0000000000000000     
   1.2187500000000000       0.84375000000000000        0.0000000000000000     
   1.2500000000000000       0.84375000000000000        0.0000000000000000     
   1.1250000000000000       0.87500000000000000        0.0000000000000000     
   1.1562500000000000       0.87500000000000000        0.0000000000000000     
   1.1875000000000000       0.87500000000000000        0.0000000000000000     
   1.2187500000000000       0.87500000000000000        0.0000000000000000     
   1.2500000000000000       0.87500000000000000        0.0000000000000000     
   1.2500000000000000       0.75000000000000000        0.0000000000000000     
   1.2812500000000000       0.75000000000000000        0.0000000000000000     
   1.3125000000000000       0.75000000000000000        0.0000000000000000     
   1.3437500000000000       0.75000000000000000        0.0000000000000000     
   1.3750000000000000       0.75000000000000000        0.0000000000000000     
   1.2500000000000000       0.78125000000000000        0.0000000000000000     
   1.2812500000000000       0.78125000000000000        0.0000000000000000     
   1.3125000000000000       0.78125000000000000        0.0000000000000000     
   1.3437500000000000       0.78125000000000000        0.0000000000000000     
   1.3750000000000000       0.78125000000000000        0.0000000000000000     
   1.2500000000000000       0.81250000000000000        0.0000000000000000     
   1.2812500000000000       0.81250000000000000        0.0000000000000000     
   1.3125000000000000       0.81250000000000000        0.0000000000000000     
   1.3437500000000000       0.81250000000000000        0.0000000000000000     
   1.3750000000000000       0.81250000000000000        0.0000000000000000     
   1.2500000000000000       0.84375000000000000        0.0000000000000000     
   1.2812500000000000       0.84375000000000000        0.0000000000000000     
   1.3125000000000000       0.84375000000000000        0.0000000000000000     
   1.3437500000000000       0.84375000000000000        0.0000000000000000     
   1.3750000000000000       0.84375000000000000        0.0000000000000000     
   1.2500000000000000       0.87500000000000000        0.0000000000000000     
   1.2812500000000000       0.87500000000000000        0.0000000000000000     
   1.3125000000000000       0.87500000000000000        0.0000000000000000     
   1.3437500000000000       0.87500000000000000        0.0000000000000000     
   1.3750000000000000       0.87500000000000000        0.0000000000000000     
   1.3750000000000000       0.75000000000000000        0.0000000000000000     
   1.4062500000000000       0.75000000000000000        0.0000000000000000     
   1.4375000000000000       0.75000000000000000        0.0000000000000000     
   1.4687500000000000       0.75000000000000000        0.0000000000000000     
   1.5000000000000000       0.75000000000000000        0.0000000000000000     
   1.3750000000000000       0.78125000000000000        0.0000000000000000     
   1.4062500000000000       0.78125000000000000        0.0000000000000000     
   1.4375000000000000       0.78125000000000000        0.0000000000000000     
   1.4687500000000000       0.78125000000000000        0.0000000000000000     
   1.5000000000000000       0.78125000000000000        0.0000000000000000     
   1.3750000000000000       0.81250000000000000        0.0000000000000000     
   1.4062500000000000       0.81250000000000000        0.0000000000000000     
   1.4375000000000000       0.81250000000000000        0.0000000000000000     
   1.4687500000000000       0.81250000000000000        0.0000000000000000     
   1.5000000000000000       0.81250000000000000        0.0000000000000000     
   1.3750000000000000       0.84375000000000000        0.0000000000000000     
   1.4062500000000000       0.84375000000000000        0.0000000000000000     
   1.4375000000000000       0.84375000000000000        0.0000000000000000     
   1.4687500000000000       0.84375000000000000        0.0000000000000000     
   1.5000000000000000       0.84375000000000000        0.0000000000000000     
   1.3750000000000000       0.87500000000000000        0.0000000000000000     
   1.4062500000000000       0.87500000000000000        0.0000000000000000     
   1.4375000000000000       0.87500000000000000        0.0000000000000000     
   1.4687500000000000       0.87500000000000000        0.0000000000000000     
   1.5000000000000000       0.87500000000000000        0.0000000000000000     
  0.50000000000000000       0.87500000000000000        0.0000000000000000     
  0.53125000000000000       0.87500000000000000        0.0000000000000000     
  0.56250000000000000       0.87500000000000000        0.0000000000000000     
  0.59375000000000000       0.87500000000000000        0.0000000000000000     
  0.62500000000000000       0.87500000000000000        0.0000000000000000     
  0.50000000000000000       0.90625000000000000        0.0000000000000000     
  0.53125000000000000       0.90625000000000000        0.0000000000000000     
  0.56250000000000000       0.90625000000000000        0.0000000000000000     
  0.59375000000000000       0.90625000000000000        0.0000000000000000     
  0.62500000000000000       0.90625000000000000        0.0000000000000000     
  0.50000000000000000       0.93750000000000000        0.0000000000000000     
  0.53125000000000000       0.93750000000000000        0.0000000000000000     
  0.56250000000000000       0.93750000000000000        0.0000000000000000     
  0.59375000000000000       0.93750000000000000        0.0000000000000000     
  0.62500000000000000       0.93750000000000000        0.0000000000000000     
  0.50000000000000000       0.96875000000000000        0.0000000000000000     
  0.53125000000000000       0.96875000000000000        0.0000000000000000     
  0.56250000000000000       0.96875000000000000        0.0000000000000000     
  0.59375000000000000       0.96875000000000000        0.0000000000000000     
  0.62500000000000000       0.96875000000000000        0.0000000000000000     
  0.50000000000000000        1.0000000000000000        0.0000000000000000     
  0.53125000000000000        1.0000000000000000        0.0000000000000000     
  0.56250000000000000        1.0000000000000000        0.0000000000000000     
  0.59375000000000000        1.0000000000000000        0.0000000000000000     
  0.62500000000000000        1.0000000000000000        0.0000000000000000     
  0.62500000000000000       0.87500000000000000        0.0000000000000000     
  0.65625000000000000       0.87500000000000000        0.0000000000000000     
  0.68750000000000000       0.87500000000000000        0.0000000000000000     
  0.71875000000000000       0.87500000000000000        0.0000000000000000     
  0.75000000000000000       0.87500000000000000        0.0000000000000000     
  0.62500000000000000       0.90625000000000000        0.0000000000000000     
  0.65625000000000000       0.90625000000000000        0.0000000000000000     
  0.68750000000000000       0.90625000000000000        0.0000000000000000     
  0.71875000000000000       0.90625000000000000        0.0000000000000000     
  0.75000000000000000       0.90625000000000000        0.0000000000000000     
  0.62500000000000000       0.93750000000000000        0.0000000000000000     
  0.65625000000000000       0.93750000000000000        0.0000000000000000     
  0.68750000000000000       0.93750000000000000        0.0000000000000000     
  0.71875000000000000       0.93750000000000000        0.0000000000000000     
  0.75000000000000000       0.93750000000000000        0.0000000000000000     
  0.62500000000000000       0.96875000000000000        0.0000000000000000     
  0.65625000000000000       0.96875000000000000        0.0000000000000000     
  0.68750000000000000       0.96875000000000000        0.0000000000000000     
  0.71875000000000000       0.96875000000000000        0.0000000000000000     
  0.75000000000000000       0.96875000000000000        0.0000000000000000     
  0.62500000000000000        1.0000000000000000        0.0000000000000000     
  0.65625000000000000        1.0000000000000000        0.0000000000000000     
  0.68750000000000000        1.0000000000000000        0.0000000000000000     
  0.71875000000000000        1.0000000000000000        0.0000000000000000     
  0.75000000000000000        1.0000000000000000        0.0000000000000000     
  0.75000000000000000       0.87500000000000000        0.0000000000000000     
  0.78125000000000000       0.87500000000000000        0.0000000000000000     
  0.81250000000000000       0.87500000000000000        0.0000000000000000     
  0.84375000000000000       0.87500000000000000        0.0000000000000000     
  0.87500000000000000       0.87500000000000000        0.0000000000000000     
  0.75000000000000000       0.90625000000000000        0.0000000000000000     
  0.78125000000000000       0.90625000000000000        0.0000000000000000     
  0.81250000000000000       0.90625000000000000        0.0000000000000000     
  0.84375000000000000       0.90625000000000000        0.0000000000000000     
  0.87500000000000000       0.90625000000000000        0.0000000000000000     
  0.75000000000000000       0.93750000000000000        0.0000000000000000     
  0.78125000000000000       0.93750000000000000        0.0000000000000000     
  0.81250000000000000       0.93750000000000000        0.0000000000000000     
  0.84375000000000000       0.93750000000000000        0.0000000000000000     
  0.87500000000000000       0.93750000000000000        0.0000000000000000     
  0.75000000000000000       0.96875000000000000        0.0000000000000000     
  0.78125000000000000       0.96875000000000000        0.0000000000000000     
  0.81250000000000000       0.96875000000000000        0.0000000000000000     
  0.84375000000000000       0.96875000000000000        0.0000000000000000     
  0.87500000000000000       0.96875000000000000        0.0000000000000000     
  0.75000000000000000        1.0000000000000000        0.0000000000000000     
  0.78125000000000000        1.0000000000000000        0.0000000000000000     
  0.81250000000000000        1.0000000000000000        0.0000000000000000     
  0.84375000000000000        1.0000000000000000        0.0000000000000000     
  0.87500000000000000        1.0000000000000000        0.0000000000000000     
  0.87500000000000000       0.87500000000000000        0.0000000000000000     
  0.90625000000000000       0.87500000000000000        0.0000000000000000     
  0.93750000000000000       0.87500000000000000        0.0000000000000000     
  0.96875000000000000       0.87500000000000000        0.0000000000000000     
   1.0000000000000000       0.87500000000000000        0.0000000000000000     
  0.87500000000000000       0.90625000000000000        0.0000000000000000     
  0.90625000000000000       0.90625000000000000        0.0000000000000000     
  0.93750000000000000       0.90625000000000000        0.0000000000000000     
  0.96875000000000000       0.90625000000000000        0.0000000000000000     
   1.0000000000000000       0.90625000000000000        0.0000000000000000     
  0.87500000000000000       0.93750000000000000        0.0000000000000000     
  0.90625000000000000       0.93750000000000000        0.0000000000000000     
  0.93750000000000000       0.93750000000000000        0.0000000000000000     
  0.96875000000000000       0.93750000000000000        0.0000000000000000     
   1.0000000000000000       0.93750000000000000        0.0000000000000000     
  0.87500000000000000       0.96875000000000000        0.0000000000000000     
  0.90625000000000000       0.96875000000000000        0.0000000000000000     
  0.93750000000000000       0.96875000000000000        0.0000000000000000     
  0.96875000000000000       0.96875000000000000        0.0000000000000000     
   1.0000000000000000       0.96875000000000000        0.0000000000000000     
  0.87500000000000000        1.0000000000000000        0.0000000000000000     
  0.90625000000000000        1.0000000000000000        0.0000000000000000     
  0.93750000000000000        1.0000000000000000        0.0000000000000000     
  0.96875000000000000        1.0000000000000000        0.0000000000000000     
   1.0000000000000000        1.0000000000000000        0.0000000000000000     
   1.0000000000000000       0.87500000000000000        0.0000000000000000     
   1.0312500000000000       0.87500000000000000        0.0000000000000000     
   1.0625000000000000       0.87500000000000000        0.0000000000000000     
   1.0937500000000000       0.87500000000000000        0.0000000000000000     
   1.1250000000000000       0.87500000000000000        0.0000000000000000     
   1.0000000000000000       0.90625000000000000        0.0000000000000000     
   1.0312500000000000       0.90625000000000000        0.0000000000000000     
   1.0625000000000000       0.90625000000000000        0.0000000000000000     
   1.0937500000000000       0.90625000000000000        0.0000000000000000     
   1.1250000000000000       0.90625000000000000        0.0000000000000000     
   1.0000000000000000       0.93750000000000000        0.0000000000000000     
   1.0312500000000000       0.93750000000000000        0.0000000000000000     
   1.0625000000000000       0.93750000000000000        0.0000000000000000     
   1.0937500000000000       0.93750000000000000        0.0000000000000000     
   1.1250000000000000       0.93750000000000000        0.0000000000000000     
   1.0000000000000000       0.96875000000000000        0.0000000000000000     
   1.0312500000000000       0.96875000000000000        0.0000000000000000     
   1.0625000000000000       0.96875000000000000        0.0000000000000000     
   1.0937500000000000       0.96875000000000000        0.0000000000000000     
   1.1250000000000000       0.96875000000000000        0.0000000000000000     
   1.0000000000000000        1.0000000000000000        0.0000000000000000     
   1.0312500000000000        1.0000000000000000        0.0000000000000000     
   1.0625000000000000        1.0000000000000000        0.0000000000000000     
   1.0937500000000000        1.0000000000000000        0.0000000000000000     
   1.1250000000000000        1.0000000000000000        0.0000000000000000     
   1.1250000000000000       0.87500000000000000        0.0000000000000000     
   1.1562500000000000       0.87500000000000000        0.0000000000000000     
   1.1875000000000000       0.87500000000000000        0.0000000000000000     
   1.2187500000000000       0.87500000000000000        0.0000000000000000     
   1.2500000000000000       0.87500000000000000        0.0000000000000000     
   1.1250000000000000       0.90625000000000000        0.0000000000000000     
   1.1562500000000000       0.90625000000000000        0.0000000000000000     
   1.1875000000000000       0.90625000000000000        0.0000000000000000     
   1.2187500000000000       0.90625000000000000        0.0000000000000000     
   1.2500000000000000       0.90625000000000000        0.0000000000000000     
   1.1250000000000000       0.93750000000000000        0.0000000000000000     
   1.1562500000000000       0.93750000000000000        0.0000000000000000     
   1.1875000000000000       0.93750000000000000        0.0000000000000000     
   1.2187500000000000       0.93750000000000000        0.0000000000000000     
   1.2500000000000000       0.93750000000000000        0.0000000000000000     
   1.1250000000000000       0.96875000000000000        0.0000000000000000     
   1.1562500000000000       0.96875000000000000        0.0000000000000000     
   1.1875000000000000       0.96875000000000000        0.0000000000000000     
   1.2187500000000000       0.96875000000000000        0.0000000000000000     
   1.2500000000000000       0.96875000000000000        0.0000000000000000     
   1.1250000000000000        1.0000000000000000        0.0000000000000000     
   1.1562500000000000        1.0000000000000000        0.0000000000000000     
   1.1875000000000000        1.0000000000000000        0.0000000000000000     
   1.2187500000000000        1.0000000000000000        0.0000000000000000     
   1.2500000000000000        1.0000000000000000        0.0000000000000000     
   1.2500000000000000       0.87500000000000000        0.0000000000000000     
   1.2812500000000000       0.87500000000000000        0.0000000000000000     
   1.3125000000000000       0.87500000000000000        0.0000000000000000     
   1.3437500000000000       0.87500000000000000        0.0000000000000000     
   1.3750000000000000       0.87500000000000000        0.0000000000000000     
   1.2500000000000000       0.90625000000000000        0.0000000000000000     
   1.2812500000000000       0.90625000000000000        0.0000000000000000     
   1.3125000000000000       0.90625000000000000        0.0000000000000000     
   1.3437500000000000       0.90625000000000000        0.0000000000000000     
   1.3750000000000000       0.90625000000000000        0.0000000000000000     
   1.2500000000000000       0.93750000000000000        0.0000000000000000     
   1.2812500000000000       0.93750000000000000        0.0000000000000000     
   1.3125000000000000       0.93750000000000000        0.0000000000000000     
   1.3437500000000000       0.93750000000000000        0.0000000000000000     
   1.3750000000000000       0.93750000000000000        0.0000000000000000     
   1.2500000000000000       0.96875000000000000        0.0000000000000000     
   1.2812500000000000       0.96875000000000000        0.0000000000000000     
   1.3125000000000000       0.96875000000000000        0.0000000000000000     
   1.3437500000000000       0.96875000000000000        0.0000000000000000     
   1.3750000000000000       0.96875000000000000        0.0000000000000000     
   1.2500000000000000        1.0000000000000000        0.0000000000000000     
   1.2812500000000000        1.0000000000000000        0.0000000000000000     
   1.3125000000000000        1.0000000000000000        0.0000000000000000     
   1.3437500000000000        1.0000000000000000        0.0000000000000000     
   1.3750000000000000        1.0000000000000000        0.0000000000000000     
   1.3750000000000000       0.87500000000000000        0.0000000000000000     
   1.4062500000000000       0.87500000000000000        0.0000000000000000     
   1.4375000000000000       0.87500000000000000        0.0000000000000000     
   1.4687500000000000       0.87500000000000000        0.0000000000000000     
   1.5000000000000000       0.87500000000000000        0.0000000000000000     
   1.3750000000000000       0.90625000000000000        0.0000000000000000     
   1.4062500000000000       0.90625000000000000        0.0000000000000000     
   1.4375000000000000       0.90625000000000000        0.0000000000000000     
   1.4687500000000000       0.90625000000000000        0.0000000000000000     
   1.5000000000000000       0.90625000000000000        0.0000000000000000     
   1.3750000000000000       0.93750000000000000        0.0000000000000000     
   1.4062500000000000       0.93750000000000000        0.0000000000000000     
   1.4375000000000000       0.93750000000000000        0.0000000000000000     
   1.4687500000000000       0.93750000000000000        0.0000000000000000     
   1.5000000000000000       0.93750000000000000        0.0000000000000000     
   1.3750000000000000       0.96875000000000000        0.0000000000000000     
   1.4062500000000000       0.96875000000000000        0.0000000000000000     
   1.4375000000000000       0.96875000000000000        0.0000000000000000     
   1.4687500000000000       0.96875000000000000        0.0000000000000000     
   1.5000000000000000       0.96875000000000000        0.0000000000000000     
   1.3750000000000000        1.0000000000000000        0.0000000000000000     
   1.4062500000000000        1.0000000000000000        0.0000000000000000     
   1.4375000000000000        1.0000000000000000        0.0000000000000000     
   1.4687500000000000        1.0000000000000000        0.0000000000000000     
   1.5000000000000000        1.0000000000000000        0.0000000000000000     
 </DataArray>
 </Points>
 <Cells>
 <DataArray  type="Int32"  Name="connectivity"  format="ascii">
           0           1           6           5
           1           2           7           6
           2           3           8           7
           3           4           9           8
           5           6          11          10
           6           7          12          11
           7           8          13          12
           8           9          14          13
          10          11          16          15
          11          12          17          16
          12          13          18          17
          13          14          19          18
          15          16          21          20
          16          17          22          21
          17          18          23          22
          18          19          24          23
          25          26          31          30
          26          27          32          31
          27          28          33          32
          28          29          34          33
          30          31          36          35
          31          32          37          36
          32          33          38          37
          33          34          39          38
          35          36          41          40
          36          37          42          41
          37          38          43          42
          38          39          44          43
          40          41          46          45
          41          42          47          46
          42          43          48          47
          43          44          49          48
          50          51          56          55
          51          52          57          56
          52          53          58          57
          53          54          59          58
          55          56          61          60
          56          57          62          61
          57          58          63          62
          58          59          64          63
          60          61          66          65
          61          62          67          66
          62          63          68          67
          63          64          69          68
          65          66          71          70
          66          67          72          71
          67          68          73          72
          68          69          74          73
          75          76          81          80
          76          77          82          81
          77          78          83          82
          78          79          84          83
          80          81          86          85
          81          82          87          86
          82          83          88          87
          83          84          89          88
          85          86          91          90
          86          87          92          91
          87          88          93          92
          88          89          94          93
          90          91          96          95
          91          92          97          96
          92          93          98          97
          93          94          99          98
         100         101         106         105
         101         102         107         106
         102         103         108         107
         103         104         109         108
         105         106         111         110
         106         107         112         111
         107         108         113         112
         108         109         114         113
         110         111         116         115
         111         112         117         116
         112         113         118         117
         113         114         119         118
         115         116         121         120
         116         117         122         121
         117         118         123         122
         118         119         124         123
         125         126         131         130
         126         127         132         131
         127         128         133         132
         128         129         134         133
         130         131         136         135
         131         132         137         136
         132         133         138         137
         133         134         139         138
         135         136         141         140
         136         137         142         141
         137         138         143         142
         138         139         144         143
         140         141         146         145
         141         142         147         146
         142         143         148         147
         143         144         149         148
         150         151         156         155
         151         152         157         156
         152         153         158         157
         153         154         159         158
         155         156         161         160
         156         157         162         161
         157         158         163         162
         158         159         164         163
         160         161         166         165
         161         162         167         166
         162         163         168         167
         163         164         169         168
         165         166         171         170
         166         167         172         171
         167         168         173         172
         168         169         174         173
         175         176         181         180
         176         177         182         181
         177         178         183         182
         178         179         184         183
         180         181         186         185
         181         182         187         186
         182         183         188         187
         183         184         189         188
         185         186         191         190
         186         187         192         191
         187         188         193         192
         188         189         194         193
         190         191         196         195
         191         192         197         196
         192         193         198         197
         193         194         199         198
         200         201         206         205
         201         202         207         206
         202         203         208         207
         203         204         209         208
         205         206         211         210
         206         207         212         211
         207         208         213         212
         208         209         214         213
         210         211         216         215
         211         212         217         216
         212         213         218         217
         213         214         219         218
         215         216         221         220
         216         217         222         221
         217         218         223         222
         218         219         224         223
         225         226         231         230
         226         227         232         231
         227         228         233         232
         228         229         234         233
         230         231         236         235
         231         232         237         236
         232         233         238         237
         233         234         239         238
         235         236         241         240
         236         237         242         241
         237         238         243         242
         238         239         244         243
         240         241         246         245
         241         242         247         246
         242         243         248         247
         243         244         249         248
         250         251         256         255
         251         252         257         256
         252         253         258         257
         253         254         259         258
         255         256         261         260
         256         257         262         261
         257         258         263         262
         258         259         264         263
         260         261         266         265
         261         262         267         266
         262         263         268         267
         263         264         269         268
         265         266         271         270
         266         267         272         271
         267         268         273         272
         268         269         274         273
         275         276         281         280
         276         277         282         281
         277         278         283         282
         278         279         284         283
         280         281         286         285
         281         282         287         286
         282         283         288         287
         283         284         289         288
         285         286         291         290
         286         287         292         291
         287         288         293         292
         288         289         294         293
         290         291         296         295
         291         292         297         296
         292         293         298         297
         293         294         299         298
         300         301         306         305
         301         302         307         306
         302         303         308         307
         303         304         309         308
         305         306         311         310
         306         307         312         311
         307         308         313         312
         308         309         314         313
         310         311         316         315
         311         312         317         316
         312         313         318         317
         313         314         319         318
         315         316         321         320
         316         317         322         321
         317         318         323         322
         318         319         324         323
         325         326         331         330
         326         327         332         331
         327         328         333         332
         328         329         334         333
         330         331         336         335
         331         332         337         336
         332         333         338         337
         333         334         339         338
         335         336         341         340
         336         337         342         341
         337         338         343         342
         338         339         344         343
         340         341         346         345
         341         342         347         346
         342         343         348         347
         343         344         349         348
         350         351         356         355
         351         352         357         356
         352         353         358         357
         353         354         359         358
         355         356         361         360
         356         357         362         361
         357         358         363         362
         358         359         364         363
         360         361         366         365
         361         362         367         366
         362         363         368         367
         363         364         369         368
         365         366         371         370
         366         367         372         371
         367         368         373         372
         368         369         374         373
         375         376         381         380
         376         377         382         381
         377         378         383         382
         378         379         384         383
         380         381         386         385
         381         382         387         386
         382         383         388         387
         383         384         389         388
         385         386         391         390
         386         387         392         391
         387         388         393         392
         388         389         394         393
         390         391         396         395
         391         392         397         396
         392         393         398         397
         393         394         399         398
         400         401         406         405
         401         402         407         406
         402         403         408         407
         403         404         409         408
         405         406         411         410
         406         407         412         411
         407         408         413         412
         408         409         414         413
         410         411         416         415
         411         412         417         416
         412         413         418         417
         413         414         419         418
         415         416         421         420
         416         417         422         421
         417         418         423         422
         418         419         424         423
         425         426         431         430
         426         427         432         431
         427         428         433         432
         428         429         434         433
         430         431         436         435
         431         432         437         436
         432         433         438         437
         433         434         439         438
         435         436         441         440
         436         437         442         441
         437         438         443         442
         438         439         444         443
         440         441         446         445
         441         442         447         446
         442         443         448         447
         443         444         449         448
         450         451         456         455
         451         452         457         456
         452         453         458         457
         453         454         459         458
         455         456         461         460
         456         457         462         461
         457         458         463         462
         458         459         464         463
         460         461         466         465
         461         462         467         466
         462         463         468         467
         463         464         469         468
         465         466         471         470
         466         467         472         471
         467         468         473         472
         468         469         474         473
         475         476         481         480
         476         477         482         481
         477         478         483         482
         478         479         484         483
         480         481         486         485
         481         482         487         486
         482         483         488         487
         483         484         489         488
         485         486         491         490
         486         487         492         491
         487         488         493         492
         488         489         494         493
         490         491         496         495
         491         492         497         496
         492         493         498         497
         493         494         499         498
         500         501         506         505
         501         502         507         506
         502         503         508         507
         503         504         509         508
         505         506         511         510
         506         507         512         511
         507         508         513         512
         508         509         514         513
         510         511         516         515
         511         512         517         516
         512         513         518         517
         513         514         519         518
         515         516         521         520
         516         517         522         521
         517         518         523         522
         518         519         524         523
         525         526         531         530
         526         527         532         531
         527         528         533         532
         528         529         534         533
         530         531         536         535
         531         532         537         536
         532         533         538         537
         533         534         539         538
         535         536         541         540
         536         537         542         541
         537         538         543         542
         538         539         544         543
         540         541         546         545
         541         542         547         546
         542         543         548         547
         543         544         549         548
         550         551         556         555
         551         552         557         556
         552         553         558         557
         553         554         559         558
         555         556         561         560
         556         557         562         561
         557         558         563         562
         558         559         564         563
         560         561         566         565
         561         562         567         566
         562         563         568         567
         563         564         569         568
         565         566         571         570
         566         567         572         571
         567         568         573         572
         568         569         574         573
         575         576         581         580
         576         577         582         581
         577         578         583         582
         578         579         584         583
         580         581         586         585
         581         582         587         586
         582         583         588         587
         583         584         589         588
         585         586         591         590
         586         587         592         591
         587         588         593         592
         588         589         594         593
         590         591         596         595
         591         592         597         596
         592         593         598         597
         593         594         599         598
         600         601         606         605
         601         602         607         606
         602         603         608         607
         603         604         609         608
         605         606         611         610
         606         607         612         611
         607         608         613         612
         608         609         614         613
         610         611         616         615
         611         612         617         616
         612         613         618         617
         613         614         619         618
         615         616         621         620
         616         617         622         621
         617         618         623         622
         618         619         624         623
         625         626         631         630
         626         627         632         631
         627         628         633         632
         628         629         634         633
         630         631         636         635
         631         632         637         636
         632         633         638         637
         633         634         639         638
         635         636         641         640
         636         637         642         641
         637         638         643         642
         638         639         644         643
         640         641         646         645
         641         642         647         646
         642         643         648         647
         643         644         649         648
         650         651         656         655
         651         652         657         656
         652         653         658         657
         653         654         659         658
         655         656         661         660
         656         657         662         661
         657         658         663         662
         658         659         664         663
         660         661         666         665
         661         662         667         666
         662         663         668         667
         663         664         669         668
         665         666         671         670
         666         667         672         671
         667         668         673         672
         668         669         674         673
         675         676         681         680
         676         677         682         681
         677         678         683         682
         678         679         684         683
         680         681         686         685
         681         682         687         686
         682         683         688         687
         683         684         689         688
         685         686         691         690
         686         687         692         691
         687         688         693         692
         688         689         694         693
         690         691         696         695
         691         692         697         696
         692         693         698         697
         693         694         699         698
         700         701         706         705
         701         702         707         706
         702         703         708         707
         703         704         709         708
         705         706         711         710
         706         707         712         711
         707         708         713         712
         708         709         714         713
         710         711         716         715
         711         712         717         716
         712         713         718         717
         713         714         719         718
         715         716         721         720
         716         717         722         721
         717         718         723         722
         718         719         724         723
         725         726         731         730
         726         727         732         731
         727         728         733         732
         728         729         734         733
         730         731         736         735
         731         732         737         736
         732         733         738         737
         733         734         739         738
         735         736         741         740
         736         737         742         741
         737         738         743         742
         738         739         744         743
         740         741         746         745
         741         742         747         746
         742         743         748         747
         743         744         749         748
         750         751         756         755
         751         752         757         756
         752         753         758         757
         753         754         759         758
         755         756         761         760
         756         757         762         761
         757         758         763         762
         758         759         764         763
         760         761         766         765
         761         762         767         766
         762         763         768         767
         763         764         769         768
         765         766         771         770
         766         767         772         771
         767         768         773         772
         768         769         774         773
         775         776         781         780
         776         777         782         781
         777         778         783         782
         778         779         784         783
         780         781         786         785
         781         782         787         786
         782         783         788         787
         783         784         789         788
         785         786         791         790
         786         787         792         791
         787         788         793         792
         788         789         794         793
         790         791         796         795
         791         792         797         796
         792         793         798         797
         793         794         799         798
         800         801         806         805
         801         802         807         806
         802         803         808         807
         803         804         809         808
         805         806         811         810
         806         807         812         811
         807         808         813         812
         808         809         814         813
         810         811         816         815
         811         812         817         816
         812         813         818         817
         813         814         819         818
         815         816         821         820
         816         817         822         821
         817         818         823         822
         818         819         824         823
         825         826         831         830
         826         827         832         831
         827         828         833         832
         828         829         834         833
         830         831         836         835
         831         832         837         836
         832         833         838         837
         833         834         839         838
         835         836         841         840
         836         837         842         841
         837         838         843         842
         838         839         844         843
         840         841         846         845
         841         842         847         846
         842         843         848         847
         843         844         849         848
         850         851         856         855
         851         852         857         856
         852         853         858         857
         853         854         859         858
         855         856         861         860
         856         857         862         861
         857         858         863         862
         858         859         864         863
         860         861         866         865
         861         862         867         866
         862         863         868         867
         863         864         869         868
         865         866         871         870
         866         867         872         871
         867         868         873         872
         868         869         874         873
         875         876         881         880
         876         877         882         881
         877         878         883         882
         878         879         884         883
         880         881         886         885
         881         882         887         886
         882         883         888         887
         883         884         889         888
         885         886         891         890
         886         887         892         891
         887         888         893         892
         888         889         894         893
         890         891         896         895
         891         892         897         896
         892         893         898         897
         893         894         899         898
         900         901         906         905
         901         902         907         906
         902         903         908         907
         903         904         909         908
         905         906         911         910
         906         907         912         911
         907         908         913         912
         908         909         914         913
         910         911         916         915
         911         912         917         916
         912         913         918         917
         913         914         919         918
         915         916         921         920
         916         917         922         921
         917         918         923         922
         918         919         924         923
         925         926         931         930
         926         927         932         931
         927         928         933         932
         928         929         934         933
         930         931         936         935
         931         932         937         936
         932         933         938         937
         933         934         939         938
         935         936         941         940
         936         937         942         941
         937         938         943         942
         938         939         944         943
         940         941         946         945
         941         942         947         946
         942         943         948         947
         943         944         949         948
         950         951         956         955
         951         952         957         956
         952         953         958         957
         953         954         959         958
         955         956         961         960
         956         957         962         961
         957         958         963         962
         958         959         964         963
         960         961         966         965
         961         962         967         966
         962         963         968         967
         963         964         969         968
         965         966         971         970
         966         967         972         971
         967         968         973         972
         968         969         974         973
         975         976         981         980
         976         977         982         981
         977         978         983         982
         978         979         984         983
         980         981         986         985
         981         982         987         986
         982         983         988         987
         983         984         989         988
         985         986         991         990
         986         987         992         991
         987         988         993         992
         988         989         994         993
         990         991         996         995
         991         992         997         996
         992         993         998         997
         993         994         999         998
        1000        1001        1006        1005
        1001        1002        1007        1006
        1002        1003        1008        1007
        1003        1004        1009        1008
        1005        1006        1011        1010
        1006        1007        1012        1011
        1007        1008        1013        1012
        1008        1009        1014        1013
        1010        1011        1016        1015
        1011        1012        1017        1016
        1012        1013        1018        1017
        1013        1014        1019        1018
        1015        1016        1021        1020
        1016        1017        1022        1021
        1017        1018        1023        1022
        1018        1019        1024        1023
        1025        1026        1031        1030
        1026        1027        1032        1031
        1027        1028        1033        1032
        1028        1029        1034        1033
        1030        1031        1036        1035
        1031        1032        1037        1036
        1032        1033        1038        1037
        1033        1034        1039        1038
        1035        1036        1041        1040
        1036        1037        1042        1041
        1037        1038        1043        1042
        1038        1039        1044        1043
        1040        1041        1046        1045
        1041        1042        1047        1046
        1042        1043        1048        1047
        1043        1044        1049        1048
        1050        1051        1056        1055
        1051        1052        1057        1056
        1052        1053        1058        1057
        1053        1054        1059        1058
        1055        1056        1061        1060
        1056        1057        1062        1061
        1057        1058        1063        1062
        1058        1059        1064        1063
        1060        1061        1066        1065
        1061        1062        1067        1066
        1062        1063        1068        1067
        1063        1064        1069        1068
        1065        1066        1071        1070
        1066        1067        1072        1071
        1067        1068        1073        1072
        1068        1069        1074        1073
        1075        1076        1081        1080
        1076        1077        1082        1081
        1077        1078        1083        1082
        1078        1079        1084        1083
        1080        1081        1086        1085
        1081        1082        1087        1086
        1082        1083        1088        1087
        1083        1084        1089        1088
        1085        1086        1091        1090
        1086        1087        1092        1091
        1087        1088        1093        1092
        1088        1089        1094        1093
        1090        1091        1096        1095
        1091        1092        1097        1096
        1092        1093        1098        1097
        1093        1094        1099        1098
        1100        1101        1106        1105
        1101        1102        1107        1106
        1102        1103        1108        1107
        1103        1104        1109        1108
        1105        1106        1111        1110
        1106        1107        1112        1111
        1107        1108        1113        1112
        1108        1109        1114        1113
        1110        1111        1116        1115
        1111        1112        1117        1116
        1112        1113        1118        1117
        1113        1114        1119        1118
        1115        1116        1121        1120
        1116        1117        1122        1121
        1117        1118        1123        1122
        1118        1119        1124        1123
        1125        1126        1131        1130
        1126        1127        1132        1131
        1127        1128        1133        1132
        1128        1129        1134        1133
        1130        1131        1136        1135
        1131        1132        1137        1136
        1132        1133        1138        1137
        1133        1134        1139        1138
        1135        1136        1141        1140
        1136        1137        1142        1141
        1137        1138        1143        1142
        1138        1139        1144        1143
        1140        1141        1146        1145
        1141        1142        1147        1146
        1142        1143        1148        1147
        1143        1144        1149        1148
        1150        1151        1156        1155
        1151        1152        1157        1156
        1152        1153        1158        1157
        1153        1154        1159        1158
        1155        1156        1161        1160
        1156        1157        1162        1161
        1157        1158        1163        1162
        1158        1159        1164        1163
        1160        1161        1166        1165
        1161        1162        1167        1166
        1162        1163        1168        1167
        1163        1164        1169        1168
        1165        1166        1171        1170
        1166        1167        1172        1171
        1167        1168        1173        1172
        1168        1169        1174        1173
        1175        1176        1181        1180
        1176        1177        1182        1181
        1177        1178        1183        1182
        1178        1179        1184        1183
        1180        1181        1186        1185
        1181        1182        1187        1186
        1182        1183        1188        1187
        1183        1184        1189        1188
        1185        1186        1191        1190
        1186        1187        1192        1191
        1187        1188        1193        1192
        1188        1189        1194        1193
        1190        1191        1196        1195
        1191        1192        1197        1196
        1192        1193        1198        1197
        1193        1194        1199        1198
        1200        1201        1206        1205
        1201        1202        1207        1206
        1202        1203        1208        1207
        1203        1204        1209        1208
        1205        1206        1211        1210
        1206        1207        1212        1211
        1207        1208        1213        1212
        1208        1209        1214        1213
        1210        1211        1216        1215
        1211        1212        1217        1216
        1212        1213        1218        1217
        1213        1214        1219        1218
        1215        1216        1221        1220
        1216        1217        1222        1221
        1217        1218        1223        1222
        1218        1219        1224        1223
        1225        1226        1231        1230
        1226        1227        1232        1231
        1227        1228        1233        1232
        1228        1229        1234        1233
        1230        1231        1236        1235
        1231        1232        1237        1236
        1232        1233        1238        1237
        1233        1234        1239        1238
        1235        1236        1241        1240
        1236        1237        1242        1241
        1237        1238        1243        1242
        1238        1239        1244        1243
        1240        1241        1246        1245
        1241        1242        1247        1246
        1242        1243        1248        1247
        1243        1244        1249        1248
        1250        1251        1256        1255
        1251        1252        1257        1256
        1252        1253        1258        1257
        1253        1254        1259        1258
        1255        1256        1261        1260
        1256        1257        1262        1261
        1257        1258        1263        1262
        1258        1259        1264        1263
        1260        1261        1266        1265
        1261        1262        1267        1266
        1262        1263        1268        1267
        1263        1264        1269        1268
        1265        1266        1271        1270
        1266        1267        1272        1271
        1267        1268        1273        1272
        1268        1269        1274        1273
        1275        1276        1281        1280
        1276        1277        1282        1281
        1277        1278        1283        1282
        1278        1279        1284        1283
        1280        1281        1286        1285
        1281        1282        1287        1286
        1282        1283        1288        1287
        1283        1284        1289        1288
        1285        1286        1291        1290
        1286        1287        1292        1291
        1287        1288        1293        1292
        1288        1289        1294        1293
        1290        1291        1296        1295
        1291        1292        1297        1296
        1292        1293        1298        1297
        1293        1294        1299        1298
        1300        1301        1306        1305
        1301        1302        1307        1306
        1302        1303        1308        1307
        1303        1304        1309        1308
        1305        1306        1311        1310
        1306        1307        1312        1311
        1307        1308        1313        1312
        1308        1309        1314        1313
        1310        1311        1316        1315
        1311        1312        1317        1316
        1312        1313        1318        1317
        1313        1314        1319        1318
        1315        1316        1321        1320
        1316        1317        1322        1321
        1317        1318        1323        1322
        1318        1319        1324        1323
        1325        1326        1331        1330
        1326        1327        1332        1331
        1327        1328        1333        1332
        1328        1329        1334        1333
        1330        1331        1336        1335
        1331        1332        1337        1336
        1332        1333        1338        1337
        1333        1334        1339        1338
        1335        1336        1341        1340
        1336        1337        1342        1341
        1337        1338        1343        1342
        1338        1339        1344        1343
        1340        1341        1346        1345
        1341        1342        1347        1346
        1342        1343        1348        1347
        1343        1344        1349        1348
        1350        1351        1356        1355
        1351        1352        1357        1356
        1352        1353        1358        1357
        1353        1354        1359        1358
        1355        1356        1361        1360
        1356        1357        1362        1361
        1357        1358        1363        1362
        1358        1359        1364        1363
        1360        1361        1366        1365
        1361        1362        1367        1366
        1362        1363        1368        1367
        1363        1364        1369        1368
        1365        1366        1371        1370
        1366        1367        1372        1371
        1367        1368        1373        1372
        1368        1369        1374        1373
        1375        1376        1381        1380
        1376        1377        1382        1381
        1377        1378        1383        1382
        1378        1379        1384        1383
        1380        1381        1386        1385
        1381        1382        1387        1386
        1382        1383        1388        1387
        1383        1384        1389        1388
        1385        1386        1391        1390
        1386        1387        1392        1391
        1387        1388        1393        1392
        1388        1389        1394        1393
        1390        1391        1396        1395
        1391        1392        1397        1396
        1392        1393        1398        1397
        1393        1394        1399        1398
        1400        1401        1406        1405
        1401        1402        1407        1406
        1402        1403        1408        1407
        1403        1404        1409        1408
        1405        1406        1411        1410
        1406        1407        1412        1411
        1407        1408        1413        1412
        1408        1409        1414        1413
        1410        1411        1416        1415
        1411        1412        1417        1416
        1412        1413        1418        1417
        1413        1414        1419        1418
        1415        1416        1421        1420
        1416        1417        1422        1421
        1417        1418        1423        1422
        1418        1419        1424        1423
        1425        1426        1431        1430
        1426        1427        1432        1431
        1427        1428        1433        1432
        1428        1429        1434        1433
        1430        1431        1436        1435
        1431        1432        1437        1436
        1432        1433        1438        1437
        1433        1434        1439        1438
        1435        1436        1441        1440
        1436        1437        1442        1441
        1437        1438        1443        1442
        1438        1439        1444        1443
        1440        1441        1446        1445
        1441        1442        1447        1446
        1442        1443        1448        1447
        1443        1444        1449        1448
        1450        1451        1456        1455
        1451        1452        1457        1456
        1452        1453        1458        1457
        1453        1454        1459        1458
        1455        1456        1461        1460
        1456        1457        1462        1461
        1457        1458        1463        1462
        1458        1459        1464        1463
        1460        1461        1466        1465
        1461        1462        1467        1466
        1462        1463        1468        1467
        1463        1464        1469        1468
        1465        1466        1471        1470
        1466        1467        1472        1471
        1467        1468        1473        1472
        1468        1469        1474        1473
        1475        1476        1481        1480
        1476        1477        1482        1481
        1477        1478        1483        1482
        1478        1479        1484        1483
        1480        1481        1486        1485
        1481        1482        1487        1486
        1482        1483        1488        1487
        1483        1484        1489        1488
        1485        1486        1491        1490
        1486        1487        1492        1491
        1487        1488        1493        1492
        1488        1489        1494        1493
        1490        1491        1496        1495
        1491        1492        1497        1496
        1492        1493        1498        1497
        1493        1494        1499        1498
        1500        1501        1506        1505
        1501        1502        1507        1506
        1502        1503        1508        1507
        1503        1504        1509        1508
        1505        1506        1511        1510
        1506        1507        1512        1511
        1507        1508        1513        1512
        1508        1509        1514        1513
        1510        1511        1516        1515
        1511        1512        1517        1516
        1512        1513        1518        1517
        1513        1514        1519        1518
        1515        1516        1521        1520
        1516        1517        1522        1521
        1517        1518        1523        1522
        1518        1519        1524        1523
        1525        1526        1531        1530
        1526        1527        1532        1531
        1527        1528        1533        1532
        1528        1529        1534        1533
        1530        1531        1536        1535
        1531        1532        1537        1536
        1532        1533        1538        1537
        1533        1534        1539        1538
        1535        1536        1541        1540
        1536        1537        1542        1541
        1537        1538        1543        1542
        1538        1539        1544        1543
        1540        1541        1546        1545
        1541        1542        1547        1546
        1542        1543        1548        1547
        1543        1544        1549        1548
        1550        1551        1556        1555
        1551        1552        1557        1556
        1552        1553        1558        1557
        1553        1554        1559        1558
        1555        1556        1561        1560
        1556        1557        1562        1561
        1557        1558        1563        1562
        1558        1559        1564        1563
        1560        1561        1566        1565
        1561        1562        1567        1566
        1562        1563        1568        1567
        1563        1564        1569        1568
        1565        1566        1571        1570
        1566        1567        1572        1571
        1567        1568        1573        1572
        1568        1569        1574        1573
        1575        1576        1581        1580
        1576        1577        1582        1581
        1577        1578        1583        1582
        1578        1579        1584        1583
        1580        1581        1586        1585
        1581        1582        1587        1586
        1582        1583        1588        1587
        1583        1584        1589        1588
        1585        1586        1591        1590
        1586        1587        1592        1591
        1587        1588        1593        1592
        1588        1589        1594        1593
        1590        1591        1596        1595
        1591        1592        1597        1596
        1592        1593        1598        1597
        1593        1594        1599        1598
 </DataArray>
 <DataArray  type="Int32"  Name="offsets"  format="ascii"> 
           4
           8
          12
          16
          20
          24
          28
          32
          36
          40
          44
          48
          52
          56
          60
          64
          68
          72
          76
          80
          84
          88
          92
          96
         100
         104
         108
         112
         116
         120
         124
         128
         132
         136
         140
         144
         148
         152
         156
         160
         164
         168
         172
         176
         180
         184
         188
         192
         196
         200
         204
         208
         212
         216
         220
         224
         228
         232
         236
         240
         244
         248
         252
         256
         260
         264
         268
         272
         276
         280
         284
         288
         292
         296
         300
         304
         308
         312
         316
         320
         324
         328
         332
         336
         340
         344
         348
         352
         356
         360
         364
         368
         372
         376
         380
         384
         388
         392
         396
         400
         404
         408
         412
         416
         420
         424
         428
         432
         436
         440
         444
         448
         452
         456
         460
         464
         468
         472
         476
         480
         484
         488
         492
         496
         500
         504
         508
         512
         516
         520
         524
         528
         532
         536
         540
         544
         548
         552
         556
         560
         564
         568
         572
         576
         580
         584
         588
         592
         596
         600
         604
         608
         612
         616
         620
         624
         628
         632
         636
         640
         644
         648
         652
         656
         660
         664
         668
         672
         676
         680
         684
         688
         692
         696
         700
         704
         708
         712
         716
         720
         724
         728
         732
         736
         740
         744
         748
         752
         756
         760
         764
         768
         772
         776
         780
         784
         788
         792
         796
         800
         804
         808
         812
         816
         820
         824
         828
         832
         836
         840
         844
         848
         852
         856
         860
         864
         868
         872
         876
         880
         884
         888
         892
         896
         900
         904
         908
         912
         916
         920
         924
         928
         932
         936
         940
         944
         948
         952
         956
         960
         964
         968
         972
         976
         980
         984
         988
         992
         996
        1000
        1004
        1008
        1012
        1016
        1020
        1024
        1028
        1032
        1036
        1040
        1044
        1048
        1052
        1056
        1060
        1064
        1068
        1072
        1076
        1080
        1084
        1088
        1092
        1096
        1100
        1104
        1108
        1112
        1116
        1120
        1124
        1128
        1132
        1136
        1140
        1144
        1148
        1152
        1156
        1160
        1164
        1168
        1172
        1176
        1180
        1184
        1188
        1192
        1196
        1200
        1204
        1208
        1212
        1216
        1220
        1224
        1228
        1232
        1236
        1240
        1244
        1248
        1252
        1256
        1260
        1264
        1268
        1272
        1276
        1280
        1284
        1288
        1292
        1296
        1300
        1304
        1308
        1312
        1316
        1320
        1324
        1328
        1332
        1336
        1340
        1344
        1348
        1352
        1356
        1360
        1364
        1368
        1372
        1376
        1380
        1384
        1388
        1392
        1396
        1400
        1404
        1408
        1412
        1416
        1420
        1424
        1428
        1432
        1436
        1440
        1444
        1448
        1452
        1456
        1460
        1464
        1468
        1472
        1476
        1480
        1484
        1488
        1492
        1496
        1500
        1504
        1508
        1512
        1516
        1520
        1524
        1528
        1532
        1536
        1540
        1544
        1548
        1552
        1556
        1560
        1564
        1568
        1572
        1576
        1580
        1584
        1588
        1592
        1596
        1600
        1604
        1608
        1612
        1616
        1620
        1624
        1628
        1632
        1636
        1640
        1644
        1648
        1652
        1656
        1660
        1664
        1668
        1672
        1676
        1680
        1684
        1688
        1692
        1696
        1700
        1704
        1708
        1712
        1716
        1720
        1724
        1728
        1732
        1736
        1740
        1744
        1748
        1752
        1756
        1760
        1764
        1768
        1772
        1776
        1780
        1784
        1788
        1792
        1796
        1800
        1804
        1808
        1812
        1816
        1820
        1824
        1828
        1832
        1836
        1840
        1844
        1848
        1852
        1856
        1860
        1864
        1868
        1872
        1876
        1880
        1884
        1888
        1892
        1896
        1900
        1904
        1908
        1912
        1916
        1920
        1924
        1928
        1932
        1936
        1940
        1944
        1948
        1952
        1956
        1960
        1964
        1968
        1972
        1976
        1980
        1984
        1988
        1992
        1996
        2000
        2004
        2008
        2012
        2016
        2020
        2024
        2028
        2032
        2036
        2040
        2044
        2048
        2052
        2056
        2060
        2064
        2068
        2072
        2076
        2080
        2084
        2088
        2092
        2096
        2100
        2104
        2108
        2112
        2116
        2120
        2124
        2128
        2132
        2136
        2140
        2144
        2148
        2152
        2156
        2160
        2164
        2168
        2172
        2176
        2180
        2184
        2188
        2192
        2196
        2200
        2204
        2208
        2212
        2216
        2220
        2224
        2228
        2232
        2236
        2240
        2244
        2248
        2252
        2256
        2260
        2264
        2268
        2272
        2276
        2280
        2284
        2288
        2292
        2296
        2300
        2304
        2308
        2312
        2316
        2320
        2324
        2328
        2332
        2336
        2340
        2344
        2348
        2352
        2356
        2360
        2364
        2368
        2372
        2376
        2380
        2384
        2388
        2392
        2396
        2400
        2404
        2408
        2412
        2416
        2420
        2424
        2428
        2432
        2436
        2440
        2444
        2448
        2452
        2456
        2460
        2464
        2468
        2472
        2476
        2480
        2484
        2488
        2492
        2496
        2500
        2504
        2508
        2512
        2516
        2520
        2524
        2528
        2532
        2536
        2540
        2544
        2548
        2552
        2556
        2560
        2564
        2568
        2572
        2576
        2580
        2584
        2588
        2592
        2596
        2600
        2604
        2608
        2612
        2616
        2620
        2624
        2628
        2632
        2636
        2640
        2644
        2648
        2652
        2656
        2660
        2664
        2668
        2672
        2676
        2680
        2684
        2688
        2692
        2696
        2700
        2704
        2708
        2712
        2716
        2720
        2724
        2728
        2732
        2736
        2740
        2744
        2748
        2752
        2756
        2760
        2764
        2768
        2772
        2776
        2780
        2784
        2788
        2792
        2796
        2800
        2804
        2808
        2812
        2816
        2820
        2824
        2828
        2832
        2836
        2840
        2844
        2848
        2852
        2856
        2860
        2864
        2868
        2872
        2876
        2880
        2884
        2888
        2892
        2896
        2900
        2904
        2908
        2912
        2916
        2920
        2924
        2928
        2932
        2936
        2940
        2944
        2948
        2952
        2956
        2960
        2964
        2968
        2972
        2976
        2980
        2984
        2988
        2992
        2996
        3000
        3004
        3008
        3012
        3016
        3020
        3024
        3028
        3032
        3036
        3040
        3044
        3048
        3052
        3056
        3060
        3064
        3068
        3072
        3076
        3080
        3084
        3088
        3092
        3096
        3100
        3104
        3108
        3112
        3116
        3120
        3124
        3128
        3132
        3136
        3140
        3144
        3148
        3152
        3156
        3160
        3164
        3168
        3172
        3176
        3180
        3184
        3188
        3192
        3196
        3200
        3204
        3208
        3212
        3216
        3220
        3224
        3228
        3232
        3236
        3240
        3244
        3248
        3252
        3256
        3260
        3264
        3268
        3272
        3276
        3280
        3284
        3288
        3292
        3296
        3300
        3304
        3308
        3312
        3316
        3320
        3324
        3328
        3332
        3336
        3340
        3344
        3348
        3352
        3356
        3360
        3364
        3368
        3372
        3376
        3380
        3384
        3388
        3392
        3396
        3400
        3404
        3408
        3412
        3416
        3420
        3424
        3428
        3432
        3436
        3440
        3444
        3448
        3452
        3456
        3460
        3464
        3468
        3472
        3476
        3480
        3484
        3488
        3492
        3496
        3500
        3504
        3508
        3512
        3516
        3520
        3524
        3528
        3532
        3536
        3540
        3544
        3548
        3552
        3556
        3560
        3564
        3568
        3572
        3576
        3580
        3584
        3588
        3592
        3596
        3600
        3604
        3608
        3612
        3616
        3620
        3624
        3628
        3632
        3636
        3640
        3644
        3648
        3652
        3656
        3660
        3664
        3668
        3672
        3676
        3680
        3684
        3688
        3692
        3696
        3700
        3704
        3708
        3712
        3716
        3720
        3724
        3728
        3732
        3736
        3740
        3744
        3748
        3752
        3756
        3760
        3764
        3768
        3772
        3776
        3780
        3784
        3788
        3792
        3796
        3800
        3804
        3808
        3812
        3816
        3820
        3824
        3828
        3832
        3836
        3840
        3844
        3848
        3852
        3856
        3860
        3864
        3868
        3872
        3876
        3880
        3884
        3888
        3892
        3896
        3900
        3904
        3908
        3912
        3916
        3920
        3924
        3928
        3932
        3936
        3940
        3944
        3948
        3952
        3956
        3960
        3964
        3968
        3972
        3976
        3980
        3984
        3988
        3992
        3996
        4000
        4004
        4008
        4012
        4016
        4020
        4024
        4028
        4032
        4036
        4040
        4044
        4048
        4052
        4056
        4060
        4064
        4068
        4072
        4076
        4080
        4084
        4088
        4092
        4096
 </DataArray>
 <DataArray  type="UInt8"  Name="types"  format="ascii">
 9
 9
 9
 9
 9
 9
 9
 9
 9
 9
 9
 9
 9
 9
 9
 9
 9
 9
 9
 9
 9
 9
 9
 9
 9
 9
 9
 9
 9
 9
 9
 9
 9
 9
 9
 9
 9
 9
 9
 9
 9
 9
 9
 9
 9
 9
 9
 9
 9
 9
 9
 9
 9
 9
 9
 9
 9
 9
 9
 9
 9
 9
 9
 9
 9
 9
 9
 9
 9
 9
 9
 9
 9
 9
 9
 9
 9
 9
 9
 9
 9
 9
 9
 9
 9
 9
 9
 9
 9
 9
 9
 9
 9
 9
 9
 9
 9
 9
 9
 9
 9
 9
 9
 9
 9
 9
 9
 9
 9
 9
 9
 9
 9
 9
 9
 9
 9
 9
 9
 9
 9
 9
 9
 9
 9
 9
 9
 9
 9
 9
 9
 9
 9
 9
 9
 9
 9
 9
 9
 9
 9
 9
 9
 9
 9
 9
 9
 9
 9
 9
 9
 9
 9
 9
 9
 9
 9
 9
 9
 9
 9
 9
 9
 9
 9
 9
 9
 9
 9
 9
 9
 9
 9
 9
 9
 9
 9
 9
 9
 9
 9
 9
 9
 9
 9
 9
 9
 9
 9
 9
 9
 9
 9
 9
 9
 9
 9
 9
 9
 9
 9
 9
 9
 9
 9
 9
 9
 9
 9
 9
 9
 9
 9
 9
 9
 9
 9
 9
 9
 9
 9
 9
 9
 9
 9
 9
 9
 9
 9
 9
 9
 9
 9
 9
 9
 9
 9
 9
 9
 9
 9
 9
 9
 9
 9
 9
 9
 9
 9
 9
 9
 9
 9
 9
 9
 9
 9
 9
 9
 9
 9
 9
 9
 9
 9
 9
 9
 9
 9
 9
 9
 9
 9
 9
 9
 9
 9
 9
 9
 9
 9
 9
 9
 9
 9
 9
 9
 9
 9
 9
 9
 9
 9
 9
 9
 9
 9
 9
 9
 9
 9
 9
 9
 9
 9
 9
 9
 9
 9
 9
 9
 9
 9
 9
 9
 9
 9
 9
 9
 9
 9
 9
 9
 9
 9
 9
 9
 9
 9
 9
 9
 9
 9
 9
 9
 9
 9
 9
 9
 9
 9
 9
 9
 9
 9
 9
 9
 9
 9
 9
 9
 9
 9
 9
 9
 9
 9
 9
 9
 9
 9
 9
 9
 9
 9
 9
 9
 9
 9
 9
 9
 9
 9
 9
 9
 9
 9
 9
 9
 9
 9
 9
 9
 9
 9
 9
 9
 9
 9
 9
 9
 9
 9
 9
 9
 9
 9
 9
 9
 9
 9
 9
 9
 9
 9
 9
 9
 9
 9
 9
 9
 9
 9
 9
 9
 9
 9
 9
 9
 9
 9
 9
 9
 9
 9
 9
 9
 9
 9
 9
 9
 9
 9
 9
 9
 9
 9
 9
 9
 9
 9
 9
 9
 9
 9
 9
 9
 9
 9
 9
 9
 9
 9
 9
 9
 9
 9
 9
 9
 9
 9
 9
 9
 9
 9
 9
 9
 9
 9
 9
 9
 9
 9
 9
 9
 9
 9
 9
 9
 9
 9
 9
 9
 9
 9
 9
 9
 9
 9
 9
 9
 9
 9
 9
 9
 9
 9
 9
 9
 9
 9
 9
 9
 9
 9
 9
 9
 9
 9
 9
 9
 9
 9
 9
 9
 9
 9
 9
 9
 9
 9
 9
 9
 9
 9
 9
 9
 9
 9
 9
 9
 9
 9
 9
 9
 9
 9
 9
 9
 9
 9
 9
 9
 9
 9
 9
 9
 9
 9
 9
 9
 9
 9
 9
 9
 9
 9
 9
 9
 9
 9
 9
 9
 9
 9
 9
 9
 9
 9
 9
 9
 9
 9
 9
 9
 9
 9
 9
 9
 9
 9
 9
 9
 9
 9
 9
 9
 9
 9
 9
 9
 9
 9
 9
 9
 9
 9
 9
 9
 9
 9
 9
 9
 9
 9
 9
 9
 9
 9
 9
 9
 9
 9
 9
 9
 9
 9
 9
 9
 9
 9
 9
 9
 9
 9
 9
 9
 9
 9
 9
 9
 9
 9
 9
 9
 9
 9
 9
 9
 9
 9
 9
 9
 9
 9
 9
 9
 9
 9
 9
 9
 9
 9
 9
 9
 9
 9
 9
 9
 9
 9
 9
 9
 9
 9
 9
 9
 9
 9
 9
 9
 9
 9
 9
 9
 9
 9
 9
 9
 9
 9
 9
 9
 9
 9
 9
 9
 9
 9
 9
 9
 9
 9
 9
 9
 9
 9
 9
 9
 9
 9
 9
 9
 9
 9
 9
 9
 9
 9
 9
 9
 9
 9
 9
 9
 9
 9
 9
 9
 9
 9
 9
 9
 9
 9
 9
 9
 9
 9
 9
 9
 9
 9
 9
 9
 9
 9
 9
 9
 9
 9
 9
 9
 9
 9
 9
 9
 9
 9
 9
 9
 9
 9
 9
 9
 9
 9
 9
 9
 9
 9
 9
 9
 9
 9
 9
 9
 9
 9
 9
 9
 9
 9
 9
 9
 9
 9
 9
 9
 9
 9
 9
 9
 9
 9
 9
 9
 9
 9
 9
 9
 9
 9
 9
 9
 9
 9
 9
 9
 9
 9
 9
 9
 9
 9
 9
 9
 9
 9
 9
 9
 9
 9
 9
 9
 9
 9
 9
 9
 9
 9
 9
 9
 9
 9
 9
 9
 9
 9
 9
 9
 9
 9
 9
 9
 9
 9
 9
 9
 9
 9
 9
 9
 9
 9
 9
 9
 9
 9
 9
 9
 9
 9
 9
 9
 9
 9
 9
 9
 9
 9
 9
 9
 9
 9
 9
 9
 9
 9
 9
 9
 9
 9
 9
 9
 9
 9
 9
 9
 9
 9
 9
 9
 9
 9
 9
 9
 9
 9
 9
 9
 9
 9
 9
 9
 9
 9
 9
 9
 9
 9
 9
 9
 9
 9
 9
 9
 9
 9
 9
 9
 9
 9
 9
 9
 9
 9
 9
 9
 9
 9
 9
 9
 9
 9
 9
 9
 9
 9
 9
 9
 9
 9
 9
 9
 9
 9
 9
 9
 9
 9
 9
 9
 9
 9
 9
 9
 9
 9
 9
 9
 9
 9
 9
 9
 9
 9
 9
 9
 9
 9
 9
 9
 9
 9
 9
 9
 9
 9
 9
 9
 9
 9
 9
 9
 9
 9
 9
 9
 9
 9
 9
 9
 9
 9
 9
 9
 9
 9
 9
 9
 9
 9
 9
 9
 9
 9
 9
 9
 9
 9
 9
 9
 9
 9
 9
 9
 9
 9
 9
 9
 9
 9
 9
 9
 9
 9
 9
 9
 9
 9
 9
 9
 9
 </DataArray>
 </Cells> 
 <PointData>
 <DataArray  type="Float64" Name="disp" NumberOfComponents="3" format="ascii">
   6.5237044111509573E-002   6.2784906688166053E-002   0.0000000000000000     
   6.8367086369919533E-002   6.8177949474201693E-002   0.0000000000000000     
   7.1368956471883432E-002   7.3747390283437686E-002   0.0000000000000000     
   7.4242654417401258E-002   7.9493229115874045E-002   0.0000000000000000     
   7.6988180206472995E-002   8.5415465971510729E-002   0.0000000000000000     
   6.0094926087836863E-002   6.1885482374483589E-002   0.0000000000000000     
   6.3036687703494979E-002   6.7300856795708991E-002   0.0000000000000000     
   6.5854924374710966E-002   7.2895228849976484E-002   0.0000000000000000     
   6.8549636101484832E-002   7.8668598537286055E-002   0.0000000000000000     
   7.1120822883816562E-002   8.4620965857637731E-002   0.0000000000000000     
   5.5130533098892362E-002   6.1040836893851293E-002   0.0000000000000000     
   5.7881923701194882E-002   6.6479288863229125E-002   0.0000000000000000     
   6.0515955302792197E-002   7.2098286289945301E-002   0.0000000000000000     
   6.3032627903684316E-002   7.7897829173999830E-002   0.0000000000000000     
   6.5431941503871244E-002   8.3877917515392711E-002   0.0000000000000000     
   5.0343865144676064E-002   6.0250970246269159E-002   0.0000000000000000     
   5.2902794363019257E-002   6.5713245676762122E-002   0.0000000000000000     
   5.5352049256127141E-002   7.1356562603344165E-002   0.0000000000000000     
   5.7691629823999717E-002   7.7180921026015356E-002   0.0000000000000000     
   5.9921536066637013E-002   8.3186320944775655E-002   0.0000000000000000     
   4.5734922225187977E-002   5.9515882431737194E-002   0.0000000000000000     
   4.8099299688968089E-002   6.5002727236307942E-002   0.0000000000000000     
   5.0363206234715775E-002   7.0670057790173102E-002   0.0000000000000000     
   5.2526641862431049E-002   7.6517874093332619E-002   0.0000000000000000     
   5.4589606572113897E-002   8.2546176145786576E-002   0.0000000000000000     
   7.6988180206472995E-002   8.5415465971510729E-002   0.0000000000000000     
   7.9631508983044344E-002   9.1506020926403531E-002   0.0000000000000000     
   8.2198615891060992E-002   9.7756814056608174E-002   0.0000000000000000     
   8.4689500930522910E-002  0.10416784536212464        0.0000000000000000     
   8.7104164101430140E-002  0.11073911484295298        0.0000000000000000     
   7.1120822883816562E-002   8.4620965857637731E-002   0.0000000000000000     
   7.3594901636620039E-002   9.0742234035021102E-002   0.0000000000000000     
   7.5998289274809144E-002   9.7022306293425772E-002   0.0000000000000000     
   7.8330985798383865E-002  0.10346118263285173        0.0000000000000000     
   8.0592991207344200E-002  0.11005886305329897        0.0000000000000000     
   6.5431941503871244E-002   8.3877917515392711E-002   0.0000000000000000     
   6.7739700378250139E-002   9.0027217581863217E-002   0.0000000000000000     
   6.9981708801718223E-002   9.6334395641150650E-002   0.0000000000000000     
   7.2157966774275467E-002  0.10279945169325501        0.0000000000000000     
   7.4268474295921899E-002  0.10942238573817629        0.0000000000000000     
   5.9921536066637013E-002   8.3186320944775655E-002   0.0000000000000000     
   6.2065905207934619E-002   8.9360971566929862E-002   0.0000000000000000     
   6.4148874471788200E-002   9.5693082099782834E-002   0.0000000000000000     
   6.6170443858197744E-002  0.10218265254333452        0.0000000000000000     
   6.8130613367163237E-002  0.10882968289758496        0.0000000000000000     
   5.4589606572113897E-002   8.2546176145786576E-002   0.0000000000000000     
   5.6573516125673518E-002   8.8743495990221077E-002   0.0000000000000000     
   5.8499786285019117E-002   9.5098365669322296E-002   0.0000000000000000     
   6.0368417050150690E-002  0.10161078518309027        0.0000000000000000     
   6.2179408421068241E-002  0.10828075453152494        0.0000000000000000     
   8.7104164101430140E-002  0.11073911484295298        0.0000000000000000     
   8.9426473549685220E-002  0.11745640198650180        0.0000000000000000     
   9.1640297421190703E-002  0.12430548628017975        0.0000000000000000     
   9.3745635715946629E-002  0.13128636772398680        0.0000000000000000     
   9.5742488433952944E-002  0.13839904631792299        0.0000000000000000     
   8.0592991207344200E-002  0.11005886305329897        0.0000000000000000     
   8.2768905823379466E-002  0.11680229243182660        0.0000000000000000     
   8.4843329968179004E-002  0.12367841564549363        0.0000000000000000     
   8.6816263641742775E-002  0.13068723269430010        0.0000000000000000     
   8.8687706844070818E-002  0.13782874357824598        0.0000000000000000     
   7.4268474295921899E-002  0.10942238573817629        0.0000000000000000     
   7.6298709270599369E-002  0.11619092196503041        0.0000000000000000     
   7.8234149602249767E-002  0.12309278456293321        0.0000000000000000     
   8.0074795290873052E-002  0.13012797353188477        0.0000000000000000     
   8.1820646336469280E-002  0.13729648887188498        0.0000000000000000     
   6.8130613367163237E-002  0.10882968289758496        0.0000000000000000     
   7.0015883891344929E-002  0.11562229058611323        0.0000000000000000     
   7.1812756323403004E-002  0.12254859303249850        0.0000000000000000     
   7.3521230663337489E-002  0.12960859023674076        0.0000000000000000     
   7.5141306911148356E-002  0.13680228219883997        0.0000000000000000     
   6.2179408421068241E-002  0.10828075453152494        0.0000000000000000     
   6.3920429685616120E-002  0.11509639829507512        0.0000000000000000     
   6.5579150131638730E-002  0.12204584105418950        0.0000000000000000     
   6.7155569759136030E-002  0.12912908280886812        0.0000000000000000     
   6.8649688568108061E-002  0.13634612355911099        0.0000000000000000     
   9.5742488433952944E-002  0.13839904631792299        0.0000000000000000     
   9.7641612785082876E-002  0.14563300230907850        0.0000000000000000     
   9.9453765979209546E-002  0.15297771594454340        0.0000000000000000     
  0.10117894801633298       0.16043318722431774        0.0000000000000000     
  0.10281715889645318       0.16799941614840153        0.0000000000000000     
   8.8687706844070818E-002  0.13782874357824598        0.0000000000000000     
   9.0467421330502951E-002  0.14509136027461425        0.0000000000000000     
   9.2165168856379071E-002  0.15246349476068782        0.0000000000000000     
   9.3780949421699164E-002  0.15994514703646670        0.0000000000000000     
   9.5314763026463217E-002  0.16753631710195088        0.0000000000000000     
   8.1820646336469280E-002  0.13729648887188498        0.0000000000000000     
   8.3480470243159494E-002  0.14458606362499538        0.0000000000000000     
   8.5063034515064806E-002  0.15198443083327737        0.0000000000000000     
   8.6568339152185217E-002  0.15949159049673095        0.0000000000000000     
   8.7996384154520685E-002  0.16710754261535615        0.0000000000000000     
   7.5141306911148356E-002  0.13680228219883997        0.0000000000000000     
   7.6680759523052505E-002  0.14411711236022187        0.0000000000000000     
   7.8147362955266766E-002  0.15154052416231201        0.0000000000000000     
   7.9541117207791126E-002  0.15907251760511057        0.0000000000000000     
   8.0862022280625612E-002  0.16671309268861736        0.0000000000000000     
   6.8649688568108061E-002  0.13634612355911099        0.0000000000000000     
   7.0068289170181958E-002  0.14368450648029366        0.0000000000000000     
   7.1418154176984924E-002  0.15113177474779177        0.0000000000000000     
   7.2699283588516933E-002  0.15868792836160542        0.0000000000000000     
   7.3911677404777984E-002  0.16635296732173446        0.0000000000000000     
  0.10281715889645318       0.16799941614840153        0.0000000000000000     
  0.10436807295404370       0.17566563523099890        0.0000000000000000     
  0.10583136452357807       0.18342107698631388        0.0000000000000000     
  0.10720703360505632       0.19126574141434663        0.0000000000000000     
  0.10849508019847842       0.19919962851509698        0.0000000000000000     
   9.5314763026463217E-002  0.16753631710195088        0.0000000000000000     
   9.6765085678577778E-002  0.17522730468287995        0.0000000000000000     
   9.8130393385949380E-002  0.18300840950499350        0.0000000000000000     
   9.9410686148578037E-002  0.19087963156829146        0.0000000000000000     
  0.10060596396646372       0.19884097087277389        0.0000000000000000     
   8.7996384154520685E-002  0.16710754261535615        0.0000000000000000     
   8.9344737925936057E-002  0.17482315104970014        0.0000000000000000     
   9.0610968870296044E-002  0.18262927966031015        0.0000000000000000     
   9.1795076987600671E-002  0.19052592844718610        0.0000000000000000     
   9.2897062277849954E-002  0.19851309741032808        0.0000000000000000     
   8.0862022280625612E-002  0.16671309268861736        0.0000000000000000     
   8.2107029696118494E-002  0.17445317433145949        0.0000000000000000     
   8.3273090976618031E-002  0.18228368745226392        0.0000000000000000     
   8.4360206122124248E-002  0.19020463205103061        0.0000000000000000     
   8.5368375132637148E-002  0.19821600812775952        0.0000000000000000     
   7.3911677404777984E-002  0.16635296732173446        0.0000000000000000     
   7.5051960989125130E-002  0.17411737452815790        0.0000000000000000     
   7.6116759704915396E-002  0.18197163288085466        0.0000000000000000     
   7.7106073552148768E-002  0.18991574237982481        0.0000000000000000     
   7.8019902530825247E-002  0.19794970302506826        0.0000000000000000     
  0.10849508019847842       0.19919962851509698        0.0000000000000000     
  0.10970186107958296       0.20721899915856296        0.0000000000000000     
  0.11083373302410847       0.21532011421474256        0.0000000000000000     
  0.11189069603205495       0.22350297368363564        0.0000000000000000     
  0.11287275010342240       0.23176757756524238        0.0000000000000000     
  0.10060596396646372       0.19884097087277389        0.0000000000000000     
  0.10172227999257907       0.20688610163425133        0.0000000000000000     
  0.10276568737989673       0.21500869806853434        0.0000000000000000     
  0.10373618612841669       0.22320876017562297        0.0000000000000000     
  0.10463377623813894       0.23148628795551712        0.0000000000000000     
   9.2897062277849954E-002  0.19851309741032808        0.0000000000000000     
   9.3922018261821338E-002  0.20658299965368426        0.0000000000000000     
   9.4875038460292285E-002  0.21472784828120300        0.0000000000000000     
   9.5756122873262794E-002  0.22294764329288425        0.0000000000000000     
   9.6565271500732866E-002  0.23124238468872793        0.0000000000000000     
   8.5368375132637148E-002  0.19821600812775952        0.0000000000000000     
   8.6301075887309731E-002  0.20630969321686182        0.0000000000000000     
   8.7161786265295110E-002  0.21447756485274846        0.0000000000000000     
   8.7950506266593273E-002  0.22271962303541948        0.0000000000000000     
   8.8667235891204205E-002  0.23103586776487478        0.0000000000000000     
   7.8019902530825247E-002  0.19794970302506826        0.0000000000000000     
   7.8859452869044264E-002  0.20606618232378396        0.0000000000000000     
   7.9625930794905209E-002  0.21425784778317075        0.0000000000000000     
   8.0319336308408124E-002  0.22252469940322864        0.0000000000000000     
   8.0939669409552967E-002  0.23086673718395767        0.0000000000000000     
  0.11287275010342240       0.23176757756524238        0.0000000000000000     
  0.11380777473251016       0.24013048890364408        0.0000000000000000     
  0.11472364941361757       0.24860827074292219        0.0000000000000000     
  0.11562037414674460       0.25720092308307674        0.0000000000000000     
  0.11649794893189128       0.26590844592410762        0.0000000000000000     
  0.10463377623813894       0.23148628795551712        0.0000000000000000     
  0.10546331654347635       0.23986481685953515        0.0000000000000000     
  0.10622966587884181       0.24836788233899518        0.0000000000000000     
  0.10693282424423532       0.25699548439389730        0.0000000000000000     
  0.10757279163965688       0.26574762302424143        0.0000000000000000     
   9.6565271500732866E-002  0.23124238468872793        0.0000000000000000     
   9.7293236176170556E-002  0.23963862136086633        0.0000000000000000     
   9.7930768733043919E-002  0.24816290220143161        0.0000000000000000     
   9.8477869171352983E-002  0.25681522721042366        0.0000000000000000     
   9.8934537491097679E-002  0.26559559638784264        0.0000000000000000     
   8.8667235891204205E-002  0.23103586776487478        0.0000000000000000     
   8.9297533630592799E-002  0.23945190240763770        0.0000000000000000     
   8.9826957976223892E-002  0.24799333033023141        0.0000000000000000     
   9.0255508928097514E-002  0.25666015153265598        0.0000000000000000     
   9.0583186486213663E-002  0.26545236601491129        0.0000000000000000     
   8.0939669409552967E-002  0.23086673718395767        0.0000000000000000     
   8.1476208906743064E-002  0.23930465999984921        0.0000000000000000     
   8.1918233608381755E-002  0.24785916672539465        0.0000000000000000     
   8.2265743514469025E-002  0.25653025736059409        0.0000000000000000     
   8.2518738625004862E-002  0.26531793190544745        0.0000000000000000     
  0.11649794893189128       0.26590844592410762        0.0000000000000000     
  0.11729681043096341       0.27489543177451392        0.0000000000000000     
  0.11795739530586681       0.28432647314279474        0.0000000000000000     
  0.11847970355660152       0.29420157002894987        0.0000000000000000     
  0.11886373518316752       0.30452072243297945        0.0000000000000000     
  0.10757279163965688       0.26574762302424143        0.0000000000000000     
  0.10813063046081406       0.27475641310089555        0.0000000000000000     
  0.10858740310341443       0.28415396949472749        0.0000000000000000     
  0.10894310956745794       0.29394029220573742        0.0000000000000000     
  0.10919774985294464       0.30411538123392517        0.0000000000000000     
   9.8934537491097679E-002  0.26559559638784264        0.0000000000000000     
   9.9311807040630640E-002  0.27460226136556343        0.0000000000000000     
   9.9620711168304288E-002  0.28393347377546091        0.0000000000000000     
   9.9861249874118721E-002  0.29358923361753519        0.0000000000000000     
  0.10003342315807390       0.30356954089178623        0.0000000000000000     
   9.0583186486213663E-002  0.26545236601491129        0.0000000000000000     
   9.0840340170413092E-002  0.27443297656851762        0.0000000000000000     
   9.1057319500536499E-002  0.28366498598499490        0.0000000000000000     
   9.1234124476583925E-002  0.29314839426434319        0.0000000000000000     
   9.1370755098555329E-002  0.30288320140656255        0.0000000000000000     
   8.2518738625004862E-002  0.26531793190544745        0.0000000000000000     
   8.2716229850161443E-002  0.27424855870975806        0.0000000000000000     
   8.2897228100111006E-002  0.28334850612332946        0.0000000000000000     
   8.3061733374853494E-002  0.29261777414616147        0.0000000000000000     
   8.3209745674388907E-002  0.30205636277825421        0.0000000000000000     
   4.5734922225187977E-002   5.9515882431737194E-002   0.0000000000000000     
   4.8099299688968089E-002   6.5002727236307942E-002   0.0000000000000000     
   5.0363206234715775E-002   7.0670057790173102E-002   0.0000000000000000     
   5.2526641862431049E-002   7.6517874093332619E-002   0.0000000000000000     
   5.4589606572113897E-002   8.2546176145786576E-002   0.0000000000000000     
   4.1294341973864064E-002   5.8838502093897196E-002   0.0000000000000000     
   4.3463235400787129E-002   6.4348539734774640E-002   0.0000000000000000     
   4.5541170977743441E-002   7.0038304725463685E-002   0.0000000000000000     
   4.7528148704732980E-002   7.5907797065964372E-002   0.0000000000000000     
   4.9424168581755759E-002   8.1957016756276674E-002   0.0000000000000000     
   3.7012762024140285E-002   5.8221757876390959E-002   0.0000000000000000     
   3.8986397220222131E-002   6.3751489365070191E-002   0.0000000000000000     
   4.0877688224395435E-002   6.9460836284247623E-002   0.0000000000000000     
   4.2686635036660210E-002   7.5349798633923298E-002   0.0000000000000000     
   4.4413237657016442E-002   8.1418376414097146E-002   0.0000000000000000     
   3.2890182376016638E-002   5.7665649779218488E-002   0.0000000000000000     
   3.4668785147273062E-002   6.3211576127194621E-002   0.0000000000000000     
   3.6372757974671766E-002   6.8937652466524918E-002   0.0000000000000000     
   3.8002100858212748E-002   7.4843878797209371E-002   0.0000000000000000     
   3.9556813797895982E-002   8.0930255119248007E-002   0.0000000000000000     
   2.8926603029493132E-002   5.7170177802379776E-002   0.0000000000000000     
   3.0510399181939957E-002   6.2728800021147904E-002   0.0000000000000000     
   3.2026380228572432E-002   6.8468753272295527E-002   0.0000000000000000     
   3.3474546169390565E-002   7.4390037555822630E-002   0.0000000000000000     
   3.4854897004394356E-002   8.0492652871729242E-002   0.0000000000000000     
   5.4589606572113897E-002   8.2546176145786576E-002   0.0000000000000000     
   5.6573516125673518E-002   8.8743495990221077E-002   0.0000000000000000     
   5.8499786285019117E-002   9.5098365669322296E-002   0.0000000000000000     
   6.0368417050150690E-002  0.10161078518309027        0.0000000000000000     
   6.2179408421068241E-002  0.10828075453152494        0.0000000000000000     
   4.9424168581755759E-002   8.1957016756276674E-002   0.0000000000000000     
   5.1247747809409029E-002   8.8175017662402017E-002   0.0000000000000000     
   5.3017403588290067E-002   9.4550853650341868E-002   0.0000000000000000     
   5.4733135918398887E-002  0.10108452472009619        0.0000000000000000     
   5.6394944799735461E-002  0.10777603087166501        0.0000000000000000     
   4.4413237657016442E-002   8.1418376414097146E-002   0.0000000000000000     
   4.6073814937083367E-002   8.7655763394137914E-002   0.0000000000000000     
   4.7684685728480183E-002   9.4051153343414282E-002   0.0000000000000000     
   4.9245850031206913E-002  0.10060454626192625        0.0000000000000000     
   5.0757307845263513E-002  0.10731594214967383        0.0000000000000000     
   3.9556813797895982E-002   8.0930255119248007E-002   0.0000000000000000     
   4.1051717508696538E-002   8.7185733185428757E-002   0.0000000000000000     
   4.2501632705589466E-002   9.3599264748539565E-002   0.0000000000000000     
   4.3906559388574774E-002  0.10017084980858049        0.0000000000000000     
   4.5266497557652427E-002  0.10690048836555145        0.0000000000000000     
   3.4854897004394356E-002   8.0492652871729242E-002   0.0000000000000000     
   3.6181455524248549E-002   8.6764927036274545E-002   0.0000000000000000     
   3.7468244519617916E-002   9.3195187865717732E-002   0.0000000000000000     
   3.8715263990502451E-002   9.9783435360058848E-002   0.0000000000000000     
   3.9922513936902153E-002  0.10652966951929785        0.0000000000000000     
   6.2179408421068241E-002  0.10828075453152494        0.0000000000000000     
   6.3920429685616120E-002  0.11509639829507512        0.0000000000000000     
   6.5579150131638730E-002  0.12204584105418950        0.0000000000000000     
   6.7155569759136030E-002  0.12912908280886812        0.0000000000000000     
   6.8649688568108061E-002  0.13634612355911099        0.0000000000000000     
   5.6394944799735461E-002  0.10777603087166501        0.0000000000000000     
   5.7991664820746580E-002  0.11461337345343245        0.0000000000000000     
   5.9512130569879036E-002  0.12158455381378269        0.0000000000000000     
   6.0956342047132794E-002  0.12868957195271571        0.0000000000000000     
   6.2324299252507875E-002  0.13592842787023149        0.0000000000000000     
   5.0757307845263513E-002  0.10731594214967383        0.0000000000000000     
   5.2208907464069941E-002  0.11417334442270169        0.0000000000000000     
   5.3590497181046061E-002  0.12116475649705451        0.0000000000000000     
   5.4902076996191838E-002  0.12829017837273232        0.0000000000000000     
   5.6143646909507322E-002  0.13554961004973509        0.0000000000000000     
   4.5266497557652427E-002  0.10690048836555145        0.0000000000000000     
   4.6572157615586182E-002  0.11377631120288283        0.0000000000000000     
   4.7814249965139763E-002  0.12078644910400504        0.0000000000000000     
   4.8992774606313169E-002  0.12793090206891800        0.0000000000000000     
   5.0107731539106429E-002  0.13520967009762175        0.0000000000000000     
   3.9922513936902153E-002  0.10652966951929785        0.0000000000000000     
   4.1081415275295304E-002  0.11342227379397592        0.0000000000000000     
   4.2183388922160184E-002  0.12044963163463419        0.0000000000000000     
   4.3228434877496794E-002  0.12761174304127271        0.0000000000000000     
   4.4216553141305147E-002  0.13490860801389143        0.0000000000000000     
   6.8649688568108061E-002  0.13634612355911099        0.0000000000000000     
   7.0068289170181958E-002  0.14368450648029366        0.0000000000000000     
   7.1418154176984924E-002  0.15113177474779177        0.0000000000000000     
   7.2699283588516933E-002  0.15868792836160542        0.0000000000000000     
   7.3911677404777984E-002  0.16635296732173446        0.0000000000000000     
   6.2324299252507875E-002  0.13592842787023149        0.0000000000000000     
   6.3621828789679938E-002  0.14328890167038985        0.0000000000000000     
   6.4854757262324633E-002  0.15075877345725053        0.0000000000000000     
   6.6023084670441962E-002  0.15833804323081355        0.0000000000000000     
   6.7126811014031937E-002  0.16602671099107891        0.0000000000000000     
   5.6143646909507322E-002  0.13554961004973509        0.0000000000000000     
   5.7320147986678470E-002  0.14293095361568944        0.0000000000000000     
   5.8436521293391240E-002  0.15042211115822207        0.0000000000000000     
   5.9492766829645612E-002  0.15802308267733298        0.0000000000000000     
   6.0488884595441612E-002  0.16573386817302210        0.0000000000000000     
   5.0107731539106429E-002  0.13520967009762175        0.0000000000000000     
   5.1163246761177575E-002  0.14261066231619246        0.0000000000000000     
   5.2163446270184724E-002  0.15012178785070646        0.0000000000000000     
   5.3108330066127876E-002  0.15774304670116368        0.0000000000000000     
   5.3997898149007011E-002  0.16547443886756413        0.0000000000000000     
   4.4216553141305147E-002  0.13490860801389143        0.0000000000000000     
   4.5151125113177246E-002  0.14232802777189890        0.0000000000000000     
   4.6035532192705106E-002  0.14985780353470365        0.0000000000000000     
   4.6869774379888721E-002  0.15749793530230566        0.0000000000000000     
   4.7653851674728111E-002  0.16524842307470489        0.0000000000000000     
   7.3911677404777984E-002  0.16635296732173446        0.0000000000000000     
   7.5051960989125130E-002  0.17411737452815790        0.0000000000000000     
   7.6116759704915396E-002  0.18197163288085466        0.0000000000000000     
   7.7106073552148768E-002  0.18991574237982481        0.0000000000000000     
   7.8019902530825247E-002  0.19794970302506826        0.0000000000000000     
   6.7126811014031937E-002  0.16602671099107891        0.0000000000000000     
   6.8162435501757324E-002  0.17381465940109894        0.0000000000000000     
   6.9126457342280859E-002  0.18169177112392618        0.0000000000000000     
   7.0018876535602556E-002  0.18965804615956050        0.0000000000000000     
   7.0839693081722388E-002  0.19771348450800197        0.0000000000000000     
   6.0488884595441612E-002  0.16573386817302210        0.0000000000000000     
   6.1421356930816400E-002  0.17354393671158619        0.0000000000000000     
   6.2286666175807179E-002  0.18144275735932197        0.0000000000000000     
   6.3084812330413909E-002  0.18943033011622926        0.0000000000000000     
   6.3815795394636610E-002  0.19750665498230824        0.0000000000000000     
   5.3997898149007011E-002  0.16547443886756413        0.0000000000000000     
   5.4828725276302413E-002  0.17330520645961961        0.0000000000000000     
   5.5597386205494370E-002  0.18122459158704191        0.0000000000000000     
   5.6303880936582874E-002  0.18923259424983108        0.0000000000000000     
   5.6948209469567919E-002  0.19732921444798709        0.0000000000000000     
   4.7653851674728111E-002  0.16524842307470489        0.0000000000000000     
   4.8384540538215337E-002  0.17309846864519918        0.0000000000000000     
   4.9058617431342440E-002  0.18103727380708623        0.0000000000000000     
   4.9676082354109433E-002  0.18906483856036602        0.0000000000000000     
   5.0236935306516323E-002  0.19718116290503862        0.0000000000000000     
   7.8019902530825247E-002  0.19794970302506826        0.0000000000000000     
   7.8859452869044264E-002  0.20606618232378396        0.0000000000000000     
   7.9625930794905209E-002  0.21425784778317075        0.0000000000000000     
   8.0319336308408124E-002  0.22252469940322864        0.0000000000000000     
   8.0939669409552967E-002  0.23086673718395767        0.0000000000000000     
   7.0839693081722388E-002  0.19771348450800197        0.0000000000000000     
   7.1587966340825177E-002  0.20585168922938263        0.0000000000000000     
   7.2262755673095730E-002  0.21406626338383467        0.0000000000000000     
   7.2864061078534020E-002  0.22235720697135800        0.0000000000000000     
   7.3391882557140048E-002  0.23072451999195273        0.0000000000000000     
   6.3815795394636610E-002  0.19750665498230824        0.0000000000000000     
   6.4477433436452736E-002  0.20566543618858979        0.0000000000000000     
   6.5067544523839727E-002  0.21390037796610498        0.0000000000000000     
   6.5586128656797610E-002  0.22221148031485372        0.0000000000000000     
   6.6033185835326358E-002  0.23059874323483609        0.0000000000000000     
   5.6948209469567919E-002  0.19732921444798709        0.0000000000000000     
   5.7527854155926914E-002  0.20550742320140544        0.0000000000000000     
   5.8040297347137233E-002  0.21376019152998166        0.0000000000000000     
   5.8485539043198906E-002  0.22208751943371574        0.0000000000000000     
   5.8863579244111897E-002  0.23048940691260772        0.0000000000000000     
   5.0236935306516323E-002  0.19718116290503862        0.0000000000000000     
   5.0739228499247717E-002  0.20537765026782967        0.0000000000000000     
   5.1181014142988229E-002  0.21364570407546485        0.0000000000000000     
   5.1562292237737881E-002  0.22198532432794413        0.0000000000000000     
   5.1883062783496650E-002  0.23039651102526759        0.0000000000000000     
   8.0939669409552967E-002  0.23086673718395767        0.0000000000000000     
   8.1476208906743064E-002  0.23930465999984921        0.0000000000000000     
   8.1918233608381755E-002  0.24785916672539465        0.0000000000000000     
   8.2265743514469025E-002  0.25653025736059409        0.0000000000000000     
   8.2518738625004862E-002  0.26531793190544745        0.0000000000000000     
   7.3391882557140048E-002  0.23072451999195273        0.0000000000000000     
   7.3842802694733090E-002  0.23918192441173097        0.0000000000000000     
   7.4213404077132394E-002  0.24774314219680493        0.0000000000000000     
   7.4503686704337949E-002  0.25640817334717458        0.0000000000000000     
   7.4713650576349752E-002  0.26517701786284004        0.0000000000000000     
   6.6033185835326358E-002  0.23059874323483609        0.0000000000000000     
   6.6410855684674544E-002  0.23906872591751305        0.0000000000000000     
   6.6721277830090686E-002  0.24762798755434576        0.0000000000000000     
   6.6964452271574798E-002  0.25627652814533414        0.0000000000000000     
   6.7140379009126880E-002  0.26501434769047832        0.0000000000000000     
   5.8863579244111897E-002  0.23048940691260772        0.0000000000000000     
   5.9180367876567413E-002  0.23896506451719549        0.0000000000000000     
   5.9441854867256651E-002  0.24751370279801713        0.0000000000000000     
   5.9648040216179594E-002  0.25613532175507270        0.0000000000000000     
   5.9798923923336252E-002  0.26482992138836214        0.0000000000000000     
   5.1883062783496650E-002  0.23039651102526759        0.0000000000000000     
   5.2151339270411726E-002  0.23887094021077826        0.0000000000000000     
   5.2375135188630281E-002  0.24740028792781912        0.0000000000000000     
   5.2554450538152331E-002  0.25598455417639027        0.0000000000000000     
   5.2689285318977860E-002  0.26462373895649161        0.0000000000000000     
   8.2518738625004862E-002  0.26531793190544745        0.0000000000000000     
   8.2716229850161443E-002  0.27424855870975806        0.0000000000000000     
   8.2897228100111006E-002  0.28334850612332946        0.0000000000000000     
   8.3061733374853494E-002  0.29261777414616147        0.0000000000000000     
   8.3209745674388907E-002  0.30205636277825421        0.0000000000000000     
   7.4713650576349752E-002  0.26517701786284004        0.0000000000000000     
   7.4884297730699309E-002  0.27404332339230264        0.0000000000000000     
   7.5056630204918123E-002  0.28300073758406347        0.0000000000000000     
   7.5230647999006167E-002  0.29204926043812279        0.0000000000000000     
   7.5406351112963454E-002  0.30118889195448040        0.0000000000000000     
   6.7140379009126880E-002  0.26501434769047832        0.0000000000000000     
   6.7289365462850248E-002  0.27381158621916868        0.0000000000000000     
   6.7451719052848177E-002  0.28263838376079586        0.0000000000000000     
   6.7627439779120724E-002  0.29149474031535977        0.0000000000000000     
   6.7816527641667818E-002  0.30038065588286045        0.0000000000000000     
   5.9798923923336252E-002  0.26482992138836214        0.0000000000000000     
   5.9931433046614246E-002  0.27355334719035640        0.0000000000000000     
   6.0082494643901203E-002  0.28226144465352659        0.0000000000000000     
   6.0252108715197109E-002  0.29095421377787251        0.0000000000000000     
   6.0440275260502010E-002  0.29963165456339430        0.0000000000000000     
   5.2689285318977860E-002  0.26462373895649161        0.0000000000000000     
   5.2810500481991318E-002  0.27326860630586586        0.0000000000000000     
   5.2948956978077166E-002  0.28186992026225566        0.0000000000000000     
   5.3104654807235384E-002  0.29042768082566112        0.0000000000000000     
   5.3277593969466006E-002  0.29894188799608201        0.0000000000000000     
   2.8926603029493132E-002   5.7170177802379776E-002   0.0000000000000000     
   3.0510399181939957E-002   6.2728800021147904E-002   0.0000000000000000     
   3.2026380228572432E-002   6.8468753272295527E-002   0.0000000000000000     
   3.3474546169390565E-002   7.4390037555822630E-002   0.0000000000000000     
   3.4854897004394356E-002   8.0492652871729242E-002   0.0000000000000000     
   2.5080729882527228E-002   5.6734519554900081E-002   0.0000000000000000     
   2.6469214260206719E-002   6.2303348174506737E-002   0.0000000000000000     
   2.7796684053728184E-002   6.8054921040444596E-002   0.0000000000000000     
   2.9063139263091640E-002   7.3989238152713702E-002   0.0000000000000000     
   3.0268579888297072E-002   8.0106299511314025E-002   0.0000000000000000     
   2.1311268833076401E-002   5.6357852645804667E-002   0.0000000000000000     
   2.2503205318057284E-002   6.1935407714847755E-002   0.0000000000000000     
   2.3641798517769787E-002   6.7696938109857246E-002   0.0000000000000000     
   2.4727048432213915E-002   7.3642443830833182E-002   0.0000000000000000     
   2.5758955061389664E-002   7.9771924877775527E-002   0.0000000000000000     
   1.7618219881140647E-002   5.6040177075093532E-002   0.0000000000000000     
   1.8612372355491656E-002   6.1624978642170994E-002   0.0000000000000000     
   1.9561723620697236E-002   6.7394804480533504E-002   0.0000000000000000     
   2.0466273676757393E-002   7.3349654590181071E-002   0.0000000000000000     
   2.1326022523672123E-002   7.9489528971113707E-002   0.0000000000000000     
   1.4001583026719971E-002   5.5781492842766678E-002   0.0000000000000000     
   1.4796715372509830E-002   6.1372060956476432E-002   0.0000000000000000     
   1.5556459362510530E-002   6.7148520152473329E-002   0.0000000000000000     
   1.6280814996722071E-002   7.3110870430757410E-002   0.0000000000000000     
   1.6969782275144448E-002   7.9259111791328635E-002   0.0000000000000000     
   3.4854897004394356E-002   8.0492652871729242E-002   0.0000000000000000     
   3.6181455524248549E-002   8.6764927036274545E-002   0.0000000000000000     
   3.7468244519617916E-002   9.3195187865717732E-002   0.0000000000000000     
   3.8715263990502451E-002   9.9783435360058848E-002   0.0000000000000000     
   3.9922513936902153E-002  0.10652966951929785        0.0000000000000000     
   3.0268579888297072E-002   8.0106299511314025E-002   0.0000000000000000     
   3.1426311977191951E-002   8.6393679071553056E-002   0.0000000000000000     
   3.2549641577623731E-002   9.2838950788738328E-002   0.0000000000000000     
   3.3638568689592398E-002   9.9442114662869785E-002   0.0000000000000000     
   3.4693093313097979E-002  0.10620317069394748        0.0000000000000000     
   2.5758955061389664E-002   7.9771924877775527E-002   0.0000000000000000     
   2.6749569860979303E-002   8.6072323416142141E-002   0.0000000000000000     
   2.7710944286665099E-002   9.2530581611390883E-002   0.0000000000000000     
   2.8643078338447057E-002   9.9146699463521795E-002   0.0000000000000000     
   2.9545972016325171E-002  0.10592067697253484        0.0000000000000000     
   2.1326022523672123E-002   7.9489528971113707E-002   0.0000000000000000     
   2.2151229175610611E-002   8.5800860070041715E-002   0.0000000000000000     
   2.2952152646742038E-002   9.2270080333675439E-002   0.0000000000000000     
   2.3728792937066409E-002   9.8897189762014809E-002   0.0000000000000000     
   2.4481150046583727E-002  0.10568218835505989        0.0000000000000000     
   1.6969782275144448E-002   7.9259111791328635E-002   0.0000000000000000     
   1.7631289921085872E-002   8.5579289033251849E-002   0.0000000000000000     
   1.8273266657854548E-002   9.2057446955591940E-002   0.0000000000000000     
   1.8895712485450473E-002   9.8693585558348881E-002   0.0000000000000000     
   1.9498627403873647E-002  0.10548770484152264        0.0000000000000000     
   3.9922513936902153E-002  0.10652966951929785        0.0000000000000000     
   4.1081415275295304E-002  0.11342227379397592        0.0000000000000000     
   4.2183388922160184E-002  0.12044963163463419        0.0000000000000000     
   4.3228434877496794E-002  0.12761174304127271        0.0000000000000000     
   4.4216553141305147E-002  0.13490860801389143        0.0000000000000000     
   3.4693093313097979E-002  0.10620317069394748        0.0000000000000000     
   3.5705330323953573E-002  0.11311079252394368        0.0000000000000000     
   3.6667394597972303E-002  0.12015365379483066        0.0000000000000000     
   3.7579286135154162E-002  0.12733175450660841        0.0000000000000000     
   3.8441004935499158E-002  0.13464509465927699        0.0000000000000000     
   2.9545972016325171E-002  0.10592067697253484        0.0000000000000000     
   3.0412552642317250E-002  0.11284142772074893        0.0000000000000000     
   3.1235747538441098E-002  0.11989786529048302        0.0000000000000000     
   3.2015556704696725E-002  0.12708998968173710        0.0000000000000000     
   3.2751980141084117E-002  0.13441780089451111        0.0000000000000000     
   2.4481150046583727E-002  0.10568218835505989        0.0000000000000000     
   2.5203082230386333E-002  0.11261417938439169        0.0000000000000000     
   2.5888447743566589E-002  0.11968226612159130        0.0000000000000000     
   2.6537246586124479E-002  0.12688644856665870        0.0000000000000000     
   2.7149478758060022E-002  0.13422672671959388        0.0000000000000000     
   1.9498627403873647E-002  0.10548770484152264        0.0000000000000000     
   2.0076919088160821E-002  0.11242904751487195        0.0000000000000000     
   2.0625495213348752E-002  0.11950685628815549        0.0000000000000000     
   2.1144355779437431E-002  0.12672113116137326        0.0000000000000000     
   2.1633500786426868E-002  0.13407187213452521        0.0000000000000000     
   4.4216553141305147E-002  0.13490860801389143        0.0000000000000000     
   4.5151125113177246E-002  0.14232802777189890        0.0000000000000000     
   4.6035532192705106E-002  0.14985780353470365        0.0000000000000000     
   4.6869774379888721E-002  0.15749793530230566        0.0000000000000000     
   4.7653851674728111E-002  0.16524842307470489        0.0000000000000000     
   3.8441004935499158E-002  0.13464509465927699        0.0000000000000000     
   3.9255291711327363E-002  0.14208132107829924        0.0000000000000000     
   4.0024887174958827E-002  0.14962808058913807        0.0000000000000000     
   4.0749791326393572E-002  0.15728537319179353        0.0000000000000000     
   4.1430004165631584E-002  0.16505319888626555        0.0000000000000000     
   3.2751980141084117E-002  0.13441780089451111        0.0000000000000000     
   3.3447255224277821E-002  0.14186881333088389        0.0000000000000000     
   3.4103619330952385E-002  0.14943054139293416        0.0000000000000000     
   3.4721072461107789E-002  0.15710298508066192        0.0000000000000000     
   3.5299614614744054E-002  0.16488614439406718        0.0000000000000000     
   2.7149478758060022E-002  0.13422672671959388        0.0000000000000000     
   2.7727015652028640E-002  0.14169050452965290        0.0000000000000000     
   2.8271728660685759E-002  0.14926518594609189        0.0000000000000000     
   2.8783617784031389E-002  0.15695077096891089        0.0000000000000000     
   2.9262683022065524E-002  0.16474725959810979        0.0000000000000000     
   2.1633500786426868E-002  0.13407187213452521        0.0000000000000000     
   2.2094572994579793E-002  0.14154639467460631        0.0000000000000000     
   2.2529215164158959E-002  0.14913201424861133        0.0000000000000000     
   2.2937427295164362E-002  0.15682873085654039        0.0000000000000000     
   2.3319209387595997E-002  0.16463654449839338        0.0000000000000000     
   4.7653851674728111E-002  0.16524842307470489        0.0000000000000000     
   4.8384540538215337E-002  0.17309846864519918        0.0000000000000000     
   4.9058617431342440E-002  0.18103727380708623        0.0000000000000000     
   4.9676082354109433E-002  0.18906483856036602        0.0000000000000000     
   5.0236935306516323E-002  0.19718116290503862        0.0000000000000000     
   4.1430004165631584E-002  0.16505319888626555        0.0000000000000000     
   4.2062567066371112E-002  0.17292076055717112        0.0000000000000000     
   4.2644521402310405E-002  0.18087726108912711        0.0000000000000000     
   4.3175867173449456E-002  0.18892270048213361        0.0000000000000000     
   4.3656604379788272E-002  0.19705707873619049        0.0000000000000000     
   3.5299614614744054E-002  0.16488614439406718        0.0000000000000000     
   3.5836569210585707E-002  0.17276911948438164        0.0000000000000000     
   3.6329259667357283E-002  0.18074101050283697        0.0000000000000000     
   3.6777685985058796E-002  0.18880181744943325        0.0000000000000000     
   3.7181848163690231E-002  0.19695154032417037        0.0000000000000000     
   2.9262683022065524E-002  0.16474725959810979        0.0000000000000000     
   2.9706546970859109E-002  0.17264354542683077        0.0000000000000000     
   3.0112832226483085E-002  0.18062852204821583        0.0000000000000000     
   3.0481538788937449E-002  0.18870218946226505        0.0000000000000000     
   3.0812666658222208E-002  0.19686454766897840        0.0000000000000000     
   2.3319209387595997E-002  0.16463654449839338        0.0000000000000000     
   2.3672500347191330E-002  0.17254403838451846        0.0000000000000000     
   2.3995239079687807E-002  0.18053979572526363        0.0000000000000000     
   2.4287425585085426E-002  0.18862381652062898        0.0000000000000000     
   2.4549059863384199E-002  0.19679610077061443        0.0000000000000000     
   5.0236935306516323E-002  0.19718116290503862        0.0000000000000000     
   5.0739228499247717E-002  0.20537765026782967        0.0000000000000000     
   5.1181014142988229E-002  0.21364570407546485        0.0000000000000000     
   5.1562292237737881E-002  0.22198532432794413        0.0000000000000000     
   5.1883062783496650E-002  0.23039651102526759        0.0000000000000000     
   4.3656604379788272E-002  0.19705707873619049        0.0000000000000000     
   4.4085719841035056E-002  0.20526988047629888        0.0000000000000000     
   4.4462200376898006E-002  0.21355059032745977        0.0000000000000000     
   4.4786045987377135E-002  0.22189920828967330        0.0000000000000000     
   4.5057256672472436E-002  0.23031573436293928        0.0000000000000000     
   3.7181848163690231E-002  0.19695154032417037        0.0000000000000000     
   3.7541491555908836E-002  0.20517787691524955        0.0000000000000000     
   3.7856361514371849E-002  0.21346852501087191        0.0000000000000000     
   3.8126458039079256E-002  0.22182348461103743        0.0000000000000000     
   3.8351781130031071E-002  0.23024275571574612        0.0000000000000000     
   3.0812666658222208E-002  0.19686454766897840        0.0000000000000000     
   3.1106543643869073E-002  0.20510163958468178        0.0000000000000000     
   3.1363497555409750E-002  0.21339950812570119        0.0000000000000000     
   3.1583528392844236E-002  0.22175815329203666        0.0000000000000000     
   3.1766636156172541E-002  0.23017757508368808        0.0000000000000000     
   2.4549059863384199E-002  0.19679610077061443        0.0000000000000000     
   2.4780876104915750E-002  0.20504116848459553        0.0000000000000000     
   2.4983608500011710E-002  0.21334353967194769        0.0000000000000000     
   2.5157257048672083E-002  0.22170321433267096        0.0000000000000000     
   2.5301821750896864E-002  0.23012019246676524        0.0000000000000000     
   5.1883062783496650E-002  0.23039651102526759        0.0000000000000000     
   5.2151339270411726E-002  0.23887094021077826        0.0000000000000000     
   5.2375135188630281E-002  0.24740028792781912        0.0000000000000000     
   5.2554450538152331E-002  0.25598455417639027        0.0000000000000000     
   5.2689285318977860E-002  0.26462373895649161        0.0000000000000000     
   4.5057256672472436E-002  0.23031573436293928        0.0000000000000000     
   4.5284628005169525E-002  0.23878493057849948        0.0000000000000000     
   4.5476955558454019E-002  0.24729155896759555        0.0000000000000000     
   4.5634239332325903E-002  0.25583561953022749        0.0000000000000000     
   4.5756479326785199E-002  0.26441711226639525        0.0000000000000000     
   3.8351781130031071E-002  0.23024275571574612        0.0000000000000000     
   3.8541092219802876E-002  0.23870561320059727        0.0000000000000000     
   3.8703152740970262E-002  0.24719133194119025        0.0000000000000000     
   3.8837962693533221E-002  0.25569991193752506        0.0000000000000000     
   3.8945522077491766E-002  0.26423135318960156        0.0000000000000000     
   3.1766636156172541E-002  0.23017757508368808        0.0000000000000000     
   3.1920731914311766E-002  0.23863298807707164        0.0000000000000000     
   3.2053726736179018E-002  0.24709960684860321        0.0000000000000000     
   3.2165620621774291E-002  0.25557743139828293        0.0000000000000000     
   3.2256413571097584E-002  0.26406646172611076        0.0000000000000000     
   2.5301821750896864E-002  0.23012019246676524        0.0000000000000000     
   2.5423547088696215E-002  0.23856705520792248        0.0000000000000000     
   2.5528677544080291E-002  0.24701638368983447        0.0000000000000000     
   2.5617213117049092E-002  0.25546817791250115        0.0000000000000000     
   2.5689153807602626E-002  0.26392243787592262        0.0000000000000000     
   5.2689285318977860E-002  0.26462373895649161        0.0000000000000000     
   5.2810500481991318E-002  0.27326860630586586        0.0000000000000000     
   5.2948956978077166E-002  0.28186992026225566        0.0000000000000000     
   5.3104654807235384E-002  0.29042768082566112        0.0000000000000000     
   5.3277593969466006E-002  0.29894188799608201        0.0000000000000000     
   4.5756479326785199E-002  0.26441711226639525        0.0000000000000000     
   4.5867813676155757E-002  0.27298607421519994        0.0000000000000000     
   4.5992380514761455E-002  0.28149254241574267        0.0000000000000000     
   4.6130179842602308E-002  0.28993651686802346        0.0000000000000000     
   4.6281211659678280E-002  0.29831799757204225        0.0000000000000000     
   3.8945522077491766E-002  0.26423135318960156        0.0000000000000000     
   3.9044618536281869E-002  0.27273446156786174        0.0000000000000000     
   3.9154039713339493E-002  0.28115804294274716        0.0000000000000000     
   3.9273785608664631E-002  0.28950209731425786        0.0000000000000000     
   3.9403856222257304E-002  0.29776662468239379        0.0000000000000000     
   3.2256413571097584E-002  0.26406646172611076        0.0000000000000000     
   3.2340915062369656E-002  0.27251376836385116        0.0000000000000000     
   3.2433934573811253E-002  0.28086642184326904        0.0000000000000000     
   3.2535472105422396E-002  0.28912442216436418        0.0000000000000000     
   3.2645527657203070E-002  0.29728776932713663        0.0000000000000000     
   2.5689153807602626E-002  0.26392243787592262        0.0000000000000000     
   2.5756703254419106E-002  0.27232399460316847        0.0000000000000000     
   2.5832065096176762E-002  0.28061767911730839        0.0000000000000000     
   2.5915239332875581E-002  0.28880349141834255        0.0000000000000000     
   2.6006225964515579E-002  0.29688143150627078        0.0000000000000000     
   1.4001583026719971E-002   5.5781492842766678E-002   0.0000000000000000     
   1.4796715372509830E-002   6.1372060956476432E-002   0.0000000000000000     
   1.5556459362510530E-002   6.7148520152473329E-002   0.0000000000000000     
   1.6280814996722071E-002   7.3110870430757410E-002   0.0000000000000000     
   1.6969782275144448E-002   7.9259111791328635E-002   0.0000000000000000     
   1.0442660983310415E-002   5.5580952850050103E-002   0.0000000000000000     
   1.1038368916847155E-002   6.1175919213308352E-002   0.0000000000000000     
   1.1608286448310292E-002   6.6957455434722438E-002   0.0000000000000000     
   1.2152413577699826E-002   7.2925561514292303E-002   0.0000000000000000     
   1.2670750305015754E-002   7.9080237452018032E-002   0.0000000000000000     
   6.9227564644080281E-003   5.5437709998169826E-002   0.0000000000000000     
   7.3194675362389782E-003   6.1035817968211045E-002   0.0000000000000000     
   7.6994855831971493E-003   6.6820980636326424E-002   0.0000000000000000     
   8.0628106052825412E-003   7.2793198002515963E-002   0.0000000000000000     
   8.4094426024951541E-003   7.8952470066779662E-002   0.0000000000000000     
   3.4418694700128101E-003   5.5351764287125835E-002   0.0000000000000000     
   3.6400112306852984E-003   6.0951757221184517E-002   0.0000000000000000     
   3.8300567671711006E-003   6.6739095757285358E-002   0.0000000000000000     
   4.0120060794702180E-003   7.2713779895428349E-002   0.0000000000000000     
   4.1858591675826501E-003   7.8875809635613511E-002   0.0000000000000000     
   1.2476001134964498E-013   5.5323115716918128E-002   0.0000000000000000     
   1.8611392808842719E-013   6.0923736972228734E-002   0.0000000000000000     
   2.3214622498629600E-013   6.6711800797599183E-002   0.0000000000000000     
   2.6285448969341763E-013   7.2687307193029488E-002   0.0000000000000000     
   2.7823988772712749E-013   7.8850256158519622E-002   0.0000000000000000     
   1.6969782275144448E-002   7.9259111791328635E-002   0.0000000000000000     
   1.7631289921085872E-002   8.5579289033251849E-002   0.0000000000000000     
   1.8273266657854548E-002   9.2057446955591940E-002   0.0000000000000000     
   1.8895712485450473E-002   9.8693585558348881E-002   0.0000000000000000     
   1.9498627403873647E-002  0.10548770484152264        0.0000000000000000     
   1.2670750305015754E-002   7.9080237452018032E-002   0.0000000000000000     
   1.3168780396708607E-002   8.5407242261378968E-002   0.0000000000000000     
   1.3651987619228902E-002   9.1892334955854568E-002   0.0000000000000000     
   1.4120371972576647E-002   9.8535515535444845E-002   0.0000000000000000     
   1.4573933456751835E-002  0.10533678400014979        0.0000000000000000     
   8.4094426024951541E-003   7.8952470066779662E-002   0.0000000000000000     
   8.7427289017823259E-003   8.5284351710029488E-002   0.0000000000000000     
   9.0660168300913876E-003   9.1774397813177477E-002   0.0000000000000000     
   9.3793063874223447E-003   9.8422608376223616E-002   0.0000000000000000     
   9.6825975737751934E-003  0.10522898339916793        0.0000000000000000     
   4.1858591675826501E-003   7.8875809635613511E-002   0.0000000000000000     
   4.3531354363070341E-003   8.5210617379203435E-002   0.0000000000000000     
   4.5153542904420073E-003   9.1703635527560667E-002   0.0000000000000000     
   4.6725157299875681E-003   9.8354864080685223E-002   0.0000000000000000     
   4.8246197549437174E-003  0.10516430303857713        0.0000000000000000     
   2.7823988772712749E-013   7.8850256158519622E-002   0.0000000000000000     
   2.8273086996599694E-013   8.5186039268900768E-002   0.0000000000000000     
   2.8075604991892322E-013   9.1680048099004111E-002   0.0000000000000000     
   2.7231779927815863E-013   9.8332282648829636E-002   0.0000000000000000     
   2.5741258083411545E-013  0.10514274291837734        0.0000000000000000     
   1.9498627403873647E-002  0.10548770484152264        0.0000000000000000     
   2.0076919088160821E-002  0.11242904751487195        0.0000000000000000     
   2.0625495213348752E-002  0.11950685628815549        0.0000000000000000     
   2.1144355779437431E-002  0.12672113116137326        0.0000000000000000     
   2.1633500786426868E-002  0.13407187213452521        0.0000000000000000     
   1.4573933456751835E-002  0.10533678400014979        0.0000000000000000     
   1.5008729514636103E-002  0.11228548308328400        0.0000000000000000     
   1.5420817589111076E-002  0.11937095551816215        0.0000000000000000     
   1.5810197680176753E-002  0.12659320130478421        0.0000000000000000     
   1.6176869787833142E-002  0.13395222044315025        0.0000000000000000     
   9.6825975737751934E-003  0.10522898339916793        0.0000000000000000     
   9.9731798088075457E-003  0.11218293706072210        0.0000000000000000     
   1.0248342512177020E-002  0.11927388353959782        0.0000000000000000     
   1.0508085683883617E-002  0.12650182283579511        0.0000000000000000     
   1.0752409323927332E-002  0.13386675494931394        0.0000000000000000     
   4.8246197549437174E-003  0.10516430303857713        0.0000000000000000     
   4.9702699706751577E-003  0.11212140944718624        0.0000000000000000     
   5.1080699825465908E-003  0.11921564035246250        0.0000000000000000     
   5.2380197905580184E-003  0.12644699575440588        0.0000000000000000     
   5.3601193947094361E-003  0.13381547565301638        0.0000000000000000     
   2.5741258083411545E-013  0.10514274291837734        0.0000000000000000     
   2.3893755897452795E-013  0.11210090024267644        0.0000000000000000     
   2.1978686232104749E-013  0.11919622595675619        0.0000000000000000     
   1.9995918983106709E-013  0.12642872006061651        0.0000000000000000     
   1.7945670990893170E-013  0.13379838255425749        0.0000000000000000     
   2.1633500786426868E-002  0.13407187213452521        0.0000000000000000     
   2.2094572994579793E-002  0.14154639467460631        0.0000000000000000     
   2.2529215164158959E-002  0.14913201424861133        0.0000000000000000     
   2.2937427295164362E-002  0.15682873085654039        0.0000000000000000     
   2.3319209387595997E-002  0.16463654449839338        0.0000000000000000     
   1.6176869787833142E-002  0.13395222044315025        0.0000000000000000     
   1.6522254032392044E-002  0.14143526059039729        0.0000000000000000     
   1.6847770534165262E-002  0.14902956940366252        0.0000000000000000     
   1.7153419293152797E-002  0.15673514688294596        0.0000000000000000     
   1.7439200309354655E-002  0.16455199302824758        0.0000000000000000     
   1.0752409323927332E-002  0.13386675494931394        0.0000000000000000     
   1.0982385545926123E-002  0.14135587910167915        0.0000000000000000     
   1.1199086463497945E-002  0.14895639451441561        0.0000000000000000     
   1.1402512076642795E-002  0.15666830118752317        0.0000000000000000     
   1.1592662385360676E-002  0.16449159912100197        0.0000000000000000     
   5.3601193947094361E-003  0.13381547565301638        0.0000000000000000     
   5.4749675351820374E-003  0.14130825020845195        0.0000000000000000     
   5.5831629521570095E-003  0.14891248958087053        0.0000000000000000     
   5.6847056456343515E-003  0.15662819377027207        0.0000000000000000     
   5.7795956156140652E-003  0.16445536277665670        0.0000000000000000     
   1.7945670990893170E-013  0.13379838255425749        0.0000000000000000     
   1.5978602989352719E-013  0.14129237391071559        0.0000000000000000     
   1.4245603394830164E-013  0.14889785460302729        0.0000000000000000     
   1.2746696601874385E-013  0.15661482463119264        0.0000000000000000     
   1.1481831110882190E-013  0.16444328399521160        0.0000000000000000     
   2.3319209387595997E-002  0.16463654449839338        0.0000000000000000     
   2.3672500347191330E-002  0.17254403838451846        0.0000000000000000     
   2.3995239079687807E-002  0.18053979572526363        0.0000000000000000     
   2.4287425585085426E-002  0.18862381652062898        0.0000000000000000     
   2.4549059863384199E-002  0.19679610077061443        0.0000000000000000     
   1.7439200309354655E-002  0.16455199302824758        0.0000000000000000     
   1.7703424963769598E-002  0.17246837404166254        0.0000000000000000     
   1.7944404637396414E-002  0.18047255612528604        0.0000000000000000     
   1.8162139330235090E-002  0.18856453927911807        0.0000000000000000     
   1.8356629042285633E-002  0.19674432350315860        0.0000000000000000     
   1.1592662385360676E-002  0.16449159912100197        0.0000000000000000     
   1.1768316444781176E-002  0.17241432808248086        0.0000000000000000     
   1.1928253310033887E-002  0.18042452783958862        0.0000000000000000     
   1.2072472981118807E-002  0.18852219839232529        0.0000000000000000     
   1.2200975458035933E-002  0.19670733974069082        0.0000000000000000     
   5.7795956156140652E-003  0.16445536277665670        0.0000000000000000     
   5.8671747902260540E-003  0.17238190050697338        0.0000000000000000     
   5.9467850976002243E-003  0.18039571086817141        0.0000000000000000     
   6.0184265377365770E-003  0.18849679386025062        0.0000000000000000     
   6.0820991106351110E-003  0.19668514948321111        0.0000000000000000     
   1.1481831110882190E-013  0.16444328399521160        0.0000000000000000     
   1.0423151057536995E-013  0.17237109131514017        0.0000000000000000     
   9.5426054211311673E-014  0.18038610521103432        0.0000000000000000     
   8.8401670966103962E-014  0.18848832568289411        0.0000000000000000     
   8.3157872948769196E-014  0.19667775273071950        0.0000000000000000     
   2.4549059863384199E-002  0.19679610077061443        0.0000000000000000     
   2.4780876104915750E-002  0.20504116848459553        0.0000000000000000     
   2.4983608500011710E-002  0.21334353967194769        0.0000000000000000     
   2.5157257048672083E-002  0.22170321433267096        0.0000000000000000     
   2.5301821750896864E-002  0.23012019246676524        0.0000000000000000     
   1.8356629042285633E-002  0.19674432350315860        0.0000000000000000     
   1.8528800834055874E-002  0.20499515399785603        0.0000000000000000     
   1.8679581766053655E-002  0.21330027596365869        0.0000000000000000     
   1.8808971838278978E-002  0.22165968940056663        0.0000000000000000     
   1.8916971050731844E-002  0.23007339430857981        0.0000000000000000     
   1.2200975458035933E-002  0.19670733974069082        0.0000000000000000     
   1.2314629726296444E-002  0.20496228650732851        0.0000000000000000     
   1.2414304771411510E-002  0.21326937331488161        0.0000000000000000     
   1.2500000593381130E-002  0.22162860016335004        0.0000000000000000     
   1.2571717192205303E-002  0.23003996705273388        0.0000000000000000     
   6.0820991106351110E-003  0.19668514948321111        0.0000000000000000     
   6.1383627816374627E-003  0.20494256601301300        0.0000000000000000     
   6.1877775160852693E-003  0.21325083172561637        0.0000000000000000     
   6.2303433139785326E-003  0.22160994662102121        0.0000000000000000     
   6.2660601753172498E-003  0.23001991069922753        0.0000000000000000     
   8.3157872948769196E-014  0.19667775273071950        0.0000000000000000     
   7.8926015029123775E-014  0.20493599251490949        0.0000000000000000     
   7.4934741571552888E-014  0.21324465119586303        0.0000000000000000     
   7.1185868614695447E-014  0.22160372877358006        0.0000000000000000     
   6.7677200649152169E-014  0.23001322524806073        0.0000000000000000     
   2.5301821750896864E-002  0.23012019246676524        0.0000000000000000     
   2.5423547088696215E-002  0.23856705520792248        0.0000000000000000     
   2.5528677544080291E-002  0.24701638368983447        0.0000000000000000     
   2.5617213117049092E-002  0.25546817791250115        0.0000000000000000     
   2.5689153807602626E-002  0.26392243787592262        0.0000000000000000     
   1.8916971050731844E-002  0.23007339430857981        0.0000000000000000     
   1.9007877581398391E-002  0.23851229180870717        0.0000000000000000     
   1.9085989608264776E-002  0.24694728302195779        0.0000000000000000     
   1.9151307131330991E-002  0.25537836794833152        0.0000000000000000     
   1.9203830150597047E-002  0.26380554658782845        0.0000000000000000     
   1.2571717192205303E-002  0.23003996705273388        0.0000000000000000     
   1.2632063230860500E-002  0.23847317509498289        0.0000000000000000     
   1.2683647372323177E-002  0.24689792540204683        0.0000000000000000     
   1.2726469616593343E-002  0.25531421797392573        0.0000000000000000     
   1.2760529963670993E-002  0.26372205281061956        0.0000000000000000     
   6.2660601753172498E-003  0.23001991069922753        0.0000000000000000     
   6.2961040370825344E-003  0.23844970506674959        0.0000000000000000     
   6.3216508362554987E-003  0.24686831083010172        0.0000000000000000     
   6.3427005728361411E-003  0.25527572798928372        0.0000000000000000     
   6.3592532468244624E-003  0.26367195654429582        0.0000000000000000     
   6.7677200649152169E-014  0.23001322524806073        0.0000000000000000     
   6.4496801996383191E-014  0.23844188172400735        0.0000000000000000     
   6.1734254860890125E-014  0.24685843930612233        0.0000000000000000     
   5.9385818745177898E-014  0.25526289799440571        0.0000000000000000     
   5.7456209928696822E-014  0.26365525778885740        0.0000000000000000     
   2.5689153807602626E-002  0.26392243787592262        0.0000000000000000     
   2.5756703254419106E-002  0.27232399460316847        0.0000000000000000     
   2.5832065096176762E-002  0.28061767911730839        0.0000000000000000     
   2.5915239332875581E-002  0.28880349141834255        0.0000000000000000     
   2.6006225964515579E-002  0.29688143150627078        0.0000000000000000     
   1.9203830150597047E-002  0.26380554658782845        0.0000000000000000     
   1.9253559819794111E-002  0.27217146981902740        0.0000000000000000     
   1.9310497292653356E-002  0.28041878852050744        0.0000000000000000     
   1.9374642569174785E-002  0.28854750269226837        0.0000000000000000     
   1.9445995649358401E-002  0.29655761233431022        0.0000000000000000     
   1.2760529963670993E-002  0.26372205281061956        0.0000000000000000     
   1.2793061465858544E-002  0.27206252354464239        0.0000000000000000     
   1.2831297175458408E-002  0.28027672380850827        0.0000000000000000     
   1.2875237092470588E-002  0.28836465360221708        0.0000000000000000     
   1.2924881216895086E-002  0.29632631292576905        0.0000000000000000     
   6.3592532468244624E-003  0.26367195654429582        0.0000000000000000     
   6.3752081926124072E-003  0.27199715578001310        0.0000000000000000     
   6.3944647445919158E-003  0.28019148498131080        0.0000000000000000     
   6.4170229027629942E-003  0.28825494414818886        0.0000000000000000     
   6.4428826671256382E-003  0.29618753328064729        0.0000000000000000     
   5.7456209928696822E-014  0.26365525778885740        0.0000000000000000     
   5.5702187654049773E-014  0.27197536652513976        0.0000000000000000     
   5.3884739552312322E-014  0.28016307203891516        0.0000000000000000     
   5.2003946938647405E-014  0.28821837433018355        0.0000000000000000     
   5.0058915346262722E-014  0.29614127339894492        0.0000000000000000     
   1.2476001134964498E-013   5.5323115716918128E-002   0.0000000000000000     
   1.8611392808842719E-013   6.0923736972228734E-002   0.0000000000000000     
   2.3214622498629600E-013   6.6711800797599183E-002   0.0000000000000000     
   2.6285448969341763E-013   7.2687307193029488E-002   0.0000000000000000     
   2.7823988772712749E-013   7.8850256158519622E-002   0.0000000000000000     
  -3.4418694697466654E-003   5.5351764287463509E-002   0.0000000000000000     
  -3.6400112303057422E-003   6.0951757221306170E-002   0.0000000000000000     
  -3.8300567667068292E-003   6.6739095757261654E-002   0.0000000000000000     
  -4.0120060789499302E-003   7.2713779895329941E-002   0.0000000000000000     
  -4.1858591670350422E-003   7.8875809635511052E-002   0.0000000000000000     
  -6.9227564640920100E-003   5.5437709998678746E-002   0.0000000000000000     
  -7.3194675358374435E-003   6.1035817968379244E-002   0.0000000000000000     
  -7.6994855827329468E-003   6.6820980636266430E-002   0.0000000000000000     
  -8.0628106047785190E-003   7.2793198002340326E-002   0.0000000000000000     
  -8.4094426019741594E-003   7.8952470066600902E-002   0.0000000000000000     
  -1.0442660982911273E-002   5.5580952850563858E-002   0.0000000000000000     
  -1.1038368916408990E-002   6.1175919213447956E-002   0.0000000000000000     
  -1.1608286447846202E-002   6.6957455434613539E-002   0.0000000000000000     
  -1.2152413577222911E-002   7.2925561514060586E-002   0.0000000000000000     
  -1.2670750304539114E-002   7.9080237451789159E-002   0.0000000000000000     
  -1.4001583026204457E-002   5.5781492843118820E-002   0.0000000000000000     
  -1.4796715372020380E-002   6.1372060956512292E-002   0.0000000000000000     
  -1.5556459362046596E-002   6.7148520152302951E-002   0.0000000000000000     
  -1.6280814996283102E-002   7.3110870430490790E-002   0.0000000000000000     
  -1.6969782274729905E-002   7.9259111791075837E-002   0.0000000000000000     
   2.7823988772712749E-013   7.8850256158519622E-002   0.0000000000000000     
   2.8273086996599694E-013   8.5186039268900768E-002   0.0000000000000000     
   2.8075604991892322E-013   9.1680048099004111E-002   0.0000000000000000     
   2.7231779927815863E-013   9.8332282648829636E-002   0.0000000000000000     
   2.5741258083411545E-013  0.10514274291837734        0.0000000000000000     
  -4.1858591670350422E-003   7.8875809635511052E-002   0.0000000000000000     
  -4.3531354357525158E-003   8.5210617379130354E-002   0.0000000000000000     
  -4.5153542898927011E-003   9.1703635527513219E-002   0.0000000000000000     
  -4.6725157294555996E-003   9.8354864080659618E-002   0.0000000000000000     
  -4.8246197544412105E-003  0.10516430303856958        0.0000000000000000     
  -8.4094426019741594E-003   7.8952470066600902E-002   0.0000000000000000     
  -8.7427289012606338E-003   8.5284351709900980E-002   0.0000000000000000     
  -9.0660168295787023E-003   9.1774397813093336E-002   0.0000000000000000     
  -9.3793063869283717E-003   9.8422608376177959E-002   0.0000000000000000     
  -9.6825975733096370E-003  0.10522898339915486        0.0000000000000000     
  -1.2670750304539114E-002   7.9080237451789159E-002   0.0000000000000000     
  -1.3168780396241624E-002   8.5407242261212657E-002   0.0000000000000000     
  -1.3651987618777254E-002   9.1892334955744476E-002   0.0000000000000000     
  -1.4120371972146000E-002   9.8535515535384643E-002   0.0000000000000000     
  -1.4573933456347865E-002  0.10533678400013316        0.0000000000000000     
  -1.6969782274729905E-002   7.9259111791075837E-002   0.0000000000000000     
  -1.7631289920695490E-002   8.5579289033065345E-002   0.0000000000000000     
  -1.8273266657488348E-002   9.2057446955466637E-002   0.0000000000000000     
  -1.8895712485108487E-002   9.8693585558279673E-002   0.0000000000000000     
  -1.9498627403555895E-002  0.10548770484150446        0.0000000000000000     
   2.5741258083411545E-013  0.10514274291837734        0.0000000000000000     
   2.3893755897452795E-013  0.11210090024267644        0.0000000000000000     
   2.1978686232104749E-013  0.11919622595675619        0.0000000000000000     
   1.9995918983106709E-013  0.12642872006061651        0.0000000000000000     
   1.7945670990893170E-013  0.13379838255425749        0.0000000000000000     
  -4.8246197544412105E-003  0.10516430303856958        0.0000000000000000     
  -4.9702699702087582E-003  0.11212140944719254        0.0000000000000000     
  -5.1080699821174670E-003  0.11921564035247791        0.0000000000000000     
  -5.2380197901673413E-003  0.12644699575442570        0.0000000000000000     
  -5.3601193943583741E-003  0.13381547565303589        0.0000000000000000     
  -9.6825975733096370E-003  0.10522898339915486        0.0000000000000000     
  -9.9731798083755718E-003  0.11218293706073436        0.0000000000000000     
  -1.0248342511779243E-002  0.11927388353962673        0.0000000000000000     
  -1.0508085683520664E-002  0.12650182283583197        0.0000000000000000     
  -1.0752409323599822E-002  0.13386675494935013        0.0000000000000000     
  -1.4573933456347865E-002  0.10533678400013316        0.0000000000000000     
  -1.5008729514261498E-002  0.11228548308330187        0.0000000000000000     
  -1.5420817588765540E-002  0.11937095551820262        0.0000000000000000     
  -1.5810197679860010E-002  0.12659320130483537        0.0000000000000000     
  -1.6176869787544883E-002  0.13395222044320018        0.0000000000000000     
  -1.9498627403555895E-002  0.10548770484150446        0.0000000000000000     
  -2.0076919087866539E-002  0.11242904751489510        0.0000000000000000     
  -2.0625495213076359E-002  0.11950685628820558        0.0000000000000000     
  -2.1144355779185373E-002  0.12672113116143591        0.0000000000000000     
  -2.1633500786193558E-002  0.13407187213458610        0.0000000000000000     
   1.7945670990893170E-013  0.13379838255425749        0.0000000000000000     
   1.5978602989352719E-013  0.14129237391071559        0.0000000000000000     
   1.4245603394830164E-013  0.14889785460302729        0.0000000000000000     
   1.2746696601874385E-013  0.15661482463119264        0.0000000000000000     
   1.1481831110882190E-013  0.16444328399521160        0.0000000000000000     
  -5.3601193943583741E-003  0.13381547565303589        0.0000000000000000     
  -5.4749675348689303E-003  0.14130825020846882        0.0000000000000000     
  -5.5831629518773660E-003  0.14891248958088479        0.0000000000000000     
  -5.6847056453836814E-003  0.15662819377028378        0.0000000000000000     
  -5.7795956153878806E-003  0.16445536277666584        0.0000000000000000     
  -1.0752409323599822E-002  0.13386675494935013        0.0000000000000000     
  -1.0982385545632410E-002  0.14135587910171035        0.0000000000000000     
  -1.1199086463234108E-002  0.14895639451444181        0.0000000000000000     
  -1.1402512076404924E-002  0.15666830118754452        0.0000000000000000     
  -1.1592662385144854E-002  0.16449159912101849        0.0000000000000000     
  -1.6176869787544883E-002  0.13395222044320018        0.0000000000000000     
  -1.6522254032130649E-002  0.14143526059044015        0.0000000000000000     
  -1.6847770533927775E-002  0.14902956940369835        0.0000000000000000     
  -1.7153419292936258E-002  0.15673514688297482        0.0000000000000000     
  -1.7439200309156095E-002  0.16455199302826959        0.0000000000000000     
  -2.1633500786193558E-002  0.13407187213458610        0.0000000000000000     
  -2.2094572994363654E-002  0.14154639467465824        0.0000000000000000     
  -2.2529215163958356E-002  0.14913201424865449        0.0000000000000000     
  -2.2937427294977678E-002  0.15682873085657476        0.0000000000000000     
  -2.3319209387421613E-002  0.16463654449841914        0.0000000000000000     
   1.1481831110882190E-013  0.16444328399521160        0.0000000000000000     
   1.0423151057536995E-013  0.17237109131514017        0.0000000000000000     
   9.5426054211311673E-014  0.18038610521103432        0.0000000000000000     
   8.8401670966103962E-014  0.18848832568289411        0.0000000000000000     
   8.3157872948769196E-014  0.19667775273071950        0.0000000000000000     
  -5.7795956153878806E-003  0.16445536277666584        0.0000000000000000     
  -5.8671747900204060E-003  0.17238190050698038        0.0000000000000000     
  -5.9467850974117128E-003  0.18039571086817682        0.0000000000000000     
  -6.0184265375617966E-003  0.18849679386025528        0.0000000000000000     
  -6.0820991104706575E-003  0.19668514948321561        0.0000000000000000     
  -1.1592662385144854E-002  0.16449159912101849        0.0000000000000000     
  -1.1768316444583980E-002  0.17241432808249324        0.0000000000000000     
  -1.1928253309852390E-002  0.18042452783959825        0.0000000000000000     
  -1.2072472980950088E-002  0.18852219839233356        0.0000000000000000     
  -1.2200975457877071E-002  0.19670733974069912        0.0000000000000000     
  -1.7439200309156095E-002  0.16455199302826959        0.0000000000000000     
  -1.7703424963586484E-002  0.17246837404167878        0.0000000000000000     
  -1.7944404637226609E-002  0.18047255612529858        0.0000000000000000     
  -1.8162139330076474E-002  0.18856453927912903        0.0000000000000000     
  -1.8356629042136082E-002  0.19674432350317006        0.0000000000000000     
  -2.3319209387421613E-002  0.16463654449841914        0.0000000000000000     
  -2.3672500347027923E-002  0.17254403838453700        0.0000000000000000     
  -2.3995239079534374E-002  0.18053979572527784        0.0000000000000000     
  -2.4287425584940958E-002  0.18862381652064164        0.0000000000000000     
  -2.4549059863247687E-002  0.19679610077062842        0.0000000000000000     
   8.3157872948769196E-014  0.19667775273071950        0.0000000000000000     
   7.8926015029123775E-014  0.20493599251490949        0.0000000000000000     
   7.4934741571552888E-014  0.21324465119586303        0.0000000000000000     
   7.1185868614695447E-014  0.22160372877358006        0.0000000000000000     
   6.7677200649152169E-014  0.23001322524806073        0.0000000000000000     
  -6.0820991104706575E-003  0.19668514948321561        0.0000000000000000     
  -6.1383627814813949E-003  0.20494256601301775        0.0000000000000000     
  -6.1877775159371031E-003  0.21325083172562143        0.0000000000000000     
  -6.2303433138377788E-003  0.22160994662102665        0.0000000000000000     
  -6.2660601751834280E-003  0.23001991069923342        0.0000000000000000     
  -1.2200975457877071E-002  0.19670733974069912        0.0000000000000000     
  -1.2314629726145727E-002  0.20496228650733761        0.0000000000000000     
  -1.2414304771268449E-002  0.21326937331489143        0.0000000000000000     
  -1.2500000593245235E-002  0.22162860016336075        0.0000000000000000     
  -1.2571717192076084E-002  0.23003996705274546        0.0000000000000000     
  -1.8356629042136082E-002  0.19674432350317006        0.0000000000000000     
  -1.8528800833914068E-002  0.20499515399786902        0.0000000000000000     
  -1.8679581765919103E-002  0.21330027596367312        0.0000000000000000     
  -1.8808971838151171E-002  0.22165968940058245        0.0000000000000000     
  -1.8916971050610288E-002  0.23007339430859688        0.0000000000000000     
  -2.4549059863247687E-002  0.19679610077062842        0.0000000000000000     
  -2.4780876104786430E-002  0.20504116848461204        0.0000000000000000     
  -2.4983608499889072E-002  0.21334353967196648        0.0000000000000000     
  -2.5157257048555606E-002  0.22170321433269174        0.0000000000000000     
  -2.5301821750786040E-002  0.23012019246678772        0.0000000000000000     
   6.7677200649152169E-014  0.23001322524806073        0.0000000000000000     
   6.4496801996383191E-014  0.23844188172400735        0.0000000000000000     
   6.1734254860890125E-014  0.24685843930612233        0.0000000000000000     
   5.9385818745177898E-014  0.25526289799440571        0.0000000000000000     
   5.7456209928696822E-014  0.26365525778885740        0.0000000000000000     
  -6.2660601751834280E-003  0.23001991069923342        0.0000000000000000     
  -6.2961040369549932E-003  0.23844970506675597        0.0000000000000000     
  -6.3216508361334176E-003  0.24686831083010863        0.0000000000000000     
  -6.3427005727187038E-003  0.25527572798929127        0.0000000000000000     
  -6.3592532467108527E-003  0.26367195654430398        0.0000000000000000     
  -1.2571717192076084E-002  0.23003996705274546        0.0000000000000000     
  -1.2632063230737319E-002  0.23847317509499544        0.0000000000000000     
  -1.2683647372205266E-002  0.24689792540206043        0.0000000000000000     
  -1.2726469616479922E-002  0.25531421797394049        0.0000000000000000     
  -1.2760529963561289E-002  0.26372205281063565        0.0000000000000000     
  -1.8916971050610288E-002  0.23007339430859688        0.0000000000000000     
  -1.9007877581282483E-002  0.23851229180872566        0.0000000000000000     
  -1.9085989608153806E-002  0.24694728302197783        0.0000000000000000     
  -1.9151307131224267E-002  0.25537836794835334        0.0000000000000000     
  -1.9203830150493859E-002  0.26380554658785227        0.0000000000000000     
  -2.5301821750786040E-002  0.23012019246678772        0.0000000000000000     
  -2.5423547088590480E-002  0.23856705520794666        0.0000000000000000     
  -2.5528677543979045E-002  0.24701638368986070        0.0000000000000000     
  -2.5617213116951736E-002  0.25546817791252974        0.0000000000000000     
  -2.5689153807508549E-002  0.26392243787595393        0.0000000000000000     
   5.7456209928696822E-014  0.26365525778885740        0.0000000000000000     
   5.5702187654049773E-014  0.27197536652513976        0.0000000000000000     
   5.3884739552312322E-014  0.28016307203891516        0.0000000000000000     
   5.2003946938647405E-014  0.28821837433018355        0.0000000000000000     
   5.0058915346262722E-014  0.29614127339894492        0.0000000000000000     
  -6.3592532467108527E-003  0.26367195654430398        0.0000000000000000     
  -6.3752081925022748E-003  0.27199715578002220        0.0000000000000000     
  -6.3944647444853925E-003  0.28019148498132118        0.0000000000000000     
  -6.4170229026602006E-003  0.28825494414820096        0.0000000000000000     
  -6.4428826670267017E-003  0.29618753328066166        0.0000000000000000     
  -1.2760529963561289E-002  0.26372205281063565        0.0000000000000000     
  -1.2793061465752230E-002  0.27206252354466021        0.0000000000000000     
  -1.2831297175355610E-002  0.28027672380852875        0.0000000000000000     
  -1.2875237092371431E-002  0.28836465360224106        0.0000000000000000     
  -1.2924881216799688E-002  0.29632631292579720        0.0000000000000000     
  -1.9203830150493859E-002  0.26380554658785227        0.0000000000000000     
  -1.9253559819694160E-002  0.27217146981905393        0.0000000000000000     
  -1.9310497292556773E-002  0.28041878852053770        0.0000000000000000     
  -1.9374642569081686E-002  0.28854750269230361        0.0000000000000000     
  -1.9445995649268903E-002  0.29655761233435163        0.0000000000000000     
  -2.5689153807508549E-002  0.26392243787595393        0.0000000000000000     
  -2.5756703254328071E-002  0.27232399460320333        0.0000000000000000     
  -2.5832065096088878E-002  0.28061767911734825        0.0000000000000000     
  -2.5915239332790971E-002  0.28880349141838885        0.0000000000000000     
  -2.6006225964434349E-002  0.29688143150632484        0.0000000000000000     
  -1.4001583026204457E-002   5.5781492843118820E-002   0.0000000000000000     
  -1.4796715372020380E-002   6.1372060956512292E-002   0.0000000000000000     
  -1.5556459362046596E-002   6.7148520152302951E-002   0.0000000000000000     
  -1.6280814996283102E-002   7.3110870430490790E-002   0.0000000000000000     
  -1.6969782274729905E-002   7.9259111791075837E-002   0.0000000000000000     
  -1.7618219880525293E-002   5.6040177075263972E-002   0.0000000000000000     
  -1.8612372354970357E-002   6.1624978642108356E-002   0.0000000000000000     
  -1.9561723620254667E-002   6.7394804480322909E-002   0.0000000000000000     
  -2.0466273676378224E-002   7.3349654589907637E-002   0.0000000000000000     
  -2.1326022523341030E-002   7.9489528970862561E-002   0.0000000000000000     
  -2.1311268832427507E-002   5.6357852645919644E-002   0.0000000000000000     
  -2.2503205317557656E-002   6.1935407714772246E-002   0.0000000000000000     
  -2.3641798517390945E-002   6.7696938109661667E-002   0.0000000000000000     
  -2.4727048431927391E-002   7.3642443830587934E-002   0.0000000000000000     
  -2.5758955061166988E-002   7.9771924877550957E-002   0.0000000000000000     
  -2.5080729881911106E-002   5.6734519555085842E-002   0.0000000000000000     
  -2.6469214259782277E-002   6.2303348174503961E-002   0.0000000000000000     
  -2.7796684053455437E-002   6.8054921040319197E-002   0.0000000000000000     
  -2.9063139262930610E-002   7.3989238152531570E-002   0.0000000000000000     
  -3.0268579888207785E-002   8.0106299511141052E-002   0.0000000000000000     
  -2.8926603028976088E-002   5.7170177802762540E-002   0.0000000000000000     
  -3.0510399181644221E-002   6.2728800021303488E-002   0.0000000000000000     
  -3.2026380228448149E-002   6.8468753272295513E-002   0.0000000000000000     
  -3.3474546169387880E-002   7.4390037555738628E-002   0.0000000000000000     
  -3.4854897004463405E-002   8.0492652871632833E-002   0.0000000000000000     
  -1.6969782274729905E-002   7.9259111791075837E-002   0.0000000000000000     
  -1.7631289920695490E-002   8.5579289033065345E-002   0.0000000000000000     
  -1.8273266657488348E-002   9.2057446955466637E-002   0.0000000000000000     
  -1.8895712485108487E-002   9.8693585558279673E-002   0.0000000000000000     
  -1.9498627403555895E-002  0.10548770484150446        0.0000000000000000     
  -2.1326022523341030E-002   7.9489528970862561E-002   0.0000000000000000     
  -2.2151229175317064E-002   8.5800860069853810E-002   0.0000000000000000     
  -2.2952152646480314E-002   9.2270080333547527E-002   0.0000000000000000     
  -2.3728792936830782E-002   9.8897189761943741E-002   0.0000000000000000     
  -2.4481150046368465E-002  0.10568218835504245        0.0000000000000000     
  -2.5758955061166988E-002   7.9771924877550957E-002   0.0000000000000000     
  -2.6749569860801195E-002   8.6072323415972665E-002   0.0000000000000000     
  -2.7710944286521488E-002   9.2530581611274879E-002   0.0000000000000000     
  -2.8643078338327854E-002   9.9146699463457513E-002   0.0000000000000000     
  -2.9545972016220303E-002  0.10592067697252065        0.0000000000000000     
  -3.0268579888207785E-002   8.0106299511141052E-002   0.0000000000000000     
  -3.1426311977147889E-002   8.6393679071421967E-002   0.0000000000000000     
  -3.2549641577611865E-002   9.2838950788648622E-002   0.0000000000000000     
  -3.3638568689599704E-002   9.9442114662821005E-002   0.0000000000000000     
  -3.4693093313111413E-002  0.10620317069393910        0.0000000000000000     
  -3.4854897004463405E-002   8.0492652871632833E-002   0.0000000000000000     
  -3.6181455524357128E-002   8.6764927036201700E-002   0.0000000000000000     
  -3.7468244519751434E-002   9.3195187865668813E-002   0.0000000000000000     
  -3.8715263990646322E-002   9.9783435360034173E-002   0.0000000000000000     
  -3.9922513937041791E-002  0.10652966951929779        0.0000000000000000     
  -1.9498627403555895E-002  0.10548770484150446        0.0000000000000000     
  -2.0076919087866539E-002  0.11242904751489510        0.0000000000000000     
  -2.0625495213076359E-002  0.11950685628820558        0.0000000000000000     
  -2.1144355779185373E-002  0.12672113116143591        0.0000000000000000     
  -2.1633500786193558E-002  0.13407187213458610        0.0000000000000000     
  -2.4481150046368465E-002  0.10568218835504245        0.0000000000000000     
  -2.5203082230187118E-002  0.11261417938441844        0.0000000000000000     
  -2.5888447743380508E-002  0.11968226612164654        0.0000000000000000     
  -2.6537246585948627E-002  0.12688644856672671        0.0000000000000000     
  -2.7149478757891487E-002  0.13422672671965902        0.0000000000000000     
  -2.9545972016220303E-002  0.10592067697252065        0.0000000000000000     
  -3.0412552642219665E-002  0.11284142772077628        0.0000000000000000     
  -3.1235747538346785E-002  0.11989786529053638        0.0000000000000000     
  -3.2015556704601655E-002  0.12708998968180102        0.0000000000000000     
  -3.2751980140984287E-002  0.13441780089457014        0.0000000000000000     
  -3.4693093313111413E-002  0.10620317069393910        0.0000000000000000     
  -3.5705330323964182E-002  0.11311079252396861        0.0000000000000000     
  -3.6667394597975196E-002  0.12015365379487515        0.0000000000000000     
  -3.7579286135144448E-002  0.12733175450665879        0.0000000000000000     
  -3.8441004935471958E-002  0.13464509465931945        0.0000000000000000     
  -3.9922513937041791E-002  0.10652966951929779        0.0000000000000000     
  -4.1081415275420655E-002  0.11342227379399542        0.0000000000000000     
  -4.2183388922265724E-002  0.12044963163466284        0.0000000000000000     
  -4.3228434877577007E-002  0.12761174304129999        0.0000000000000000     
  -4.4216553141354496E-002  0.13490860801390697        0.0000000000000000     
  -2.1633500786193558E-002  0.13407187213458610        0.0000000000000000     
  -2.2094572994363654E-002  0.14154639467465824        0.0000000000000000     
  -2.2529215163958356E-002  0.14913201424865449        0.0000000000000000     
  -2.2937427294977678E-002  0.15682873085657476        0.0000000000000000     
  -2.3319209387421613E-002  0.16463654449841914        0.0000000000000000     
  -2.7149478757891487E-002  0.13422672671965902        0.0000000000000000     
  -2.7727015651865954E-002  0.14169050452970755        0.0000000000000000     
  -2.8271728660528923E-002  0.14926518594613644        0.0000000000000000     
  -2.8783617783880378E-002  0.15695077096894572        0.0000000000000000     
  -2.9262683021920331E-002  0.16474725959813535        0.0000000000000000     
  -3.2751980140984287E-002  0.13441780089457014        0.0000000000000000     
  -3.3447255224172093E-002  0.14186881333093093        0.0000000000000000     
  -3.4103619330842508E-002  0.14943054139297063        0.0000000000000000     
  -3.4721072460995546E-002  0.15710298508068915        0.0000000000000000     
  -3.5299614614631200E-002  0.16488614439408650        0.0000000000000000     
  -3.8441004935471958E-002  0.13464509465931945        0.0000000000000000     
  -3.9255291711282059E-002  0.14208132107832847        0.0000000000000000     
  -4.0024887174899139E-002  0.14962808058915700        0.0000000000000000     
  -4.0749791326323184E-002  0.15728537319180505        0.0000000000000000     
  -4.1430004165554202E-002  0.16505319888627273        0.0000000000000000     
  -4.4216553141354496E-002  0.13490860801390697        0.0000000000000000     
  -4.5151125113195863E-002  0.14232802777190004        0.0000000000000000     
  -4.6035532192698798E-002  0.14985780353469555        0.0000000000000000     
  -4.6869774379863283E-002  0.15749793530229347        0.0000000000000000     
  -4.7653851674689343E-002  0.16524842307469384        0.0000000000000000     
  -2.3319209387421613E-002  0.16463654449841914        0.0000000000000000     
  -2.3672500347027923E-002  0.17254403838453700        0.0000000000000000     
  -2.3995239079534374E-002  0.18053979572527784        0.0000000000000000     
  -2.4287425584940958E-002  0.18862381652064164        0.0000000000000000     
  -2.4549059863247687E-002  0.19679610077062842        0.0000000000000000     
  -2.9262683021920331E-002  0.16474725959813535        0.0000000000000000     
  -2.9706546970719845E-002  0.17264354542684887        0.0000000000000000     
  -3.0112832226349976E-002  0.18062852204822982        0.0000000000000000     
  -3.0481538788810714E-002  0.18870218946227818        0.0000000000000000     
  -3.0812666658102068E-002  0.19686454766899397        0.0000000000000000     
  -3.5299614614631200E-002  0.16488614439408650        0.0000000000000000     
  -3.5836569210473804E-002  0.17276911948439541        0.0000000000000000     
  -3.6329259667247711E-002  0.18074101050284844        0.0000000000000000     
  -3.6777685984952915E-002  0.18880181744944549        0.0000000000000000     
  -3.7181848163589423E-002  0.19695154032418671        0.0000000000000000     
  -4.1430004165554202E-002  0.16505319888627273        0.0000000000000000     
  -4.2062567066289795E-002  0.17292076055717667        0.0000000000000000     
  -4.2644521402227589E-002  0.18087726108913360        0.0000000000000000     
  -4.3175867173367563E-002  0.18892270048214360        0.0000000000000000     
  -4.3656604379709724E-002  0.19705707873620662        0.0000000000000000     
  -4.7653851674689343E-002  0.16524842307469384        0.0000000000000000     
  -4.8384540538167820E-002  0.17309846864519254        0.0000000000000000     
  -4.9058617431289600E-002  0.18103727380708534        0.0000000000000000     
  -4.9676082354054650E-002  0.18906483856037237        0.0000000000000000     
  -5.0236935306462990E-002  0.19718116290505358        0.0000000000000000     
  -2.4549059863247687E-002  0.19679610077062842        0.0000000000000000     
  -2.4780876104786430E-002  0.20504116848461204        0.0000000000000000     
  -2.4983608499889072E-002  0.21334353967196648        0.0000000000000000     
  -2.5157257048555606E-002  0.22170321433269174        0.0000000000000000     
  -2.5301821750786040E-002  0.23012019246678772        0.0000000000000000     
  -3.0812666658102068E-002  0.19686454766899397        0.0000000000000000     
  -3.1106543643755383E-002  0.20510163958470123        0.0000000000000000     
  -3.1363497555301982E-002  0.21339950812572392        0.0000000000000000     
  -3.1583528392741873E-002  0.22175815329206197        0.0000000000000000     
  -3.1766636156075050E-002  0.23017757508371556        0.0000000000000000     
  -3.7181848163589423E-002  0.19695154032418671        0.0000000000000000     
  -3.7541491555813510E-002  0.20517787691527112        0.0000000000000000     
  -3.7856361514281484E-002  0.21346852501089777        0.0000000000000000     
  -3.8126458038993324E-002  0.22182348461106674        0.0000000000000000     
  -3.8351781129949039E-002  0.23024275571577793        0.0000000000000000     
  -4.3656604379709724E-002  0.19705707873620662        0.0000000000000000     
  -4.4085719840960824E-002  0.20526988047632175        0.0000000000000000     
  -4.4462200376827556E-002  0.21355059032748819        0.0000000000000000     
  -4.4786045987309953E-002  0.22189920828970591        0.0000000000000000     
  -4.5057256672408001E-002  0.23031573436297487        0.0000000000000000     
  -5.0236935306462990E-002  0.19718116290505358        0.0000000000000000     
  -5.0739228499197292E-002  0.20537765026785310        0.0000000000000000     
  -5.1181014142940226E-002  0.21364570407549510        0.0000000000000000     
  -5.1562292237691765E-002  0.22198532432797952        0.0000000000000000     
  -5.1883062783451943E-002  0.23039651102530639        0.0000000000000000     
  -2.5301821750786040E-002  0.23012019246678772        0.0000000000000000     
  -2.5423547088590480E-002  0.23856705520794666        0.0000000000000000     
  -2.5528677543979045E-002  0.24701638368986070        0.0000000000000000     
  -2.5617213116951736E-002  0.25546817791252974        0.0000000000000000     
  -2.5689153807508549E-002  0.26392243787595393        0.0000000000000000     
  -3.1766636156075050E-002  0.23017757508371556        0.0000000000000000     
  -3.1920731914218653E-002  0.23863298807710109        0.0000000000000000     
  -3.2053726736089798E-002  0.24709960684863516        0.0000000000000000     
  -3.2165620621688498E-002  0.25557743139831784        0.0000000000000000     
  -3.2256413571014754E-002  0.26406646172614906        0.0000000000000000     
  -3.8351781129949039E-002  0.23024275571577793        0.0000000000000000     
  -3.8541092219724328E-002  0.23870561320063147        0.0000000000000000     
  -3.8703152740894885E-002  0.24719133194122736        0.0000000000000000     
  -3.8837962693460730E-002  0.25569991193756564        0.0000000000000000     
  -3.8945522077421829E-002  0.26423135318964636        0.0000000000000000     
  -4.5057256672408001E-002  0.23031573436297487        0.0000000000000000     
  -4.5284628005107519E-002  0.23878493057853778        0.0000000000000000     
  -4.5476955558394323E-002  0.24729155896763719        0.0000000000000000     
  -4.5634239332268407E-002  0.25583561953027312        0.0000000000000000     
  -4.5756479326729778E-002  0.26441711226644565        0.0000000000000000     
  -5.1883062783451943E-002  0.23039651102530639        0.0000000000000000     
  -5.2151339270368226E-002  0.23887094021082000        0.0000000000000000     
  -5.2375135188588100E-002  0.24740028792786470        0.0000000000000000     
  -5.2554450538111558E-002  0.25598455417644034        0.0000000000000000     
  -5.2689285318938614E-002  0.26462373895654701        0.0000000000000000     
  -2.5689153807508549E-002  0.26392243787595393        0.0000000000000000     
  -2.5756703254328071E-002  0.27232399460320333        0.0000000000000000     
  -2.5832065096088878E-002  0.28061767911734825        0.0000000000000000     
  -2.5915239332790971E-002  0.28880349141838885        0.0000000000000000     
  -2.6006225964434349E-002  0.29688143150632484        0.0000000000000000     
  -3.2256413571014754E-002  0.26406646172614906        0.0000000000000000     
  -3.2340915062289595E-002  0.27251376836389402        0.0000000000000000     
  -3.2433934573734086E-002  0.28086642184331795        0.0000000000000000     
  -3.2535472105348226E-002  0.28912442216442075        0.0000000000000000     
  -3.2645527657132002E-002  0.29728776932720252        0.0000000000000000     
  -3.8945522077421829E-002  0.26423135318964636        0.0000000000000000     
  -3.9044618536214382E-002  0.27273446156791165        0.0000000000000000     
  -3.9154039713274573E-002  0.28115804294280416        0.0000000000000000     
  -3.9273785608602382E-002  0.28950209731432358        0.0000000000000000     
  -3.9403856222197844E-002  0.29776662468247017        0.0000000000000000     
  -4.5756479326729778E-002  0.26441711226644565        0.0000000000000000     
  -4.5867813676102424E-002  0.27298607421525634        0.0000000000000000     
  -4.5992380514710308E-002  0.28149254241580690        0.0000000000000000     
  -4.6130179842553465E-002  0.28993651686809746        0.0000000000000000     
  -4.6281211659631873E-002  0.29831799757212785        0.0000000000000000     
  -5.2689285318938614E-002  0.26462373895654701        0.0000000000000000     
  -5.2810500481953723E-002  0.27326860630592786        0.0000000000000000     
  -5.2948956978041341E-002  0.28186992026232632        0.0000000000000000     
  -5.3104654807201453E-002  0.29042768082574216        0.0000000000000000     
  -5.3277593969434087E-002  0.29894188799617555        0.0000000000000000     
  -2.8926603028976088E-002   5.7170177802762540E-002   0.0000000000000000     
  -3.0510399181644221E-002   6.2728800021303488E-002   0.0000000000000000     
  -3.2026380228448149E-002   6.8468753272295513E-002   0.0000000000000000     
  -3.3474546169387880E-002   7.4390037555738628E-002   0.0000000000000000     
  -3.4854897004463405E-002   8.0492652871632833E-002   0.0000000000000000     
  -3.2890182375640349E-002   5.7665649779804970E-002   0.0000000000000000     
  -3.4668785147127040E-002   6.3211576127525537E-002   0.0000000000000000     
  -3.6372757974701603E-002   6.8937652466673147E-002   0.0000000000000000     
  -3.8002100858364030E-002   7.4843878797247812E-002   0.0000000000000000     
  -3.9556813798114335E-002   8.0930255119249547E-002   0.0000000000000000     
  -3.7012762023921793E-002   5.8221757877068347E-002   0.0000000000000000     
  -3.8986397220214290E-002   6.3751489365524799E-002   0.0000000000000000     
  -4.0877688224548334E-002   6.9460836284534644E-002   0.0000000000000000     
  -4.2686635036923916E-002   7.5349798634097853E-002   0.0000000000000000     
  -4.4413237657341030E-002   8.1418376414214413E-002   0.0000000000000000     
  -4.1294341973820418E-002   5.8838502094552651E-002   0.0000000000000000     
  -4.3463235400905978E-002   6.4348539735301288E-002   0.0000000000000000     
  -4.5541170977988328E-002   7.0038304725879977E-002   0.0000000000000000     
  -4.7528148705067511E-002   7.5907797066288710E-002   0.0000000000000000     
  -4.9424168582143498E-002   8.1957016756527473E-002   0.0000000000000000     
  -4.5734922225336226E-002   5.9515882432257888E-002   0.0000000000000000     
  -4.8099299689202089E-002   6.5002727236855004E-002   0.0000000000000000     
  -5.0363206235021628E-002   7.0670057790709173E-002   0.0000000000000000     
  -5.2526641862794828E-002   7.6517874093820409E-002   0.0000000000000000     
  -5.4589606572521709E-002   8.2546176146188713E-002   0.0000000000000000     
  -3.4854897004463405E-002   8.0492652871632833E-002   0.0000000000000000     
  -3.6181455524357128E-002   8.6764927036201700E-002   0.0000000000000000     
  -3.7468244519751434E-002   9.3195187865668813E-002   0.0000000000000000     
  -3.8715263990646322E-002   9.9783435360034173E-002   0.0000000000000000     
  -3.9922513937041791E-002  0.10652966951929779        0.0000000000000000     
  -3.9556813798114335E-002   8.0930255119249547E-002   0.0000000000000000     
  -4.1051717508946997E-002   8.7185733185430339E-002   0.0000000000000000     
  -4.2501632705856517E-002   9.3599264748542299E-002   0.0000000000000000     
  -4.3906559388842900E-002  0.10017084980858533        0.0000000000000000     
  -4.5266497557906120E-002  0.10690048836555952        0.0000000000000000     
  -4.4413237657341030E-002   8.1418376414214413E-002   0.0000000000000000     
  -4.6073814937435585E-002   8.7655763394226399E-002   0.0000000000000000     
  -4.7684685728843434E-002   9.4051153343475843E-002   0.0000000000000000     
  -4.9245850031564613E-002  0.10060454626196275        0.0000000000000000     
  -5.0757307845599078E-002  0.10731594214968711        0.0000000000000000     
  -4.9424168582143498E-002   8.1957016756527473E-002   0.0000000000000000     
  -5.1247747809822851E-002   8.8175017662589880E-002   0.0000000000000000     
  -5.3017403588712167E-002   9.4550853650469516E-002   0.0000000000000000     
  -5.4733135918811439E-002  0.10108452472016639        0.0000000000000000     
  -5.6394944800120674E-002  0.10777603087168050        0.0000000000000000     
  -5.4589606572521709E-002   8.2546176146188713E-002   0.0000000000000000     
  -5.6573516126108822E-002   8.8743495990520768E-002   0.0000000000000000     
  -5.8499786285462721E-002   9.5098365669523288E-002   0.0000000000000000     
  -6.0368417050583413E-002  0.10161078518319629        0.0000000000000000     
  -6.2179408421470898E-002  0.10828075453153971        0.0000000000000000     
  -3.9922513937041791E-002  0.10652966951929779        0.0000000000000000     
  -4.1081415275420655E-002  0.11342227379399542        0.0000000000000000     
  -4.2183388922265724E-002  0.12044963163466284        0.0000000000000000     
  -4.3228434877577007E-002  0.12761174304129999        0.0000000000000000     
  -4.4216553141354496E-002  0.13490860801390697        0.0000000000000000     
  -4.5266497557906120E-002  0.10690048836555952        0.0000000000000000     
  -4.6572157615814860E-002  0.11377631120289203        0.0000000000000000     
  -4.7814249965337743E-002  0.12078644910400997        0.0000000000000000     
  -4.8992774606474776E-002  0.12793090206891339        0.0000000000000000     
  -5.0107731539225958E-002  0.13520967009760226        0.0000000000000000     
  -5.0757307845599078E-002  0.10731594214968711        0.0000000000000000     
  -5.2208907464372525E-002  0.11417334442269365        0.0000000000000000     
  -5.3590497181310558E-002  0.12116475649702711        0.0000000000000000     
  -5.4902076996413175E-002  0.12829017837268755        0.0000000000000000     
  -5.6143646909680399E-002  0.13554961004967489        0.0000000000000000     
  -5.6394944800120674E-002  0.10777603087168050        0.0000000000000000     
  -5.7991664821093664E-002  0.11461337345340029        0.0000000000000000     
  -5.9512130570184174E-002  0.12158455381371430        0.0000000000000000     
  -6.0956342047392226E-002  0.12868957195262248        0.0000000000000000     
  -6.2324299252717812E-002  0.13592842787012482        0.0000000000000000     
  -6.2179408421470898E-002  0.10828075453153971        0.0000000000000000     
  -6.3920429685978275E-002  0.11509639829501200        0.0000000000000000     
  -6.5579150131958613E-002  0.12204584105407149        0.0000000000000000     
  -6.7155569759411907E-002  0.12912908280871821        0.0000000000000000     
  -6.8649688568338210E-002  0.13634612355895215        0.0000000000000000     
  -4.4216553141354496E-002  0.13490860801390697        0.0000000000000000     
  -4.5151125113195863E-002  0.14232802777190004        0.0000000000000000     
  -4.6035532192698798E-002  0.14985780353469555        0.0000000000000000     
  -4.6869774379863283E-002  0.15749793530229347        0.0000000000000000     
  -4.7653851674689343E-002  0.16524842307469384        0.0000000000000000     
  -5.0107731539225958E-002  0.13520967009760226        0.0000000000000000     
  -5.1163246761255991E-002  0.14261066231615913        0.0000000000000000     
  -5.2163446270229549E-002  0.15012178785066646        0.0000000000000000     
  -5.3108330066146632E-002  0.15774304670112430        0.0000000000000000     
  -5.3997898149007240E-002  0.16547443886753258        0.0000000000000000     
  -5.6143646909680399E-002  0.13554961004967489        0.0000000000000000     
  -5.7320147986804924E-002  0.14293095361561906        0.0000000000000000     
  -5.8436521293479447E-002  0.15042211115814985        0.0000000000000000     
  -5.9492766829703982E-002  0.15802308267726731        0.0000000000000000     
  -6.0488884595478520E-002  0.16573386817297148        0.0000000000000000     
  -6.2324299252717812E-002  0.13592842787012482        0.0000000000000000     
  -6.3621828789842669E-002  0.14328890167027980        0.0000000000000000     
  -6.4854757262448506E-002  0.15075877345714575        0.0000000000000000     
  -6.6023084670535345E-002  0.15833804323072265        0.0000000000000000     
  -6.7126811014103158E-002  0.16602671099101055        0.0000000000000000     
  -6.8649688568338210E-002  0.13634612355895215        0.0000000000000000     
  -7.0068289170369225E-002  0.14368450648014142        0.0000000000000000     
  -7.1418154177136720E-002  0.15113177474765410        0.0000000000000000     
  -7.2699283588640709E-002  0.15868792836149023        0.0000000000000000     
  -7.3911677404881165E-002  0.16635296732164981        0.0000000000000000     
  -4.7653851674689343E-002  0.16524842307469384        0.0000000000000000     
  -4.8384540538167820E-002  0.17309846864519254        0.0000000000000000     
  -4.9058617431289600E-002  0.18103727380708534        0.0000000000000000     
  -4.9676082354054650E-002  0.18906483856037237        0.0000000000000000     
  -5.0236935306462990E-002  0.19718116290505358        0.0000000000000000     
  -5.3997898149007240E-002  0.16547443886753258        0.0000000000000000     
  -5.4828725276289916E-002  0.17330520645959949        0.0000000000000000     
  -5.5597386205473207E-002  0.18122459158703308        0.0000000000000000     
  -5.6303880936557089E-002  0.18923259424983338        0.0000000000000000     
  -5.6948209469541572E-002  0.19732921444800042        0.0000000000000000     
  -6.0488884595478520E-002  0.16573386817297148        0.0000000000000000     
  -6.1421356930838125E-002  0.17354393671155388        0.0000000000000000     
  -6.2286666175817886E-002  0.18144275735930601        0.0000000000000000     
  -6.3084812330417780E-002  0.18943033011622804        0.0000000000000000     
  -6.3815795394637831E-002  0.19750665498231984        0.0000000000000000     
  -6.7126811014103158E-002  0.16602671099101055        0.0000000000000000     
  -6.8162435501812432E-002  0.17381465940105567        0.0000000000000000     
  -6.9126457342323630E-002  0.18169177112390425        0.0000000000000000     
  -7.0018876535636723E-002  0.18965804615955631        0.0000000000000000     
  -7.0839693081751740E-002  0.19771348450801188        0.0000000000000000     
  -7.3911677404881165E-002  0.16635296732164981        0.0000000000000000     
  -7.5051960989212838E-002  0.17411737452810491        0.0000000000000000     
  -7.6116759704990433E-002  0.18197163288082777        0.0000000000000000     
  -7.7106073552213911E-002  0.18991574237981826        0.0000000000000000     
  -7.8019902530883325E-002  0.19794970302507642        0.0000000000000000     
  -5.0236935306462990E-002  0.19718116290505358        0.0000000000000000     
  -5.0739228499197292E-002  0.20537765026785310        0.0000000000000000     
  -5.1181014142940226E-002  0.21364570407549510        0.0000000000000000     
  -5.1562292237691765E-002  0.22198532432797952        0.0000000000000000     
  -5.1883062783451943E-002  0.23039651102530639        0.0000000000000000     
  -5.6948209469541572E-002  0.19732921444800042        0.0000000000000000     
  -5.7527854155901816E-002  0.20550742320142876        0.0000000000000000     
  -5.8040297347112954E-002  0.21376019153001288        0.0000000000000000     
  -5.8485539043175008E-002  0.22208751943375299        0.0000000000000000     
  -5.8863579244087950E-002  0.23048940691264885        0.0000000000000000     
  -6.3815795394637831E-002  0.19750665498231984        0.0000000000000000     
  -6.4477433436453249E-002  0.20566543618861230        0.0000000000000000     
  -6.5067544523839269E-002  0.21390037796613628        0.0000000000000000     
  -6.5586128656795903E-002  0.22221148031489169        0.0000000000000000     
  -6.6033185835323124E-002  0.23059874323487864        0.0000000000000000     
  -7.0839693081751740E-002  0.19771348450801188        0.0000000000000000     
  -7.1587966340851586E-002  0.20585168922940383        0.0000000000000000     
  -7.2262755673119156E-002  0.21406626338386506        0.0000000000000000     
  -7.2864061078554476E-002  0.22235720697139577        0.0000000000000000     
  -7.3391882557157492E-002  0.23072451999199572        0.0000000000000000     
  -7.8019902530883325E-002  0.19794970302507642        0.0000000000000000     
  -7.8859452869096847E-002  0.20606618232380317        0.0000000000000000     
  -7.9625930794952629E-002  0.21425784778319940        0.0000000000000000     
  -8.0319336308450673E-002  0.22252469940326505        0.0000000000000000     
  -8.0939669409591006E-002  0.23086673718400016        0.0000000000000000     
  -5.1883062783451943E-002  0.23039651102530639        0.0000000000000000     
  -5.2151339270368226E-002  0.23887094021082000        0.0000000000000000     
  -5.2375135188588100E-002  0.24740028792786470        0.0000000000000000     
  -5.2554450538111558E-002  0.25598455417644034        0.0000000000000000     
  -5.2689285318938614E-002  0.26462373895654701        0.0000000000000000     
  -5.8863579244087950E-002  0.23048940691264885        0.0000000000000000     
  -5.9180367876543384E-002  0.23896506451723998        0.0000000000000000     
  -5.9441854867232857E-002  0.24751370279806592        0.0000000000000000     
  -5.9648040216156391E-002  0.25613532175512654        0.0000000000000000     
  -5.9798923923313964E-002  0.26482992138842182        0.0000000000000000     
  -6.6033185835323124E-002  0.23059874323487864        0.0000000000000000     
  -6.6410855684669937E-002  0.23906872591755959        0.0000000000000000     
  -6.6721277830085246E-002  0.24762798755439699        0.0000000000000000     
  -6.6964452271569108E-002  0.25627652814539092        0.0000000000000000     
  -6.7140379009121481E-002  0.26501434769054144        0.0000000000000000     
  -7.3391882557157492E-002  0.23072451999199572        0.0000000000000000     
  -7.3842802694747897E-002  0.23918192441177863        0.0000000000000000     
  -7.4213404077145315E-002  0.24774314219685797        0.0000000000000000     
  -7.4503686704349703E-002  0.25640817334723376        0.0000000000000000     
  -7.4713650576361146E-002  0.26517701786290593        0.0000000000000000     
  -8.0939669409591006E-002  0.23086673718400016        0.0000000000000000     
  -8.1476208906777231E-002  0.23930465999989725        0.0000000000000000     
  -8.1918233608412980E-002  0.24785916672544872        0.0000000000000000     
  -8.2265743514498210E-002  0.25653025736065477        0.0000000000000000     
  -8.2518738625032978E-002  0.26531793190551517        0.0000000000000000     
  -5.2689285318938614E-002  0.26462373895654701        0.0000000000000000     
  -5.2810500481953723E-002  0.27326860630592786        0.0000000000000000     
  -5.2948956978041341E-002  0.28186992026232632        0.0000000000000000     
  -5.3104654807201453E-002  0.29042768082574216        0.0000000000000000     
  -5.3277593969434087E-002  0.29894188799617555        0.0000000000000000     
  -5.9798923923313964E-002  0.26482992138842182        0.0000000000000000     
  -5.9931433046593124E-002  0.27355334719042335        0.0000000000000000     
  -6.0082494643881393E-002  0.28226144465360259        0.0000000000000000     
  -6.0252108715178748E-002  0.29095421377795960        0.0000000000000000     
  -6.0440275260485232E-002  0.29963165456349439        0.0000000000000000     
  -6.7140379009121481E-002  0.26501434769054144        0.0000000000000000     
  -6.7289365462845488E-002  0.27381158621923951        0.0000000000000000     
  -6.7451719052844250E-002  0.28263838376087619        0.0000000000000000     
  -6.7627439779117740E-002  0.29149474031545153        0.0000000000000000     
  -6.7816527641666041E-002  0.30038065588296553        0.0000000000000000     
  -7.4713650576361146E-002  0.26517701786290593        0.0000000000000000     
  -7.4884297730710800E-002  0.27404332339237647        0.0000000000000000     
  -7.5056630204929892E-002  0.28300073758414712        0.0000000000000000     
  -7.5230647999018463E-002  0.29204926043821805        0.0000000000000000     
  -7.5406351112976486E-002  0.30118889195458903        0.0000000000000000     
  -8.2518738625032978E-002  0.26531793190551517        0.0000000000000000     
  -8.2716229850189088E-002  0.27424855870983406        0.0000000000000000     
  -8.2897228100138387E-002  0.28334850612341533        0.0000000000000000     
  -8.3061733374880903E-002  0.29261777414625884        0.0000000000000000     
  -8.3209745674416608E-002  0.30205636277836478        0.0000000000000000     
  -4.5734922225336226E-002   5.9515882432257888E-002   0.0000000000000000     
  -4.8099299689202089E-002   6.5002727236855004E-002   0.0000000000000000     
  -5.0363206235021628E-002   7.0670057790709173E-002   0.0000000000000000     
  -5.2526641862794828E-002   7.6517874093820409E-002   0.0000000000000000     
  -5.4589606572521709E-002   8.2546176146188713E-002   0.0000000000000000     
  -5.0343865144975637E-002   6.0250970246638405E-002   0.0000000000000000     
  -5.2902794363331236E-002   6.5713245677311780E-002   0.0000000000000000     
  -5.5352049256457321E-002   7.1356562603982626E-002   0.0000000000000000     
  -5.7691629824353885E-002   7.7180921026651000E-002   0.0000000000000000     
  -5.9921536067020928E-002   8.3186320945316861E-002   0.0000000000000000     
  -5.5130533099245087E-002   6.1040836894148527E-002   0.0000000000000000     
  -5.7881923701522037E-002   6.6479288863797434E-002   0.0000000000000000     
  -6.0515955303104552E-002   7.2098286290660757E-002   0.0000000000000000     
  -6.3032627903992680E-002   7.7897829174738462E-002   0.0000000000000000     
  -6.5431941504186381E-002   8.3877917516030631E-002   0.0000000000000000     
  -6.0094926088144561E-002   6.1885482374788255E-002   0.0000000000000000     
  -6.3036687703774449E-002   6.7300856796311995E-002   0.0000000000000000     
  -6.5854924374963333E-002   7.2895228850743510E-002   0.0000000000000000     
  -6.8549636101711220E-002   7.8668598538082890E-002   0.0000000000000000     
  -7.1120822884018081E-002   8.4620965858330094E-002   0.0000000000000000     
  -6.5237044111674067E-002   6.2784906688557587E-002   0.0000000000000000     
  -6.8367086370088523E-002   6.8177949474855434E-002   0.0000000000000000     
  -7.1368956472033659E-002   7.3747390284230968E-002   0.0000000000000000     
  -7.4242654417509490E-002   7.9493229116684203E-002   0.0000000000000000     
  -7.6988180206516002E-002   8.5415465972215152E-002   0.0000000000000000     
  -5.4589606572521709E-002   8.2546176146188713E-002   0.0000000000000000     
  -5.6573516126108822E-002   8.8743495990520768E-002   0.0000000000000000     
  -5.8499786285462721E-002   9.5098365669523288E-002   0.0000000000000000     
  -6.0368417050583413E-002  0.10161078518319629        0.0000000000000000     
  -6.2179408421470898E-002  0.10828075453153971        0.0000000000000000     
  -5.9921536067020928E-002   8.3186320945316861E-002   0.0000000000000000     
  -6.2065905208342702E-002   8.9360971567332942E-002   0.0000000000000000     
  -6.4148874472203396E-002   9.5693082100051993E-002   0.0000000000000000     
  -6.6170443858603045E-002  0.10218265254347400        0.0000000000000000     
  -6.8130613367541656E-002  0.10882968289759898        0.0000000000000000     
  -6.5431941504186381E-002   8.3877917516030631E-002   0.0000000000000000     
  -6.7739700378573686E-002   9.0027217582340280E-002   0.0000000000000000     
  -6.9981708802042519E-002   9.6334395641470463E-002   0.0000000000000000     
  -7.2157966774592908E-002  0.10279945169342122        0.0000000000000000     
  -7.4268474296224851E-002  0.10942238573819252        0.0000000000000000     
  -7.1120822884018081E-002   8.4620965858330094E-002   0.0000000000000000     
  -7.3594901636801754E-002   9.0742234035542782E-002   0.0000000000000000     
  -7.5998289274980049E-002   9.7022306293778712E-002   0.0000000000000000     
  -7.8330985798552966E-002  0.10346118263303791        0.0000000000000000     
  -8.0592991207520503E-002  0.11005886305332030        0.0000000000000000     
  -7.6988180206516002E-002   8.5415465972215152E-002   0.0000000000000000     
  -7.9631508983026941E-002   9.1506020926940435E-002   0.0000000000000000     
  -8.2198615891016014E-002   9.7756814056976754E-002   0.0000000000000000     
  -8.4689500930483233E-002  0.10416784536232405        0.0000000000000000     
  -8.7104164101428613E-002  0.11073911484298235        0.0000000000000000     
  -6.2179408421470898E-002  0.10828075453153971        0.0000000000000000     
  -6.3920429685978275E-002  0.11509639829501200        0.0000000000000000     
  -6.5579150131958613E-002  0.12204584105407149        0.0000000000000000     
  -6.7155569759411907E-002  0.12912908280871821        0.0000000000000000     
  -6.8649688568338210E-002  0.13634612355895215        0.0000000000000000     
  -6.8130613367541656E-002  0.10882968289759898        0.0000000000000000     
  -7.0015883891687891E-002  0.11562229058602097        0.0000000000000000     
  -7.1812756323710467E-002  0.12254859303233405        0.0000000000000000     
  -7.3521230663609383E-002  0.12960859023653817        0.0000000000000000     
  -7.5141306911384612E-002  0.13680228219863344        0.0000000000000000     
  -7.4268474296224851E-002  0.10942238573819252        0.0000000000000000     
  -7.6298709270884113E-002  0.11619092196491949        0.0000000000000000     
  -7.8234149602516373E-002  0.12309278456273730        0.0000000000000000     
  -8.0074795291121686E-002  0.13012797353164590        0.0000000000000000     
  -8.1820646336700012E-002  0.13729648887164539        0.0000000000000000     
  -8.0592991207520503E-002  0.11005886305332030        0.0000000000000000     
  -8.2768905823566899E-002  0.11680229243170755        0.0000000000000000     
  -8.4843329968376346E-002  0.12367841564528124        0.0000000000000000     
  -8.6816263641948874E-002  0.13068723269404139        0.0000000000000000     
  -8.8687706844284439E-002  0.13782874357798802        0.0000000000000000     
  -8.7104164101428613E-002  0.11073911484298235        0.0000000000000000     
  -8.9426473549736291E-002  0.11745640198638513        0.0000000000000000     
  -9.1640297421290401E-002  0.12430548627996588        0.0000000000000000     
  -9.3745635716090944E-002  0.13128636772372457        0.0000000000000000     
  -9.5742488434137935E-002  0.13839904631766126        0.0000000000000000     
  -6.8649688568338210E-002  0.13634612355895215        0.0000000000000000     
  -7.0068289170369225E-002  0.14368450648014142        0.0000000000000000     
  -7.1418154177136720E-002  0.15113177474765410        0.0000000000000000     
  -7.2699283588640709E-002  0.15868792836149023        0.0000000000000000     
  -7.3911677404881165E-002  0.16635296732164981        0.0000000000000000     
  -7.5141306911384612E-002  0.13680228219863344        0.0000000000000000     
  -7.6680759523255579E-002  0.14411711236003186        0.0000000000000000     
  -7.8147362955441738E-002  0.15154052416214553        0.0000000000000000     
  -7.9541117207943074E-002  0.15907251760497448        0.0000000000000000     
  -8.0862022280759602E-002  0.16671309268851872        0.0000000000000000     
  -8.1820646336700012E-002  0.13729648887164539        0.0000000000000000     
  -8.3480470243372726E-002  0.14458606362477910        0.0000000000000000     
  -8.5063034515261204E-002  0.15198443083309060        0.0000000000000000     
  -8.6568339152365420E-002  0.15949159049657982        0.0000000000000000     
  -8.7996384154685400E-002  0.16710754261524682        0.0000000000000000     
  -8.8687706844284439E-002  0.13782874357798802        0.0000000000000000     
  -9.0467421330720679E-002  0.14509136027438324        0.0000000000000000     
  -9.2165168856595120E-002  0.15246349476048932        0.0000000000000000     
  -9.3780949421907775E-002  0.15994514703630630        0.0000000000000000     
  -9.5314763026658630E-002  0.16753631710183411        0.0000000000000000     
  -9.5742488434137935E-002  0.13839904631766126        0.0000000000000000     
  -9.7641612785299411E-002  0.14563300230884418        0.0000000000000000     
  -9.9453765979443470E-002  0.15297771594434173        0.0000000000000000     
 -0.10117894801657010       0.16043318722415384        0.0000000000000000     
 -0.10281715889667928       0.16799941614828054        0.0000000000000000     
  -7.3911677404881165E-002  0.16635296732164981        0.0000000000000000     
  -7.5051960989212838E-002  0.17411737452810491        0.0000000000000000     
  -7.6116759704990433E-002  0.18197163288082777        0.0000000000000000     
  -7.7106073552213911E-002  0.18991574237981826        0.0000000000000000     
  -7.8019902530883325E-002  0.19794970302507642        0.0000000000000000     
  -8.0862022280759602E-002  0.16671309268851872        0.0000000000000000     
  -8.2107029696237871E-002  0.17445317433139806        0.0000000000000000     
  -8.3273090976724473E-002  0.18228368745223228        0.0000000000000000     
  -8.4360206122219464E-002  0.19020463205102145        0.0000000000000000     
  -8.5368375132722774E-002  0.19821600812776549        0.0000000000000000     
  -8.7996384154685400E-002  0.16710754261524682        0.0000000000000000     
  -8.9344737926085965E-002  0.17482315104963148        0.0000000000000000     
  -9.0610968870431949E-002  0.18262927966027370        0.0000000000000000     
  -9.1795076987723379E-002  0.19052592844717353        0.0000000000000000     
  -9.2897062277960241E-002  0.19851309741033094        0.0000000000000000     
  -9.5314763026658630E-002  0.16753631710183411        0.0000000000000000     
  -9.6765085678757190E-002  0.17522730468280520        0.0000000000000000     
  -9.8130393386112916E-002  0.18300840950495201        0.0000000000000000     
  -9.9410686148725752E-002  0.19087963156827456        0.0000000000000000     
 -0.10060596396659574       0.19884097087277283        0.0000000000000000     
 -0.10281715889667928       0.16799941614828054        0.0000000000000000     
 -0.10436807295425150       0.17566563523091921        0.0000000000000000     
 -0.10583136452376724       0.18342107698626720        0.0000000000000000     
 -0.10720703360522650       0.19126574141432451        0.0000000000000000     
 -0.10849508019862927       0.19919962851509110        0.0000000000000000     
  -7.8019902530883325E-002  0.19794970302507642        0.0000000000000000     
  -7.8859452869096847E-002  0.20606618232380317        0.0000000000000000     
  -7.9625930794952629E-002  0.21425784778319940        0.0000000000000000     
  -8.0319336308450673E-002  0.22252469940326505        0.0000000000000000     
  -8.0939669409591006E-002  0.23086673718400016        0.0000000000000000     
  -8.5368375132722774E-002  0.19821600812776549        0.0000000000000000     
  -8.6301075887387058E-002  0.20630969321687853        0.0000000000000000     
  -8.7161786265364929E-002  0.21447756485277464        0.0000000000000000     
  -8.7950506266656375E-002  0.22271962303545384        0.0000000000000000     
  -8.8667235891261423E-002  0.23103586776491603        0.0000000000000000     
  -9.2897062277960241E-002  0.19851309741033094        0.0000000000000000     
  -9.3922018261920301E-002  0.20658299965369786        0.0000000000000000     
  -9.4875038460381353E-002  0.21472784828122632        0.0000000000000000     
  -9.5756122873343383E-002  0.22294764329291619        0.0000000000000000     
  -9.6565271500806432E-002  0.23124238468876754        0.0000000000000000     
 -0.10060596396659574       0.19884097087277283        0.0000000000000000     
 -0.10172227999269655       0.20688610163426133        0.0000000000000000     
 -0.10276568738000189       0.21500869806855441        0.0000000000000000     
 -0.10373618612851171       0.22320876017565222        0.0000000000000000     
 -0.10463377623822603       0.23148628795555470        0.0000000000000000     
 -0.10849508019862927       0.19919962851509110        0.0000000000000000     
 -0.10970186107971586       0.20721899915856873        0.0000000000000000     
 -0.11083373302422656       0.21532011421475900        0.0000000000000000     
 -0.11189069603216134       0.22350297368366193        0.0000000000000000     
 -0.11287275010352024       0.23176757756527749        0.0000000000000000     
  -8.0939669409591006E-002  0.23086673718400016        0.0000000000000000     
  -8.1476208906777231E-002  0.23930465999989725        0.0000000000000000     
  -8.1918233608412980E-002  0.24785916672544872        0.0000000000000000     
  -8.2265743514498210E-002  0.25653025736065477        0.0000000000000000     
  -8.2518738625032978E-002  0.26531793190551517        0.0000000000000000     
  -8.8667235891261423E-002  0.23103586776491603        0.0000000000000000     
  -8.9297533630645062E-002  0.23945190240768538        0.0000000000000000     
  -8.9826957976272284E-002  0.24799333033028584        0.0000000000000000     
  -9.0255508928143144E-002  0.25666015153271760        0.0000000000000000     
  -9.0583186486257600E-002  0.26545236601498029        0.0000000000000000     
  -9.6565271500806432E-002  0.23124238468876754        0.0000000000000000     
  -9.7293236176238404E-002  0.23963862136091318        0.0000000000000000     
  -9.7930768733107271E-002  0.24816290220148585        0.0000000000000000     
  -9.8477869171413060E-002  0.25681522721048550        0.0000000000000000     
  -9.8934537491155716E-002  0.26559559638791230        0.0000000000000000     
 -0.10463377623822603       0.23148628795555470        0.0000000000000000     
 -0.10546331654355730       0.23986481685958061        0.0000000000000000     
 -0.10622966587891793       0.24836788233904863        0.0000000000000000     
 -0.10693282424430790       0.25699548439395875        0.0000000000000000     
 -0.10757279163972726       0.26574762302431115        0.0000000000000000     
 -0.11287275010352024       0.23176757756527749        0.0000000000000000     
 -0.11380777473260172       0.24013048890368760        0.0000000000000000     
 -0.11472364941370421       0.24860827074297426        0.0000000000000000     
 -0.11562037414682774       0.25720092308313736        0.0000000000000000     
 -0.11649794893197229       0.26590844592417689        0.0000000000000000     
  -8.2518738625032978E-002  0.26531793190551517        0.0000000000000000     
  -8.2716229850189088E-002  0.27424855870983406        0.0000000000000000     
  -8.2897228100138387E-002  0.28334850612341533        0.0000000000000000     
  -8.3061733374880903E-002  0.29261777414625884        0.0000000000000000     
  -8.3209745674416608E-002  0.30205636277836478        0.0000000000000000     
  -9.0583186486257600E-002  0.26545236601498029        0.0000000000000000     
  -9.0840340170456030E-002  0.27443297656859494        0.0000000000000000     
  -9.1057319500578812E-002  0.28366498598508216        0.0000000000000000     
  -9.1234124476625891E-002  0.29314839426444189        0.0000000000000000     
  -9.1370755098597309E-002  0.30288320140667424        0.0000000000000000     
  -9.8934537491155716E-002  0.26559559638791230        0.0000000000000000     
  -9.9311807040687414E-002  0.27460226136564164        0.0000000000000000     
  -9.9620711168360271E-002  0.28393347377554917        0.0000000000000000     
  -9.9861249874174329E-002  0.29358923361763484        0.0000000000000000     
 -0.10003342315812955       0.30356954089189864        0.0000000000000000     
 -0.10757279163972726       0.26574762302431115        0.0000000000000000     
 -0.10813063046088317       0.27475641310097410        0.0000000000000000     
 -0.10858740310348282       0.28415396949481636        0.0000000000000000     
 -0.10894310956752616       0.29394029220583762        0.0000000000000000     
 -0.10919774985301330       0.30411538123403803        0.0000000000000000     
 -0.11649794893197229       0.26590844592417689        0.0000000000000000     
 -0.11729681043104334       0.27489543177459247        0.0000000000000000     
 -0.11795739530594643       0.28432647314288362        0.0000000000000000     
 -0.11847970355668148       0.29420157002905023        0.0000000000000000     
 -0.11886373518324855       0.30452072243309242        0.0000000000000000     
 </DataArray>
 <DataArray  type="Float64" Name="stress" NumberOfComponents="3" format="ascii">
   6152617250.2591410        66302813.079247952        54545156.971314438     
   5896087204.7202187        31504462.537714243        46542128.602357663     
   5641535499.2977219        3300579.0509316921        41410125.073368602     
   5388962133.9916458       -18308837.381114483        39149146.384347238     
   5138367108.8019943       -33323786.758409739        39759192.535296150     
   5785136426.3355694        61233925.358500481        201319457.27685463     
   5538883625.7571774        30950901.193483829        193692482.49903902     
   5293943419.7191706        5043192.1630620956        190058057.53323436     
   5050315808.2215433       -16489201.732769966        190416182.37944326     
   4808000791.2642860       -33646280.494017839        194766857.03766826     
   5411642971.6176682        54361248.399447918        349032937.20240754     
   5178871773.0627918        29554857.729830265        341005312.84367508     
   4946747423.4722586        6904630.2746739388        338091763.26900589     
   4715269922.8460503       -13589433.966069460        340292288.47838545     
   4484439271.1841831       -31927334.992341757        347606888.47183335     
   5032136886.1054325        45684782.202098131        497685596.74796283     
   4816051646.6370621        27316332.146783829        488480619.63627106     
   4599947510.5569830        8884893.3857650757        485511242.28067416     
   4383824477.8651915       -9609534.0809588432        488777464.68118393     
   4167682548.5616851       -28166950.253385544        498279286.83779842     
   4646618169.7988710        35204526.766453981        647277435.91352701     
   4450423246.4799814        24235324.444327593        636118402.87681270     
   4253543680.9733453        10983981.496361732        632316494.56824887     
   4055979473.2789516       -4549502.0774643421        635871710.98783052     
   3857730623.3967991       -22365126.277142286        646784052.13556194     
   5138367108.8019943       -33323786.758409739        39759192.535296150     
   4997836397.3181667       -13939532.954368114        32022389.241019685     
   4856237175.8736944        1883020.9808814526        28587714.482406575     
   4713569444.4685936        14143875.047371626        29455168.259460025     
   4569833203.1028652        22843029.245075226        34624750.572180666     
   4808000791.2642860       -33646280.494017839        194766857.03766826     
   4677442167.1706209       -16418560.607519627        188134829.90540451     
   4546136584.2214279       -1680703.5727932453        185369172.36474359     
   4414084042.4166994        10567290.610150099        186469884.41566762     
   4281284541.7564344        20325421.941314936        191436966.05817530     
   4484439271.1841831       -31927334.992341757        347606888.47183335     
   4362607708.9261847       -17229656.689718723        342454780.45755237     
   4240350738.9177547       -3950004.2218892574        340733283.09077948     
   4117668361.1588883        7911622.4111669064        342442396.37151927     
   3994560575.6495805        18355223.209413528        347582120.29976940     
   4167682548.5616851       -28166950.253385544        498279286.83779842     
   4053333022.5848451       -16372821.201008797        494982240.89744169     
   3938879639.9626698       -4924880.9664156437        494680046.66051179     
   3824322400.6951528        6176870.4503862858        497372704.12701768     
   3709661304.7823009        16932433.049391508        503060213.29695600     
   3857730623.3967991       -22365126.277142286        646784052.13556194     
   3749618108.1466041       -13848054.141359091        645717211.22507322     
   3641723287.3561740       -4605333.8063659668        647209463.07394254     
   3534046161.0255041        5363034.7278430462        651260807.68216562     
   3426586729.1546006        16057051.461250067        657871245.04974329     
   4569833203.1028652        22843029.245075226        34624750.572180666     
   4357815413.3715000        10424754.671177387        23580853.325399198     
   4146448794.5269685        177049.72006464005        17813074.847676631     
   3935733346.5692902       -7900085.6082029343        17321415.138995674     
   3725669069.4984474       -13806651.313697815        22105874.199372333     
   4281284541.7564344        20325421.941314936        191436966.05817530     
   4083370290.3490629        10150266.492181063        181583377.14787331     
   3885940012.1557956        1588355.0900735855        176784902.22741321     
   3688993707.1766472       -5360312.2649810314        177041541.29678699     
   3492531375.4115992       -10695735.573022366        182353294.35602507     
   3994560575.6495805        18355223.209413528        347582120.29976940     
   3810118420.3398976        10233754.217164755        338723775.77441198     
   3625993040.5715904        3168203.6961596012        334699540.45969862     
   3442184436.3446693       -2841428.3535659313        335509414.35562074     
   3258692607.6591220       -7795141.9320292473        341153397.46218371     
   3709661304.7823009        16932433.049391508        503060213.29695600     
   3538059803.3440065        10675217.846128464        495002049.20503026     
   3366607879.7743626        4916595.5383453369        491556989.54454184     
   3195305534.0733633       -343433.87393307686        492725034.31548101     
   3024152766.2410054       -5104870.3907510042        498506183.51785910     
   3426586729.1546006        16057051.461250067        657871245.04974329     
   3267194439.3613954        11474657.379086018        650418197.43972909     
   3107784529.7641063        6833530.6166307926        647357249.48194158     
   2948357000.3627286        2133671.1738885641        648688401.17637348     
   2788911851.1572680       -2624920.9491325617        654411652.52304673     
   3725669069.4984474       -13806651.313697815        22105874.199372333     
   3560849627.2082305       -6589387.4603588581        15894037.005825812     
   3395082560.7067075       -2530870.9780104160        13487220.207547557     
   3228367869.9939337       -1631101.8665202856        14885423.804533726     
   3060705555.0698762       -3890080.1259633303        20088647.796788163     
   3492531375.4115992       -10695735.573022366        182353294.35602507     
   3337192517.3626266       -3903381.5110080242        174870882.65297168     
   3181231709.3447723        815805.98807013035        170974263.76900688     
   3024648951.3580031        3461826.9240916967        170663437.70410624     
   2867444243.4023399        4034681.2971438169        173938404.45829162     
   3258692607.6591220       -7795141.9320292473        341153397.46218371     
   3112207969.3480129       -1615607.0123063326        332780364.53241307     
   2965427055.3103757        3576342.1523324251        327773896.84552240     
   2818349865.5462341        7780705.5619518757        326133994.40151179     
   2670976400.0555611        10997483.216471434        327860657.20038760     
   3024152766.2410054       -5104870.3907510042        498506183.51785910     
   2885895983.1643562        273936.03566884995        489622482.64412987     
   2747668598.6035542        5750737.5149204731        483886119.43709677     
   2609470612.5586143        11325534.047030449        481297093.89675343     
   2471302025.0295253        16998325.631998658        481855406.02310783     
   2788911851.1572680       -2624920.9491325617        654411652.52304673     
   2658256558.8116617        1765247.6329094172        645397236.98814249     
   2527956339.2242942        7338992.0757585764        639310931.54373252     
   2398011192.3951659        14096312.379398823        636152736.18982899     
   2268421118.3242579        22037208.543776512        635922650.92642629     
   3060705555.0698762       -3890080.1259633303        20088647.796788163     
   2891556104.1988134       -6937659.4702569246        12201882.150039913     
   2723128479.5385542       -7579151.4452161789        6135613.3347601779     
   2555422681.0890512       -5814556.0509806871        1889841.3509809824     
   2388438708.8503509       -1643873.2874064445       -535433.80132713681     
   2867444243.4023399        4034681.2971438169        173938404.45829162     
   2703702968.0139356        2326076.3573858738        165695030.74521309     
   2540372331.1111584        1986266.3697154522        159482301.09396142     
   2377452332.6940045        3015251.3341259956        155300215.50452819     
   2214942972.7624674        5413031.2505904436        153148773.97692823     
   2670976400.0555611        10997483.216471434        327860657.20038760     
   2513243720.8079438        10807978.878698230        318897623.07496113     
   2355610492.3207889        10949977.075806499        312175380.24170244     
   2198076714.5940890        11423477.807758331        307693928.70061415     
   2040642387.6278431        12228481.074564934        305453268.45169377     
   2471302025.0295253        16998325.631998658        481855406.02310783     
   2320178362.5808272        18508048.093664527        471809659.13929963     
   2168842963.1674223        19311980.672986031        464214850.77800602     
   2017295826.7893102        19410123.369938493        459070980.93922919     
   1865536953.4464829        18802476.184518695        456378049.62296045     
   2268421118.3242579        22037208.543776512        635922650.92642629     
   2124506893.3325999        25426284.002314329        624431138.93822122     
   1980069743.6510608        27072277.161248803        615600712.70287573     
   1835109669.2796586        26975188.020642281        609431372.22037482     
   1689626670.2183871        25135016.580465138        605923117.49074757     
   2388438708.8503509       -1643873.2874064445       -535433.80132713681     
   2247007276.9262624        6335214.4047474861       -6644614.3784635821     
   2102310706.3743601        3430506.6708300114       -10897287.861436708     
   1954348997.1946847       -10357996.488991618       -13293454.250236263     
   1803122149.3871734       -35030295.074920654       -13833113.544882745     
   2214942972.7624674        5413031.2505904436        153148773.97692823     
   2077106175.2644258        12572327.895769596        143218847.26111221     
   1937117913.7853971        12560077.937661767        134386699.40508598     
   1794978188.3253679        5376281.3761949539        126652330.40884127     
   1650686998.8843350       -8979061.7885733843        120015740.27238508     
   2040642387.6278431        12228481.074564934        305453268.45169377     
   1904232429.6004984        17917648.186217666        293001882.68513650     
   1766784682.2389600        20147517.517221451        280889547.54399306     
   1628299145.5432320        18918089.067588329        269116263.02825624     
   1488775819.5133154        14229362.837332785        257682029.13793063     
   1865536953.4464829        18802476.184518695        456378049.62296045     
   1728386039.9344652        22371175.276007533        442704491.89360517     
   1591311011.7350645        26192825.409551919        428611256.55528724     
   1454311868.8482728        30267426.585135102        414098343.60799503     
   1317388611.2740991        34594978.802773356        399165753.05174047     
   1689626670.2183871        25135016.580465138        605923117.49074757     
   1549567006.2663293        25932909.165176570        592326674.88653076     
   1410696902.2737010        30696001.614652038        577551826.43897033     
   1273016358.2404807        39424293.928821146        561598572.14806449     
   1136525374.1666837        52117786.107734263        544466912.01381385     
   1803122149.3871734       -35030295.074920654       -13833113.544882745     
   1771941753.0701482       -16405282.390676141       -8344992.7812464004     
   1748828721.1982810        29110945.110761762       -41582503.051119402     
   1733783053.7715681        101518387.42937058       -113545644.35448381     
   1726804750.7899897        200817044.56511581       -224234416.69134220     
   1650686998.8843350       -8979061.7885733843        120015740.27238508     
   1527907915.1151390       -13820466.532094836        135528305.40495959     
   1409298079.9772849       -4764375.8377876282        124721299.86036076     
   1294857493.4707816        18189210.294365764        87594723.638629600     
   1184586155.5956244        55040291.864319146        24148576.739719987     
   1488775819.5133154        14229362.837332785        257682029.13793063     
   1309843935.0243447       -3444693.3142355680        278671236.85665607     
   1131183183.3529115       -20214973.407346964        285746934.25456345     
   952793564.49903417       -36081477.441939652        278909121.33166867     
   774675078.46269298       -51044205.418074161        258157798.08795971     
   1317388611.2740991        34594978.802773356        399165753.05174047     
   1117749812.7977710        14722037.262883127        421083801.57385141     
   914484031.32517231       -17240847.597904205        441494400.13148570     
   707591266.85632515       -61293675.779527485        460397548.72465700     
   497071519.39120537       -117436447.28204760        477793247.35335326     
   1136525374.1666837        52117786.107734263        544466912.01381385     
   951625548.43540752        40679725.199248314        562765999.55653334     
   759200623.89406276        4158001.5905272961        591963697.49112475     
   559250600.54265809       -57447384.718392640        632060005.81760073     
   351775478.38117665       -144136433.72756335        683054924.53594351     
   1726804750.7899897        200817044.56511581       -224234416.69134220     
   1456430862.4020324        184541144.61835426       -96623731.044007331     
   1153886830.5838869        61031433.237620413        60130553.423557527     
   819172655.33556783       -169712089.57704121        246028436.71131396     
   452288336.65701592       -507689423.82576841        461069918.81932604     
   1184586155.5956244        55040291.864319146        24148576.739719987     
   977575744.42797959        11829130.735866547        155572829.59507167     
   732742994.05052912       -157456494.42528290        312810449.45699823     
   450087904.46329105       -452816583.61910701        495861436.32548940     
   129610475.66620928       -874251136.84563279        704725790.20054519     
   774675078.46269298       -51044205.418074161        258157798.08795971     
   621513196.47637916       -124045112.13990554        386801389.74177331     
   424876779.50064456       -341961135.49313092        537928116.58850932     
   184765827.53548977       -704792275.47778368        711537978.62817323     
  -98819659.419098377       -1212538532.0938475        907630975.86073780     
   497071519.39120537       -117436447.28204760        477793247.35335326     
   388243218.54723001       -223081584.00891885        597061949.39608800     
   230288186.93419951       -492482489.96595383        735483554.81808746     
   23206424.552138150       -925639165.15312195        893058063.61936975     
  -233002068.59897748       -1522551609.5704334        1069785475.7999076     
   351775478.38117665       -144136433.72756335        683054924.53594351     
   277765810.64053541       -285280284.87118912        786354508.55802405     
   148977216.35122305       -609020557.84372437        905476764.14572573     
  -34590304.486754656       -1115357252.6451330        1040421691.2990476     
  -272936751.87337762       -1804290369.2753758        1191189290.0180123     
   4646618169.7988710        35204526.766453981        647277435.91352701     
   4450423246.4799814        24235324.444327593        636118402.87681270     
   4253543680.9733453        10983981.496361732        632316494.56824887     
   4055979473.2789516       -4549502.0774643421        635871710.98783052     
   3857730623.3967991       -22365126.277142286        646784052.13556194     
   4262513234.8578868        36394397.324980736        782100085.25374520     
   4084175095.3931093        24064172.229693651        770547752.42604399     
   3905561514.3752522        10815808.624139547        765688364.62869525     
   3726672491.8043180       -3350693.4916765690        767521921.86170864     
   3547508027.6803002       -18435334.117759705        776048424.12507963     
   3879833553.9361138        38011844.089272261        914100165.78935266     
   3717454542.0460420        23751299.336993456        902631933.91111398     
   3555209289.2375674        9936618.1900379658        897192467.36544704     
   3393097795.5106931       -3432199.3515913486        897781766.15234327     
   3231120060.8654141       -16355153.287894368        904399830.27180755     
   3498579127.0335588        40056867.059326649        1043277677.5203432     
   3350261586.4387937        23296705.766239166        1032370947.3320303     
   3202487005.5603037        8346410.1940600872        1026828802.7784948     
   3055255384.3980861       -4794019.6571978331        1026651243.8597345     
   2908566722.9521418       -16124583.787547708        1031838270.5757521     
   3118749954.1502156        42529466.235148191        1169632620.4467280     
   2982596228.5713587        22700391.517431855        1159764792.6887879     
   2847394663.3434496        6045184.6362134218        1154597370.8678393     
   2713145258.4664907       -7436154.4085006714        1154130354.9838765     
   2579848013.9404850       -17743625.616709590        1158363745.0369024     
   3857730623.3967991       -22365126.277142286        646784052.13556194     
   3749618108.1466041       -13848054.141359091        645717211.22507322     
   3641723287.3561740       -4605333.8063659668        647209463.07394254     
   3534046161.0255041        5363034.7278430462        651260807.68216562     
   3426586729.1546006        16057051.461250067        657871245.04974329     
   3547508027.6803002       -18435334.117759705        776048424.12507963     
   3446416064.3966961       -10298472.920828342        773219337.40616953     
   3345467510.7348900       -1683579.6512360573        773319323.50347245     
   3244662366.6948862        7409345.6910237074        776348382.41699195     
   3144000632.2766752        16980303.105938315        782306514.14673603     
   3231120060.8654141       -16355153.287894368        904399830.27180755     
   3138105735.4251537       -8281377.2667912245        899721832.10017848     
   3045160534.7687235        22814.700422763824        898342886.80162919     
   2952284458.8961334        8557422.6137609482        900262994.37615895     
   2859477507.8073721        17322446.473199964        905482154.82377517     
   2908566722.9521418       -16124583.787547708        1031838270.5757521     
   2824687121.2319751       -7796767.1792500019        1025224695.3071095     
   2740802359.4576788        513849.24862277508        1022280152.9684138     
   2656912437.6292510        8807265.4960548878        1023004643.5596591     
   2573017355.7466903        17083481.563054800        1027398167.0808558     
   2579848013.9404850       -17743625.616709590        1158363745.0369024     
   2506160221.8171659       -8844642.6581863165        1149727927.0269575     
   2432392984.8017492       -210476.00664734840        1145131122.0038259     
   2358546302.8942428        8158874.3379241228        1144573329.9674993     
   2284620176.0946388        16263408.375498533        1148054550.9179814     
   3426586729.1546006        16057051.461250067        657871245.04974329     
   3267194439.3613954        11474657.379086018        650418197.43972909     
   3107784529.7641063        6833530.6166307926        647357249.48194158     
   2948357000.3627286        2133671.1738885641        648688401.17637348     
   2788911851.1572680       -2624920.9491325617        654411652.52304673     
   3144000632.2766752        16980303.105938315        782306514.14673603     
   2996328378.1255846        12766795.959202170        774277189.13409293     
   2848722840.5229511        8775677.3073115349        770786048.74728608     
   2701184019.4687676        5006947.1502636671        771833092.98631918     
   2553711914.9630461        1460605.4880686998        777418321.85119295     
   2859477507.8073721        17322446.473199964        905482154.82377517     
   2723942674.9372931        13603041.953572273        896974944.81979537     
   2588558894.9682007        10387147.103912950        893152004.41526961     
   2453326167.9001026        7674761.9242274761        894013333.61019230     
   2318244493.7329984        5465886.4145219326        899558932.40456414     
   2573017355.7466903        17083481.563054800        1027398167.0808558     
   2450037329.7965069        13983395.362198114        1018511464.4968451     
   2327292693.0998507        11667940.006439924        1014455116.4858881     
   2204783445.6567240        10137115.495777130        1015229123.0479944     
   2082509587.4671354        9390921.8302408457        1020833484.1831627     
   2284620176.0946388        16263408.375498533        1148054550.9179814     
   2174612342.7032347        13907856.185071468        1138886748.1652319     
   2064924234.9179015        12618056.014878750        1134695384.9591432     
   1955555852.7386367        12394007.864911318        1135480461.2997313     
   1846507196.1654465        13235711.735198617        1141241977.1869917     
   2788911851.1572680       -2624920.9491325617        654411652.52304673     
   2658256558.8116617        1765247.6329094172        645397236.98814249     
   2527956339.2242942        7338992.0757585764        639310931.54373252     
   2398011192.3951659        14096312.379398823        636152736.18982899     
   2268421118.3242579        22037208.543776512        635922650.92642629     
   2553711914.9630461        1460605.4880686998        777418321.85119295     
   2431007103.7561274        5891381.1068061590        768813933.60573947     
   2308596188.7203007        11301810.629163742        763387819.13723242     
   2186479169.8555613        17691894.055143833        761139978.44567561     
   2064656047.1618996        25061631.384730935        762070411.53106320     
   2318244493.7329984        5465886.4145219326        899558932.40456414     
   2204204917.0546193        10151695.086905718        891293198.76355970     
   2090398059.9601793        15613235.705742598        886455902.58594298     
   1976823922.4496725        21850508.271023154        885047043.87172735     
   1863482504.5230975        28863512.782742500        887066622.62089586     
   2082509587.4671354        9390921.8302408457        1020833484.1831627     
   1977849998.7071331        14546189.573207617        1012835032.4615970     
   1873361952.9439259        20273267.305475712        1008515181.8898638     
   1769045450.1774969        26572155.027013183        1007873932.4679730     
   1664900490.4078512        33442852.737829149        1010911284.1959234     
   1846507196.1654465        13235711.735198617        1141241977.1869917     
   1751942348.7136705        19074864.565716505        1133439434.6998503     
   1657487867.6715341        25281905.428360820        1129565657.0490005     
   1563143753.0390289        31856834.323113859        1129620644.2344286     
   1468910004.8161569        38799651.249968112        1133604396.2561433     
   2268421118.3242579        22037208.543776512        635922650.92642629     
   2124506893.3325999        25426284.002314329        624431138.93822122     
   1980069743.6510608        27072277.161248803        615600712.70287573     
   1835109669.2796586        26975188.020642281        609431372.22037482     
   1689626670.2183871        25135016.580465138        605923117.49074757     
   2064656047.1618996        25061631.384730935        762070411.53106320     
   1928033388.9519801        27909712.776766539        751183781.36807597     
   1791062903.6153567        29598370.413147926        743369807.76121891     
   1653744591.1520424        30127604.293871343        738628490.71049225     
   1516078451.5620260        29497414.418949425        736959830.21589589     
   1863482504.5230975        28863512.782742500        887066622.62089586     
   1735327329.6756966        31523375.082531452        876989154.77349591     
   1606999425.2647667        33607472.170567036        870395914.28550518     
   1478498791.2903235        35115804.046889365        867286901.15691757     
   1349825427.7523613        36048370.711475909        867662115.38773119     
   1664900490.4078512        33442852.737829149        1010911284.1959234     
   1546388715.5037408        36267270.919575512        1001847259.1544849     
   1427879308.5992956        39099582.433525681        996679032.27572930     
   1309372269.6945090        41939787.279668808        995406603.55965149     
   1190867598.7893801        44787885.458010793        998029973.00624943     
   1468910004.8161569        38799651.249968112        1133604396.2561433     
   1361217546.4361372        42141400.287955165        1125758094.5110385     
   1253702553.6189473        46074701.202029347        1122219161.7318892     
   1146365026.3645895        50599553.992217004        1122987597.9186938     
   1039204964.6730673        55715958.658512890        1128063403.0714450     
   1689626670.2183871        25135016.580465138        605923117.49074757     
   1549567006.2663293        25932909.165176570        592326674.88653076     
   1410696902.2737010        30696001.614652038        577551826.43897033     
   1273016358.2404807        39424293.928821146        561598572.14806449     
   1136525374.1666837        52117786.107734263        544466912.01381385     
   1516078451.5620260        29497414.418949425        736959830.21589589     
   1374423297.5631816        27610699.482572436        727665025.19673657     
   1233076528.4456432        26751934.150535345        718940850.79750121     
   1092038144.2094131        26921118.422877192        710787307.01817286     
   951308144.85450017        28118252.299598992        703204393.85875368     
   1349825427.7523613        36048370.711475909        867662115.38773119     
   1211572030.7445970        32976222.365319014        861640910.36250997     
   1072745843.5400355        27994773.363182008        857939372.42046297     
   933346866.13867760        21104023.705046654        856557501.56158614     
   793375098.54052150        12303973.390928507        857495297.78588605     
   1190867598.7893801        44787885.458010793        998029973.00624943     
   1061013205.8105747        42029477.813450038        994254330.38383758     
   929704847.55687129        34424519.252544343        994547391.30785978     
   796942524.02826464        21973009.775306016        998909155.77831495     
   662726235.22475851        4674949.3817310333        1007339623.7951969     
   1039204964.6730673        55715958.658512890        1128063403.0714450     
   922746822.76111531        54770465.826933354        1125505285.2607238     
   803953540.49615395        46041171.818650663        1128764907.4596865     
   682825117.87818027        29528076.633668095        1137842269.6683450     
   559361554.90719628        5231180.2719738483        1152737371.8866901     
   1136525374.1666837        52117786.107734263        544466912.01381385     
   951625548.43540752        40679725.199248314        562765999.55653334     
   759200623.89406276        4158001.5905272961        591963697.49112475     
   559250600.54265809       -57447384.718392640        632060005.81760073     
   351775478.38117665       -144136433.72756335        683054924.53594351     
   951308144.85450017        28118252.299598992        703204393.85875368     
   791990817.01079178        11100526.060525030        721207009.02782357     
   624031920.83358347       -34722427.956901044        749277473.41019320     
   447431456.32288182       -109350609.75263324        787415787.00588346     
   262189423.47865957       -212784019.32675874        835621949.81488574     
   793375098.54052150        12303973.390928507        857495297.78588605     
   657266665.21706319       -11005499.188937068        873898892.80394554     
   511400194.03666931       -66841764.625266582        899539575.85676038     
   355775684.99934208       -155204822.91802949        934417346.94432533     
   190393138.10507411       -276094674.06727135        978532206.06664371     
   662726235.22475851        4674949.3817310333        1007339623.7951969     
   547453093.05422461       -25638350.549136311        1020841650.8849196     
   421305443.50332236       -92200008.414558589        1042750004.8308388     
   284283286.57205099       -195010024.21455118        1073064685.6329392     
   136386622.26040795       -334068397.94910979        1111785693.2912340     
   559361554.90719628        5231180.2719738483        1152737371.8866901     
   462550100.52227491       -32798028.020058841        1162035283.2707314     
   353747669.23354477       -110797159.32478146        1178908760.3324089     
   232954261.04101396       -228766213.64217043        1203357803.0717142     
   100169875.94467151       -386705190.97227597        1235382411.4886365     
   351775478.38117665       -144136433.72756335        683054924.53594351     
   277765810.64053541       -285280284.87118912        786354508.55802405     
   148977216.35122305       -609020557.84372437        905476764.14572573     
  -34590304.486754656       -1115357252.6451330        1040421691.2990476     
  -272936751.87337762       -1804290369.2753758        1191189290.0180123     
   262189423.47865957       -212784019.32675874        835621949.81488574     
   223530072.67679769       -352434569.16278440        884992738.67526484     
   140638480.40099093       -639525923.91195118        945388799.46733117     
   13514646.651233792       -1074058083.5742888        1016810132.1910857     
  -157841428.57245088       -1656031048.1497431        1099256736.8465109     
   190393138.10507411       -276094674.06727135        978532206.06664371     
   173377248.14502338       -418363979.42476070        986278665.68583238     
   122675801.78575081       -672918472.77967966        1000252997.6027565     
   38288799.027248144       -1039758154.1320264        1020455201.8174253     
  -79783760.130489528       -1518883023.4818001        1046885278.3298471     
   136386622.26040795       -334068397.94910979        1111785693.2912340     
   127307337.04520640       -483068515.65715146        1090212289.5897195     
   95089180.505490303       -709198204.44691455        1070069358.5520171     
   39732152.641273439       -1012457464.3183461        1051356900.1781250     
  -38763746.547468066       -1392846295.2715321        1034074914.4680128     
   100169875.94467151       -386705190.97227597        1235382411.4886365     
   85320339.377340615       -546548177.85997689        1196793610.3869455     
   57878616.560218692       -748365118.91364789        1154837882.3150976     
   17844707.493298471       -992156014.13330472        1109515227.2731276     
  -34781387.823422790       -1277920863.5189707        1060825645.2610176     
   3118749954.1502156        42529466.235148191        1169632620.4467280     
   2982596228.5713587        22700391.517431855        1159764792.6887879     
   2847394663.3434496        6045184.6362134218        1154597370.8678393     
   2713145258.4664907       -7436154.4085006714        1154130354.9838765     
   2579848013.9404850       -17743625.616709590        1158363745.0369024     
   2736828967.9589968        41216540.075600386        1233075247.9256604     
   2614086835.3170085        22569436.546956301        1223338198.7674539     
   2492181578.0080285        6711917.4616744518        1218944591.0415998     
   2371113196.0320525       -6356017.1802624464        1219894424.7481019     
   2250881689.3890796       -16634367.378847837        1226187699.8869631     
   2351381286.6336880        38845605.375819325        1295492237.8091762     
   2243887991.2010565        21931646.318008780        1285751468.0630863     
   2137116286.0834858        7422988.3103948832        1281997175.2447276     
   2031066171.2809756       -4680368.6470159292        1284229359.3540947     
   1925737646.7935224       -14378424.554234982        1292448020.3911877     
   1962406910.1742876        35416662.135815382        1356883590.0972614     
   1871999696.2234983        20787020.830576539        1347004600.5756989     
   1782198787.5698216        8178397.1823825836        1343755123.4772322     
   1693004184.2132618       -2409208.8087620735        1347135158.8018587     
   1604415886.1538136       -10975797.142864048        1357144706.5495820     
   1569905838.5807984        30929710.355581701        1417249304.7899308     
   1498421950.3843367        19135560.084661782        1407097596.3052855     
   1427429082.4670384        8978144.0776296854        1404218435.7391045     
   1356927234.8289125        457462.33450323343        1408611823.0913892     
   1286916407.4699526       -6426485.1447388530        1420277758.3621385     
   2579848013.9404850       -17743625.616709590        1158363745.0369024     
   2506160221.8171659       -8844642.6581863165        1149727927.0269575     
   2432392984.8017492       -210476.00664734840        1145131122.0038259     
   2358546302.8942428        8158874.3379241228        1144573329.9674993     
   2284620176.0946388        16263408.375498533        1148054550.9179814     
   2250881689.3890796       -16634367.378847837        1226187699.8869631     
   2187197119.9510450       -8740339.3417958021        1218744226.7649448     
   2123472354.5695605       -980297.78291022778        1215188440.0112934     
   2059707393.2446301        6645757.2978198528        1215520339.6260087     
   1995902235.9762478        14137825.900382400        1219739925.6090860     
   1925737646.7935224       -14378424.554234982        1292448020.3911877     
   1871623938.2737918       -7619059.9687473774        1286242682.5971804     
   1817509282.7592609       -862852.03260278702        1283773704.5530977     
   1763393680.2499223        5890199.2541902065        1285041086.2589381     
   1709277130.7457817        12640093.891640186        1290044827.7147012     
   1604415886.1538136       -10975797.142864048        1357144706.5495820     
   1559440676.7854095       -5480804.5390364528        1352223294.5236709     
   1514503769.3708496        141861.24426919222        1350886915.6292408     
   1469605163.9101276        5892200.2070330381        1353135569.8662908     
   1424744860.4032478        11770212.349276066        1358969257.2348235     
   1286916407.4699526       -6426485.1447388530        1420277758.3621385     
   1250647335.4858952       -2325573.0526651740        1416686062.5444114     
   1214455814.4043279        2033842.0477073193        1416528073.2397246     
   1178341844.2252407        6651760.1563495398        1419803790.4480720     
   1142305424.9486442        11528181.273294389        1426513214.1694601     
   2284620176.0946388        16263408.375498533        1148054550.9179814     
   2174612342.7032347        13907856.185071468        1138886748.1652319     
   2064924234.9179015        12618056.014878750        1134695384.9591432     
   1955555852.7386367        12394007.864911318        1135480461.2997313     
   1846507196.1654465        13235711.735198617        1141241977.1869917     
   1995902235.9762478        14137825.900382400        1219739925.6090860     
   1898951169.6593223        12073120.599906325        1211675249.6880405     
   1802295463.3373942        10992948.616088629        1208610682.6876278     
   1705935117.0104668        10897309.948939681        1210546224.6078446     
   1609870130.6785419        11786204.598461092        1217481875.4486945     
   1709277130.7457817        12640093.891640186        1290044827.7147012     
   1625450458.2860708        10886523.515922844        1283054852.0791197     
   1541894780.2102885        10036267.753308117        1281088654.7381289     
   1458610096.5184331        10089326.603781879        1284146235.6917245     
   1375596407.2105134        11045700.067369878        1292227594.9399102     
   1424744860.4032478        11770212.349276066        1358969257.2348235     
   1354110208.5834906        10348064.933155596        1353025555.3384578     
   1283722185.5365872        9748013.4265528321        1352129301.1106372     
   1213580791.2625432        9970057.8294806480        1356280494.5513639     
   1143686025.7613609        11014198.141943097        1365479135.6606395     
   1142305424.9486442        11528181.273294389        1426513214.1694601     
   1084930420.5515742        10457744.851577580        1421587359.4660580     
   1027777679.3162932        10128185.635824621        1421732621.8051603     
   970847201.24279463        10539503.626015604        1426949001.1867702     
   914138986.33109164        11691698.822191417        1437236497.6108792     
   1846507196.1654465        13235711.735198617        1141241977.1869917     
   1751942348.7136705        19074864.565716505        1133439434.6998503     
   1657487867.6715341        25281905.428360820        1129565657.0490005     
   1563143753.0390289        31856834.323113859        1129620644.2344286     
   1468910004.8161569        38799651.249968112        1133604396.2561433     
   1609870130.6785419        11786204.598461092        1217481875.4486945     
   1525574935.0208359        16826617.131842434        1210750538.2012398     
   1441393553.4439037        22246409.934469342        1208174492.9507389     
   1357325985.9477489        28045583.006355047        1209753739.6971912     
   1273372232.5323789        34224136.347522080        1215488278.4405937     
   1375596407.2105134        11045700.067369878        1292227594.9399102     
   1302218083.8059323        15481538.441321015        1286571485.2151334     
   1228957022.1532731        20308249.321677864        1285297194.6479864     
   1155813222.2525332        25525832.708432078        1288404723.2384653     
   1082786684.1037128        31134288.601586342        1295894070.9865689     
   1143686025.7613609        11014198.141943097        1365479135.6606395     
   1081871795.0689695        15039628.494198501        1360902275.7415483     
   1020178273.7996371        19467423.589984775        1360933762.1407537     
   958605461.95336986        24297583.429323256        1365573594.8582554     
   897153359.53016317        29530108.012193859        1374821773.8940539     
   914138986.33109164        11691698.822191417        1437236497.6108792     
   864536068.80994415        15500887.290450573        1433742909.7804735     
   815057308.38299954        19723932.739388674        1435084195.4290340     
   765702705.05026376        24360835.169024259        1441260354.5565631     
   716472258.81173098        29411594.579336673        1452271387.1630545     
   1468910004.8161569        38799651.249968112        1133604396.2561433     
   1361217546.4361372        42141400.287955165        1125758094.5110385     
   1253702553.6189473        46074701.202029347        1122219161.7318892     
   1146365026.3645895        50599553.992217004        1122987597.9186938     
   1039204964.6730673        55715958.658512890        1128063403.0714450     
   1273372232.5323789        34224136.347522080        1215488278.4405937     
   1177015372.4134283        36929417.339203894        1209633553.9317963     
   1080707990.2982748        39799625.010218561        1208338028.6685390     
   984450086.18693399        42834759.360602736        1211601702.6508379     
   888241660.07938981        46034820.390312105        1219424575.8786995     
   1082786684.1037128        31134288.601586342        1295894070.9865689     
   998484937.33041358        33418956.072372675        1291881604.8951900     
   914104681.00188589        35441925.025731951        1292680168.3289664     
   829645915.11812723        37203195.461656183        1298289761.2878940     
   745108639.67913628        38702767.380135119        1308710383.7719858     
   897153359.53016317        29530108.012193859        1374821773.8940539     
   825626241.18709159        31610016.487446755        1372502247.4012303     
   753892625.72976339        33001601.248515695        1375245580.7131636     
   681952513.15816844        33704862.295360774        1383051773.8298492     
   609805903.47230828        33719799.627987504        1395920826.7512956     
   716472258.81173098        29411594.579336673        1452271387.1630545     
   658439283.98346412        31502598.584435850        1451495481.4499109     
   600071824.48190594        32478653.678563982        1456034265.8211279     
   541369880.30705428        32339759.861716688        1465887740.2767036     
   482333451.45890141        31085917.133859560        1481055904.8166373     
   1039204964.6730673        55715958.658512890        1128063403.0714450     
   922746822.76111531        54770465.826933354        1125505285.2607238     
   803953540.49615395        46041171.818650663        1128764907.4596865     
   682825117.87818027        29528076.633668095        1137842269.6683450     
   559361554.90719628        5231180.2719738483        1152737371.8866901     
   888241660.07938981        46034820.390312105        1219424575.8786995     
   786634540.31019819        44207943.616169304        1216901408.4666290     
   682731351.52267683        34727503.447585762        1220187760.5260379     
   576532093.71683061        17593499.884592831        1229283632.0569324     
   468036766.89264721       -7194067.0728631318        1244189023.0593162     
   745108639.67913628        38702767.380135119        1308710383.7719858     
   658329054.80069578        35987460.487824738        1306267749.9823520     
   569292472.23860550        25748827.983347565        1309626415.1260042     
   477998891.99286854        7986869.8667134047        1318786379.2029400     
   384448314.06348288       -17298413.862084597        1333747642.2131577     
   609805903.47230828        33719799.627987504        1395920826.7512956     
   537830366.23260617        30109016.441899806        1393604309.8079045     
   463636902.64393950        19105145.425928518        1397080871.2595892     
   387225512.70630491        708186.58006374538        1406350511.1063550     
   308596196.41970038       -25081860.095698223        1421413229.3482039     
   482333451.45890141        31085917.133859560        1481055904.8166373     
   425138474.60593355        26572611.478409961        1478911087.9432774     
   365764642.73868203        14796455.775345355        1482551128.9267893     
   304211955.85713893       -4242549.9753566235        1491976027.7671833     
   240480413.96130681       -30544405.773688510        1507185784.4644496     
   559361554.90719628        5231180.2719738483        1152737371.8866901     
   462550100.52227491       -32798028.020058841        1162035283.2707314     
   353747669.23354477       -110797159.32478146        1178908760.3324089     
   232954261.04101396       -228766213.64217043        1203357803.0717142     
   100169875.94467151       -386705190.97227597        1235382411.4886365     
   468036766.89264721       -7194067.0728631318        1244189023.0593162     
   390435990.78042328       -41583132.539634660        1242674789.1867373     
   302689615.29780650       -109790862.57439072        1247522401.5020139     
   204797640.44478095       -211817257.17717487        1258731860.0051379     
   96760066.221338421       -347662316.34800988        1276303164.6961157     
   384448314.06348288       -17298413.862084597        1333747642.2131577     
   322590446.25317782       -49087667.494813606        1323574203.5395885     
   252432356.60587087       -108544327.25088501        1318548891.5640960     
   173974045.12156260       -195668393.13029462        1318671706.2866788     
   87215511.800248161       -310459865.13305426        1323942647.7073369     
   308596196.41970038       -25081860.095698223        1421413229.3482039     
   259013466.94052961       -55311632.885614216        1404733526.3292747     
   202975893.15775052       -107057553.35422179        1391988230.5186515     
   140483475.07137656       -180319621.50148156        1383177341.9163299     
   71536212.681395575       -275097837.32742900        1378300860.5223026     
   240480413.96130681       -30544405.773688510        1507185784.4644496     
   199705052.84247437       -60255028.712053597        1486152757.5558014     
   154320224.95344514       -105330540.88440239        1467840418.3656845     
   104325930.29420824       -165770942.29077691        1452248766.8940883     
   49722168.864774093       -241576232.93114772        1439377803.1410117     
   100169875.94467151       -386705190.97227597        1235382411.4886365     
   85320339.377340615       -546548177.85997689        1196793610.3869455     
   57878616.560218692       -748365118.91364789        1154837882.3150976     
   17844707.493298471       -992156014.13330472        1109515227.2731276     
  -34781387.823422790       -1277920863.5189707        1060825645.2610176     
   96760066.221338421       -347662316.34800988        1276303164.6961157     
   79814786.716510415       -488834512.46900195        1221987029.0355749     
   51484452.494748563       -667956890.97976792        1165117066.3701603     
   11769063.556066751       -885029451.88028109        1105693276.6998639     
  -39331380.099541068       -1140052195.1705306        1043715660.0247107     
   87215511.800248161       -310459865.13305426        1323942647.7073369     
   70497632.115806669       -432264327.66001248        1255307497.6096399     
   43601829.247308046       -587995200.80049157        1184931620.4723315     
   6528103.1947590411       -777652484.55446994        1112815016.2954171     
  -40723546.041842818       -1001236178.9219590        1038957685.0788964     
   71536212.681395575       -275097837.32742900        1378300860.5223026     
   57368875.575232238       -376837623.43299252        1296755016.1091309     
   34230746.817894965       -508480048.37579423        1214281544.6216171     
   2121826.4093720615       -670025112.15588772        1130880446.0597546     
  -38957885.650328666       -861472814.77323627        1046551720.4235526     
   49722168.864774093       -241576232.93114772        1439377803.1410117     
   40428517.094794065       -322554399.78791833        1346329584.5340612     
   23371205.206505328       -429411433.70570976        1253166838.8180249     
  -1449766.8000884950       -562147334.68452919        1159889565.9929063     
  -34034398.924989969       -720762102.72436583        1066497766.0587040     
   1569905838.5807984        30929710.355581701        1417249304.7899308     
   1498421950.3843367        19135560.084661782        1407097596.3052855     
   1427429082.4670384        8978144.0776296854        1404218435.7391045     
   1356927234.8289125        457462.33450323343        1408611823.0913892     
   1286916407.4699526       -6426485.1447388530        1420277758.3621385     
   1175284130.9201174        22553708.463057637        1449059559.1564569     
   1123255456.9004967        14183368.335382879        1439724830.1789999     
   1071595048.0969801        7040578.9280588627        1437292992.6168277     
   1020302904.5095694        1125340.2410839200        1441764046.4699333     
   969379026.13826132       -3562347.7255454063        1453137991.7383175     
   782092588.64955986        14606756.187565774        1480013438.2931747     
   748462967.36910748        9343377.7718398273        1471352474.5826759     
   715078856.24169493        4898366.5329142213        1469224745.7842648     
   681940255.26732385        1271722.4707937539        1473630251.8979495     
   649047164.44599283       -1536554.4145268202        1484568992.9237266     
   390331211.76912820        7088853.5291132480        1510110942.2000928     
   374044481.79016876        4615588.3940332979        1501980529.5163043     
   357880506.90118533        2551506.8922068030        1500013695.2414162     
   341839287.10217834        896609.02363531291        1504210439.3754382     
   325920822.39314824       -349105.21168015897        1514570761.9183667     
  0.27882101389613873       0.48769976152789651        1539352070.8772066     
  0.16367877749138976       0.20195969438932079        1531608994.9798853     
   7.5448301452605795E-002   5.9261890266854439E-003   1529659840.9882822     
   1.4132079206497318E-002 -0.10039209619294598        1533504608.9024012     
  -2.0272519926492632E-002 -0.11700635881429643        1543143298.7222395     
   1286916407.4699526       -6426485.1447388530        1420277758.3621385     
   1250647335.4858952       -2325573.0526651740        1416686062.5444114     
   1214455814.4043279        2033842.0477073193        1416528073.2397246     
   1178341844.2252407        6651760.1563495398        1419803790.4480720     
   1142305424.9486442        11528181.273294389        1426513214.1694601     
   969379026.13826132       -3562347.7255454063        1453137991.7383175     
   941808651.16107655       -597234.94515156746        1448690394.2891116     
   914296439.36039186        2561755.0902442336        1447762503.2502363     
   886842390.73620582        5914622.3806334734        1450354318.6216896     
   859446505.28852212        9461366.9260333180        1456465840.4034698     
   649047164.44599283       -1536554.4145268202        1484568992.9237266     
   630421200.46794283        366473.25186076760        1479242874.8293903     
   611834011.94040930        2398752.4199708998        1477522463.0426779     
   593285598.86338627        4560283.0897820890        1479407757.5635829     
   574775961.23688066        6851065.2613180578        1484898758.3921142     
   325920822.39314824       -349105.21168015897        1514570761.9183667     
   316484983.40649855        565551.53838664293        1508343504.1652522     
   307068532.14437640        1544834.0368789136        1505807952.6170485     
   297671468.60678154        2588742.2837968022        1506964107.2737598     
   288293792.79371768        3697276.2791488171        1511811968.1353886     
  -2.0272519926492632E-002 -0.11700635881429643        1543143298.7222395     
  -2.3259050363366850E-002  -8.5584835921545005E-002   1535992282.2966917     
  -2.7704212550423726E-002  -5.9024031083955014E-002   1532618971.9733515     
  -3.3609459080288208E-002  -3.7331041417461679E-002   1533023367.7522175     
  -4.0968602137132784E-002  -2.0484026562873490E-002   1537205469.6332886     
   1142305424.9486442        11528181.273294389        1426513214.1694601     
   1084930420.5515742        10457744.851577580        1421587359.4660580     
   1027777679.3162932        10128185.635824621        1421732621.8051603     
   970847201.24279463        10539503.626015604        1426949001.1867702     
   914138986.33109164        11691698.822191417        1437236497.6108792     
   859446505.28852212        9461366.9260333180        1456465840.4034698     
   815526325.57111084        8391861.6874701977        1451236518.8895154     
   771772843.22463310        7878014.3520196676        1451285730.5828300     
   728186058.24909759        7919824.9197098315        1456613475.4834204     
   684765970.64450002        8517293.3905264139        1467219753.5912859     
   574775961.23688066        6851065.2613180578        1484898758.3921142     
   544903223.81275094        5960276.4899821281        1479301143.3116093     
   515141617.96871054        5439926.3189451993        1479189477.6031463     
   485491143.70475841        5290014.7482012808        1484563761.2667289     
   455951801.02089661        5510541.7777595222        1495423994.3023558     
   288293792.79371768        3697276.2791488171        1511811968.1353886     
   273061115.27649730        3162989.2591267973        1505781232.7323451     
   257884003.54852080        2813921.5365859568        1505443862.8661137     
   242762457.60977966        2650073.1114959717        1510799858.5366983     
   227696477.46028587        2671443.9838963300        1521849219.7440965     
  -4.0968602137132784E-002  -2.0484026562873490E-002   1537205469.6332886     
  -3.7647037502071892E-002  -5.0857440969176923E-003   1530676787.1517138     
  -3.5934945495443217E-002   4.9469357182070021E-003   1530048886.3717256     
  -3.5832783626734914E-002   9.6138756296541457E-003   1535321767.2933202     
  -3.7340094386458834E-002   8.9152128902701862E-003   1546495429.9164972     
   914138986.33109164        11691698.822191417        1437236497.6108792     
   864536068.80994415        15500887.290450573        1433742909.7804735     
   815057308.38299954        19723932.739388674        1435084195.4290340     
   765702705.05026376        24360835.169024259        1441260354.5565631     
   716472258.81173098        29411594.579336673        1452271387.1630545     
   684765970.64450002        8517293.3905264139        1467219753.5912859     
   647468386.23716795        11345565.861115754        1464059635.1478000     
   610263919.65049469        14484231.067228913        1465756649.3123653     
   573152570.88447571        17933289.008860856        1472310796.0849755     
   536134339.93911397        21692739.686013639        1483722075.4656329     
   455951801.02089661        5510541.7777595222        1495423994.3023558     
   431023147.23903847        7376977.5041715801        1492561132.7599878     
   406156572.00428843        9450341.7209450155        1494577662.9547479     
   381352075.31664848        11730634.428082228        1501473584.8866336     
   356609657.17611277        14217855.625571996        1513248898.5556481     
   227696477.46028587        2671443.9838963300        1521849219.7440965     
   215200351.81555539        3595122.2196196616        1519247402.6170373     
   202735265.44438836        4622264.7005564868        1521547236.3561838     
   190301218.34677827        5752871.4266824424        1528748720.9615359     
   177898210.52273014        6986942.3980142549        1540851856.4331012     
  -3.7340094386458834E-002   8.9152128902701862E-003   1546495429.9164972     
  -3.3283449256755672E-002   7.4576791628591325E-003   1544118444.7189405     
  -2.9206124698187241E-002   6.0663013074374189E-003   1546665369.5166724     
  -2.5124979935392592E-002   4.6893921895790700E-003   1554136204.3096900     
  -2.1032626190137786E-002   3.3491524571975266E-003   1566530949.0979960     
   716472258.81173098        29411594.579336673        1452271387.1630545     
   658439283.98346412        31502598.584435850        1451495481.4499109     
   600071824.48190594        32478653.678563982        1456034265.8211279     
   541369880.30705428        32339759.861716688        1465887740.2767036     
   482333451.45890141        31085917.133859560        1481055904.8166373     
   536134339.93911397        21692739.686013639        1483722075.4656329     
   491911635.09149981        23051600.571365893        1482970779.5550673     
   447438066.73896599        23574249.773655683        1487697034.2652044     
   402713634.88151354        23260687.292881593        1497900839.5960362     
   357738339.51914471        22110913.129056007        1513582195.5475709     
   356609657.17611277        14217855.625571996        1513248898.5556481     
   326662538.12726063        14984168.136593521        1512619770.4774370     
   296548176.74187040        15193006.192488208        1517631053.5562651     
   266266573.01993981        14844369.793246835        1528282747.7921312     
   235817726.96146652        13938258.938866004        1544574853.1850433     
   177898210.52273014        6986942.3980142549        1540851856.4331012     
   162691993.09076050        7300301.2801561803        1540442454.2170153     
   147402154.49062774        7334922.9350861832        1545836323.6943116     
   132028694.72233209        7090807.3628067672        1557033464.8649833     
   116571613.78586736        6567954.5632980354        1574033877.7290432     
  -2.1032626190137786E-002   3.3491524571975266E-003   1566530949.0979960     
  -1.8009861001800530E-002   2.0244337342021383E-003   1566438830.7738094     
  -1.4769916059429112E-002   1.4243414140443413E-003   1572312844.6793444     
  -1.1315307665208470E-002   1.5397939333839676E-003   1584152990.8145990     
  -7.6485521213235340E-003   2.3617097288808463E-003   1601959269.1795766     
   482333451.45890141        31085917.133859560        1481055904.8166373     
   425138474.60593355        26572611.478409961        1478911087.9432774     
   365764642.73868203        14796455.775345355        1482551128.9267893     
   304211955.85713893       -4242549.9753566235        1491976027.7671833     
   240480413.96130681       -30544405.773688510        1507185784.4644496     
   357738339.51914471        22110913.129056007        1513582195.5475709     
   315732533.36747122        18993061.833888650        1510045322.5406041     
   272092585.95510280        10428073.003072083        1512085541.2099910     
   226818497.28202552       -3584053.3634404689        1519702851.5557470     
   179910267.34823796       -23043317.265655175        1532897253.5778537     
   235817726.96146652        13938258.938866004        1544574853.1850433     
   208407473.85248321        12037776.706438005        1540281423.4236412     
   179907793.23637584        6505869.4502611309        1541357319.1580832     
   150318685.11314452       -2657462.8296612501        1547802540.3883727     
   119640149.48278844       -15452220.133332700        1559617087.1145101     
   116571613.78586736        6567954.5632980354        1574033877.7290432     
   103163296.06095585        5706756.0960113741        1569619390.5923889     
   89210264.582501486        3029845.1169159785        1570366462.7710614     
   74712519.350500539       -1462778.3740009293        1576275094.2650709     
   59670060.364956453       -7771114.3767299801        1587345285.0744016     
  -7.6485521213235340E-003   2.3617097288808463E-003   1601959269.1795766     
  -7.1085994233856444E-003   2.6169542723307260E-003   1598059224.0468464     
  -6.5273793696148490E-003   3.0111444473377462E-003   1599112972.0489314     
  -5.9109082097805769E-003   3.5224913645278233E-003   1605120513.1858318     
  -5.2546794754243569E-003   4.1656696407340026E-003   1616081847.4575427     
   240480413.96130681       -30544405.773688510        1507185784.4644496     
   199705052.84247437       -60255028.712053597        1486152757.5558014     
   154320224.95344514       -105330540.88440239        1467840418.3656845     
   104325930.29420824       -165770942.29077691        1452248766.8940883     
   49722168.864774093       -241576232.93114772        1439377803.1410117     
   179910267.34823796       -23043317.265655175        1532897253.5778537     
   148593783.19231293       -45546773.464345135        1507349485.1232934     
   113820198.95874330       -79573896.588515759        1484693895.8278940     
   75589514.647528857       -125124686.63817245        1464930485.6916754     
   33901730.258657731       -182199143.61334592        1448059254.7146261     
   119640149.48278844       -15452220.133332700        1559617087.1145101     
   98272517.834480181       -30601516.928929739        1530899004.9220033     
   74600152.801077768       -53433258.341510698        1505244593.3293109     
   48623054.382581100       -83947444.371068299        1482653852.3364446     
   20341222.578990892       -122144075.01760922        1463126781.9433870     
   59670060.364956453       -7771114.3767299801        1587345285.0744016     
   48741256.768973708       -15419259.105817284        1556801316.9519241     
   36660086.480437785       -26908626.143415034        1529492510.8699265     
   23426549.499378942       -42239215.489423916        1505418866.8283880     
   9040645.8257672712       -61411027.143939599        1484580384.8273103     
  -5.2546794754243569E-003   4.1656696407340026E-003   1616081847.4575427     
  -4.2104598196258166E-003   4.9818665676287606E-003   1585056421.2130833     
  -3.1560377022410921E-003   5.8327655892011906E-003   1557437648.4497375     
  -2.0881190549553608E-003   6.7272652649961930E-003   1533225529.1675096     
  -1.0101809498787137E-003   7.6572448015987584E-003   1512420063.3663914     
   49722168.864774093       -241576232.93114772        1439377803.1410117     
   40428517.094794065       -322554399.78791833        1346329584.5340612     
   23371205.206505328       -429411433.70570976        1253166838.8180249     
  -1449766.8000884950       -562147334.68452919        1159889565.9929063     
  -34034398.924989969       -720762102.72436583        1066497766.0587040     
   33901730.258657731       -182199143.61334592        1448059254.7146261     
   29776693.976410076       -242079207.99214953        1347544668.5975671     
   19828912.605475113       -321368422.66657883        1246251674.7775505     
   4058386.1458457112       -420066787.63665903        1144180273.2545676     
  -17534885.402478546       -538174302.90238476        1041330464.0286233     
   20341222.578990892       -122144075.01760922        1463126781.9433870     
   19488000.087674886       -161495077.42747933        1357410229.1841156     
   14752947.537286088       -213785513.36759555        1250251388.1279917     
   6136064.9278166741       -279015382.83797777        1141650258.7750332     
  -6362647.7407307625       -357184685.83861929        1031606841.1252228     
   9040645.8257672712       -61411027.143939599        1484580384.8273103     
   9562435.4285810515       -80802008.093920097        1375926266.2937021     
   8143310.0019354820       -106662705.80876075        1265165978.8693695     
   4783269.5458287522       -138993120.28847748        1152299522.5543096     
  -517685.93974790722       -177793251.53309000        1037326897.3485279     
  -1.0101809498787137E-003   7.6572448015987584E-003   1512420063.3663914     
  -8.7411762809704247E-004   8.5174083903066262E-003   1403092779.9263275     
  -5.7540968327104113E-004   9.9176390543244224E-003   1290995447.0016565     
  -1.2904055113826607E-004   1.1809726731336269E-002   1176128064.5923841     
   4.6830671209051235E-004   1.4209238181677138E-002   1058490632.6985029     
  0.27882101389613873       0.48769976152789651        1539352070.8772066     
  0.16367877749138976       0.20195969438932079        1531608994.9798853     
   7.5448301452605795E-002   5.9261890266854439E-003   1529659840.9882822     
   1.4132079206497318E-002 -0.10039209619294598        1533504608.9024012     
  -2.0272519926492632E-002 -0.11700635881429643        1543143298.7222395     
  -390331211.33850461       -7088852.9113619924        1510110942.0390384     
  -374044481.52792835       -4615588.1539007276        1501980529.3936877     
  -357880506.77171022       -2551506.9109652936        1500013695.1601269     
  -341839287.06984943       -896609.18255622685        1504210439.3383520     
  -325920822.42234731        349105.03132519126        1514570761.9283600     
  -782092588.38930440       -14606755.940460980        1480013438.0491097     
  -748462967.20710683       -9343377.7060284317        1471352474.3942523     
  -715078856.16053867       -4898366.5903569460        1469224745.6572471     
  -681940255.24959946       -1271722.5934490561        1473630251.8380916     
  -649047164.47428834        1536554.2846968472        1484568992.9367909     
  -1175284130.8735793       -22553708.599605799        1449059558.9074106     
  -1123255456.8738604       -14183368.454433203        1439724829.9815650     
  -1071595048.0910386       -7040579.0322520733        1437292992.4796324     
  -1020302904.5251164       -1125340.3330712318        1441764046.4016194     
  -969379026.17609549        3562347.6431087255        1453137991.7475221     
  -1569905838.7913284       -30929710.888791323        1417249304.6139548     
  -1498421950.5281837       -19135560.399103940        1407097596.1556320     
  -1427429082.5632091       -8978144.2366474867        1404218435.6272919     
  -1356927234.8964040       -457462.40142691135        1408611823.0289357     
  -1286916407.5277689        6426485.1065606475        1420277758.3605630     
  -2.0272519926492632E-002 -0.11700635881429643        1543143298.7222395     
  -2.3259050363366850E-002  -8.5584835921545005E-002   1535992282.2966917     
  -2.7704212550423726E-002  -5.9024031083955014E-002   1532618971.9733515     
  -3.3609459080288208E-002  -3.7331041417461679E-002   1533023367.7522175     
  -4.0968602137132784E-002  -2.0484026562873490E-002   1537205469.6332886     
  -325920822.42234731        349105.03132519126        1514570761.9283600     
  -316484983.44537967       -565551.67342309654        1508343504.1693995     
  -307068532.19479984       -1544834.1327965558        1505807952.6165452     
  -297671468.67060804       -2588742.3467984945        1506964107.2697937     
  -288293792.87280464       -3697276.3154256940        1511811968.1291475     
  -649047164.47428834        1536554.2846968472        1484568992.9367909     
  -630421200.50622416       -366473.35287189484        1479242874.8319952     
  -611834011.98947775       -2398752.4948303998        1477522463.0372040     
  -593285598.92405164       -4560283.1411927640        1479407757.5524161     
  -574775961.30994737       -6851065.2919593751        1484898758.3776360     
  -969379026.17609549        3562347.6431087255        1453137991.7475221     
  -941808651.20579708        597234.87605744600        1448690394.2844737     
  -914296439.41174567       -2561755.1451513171        1447762503.2353301     
  -886842390.79394865       -5914622.4205396771        1450354318.6000884     
  -859446505.35239649       -9461366.9500783682        1456465840.3787501     
  -1286916407.5277689        6426485.1065606475        1420277758.3605630     
  -1250647335.5440929        2325573.0133783817        1416686062.5268414     
  -1214455814.4615982       -2033842.0837391615        1416528073.2109239     
  -1178341844.2802832       -6651760.1847925782        1419803790.4128101     
  -1142305425.0001564       -11528181.289803922        1426513214.1324949     
  -4.0968602137132784E-002  -2.0484026562873490E-002   1537205469.6332886     
  -3.7647037502071892E-002  -5.0857440969176923E-003   1530676787.1517138     
  -3.5934945495443217E-002   4.9469357182070021E-003   1530048886.3717256     
  -3.5832783626734914E-002   9.6138756296541457E-003   1535321767.2933202     
  -3.7340094386458834E-002   8.9152128902701862E-003   1546495429.9164972     
  -288293792.87280464       -3697276.3154256940        1511811968.1291475     
  -273061115.35004008       -3162989.2694398761        1505781232.7238705     
  -257884003.61925703       -2813921.5300602615        1505443862.8556767     
  -242762457.68046296       -2650073.0973091722        1510799858.5245647     
  -227696477.53365290       -2671443.9711717069        1521849219.7305384     
  -574775961.30994737       -6851065.2919593751        1484898758.3776360     
  -544903223.88059223       -5960276.4992250800        1479301143.2932150     
  -515141618.03360003       -5439926.3143704236        1479189477.5813756     
  -485491143.76897049       -5290014.7373887599        1484563761.2421210     
  -455951801.08670479       -5510541.7682870328        1495423994.2754481     
  -859446505.35239649       -9461366.9500783682        1456465840.3787501     
  -815526325.62931323       -8391861.6944708824        1451236518.8597448     
  -771772843.27896810       -7878014.3479964435        1451285730.5488257     
  -728186058.30135918       -7919824.9106393158        1456613475.4459889     
  -684765970.69649172       -8517293.3824195266        1467219753.5512342     
  -1142305425.0001564       -11528181.289803922        1426513214.1324949     
  -1084930420.5961957       -10457744.855161846        1421587359.4234664     
  -1027777679.3553548       -10128185.630916297        1421732621.7580242     
  -970847201.27762461       -10539503.617043376        1426949001.1361618     
  -914138986.36301780       -11691698.813580453        1437236497.5578845     
  -3.7340094386458834E-002   8.9152128902701862E-003   1546495429.9164972     
  -3.3283449256755672E-002   7.4576791628591325E-003   1544118444.7189405     
  -2.9206124698187241E-002   6.0663013074374189E-003   1546665369.5166724     
  -2.5124979935392592E-002   4.6893921895790700E-003   1554136204.3096900     
  -2.1032626190137786E-002   3.3491524571975266E-003   1566530949.0979960     
  -227696477.53365290       -2671443.9711717069        1521849219.7305384     
  -215200351.88103640       -3595122.2093478963        1519247402.6055498     
  -202735265.50195697       -4622264.6926478371        1521547236.3464861     
  -190301218.39642304       -5752871.4210982397        1528748720.9533498     
  -177898210.56443205       -6986942.3946924955        1540851856.4261339     
  -455951801.08670479       -5510541.7682870328        1495423994.2754481     
  -431023147.29799569       -7376977.4969303459        1492561132.7372181     
  -406156572.05637532       -9450341.7158688903        1494577662.9355462     
  -381352075.36185354       -11730634.425135598        1501473584.8704422     
  -356609657.21442515       -14217855.624712273        1513248898.5418942     
  -684765970.69649172       -8517293.3824195266        1467219753.5512342     
  -647468386.28415060       -11345565.855257332        1464059635.1139457     
  -610263919.69245744       -14484231.063585728        1465756649.2838593     
  -573152570.92141211       -17933289.007406384        1472310796.0609713     
  -536134339.97101080       -21692739.686709762        1483722075.4452808     
  -914138986.36301780       -11691698.813580453        1437236497.5578845     
  -864536068.83951306       -15500887.284363240        1433742909.7357323     
  -815057308.41020525       -19723932.735803962        1435084195.3914173     
  -765702705.07509959       -24360835.167916209        1441260354.5249376     
  -716472258.83419013       -29411594.580685377        1452271387.1363015     
  -2.1032626190137786E-002   3.3491524571975266E-003   1566530949.0979960     
  -1.8009861001800530E-002   2.0244337342021383E-003   1566438830.7738094     
  -1.4769916059429112E-002   1.4243414140443413E-003   1572312844.6793444     
  -1.1315307665208470E-002   1.5397939333839676E-003   1584152990.8145990     
  -7.6485521213235340E-003   2.3617097288808463E-003   1601959269.1795766     
  -177898210.56443205       -6986942.3946924955        1540851856.4261339     
  -162691993.12658325       -7300301.2790158316        1540442454.2114954     
  -147402154.52013558       -7334922.9346763641        1545836323.6899974     
  -132028694.74508595       -7090807.3616610691        1557033464.8616490     
  -116571613.80143258       -6567954.5599689968        1574033877.7264478     
  -356609657.21442515       -14217855.624712273        1513248898.5418942     
  -326662538.16054279       -14984168.137681946        1512619770.4665854     
  -296548176.76967144       -15193006.194021463        1517631053.5478497     
  -266266573.04181245       -14844369.793735355        1528282747.7856815     
  -235817726.97696477       -13938258.936820835        1544574853.1800761     
  -536134339.97101080       -21692739.686709762        1483722075.4452808     
  -491911635.11988074       -23051600.573953241        1482970779.5390935     
  -447438066.76337767       -23574249.776617676        1487697034.2528954     
  -402713634.90149611       -23260687.294686809        1497900839.5866892     
  -357738339.53424227       -22110913.128184602        1513582195.5404782     
  -716472258.83419013       -29411594.580685377        1452271387.1363015     
  -658439284.00460589       -31502598.587850690        1451495481.4290094     
  -600071824.50125754       -32478653.682472646        1456034265.8051357     
  -541369880.32415187       -32339759.864566475        1465887740.2646778     
  -482333451.47327781       -31085917.134102419        1481055904.8076420     
  -7.6485521213235340E-003   2.3617097288808463E-003   1601959269.1795766     
  -7.1085994233856444E-003   2.6169542723307260E-003   1598059224.0468464     
  -6.5273793696148490E-003   3.0111444473377462E-003   1599112972.0489314     
  -5.9109082097805769E-003   3.5224913645278233E-003   1605120513.1858318     
  -5.2546794754243569E-003   4.1656696407340026E-003   1616081847.4575427     
  -116571613.80143258       -6567954.5599689968        1574033877.7264478     
  -103163296.07526186       -5706756.0915876478        1569619390.5899546     
  -89210264.595532224       -3029845.1113394573        1570366462.7688074     
  -74712519.362242952        1462778.3807708025        1576275094.2629848     
  -59670060.375404410        7771114.3847150281        1587345285.0724967     
  -235817726.97696477       -13938258.936820835        1544574853.1800761     
  -208407473.86654010       -12037776.702726409        1540281423.4189410     
  -179907793.24903801       -6505869.4450403303        1541357319.1536598     
  -150318685.12445554        2657462.8362482861        1547802540.3842266     
  -119640149.49279571        15452220.141125225        1559617087.1106491     
  -357738339.53424227       -22110913.128184602        1513582195.5404782     
  -315732533.38094425       -18993061.830804631        1510045322.5338008     
  -272092585.96705139       -10428072.998106807        1512085541.2034907     
  -226818497.29254687        3584053.3699588180        1519702851.5495594     
  -179910267.35744756        23043317.273347266        1532897253.5719872     
  -482333451.47327781       -31085917.134102419        1481055904.8076420     
  -425138474.61847246       -26572611.475816697        1478911087.9345305     
  -365764642.74955577       -14796455.770490617        1482551128.9183114     
  -304211955.86651409        4242549.9819174111        1491976027.7589817     
  -240480413.96935418        30544405.781386197        1507185784.4565406     
  -5.2546794754243569E-003   4.1656696407340026E-003   1616081847.4575427     
  -4.2104598196258166E-003   4.9818665676287606E-003   1585056421.2130833     
  -3.1560377022410921E-003   5.8327655892011906E-003   1557437648.4497375     
  -2.0881190549553608E-003   6.7272652649961930E-003   1533225529.1675096     
  -1.0101809498787137E-003   7.6572448015987584E-003   1512420063.3663914     
  -59670060.375404410        7771114.3847150281        1587345285.0724967     
  -48741256.777389102        15419259.115338862        1556801316.9501717     
  -36660086.486796029        26908626.154558375        1529492510.8682935     
  -23426549.503618736        42239215.502390064        1505418866.8268631     
  -9040645.8278713785        61411027.158789307        1484580384.8258774     
  -119640149.49279571        15452220.141125225        1559617087.1106491     
  -98272517.842582524        30601516.938113078        1530899004.9184535     
  -74600152.807222664        53433258.352255486        1505244593.3260455     
  -48623054.386715040        83947444.383556724        1482653852.3334072     
  -20341222.581056207        122144075.03202763        1463126781.9405489     
  -179910267.35744756        23043317.273347266        1532897253.5719872     
  -148593783.19980994        45546773.473242961        1507349485.1179316     
  -113820198.96444049        79573896.598911494        1484693895.8229802     
  -75589514.651363283        125124686.65027100        1464930485.6871402     
  -33901730.260566108        182199143.62736672        1448059254.7104039     
  -240480413.96935418        30544405.781386197        1507185784.4565406     
  -199705052.84904212        60255028.720821351        1486152757.5486021     
  -154320224.95844644        105330540.89453438        1467840418.3591092     
  -104325930.29756999        165770942.30251527        1452248766.8880565     
  -49722168.866398707        241576232.94481570        1439377803.1354392     
  -1.0101809498787137E-003   7.6572448015987584E-003   1512420063.3663914     
  -8.7411762809704247E-004   8.5174083903066262E-003   1403092779.9263275     
  -5.7540968327104113E-004   9.9176390543244224E-003   1290995447.0016565     
  -1.2904055113826607E-004   1.1809726731336269E-002   1176128064.5923841     
   4.6830671209051235E-004   1.4209238181677138E-002   1058490632.6985029     
  -9040645.8278713785        61411027.158789307        1484580384.8258774     
  -9562435.4303933457        80802008.110549346        1375926266.2926345     
  -8143310.0031936243        106662705.82804592        1265165978.8686726     
  -4783269.5462625399        138993120.31131524        1152299522.5539815     
   517685.94039843976        177793251.56035021        1037326897.3485740     
  -20341222.581056207        122144075.03202763        1463126781.9405489     
  -19488000.089445882        161495077.44367465        1357410229.1819744     
  -14752947.538522884        213785513.38636172        1250251388.1265483     
  -6136064.9282997549        279015382.86004984        1141650258.7742817     
   6362647.7412257791        357184685.86474699        1031606841.1251843     
  -33901730.260566108        182199143.62736672        1448059254.7104039     
  -29776693.978011489        242079208.00796270        1347544668.5943267     
  -19828912.606559366        321368422.68487823        1246251674.7752917     
  -4058386.1462431550        420066787.65800583        1144180273.2532983     
   17534885.402953804        538174302.92741394        1041330464.0283415     
  -49722168.866398707        241576232.94481570        1439377803.1354392     
  -40428517.096096218        322554399.80338836        1346329584.5297031     
  -23371205.207319915        429411433.72354257        1253166838.8148875     
   1449766.7999066412        562147334.70519769        1159889565.9910007     
   34034398.925587863        720762102.74836612        1066497766.0580277     
  -1569905838.7913284       -30929710.888791323        1417249304.6139548     
  -1498421950.5281837       -19135560.399103940        1407097596.1556320     
  -1427429082.5632091       -8978144.2366474867        1404218435.6272919     
  -1356927234.8964040       -457462.40142691135        1408611823.0289357     
  -1286916407.5277689        6426485.1065606475        1420277758.3605630     
  -1962406910.4639604       -35416662.450390100        1356883589.9429712     
  -1871999696.4410205       -20787021.002740145        1347004600.4387684     
  -1782198787.7277398       -8178397.2539499998        1343755123.3679793     
  -1693004184.3241091        2409208.7959973812        1347135158.7305923     
  -1604415886.2301400        10975797.147081137        1357144706.5266111     
  -2351381286.9737997       -38845605.463152766        1295492237.6427941     
  -2243887991.4669971       -21931646.340319991        1285751467.9126546     
  -2137116286.2813399       -7422988.2879669666        1281997175.1193419     
  -2031066171.4168234        4680368.6939156055        1284229359.2628589     
  -1925737646.8734505        14378424.605323076        1292448020.3432057     
  -2736828968.3208404       -41216539.927073240        1233075247.7134318     
  -2614086835.6061134       -22569436.411845326        1223338198.5772791     
  -2492181578.2240171       -6711917.3387103081        1218944590.8813825     
  -2371113196.1745453        6356017.2923330069        1219894424.6257362     
  -2250881689.4577041        16634367.481280327        1226187699.8103406     
  -3118749954.5050879       -42529465.842159152        1169632620.1548781     
  -2982596228.8583651       -22700391.217302799        1159764792.4326506     
  -2847394663.5557652       -6045184.4061740637        1154597370.6540995     
  -2713145258.5972757        7436154.5912482738        1154130354.8192239     
  -2579848013.9829006        17743625.774955034        1158363744.9280229     
  -1286916407.5277689        6426485.1065606475        1420277758.3605630     
  -1250647335.5440929        2325573.0133783817        1416686062.5268414     
  -1214455814.4615982       -2033842.0837391615        1416528073.2109239     
  -1178341844.2802832       -6651760.1847925782        1419803790.4128101     
  -1142305425.0001564       -11528181.289803922        1426513214.1324949     
  -1604415886.2301400        10975797.147081137        1357144706.5266111     
  -1559440676.8531981        5480804.5350630879        1352223294.4908016     
  -1514503769.4290118       -141861.25280916691        1350886915.5902019     
  -1469605163.9575887       -5892200.2165607214        1353135569.8248167     
  -1424744860.4389229       -11770212.356163323        1358969257.1946383     
  -1925737646.8734505        14378424.605323076        1292448020.3432057     
  -1871623938.3392146        7619060.0036834478        1286242682.5451326     
  -1817509282.8093152        862852.05425059795        1283773704.4996793     
  -1763393680.2837508       -5890199.2429591417        1285041086.2068443     
  -1709277130.7625229       -12640093.887966156        1290044827.6666315     
  -2250881689.4577041        16634367.481280327        1226187699.8103406     
  -2187197120.0021524        8740339.4192148447        1218744226.6898301     
  -2123472354.6025119        980297.83744072914        1215188439.9393497     
  -2059707393.2587781       -6645757.2640272379        1215520339.5588980     
  -1995902235.9709656       -14137825.885225177        1219739925.5484753     
  -2579848013.9829006        17743625.774955034        1158363744.9280229     
  -2506160221.8419981        8844642.7816936970        1149727926.9249001     
  -2432392984.8085923        210476.09677565098        1145131121.9092169     
  -2358546302.8826714       -8158874.2797592878        1144573329.8809726     
  -2284620176.0642447       -16263408.347938538        1148054550.8401668     
  -1142305425.0001564       -11528181.289803922        1426513214.1324949     
  -1084930420.5961957       -10457744.855161846        1421587359.4234664     
  -1027777679.3553548       -10128185.630916297        1421732621.7580242     
  -970847201.27762461       -10539503.617043376        1426949001.1361618     
  -914138986.36301780       -11691698.813580453        1437236497.5578845     
  -1424744860.4389229       -11770212.356163323        1358969257.1946383     
  -1354110208.6129515       -10348064.937963724        1353025555.2926619     
  -1283722185.5601902       -9748013.4304674864        1352129301.0601354     
  -1213580791.2806427       -9970057.8336851001        1356280494.4970589     
  -1143686025.7743118       -11014198.147625387        1365479135.6034322     
  -1709277130.7625229       -12640093.887966156        1290044827.6666315     
  -1625450458.2977748       -10886523.521175921        1283054852.0265903     
  -1541894780.2163334       -10036267.765416741        1281088654.6818678     
  -1458610096.5182016       -10089326.620685399        1284146235.6324637     
  -1375596407.2033815       -11045700.086992979        1292227594.8783760     
  -1995902235.9709656       -14137825.885225177        1219739925.5484753     
  -1898951169.6506710       -12073120.604808331        1211675249.6252561     
  -1802295463.3237855       -10992948.635757446        1208610682.6232238     
  -1705935116.9903004       -10897309.978042960        1210546224.5423775     
  -1609870130.6502252       -11786204.631694376        1217481875.3827195     
  -2284620176.0642447       -16263408.347938538        1148054550.8401668     
  -2174612342.6716423       -13907856.188876510        1138886748.0886586     
  -2064924234.8825409       -12618056.041482329        1134695384.8842030     
  -1955555852.6969423       -12394007.905769110        1135480461.2268019     
  -1846507196.1148508       -13235711.781740427        1141241977.1164570     
  -914138986.36301780       -11691698.813580453        1437236497.5578845     
  -864536068.83951306       -15500887.284363240        1433742909.7357323     
  -815057308.41020525       -19723932.735803962        1435084195.3914173     
  -765702705.07509959       -24360835.167916209        1441260354.5249376     
  -716472258.83419013       -29411594.580685377        1452271387.1363015     
  -1143686025.7743118       -11014198.147625387        1365479135.6034322     
  -1081871795.0828619       -15039628.503080726        1360902275.6931643     
  -1020178273.8140672       -19467423.600732028        1360933762.0999410     
  -958605461.96793234       -24297583.440572321        1365573594.8237665     
  -897153359.54445350       -29530108.022614419        1374821773.8646369     
  -1375596407.2033815       -11045700.086992979        1292227594.8783760     
  -1302218083.8033869       -15481538.464952886        1286571485.1634593     
  -1228957022.1545131       -20308249.346641064        1285297194.6047935     
  -1155813222.2567534       -25525832.732048035        1288404723.2023835     
  -1082786684.1101058       -31134288.621160150        1295894070.9562342     
  -1609870130.6502252       -11786204.631694376        1217481875.3827195     
  -1525574935.0010958       -16826617.169989407        1210750538.1466150     
  -1441393553.4315348       -22246409.973519921        1208174492.9059741     
  -1357325985.9415512       -28045583.042305171        1209753739.6607995     
  -1273372232.5311377       -34224136.376323044        1215488278.4110866     
  -1846507196.1148508       -13235711.781740427        1141241977.1164570     
  -1751942348.6759787       -19074864.618167877        1133439434.6426318     
  -1657487867.6451387       -25281905.481370866        1129565657.0034800     
  -1563143753.0223367       -31856834.371361315        1129620644.1990020     
  -1468910004.8075542       -38799651.288094759        1133604396.2292008     
  -716472258.83419013       -29411594.580685377        1452271387.1363015     
  -658439284.00460589       -31502598.587850690        1451495481.4290094     
  -600071824.50125754       -32478653.682472646        1456034265.8051357     
  -541369880.32415187       -32339759.864566475        1465887740.2646778     
  -482333451.47327781       -31085917.134102419        1481055904.8076420     
  -897153359.54445350       -29530108.022614419        1374821773.8646369     
  -825626241.20134497       -31610016.496311575        1372502247.3779466     
  -753892625.74385214       -33001601.255393147        1375245580.6951344     
  -681952513.17197835       -33704862.299875885        1383051773.8162007     
  -609805903.48571217       -33719799.629715532        1395920826.7411499     
  -1082786684.1101058       -31134288.621160150        1295894070.9562342     
  -998484937.33786213       -33418956.086697638        1291881604.8708665     
  -914104681.01061618       -35441925.035564452        1292680168.3098397     
  -829645915.12836766       -37203195.467754006        1298289761.2731535     
  -745108639.69110918       -38702767.383244067        1308710383.7608140     
  -1273372232.5311377       -34224136.376323044        1215488278.4110866     
  -1177015372.4141526       -36929417.359019756        1209633553.9077678     
  -1080707990.3015468       -39799625.022982419        1208338028.6492505     
  -984450086.19331515       -42834759.368196368        1211601702.6355398     
  -888241660.08945858       -46034820.394651681        1219424575.8666294     
  -1468910004.8075542       -38799651.288094759        1133604396.2292008     
  -1361217546.4302268       -42141400.313287020        1125758094.4886501     
  -1253702553.6166499       -46074701.217658877        1122219161.7133682     
  -1146365026.3668344       -50599554.001226723        1122987597.9033542     
  -1039204964.6807601       -55715958.663938224        1128063403.0586066     
  -482333451.47327781       -31085917.134102419        1481055904.8076420     
  -425138474.61847246       -26572611.475816697        1478911087.9345305     
  -365764642.74955577       -14796455.770490617        1482551128.9183114     
  -304211955.86651409        4242549.9819174111        1491976027.7589817     
  -240480413.96935418        30544405.781386197        1507185784.4565406     
  -609805903.48571217       -33719799.629715532        1395920826.7411499     
  -537830366.24406683       -30109016.440512657        1393604309.7979612     
  -463636902.65364516       -19105145.422051504        1397080871.2498567     
  -387225512.71444595       -708186.57432991266        1406350511.0968356     
  -308596196.42647231        25081860.102632821        1421413229.3389008     
  -745108639.69110918       -38702767.383244067        1308710383.7608140     
  -658329054.81062210       -35987460.487478584        1306267749.9713097     
  -569292472.24670517       -25748827.980291903        1309626415.1150854     
  -477998891.99936116       -7986869.8616726100        1318786379.1921427     
  -384448314.06858617        17298413.868377373        1333747642.2024810     
  -888241660.08945858       -46034820.394651681        1219424575.8666294     
  -786634540.31814456       -44207943.616753817        1216901408.4545734     
  -682731351.52874541       -34727503.445238799        1220187760.5139942     
  -576532093.72126937       -17593499.880133063        1229283632.0448897     
  -468036766.89569813        7194067.0786208212        1244189023.0472670     
  -1039204964.6807601       -55715958.663938224        1128063403.0586066     
  -922746822.76662409       -54770465.828292876        1125505285.2477572     
  -803953540.49975538       -46041171.816863358        1128764907.4465842     
  -682825117.88014758       -29528076.629641145        1137842269.6550856     
  -559361554.90780210       -5231180.2666266263        1152737371.8732572     
  -240480413.96935418        30544405.781386197        1507185784.4565406     
  -199705052.84904212        60255028.720821351        1486152757.5486021     
  -154320224.95844644        105330540.89453438        1467840418.3591092     
  -104325930.29756999        165770942.30251527        1452248766.8880565     
  -49722168.866398707        241576232.94481570        1439377803.1354392     
  -308596196.42647231        25081860.102632821        1421413229.3389008     
  -259013466.94609982        55311632.893531352        1404733526.3209124     
  -202975893.16204032        107057553.36338605        1391988230.5111079     
  -140483475.07431313        180319621.51213294        1383177341.9095016     
  -71536212.682899952        275097837.33983237        1378300860.5160863     
  -384448314.06858617        17298413.868377373        1333747642.2024810     
  -322590446.25742406        49087667.501979664        1323574203.5300543     
  -252432356.60919186        108544327.25914881        1318548891.5555718     
  -173974045.12388760        195668393.13989413        1318671706.2790279     
  -87215511.801505297        310459865.14422786        1323942647.7004373     
  -468036766.89569813        7194067.0786208212        1244189023.0472670     
  -390435990.78303236        41583132.546123594        1242674789.1760294     
  -302689615.29989690        109790862.58185633        1247522401.4924922     
  -204797640.44629753        211817257.18580154        1258731859.9966536     
  -96760066.222228274        347662316.35798305        1276303164.6885116     
  -559361554.90780210       -5231180.2666266263        1152737371.8732572     
  -462550100.52290374        32798028.026011974        1162035283.2588408     
  -353747669.23415315        110797159.33149680        1178908760.3218775     
  -232954261.04153574        228766213.64986676        1203357803.0623603     
  -100169875.94505617        386705190.98111343        1235382411.4802945     
  -49722168.866398707        241576232.94481570        1439377803.1354392     
  -40428517.096096218        322554399.80338836        1346329584.5297031     
  -23371205.207319915        429411433.72354257        1253166838.8148875     
   1449766.7999066412        562147334.70519769        1159889565.9910007     
   34034398.925587863        720762102.74836612        1066497766.0580277     
  -71536212.682899952        275097837.33983237        1378300860.5160863     
  -57368875.576439932        376837623.44708365        1296755016.1043301     
  -34230746.818687916        508480048.39197445        1214281544.6182275     
  -2121826.4096441865        670025112.17451382        1130880446.0577962     
   38957885.650702268        861472814.79471111        1046551720.4230006     
  -87215511.801505297        310459865.14422786        1323942647.7004373     
  -70497632.116811693        432264327.67273390        1255307497.6043050     
  -43601829.247976243        587995200.81503773        1184931620.4685652     
  -6528103.1950127482        777652484.57111168        1112815016.2932236     
   40723546.042081356        1001236178.9409490        1038957685.0782533     
  -96760066.222228274        347662316.35798305        1276303164.6885116     
  -79814786.717192203        488834512.48039985        1221987029.0296509     
  -51484452.495186597        667956890.99272060        1165117066.3659201     
  -11769063.556208372        885029451.89495468        1105693276.6973066     
   39331380.099734068        1140052195.1870553        1043715660.0238172     
  -100169875.94505617        386705190.98111343        1235382411.4802945     
  -85320339.377588212        546548177.87006783        1196793610.3803535     
  -57878616.560323507        748365118.92501390        1154837882.3102655     
  -17844707.493234575        992156014.14603543        1109515227.2700315     
   34781387.823651195        1277920863.5330546        1060825645.2596648     
  -3118749954.5050879       -42529465.842159152        1169632620.1548781     
  -2982596228.8583651       -22700391.217302799        1159764792.4326506     
  -2847394663.5557652       -6045184.4061740637        1154597370.6540995     
  -2713145258.5972757        7436154.5912482738        1154130354.8192239     
  -2579848013.9829006        17743625.774955034        1158363744.9280229     
  -3498579127.4835329       -40056866.911494493        1043277677.1944749     
  -3350261586.7725949       -23296705.579312801        1032370947.0639153     
  -3202487005.7831283       -8346409.9853817225        1026828802.5681616     
  -3055255384.5151358        4794019.8702973127        1026651243.7072079     
  -2908566722.9686208        16124583.987737417        1031838270.4810597     
  -3879833554.4114079       -38011844.165656805        914100165.48165584     
  -3717454542.3758831       -23751299.248039007        902631933.66918015     
  -3555209289.4391937       -9936617.9932038784        897192467.18263292     
  -3393097795.6013336        3432199.5988516808        897781766.02201807     
  -3231120060.8623104        16355153.528125644        904399830.18733633     
  -4262513235.2887259       -36394397.604654312        782100085.01642573     
  -4084175095.6682458       -24064172.223486423        770547752.24844503     
  -3905561514.5239625       -10815808.429637909        765688364.49752021     
  -3726672491.8558712        3350693.7769043446        767521921.76365638     
  -3547508027.6639805        18435334.396121740        776048424.04685342     
  -4646618170.1154766       -35204527.228478432        647277435.79878414     
  -4450423246.6496811       -24235324.505655527        636118402.80171001     
  -4253543681.0374384       -10983981.294680357        632316494.51281941     
  -4055979473.2787452        4549502.4044506550        635871710.93212020     
  -3857730623.3736124        22365126.591728687        646784052.05960858     
  -2579848013.9829006        17743625.774955034        1158363744.9280229     
  -2506160221.8419981        8844642.7816936970        1149727926.9249001     
  -2432392984.8085923        210476.09677565098        1145131121.9092169     
  -2358546302.8826714       -8158874.2797592878        1144573329.8809726     
  -2284620176.0642447       -16263408.347938538        1148054550.8401668     
  -2908566722.9686208        16124583.987737417        1031838270.4810597     
  -2824687121.2322941        7796767.3340281248        1025224695.2175865     
  -2740802359.4413557       -513849.13765680790        1022280152.8847997     
  -2656912437.5958123       -8807265.4273197651        1023004643.4826944     
  -2573017355.6956687       -17083481.534975171        1027398167.0112773     
  -3231120060.8623104        16355153.528125644        904399830.18733633     
  -3138105735.4069910        8281377.4510570765        899721832.01929283     
  -3045160534.7349730       -22814.570348858833        898342886.72518027     
  -2952284458.8462496       -8557422.5360722542        900262994.30499721     
  -2859477507.7408266       -17322446.446130395        905482154.75874579     
  -3547508027.6639805        18435334.396121740        776048424.04685342     
  -3446416064.3661070        10298473.132752895        773219337.33001602     
  -3345467510.6894379        1683579.7987079620        773319323.43035769     
  -3244662366.6339731       -7409345.6060091257        776348382.34787488     
  -3144000632.1997094       -16980303.081405401        782306514.08257127     
  -3857730623.3736124        22365126.591728687        646784052.05960858     
  -3749618108.1096334        13848054.379127264        645717211.14976037     
  -3641723287.3047600        4605333.9695022106        647209463.00033212     
  -3534046160.9589906       -5363034.6371347904        651260807.61132956     
  -3426586729.0723295       -16057051.440798521        657871244.98274946     
  -2284620176.0642447       -16263408.347938538        1148054550.8401668     
  -2174612342.6716423       -13907856.188876510        1138886748.0886586     
  -2064924234.8825409       -12618056.041482329        1134695384.8842030     
  -1955555852.6969423       -12394007.905769110        1135480461.2268019     
  -1846507196.1148508       -13235711.781740427        1141241977.1164570     
  -2573017355.6956687       -17083481.534975171        1027398167.0112773     
  -2450037329.7464385       -13983395.373633862        1018511464.4302424     
  -2327292693.0468206       -11667940.044333220        1014455116.4221094     
  -2204783445.5967979       -10137115.547009826        1015229122.9868776     
  -2082509587.3963826       -9390921.8817201853        1020833484.1245507     
  -2859477507.7408266       -17322446.446130395        905482154.75874579     
  -2723942674.8754091       -13603041.974667072        896974944.76106834     
  -2588558894.9056973       -10387147.155553222        893152004.36213899     
  -2453326167.8316870       -7674761.9887706041        894013333.56195986     
  -2318244493.6533804       -5465886.4743380547        899558932.36053360     
  -3144000632.1997094       -16980303.081405401        782306514.08257127     
  -2996328378.0585408       -12766795.991940022        774277189.08113301     
  -2848722840.4591713       -8775677.3751488924        770786048.70429397     
  -2701184019.4016066       -5006947.2310322523        771833092.95205331     
  -2553711914.8858442       -1460605.5595964193        777418321.82441461     
  -3426586729.0723295       -16057051.440798521        657871244.98274946     
  -3267194439.2958393       -11474657.425464630        650418197.39043653     
  -3107784529.7072506       -6833530.7031437159        647357249.44857216     
  -2948357000.3065586       -2133671.2738106251        648688401.15715265     
  -2788911851.0937777        2624920.8625009060        654411652.51618433     
  -1846507196.1148508       -13235711.781740427        1141241977.1164570     
  -1751942348.6759787       -19074864.618167877        1133439434.6426318     
  -1657487867.6451387       -25281905.481370866        1129565657.0034800     
  -1563143753.0223367       -31856834.371361315        1129620644.1990020     
  -1468910004.8075542       -38799651.288094759        1133604396.2292008     
  -2082509587.3963826       -9390921.8817201853        1020833484.1245507     
  -1977849998.6509590       -14546189.625056028        1012835032.4142025     
  -1873361952.9012923       -20273267.354252577        1008515181.8527378     
  -1769045450.1473870       -26572155.069316506        1007873932.4401541     
  -1664900490.3892415       -33442852.770254314        1010911284.1764578     
  -2318244493.6533804       -5465886.4743380547        899558932.36053360     
  -2204204916.9893765       -10151695.140963912        891293198.72798181     
  -2090398059.9088583       -15613235.752551317        886455902.55851924     
  -1976823922.4118373       -21850508.309114933        885047043.85214901     
  -1863482504.4983029       -28863512.810639381        887066622.60886955     
  -2553711914.8858442       -1460605.5595964193        777418321.82441461     
  -2431007103.6912389       -5891381.1659108400        768813933.58397150     
  -2308596188.6678486       -11301810.676280379        763387819.12082887     
  -2186479169.8156838       -17691894.090730548        761139978.43498337     
  -2064656047.1347330       -25061631.409231663        762070411.52643812     
  -2788911851.0937777        2624920.8625009060        654411652.51618433     
  -2658256558.7565413       -1765247.6998866796        645397236.98217034     
  -2527956339.1782546       -7338992.1254334450        639310931.53965950     
  -2398011192.3589211       -14096312.414156556        636152736.18865848     
  -2268421118.2985311       -22037208.566027761        635922650.92916512     
  -1468910004.8075542       -38799651.288094759        1133604396.2292008     
  -1361217546.4302268       -42141400.313287020        1125758094.4886501     
  -1253702553.6166499       -46074701.217658877        1122219161.7133682     
  -1146365026.3668344       -50599554.001226723        1122987597.9033542     
  -1039204964.6807601       -55715958.663938224        1128063403.0586066     
  -1664900490.3892415       -33442852.770254314        1010911284.1764578     
  -1546388715.4892974       -36267270.939921796        1001847259.1373054     
  -1427879308.5900333       -39099582.445176721        996679032.26054502     
  -1309372269.6914361       -41939787.285997212        995406603.54617763     
  -1190867598.7935238       -44787885.462428033        998029972.99419785     
  -1863482504.4983029       -28863512.810639381        887066622.60886955     
  -1735327329.6553946       -31523375.098679662        876989154.76137555     
  -1606999425.2500770       -33607472.178685904        870395914.27339661     
  -1478498791.2823610       -35115804.050701261        867286901.14493215     
  -1349825427.7522435       -36048370.714707971        867662115.37598288     
  -2064656047.1347330       -25061631.409231663        762070411.52643812     
  -1928033388.9284990       -27909712.789532304        751183781.36086059     
  -1791062903.5967813       -29598370.418196797        743369807.75191808     
  -1653744591.1395860       -30127604.295280278        738628490.69961441     
  -1516078451.5569072       -29497414.420756102        736959830.20395410     
  -2268421118.2985311       -22037208.566027761        635922650.92916512     
  -2124506893.3086259       -25426284.012484908        624431138.93575907     
  -1980069743.6301496       -27072277.163711786        615600712.69611442     
  -1835109669.2631207       -26975188.019756913        609431372.21023357     
  -1689626670.2075334       -25135016.580613017        605923117.47811413     
  -1039204964.6807601       -55715958.663938224        1128063403.0586066     
  -922746822.76662409       -54770465.828292876        1125505285.2477572     
  -803953540.49975538       -46041171.816863358        1128764907.4465842     
  -682825117.88014758       -29528076.629641145        1137842269.6550856     
  -559361554.90780210       -5231180.2666266263        1152737371.8732572     
  -1190867598.7935238       -44787885.462428033        998029972.99419785     
  -1061013205.8130422       -42029477.815047085        994254330.37164927     
  -929704847.55779040       -34424519.251758397        994547391.29544353     
  -796942524.02778125       -21973009.772616565        998909155.76558697     
  -662726235.22299325       -4674949.3775427341        1007339623.7820728     
  -1349825427.7522435       -36048370.714707971        867662115.37598288     
  -1211572030.7434945       -32976222.367013335        861640910.35076487     
  -1072745843.5379388       -27994773.363300800        857939372.40856540     
  -933346866.13559532       -21104023.703619480        856557501.54938114     
  -793375098.53644288       -12303973.387923002        857495297.77322125     
  -1516078451.5569072       -29497414.420756102        736959830.20395410     
  -1374423297.5579734       -27610699.484179974        727665025.18510163     
  -1233076528.4401970       -26751934.151466131        718940850.78594446     
  -1092038144.2036033       -26921118.422687113        710787307.00647438     
  -951308144.84817374       -28118252.297800958        703204393.84669685     
  -1689626670.2075334       -25135016.580613017        605923117.47811413     
  -1549567006.2564864       -25932909.166566789        592326674.87466836     
  -1410696902.2645674       -30696001.616270185        577551826.42758453     
  -1273016358.2317991       -39424293.929810822        561598572.13686252     
  -1136525374.1581666       -52117786.107144237        544466912.00250494     
  -559361554.90780210       -5231180.2666266263        1152737371.8732572     
  -462550100.52290374        32798028.026011974        1162035283.2588408     
  -353747669.23415315        110797159.33149680        1178908760.3218775     
  -232954261.04153574        228766213.64986676        1203357803.0623603     
  -100169875.94505617        386705190.98111343        1235382411.4802945     
  -662726235.22299325       -4674949.3775427341        1007339623.7820728     
  -547453093.05287504        25638350.554109991        1020841650.8733625     
  -421305443.50238454        92200008.420333862        1042750004.8206710     
  -284283286.57151008        195010024.22117206        1073064685.6240093     
  -136386622.26025897        334068397.95660019        1111785693.2833719     
  -793375098.53644288       -12303973.387923002        857495297.77322125     
  -657266665.21375549        11005499.192933619        873898892.79281092     
  -511400194.03417236        66841764.630098253        899539575.84700310     
  -355775684.99768436        155204822.92361754        934417346.93579555     
  -190393138.10430503        276094674.07343060        978532206.05918944     
  -951308144.84817374       -28118252.297800958        703204393.84669685     
  -791990817.00554705       -11100526.057515264        721207009.01719916     
  -624031920.82951498        34722427.960799038        749277473.40087759     
  -447431456.32006001        109350609.75718918        787415786.99772573     
  -262189423.47718886        212784019.33161139        835621949.80775130     
  -1136525374.1581666       -52117786.107144237        544466912.00250494     
  -951625548.42825139       -40679725.197237968        562765999.54651570     
  -759200623.88841200       -4158001.5875730515        591963697.48228431     
  -559250600.53861809        57447384.721931130        632060005.80980122     
  -351775478.37891471        144136433.73113960        683054924.52906442     
  -100169875.94505617        386705190.98111343        1235382411.4802945     
  -85320339.377588212        546548177.87006783        1196793610.3803535     
  -57878616.560323507        748365118.92501390        1154837882.3102655     
  -17844707.493234575        992156014.14603543        1109515227.2700315     
   34781387.823651195        1277920863.5330546        1060825645.2596648     
  -136386622.26025897        334068397.95660019        1111785693.2833719     
  -127307337.04503205        483068515.66563529        1090212289.5836458     
  -95089180.505312055        709198204.45631838        1070069358.5477078     
  -39732152.641086340        1012457464.3286722        1051356900.1755495     
   38763746.547633767        1392846295.2826996        1034074914.4672039     
  -190393138.10430503        276094674.07343060        978532206.05918944     
  -173377248.14436522        418363979.43165278        986278665.68015552     
  -122675801.78524694        672918472.78713155        1000252997.5988352     
  -38288799.026938617        1039758154.1399214        1020455201.8152491     
   79783760.130569994        1518883023.4900177        1046885278.3293527     
  -262189423.47718886        212784019.33161139        835621949.80775130     
  -223530072.67559636        352434569.16807920        884992738.66988075     
  -140638480.40012908        639525923.91745770        945388799.46366620     
  -13514646.650785387        1074058083.5797460        1016810132.1890892     
   157841428.57245058        1656031048.1550252        1099256736.8461688     
  -351775478.37891471        144136433.73113960        683054924.52906442     
  -277765810.63871306        285280284.87495989        786354508.55283344     
  -148977216.34995320        609020557.84730780        905476764.14217079     
   34590304.487377286        1115357252.6482186        1040421691.2971023     
   272936751.87328100        1804290369.2777181        1191189290.0176127     
  -4646618170.1154766       -35204527.228478432        647277435.79878414     
  -4450423246.6496811       -24235324.505655527        636118402.80171001     
  -4253543681.0374384       -10983981.294680357        632316494.51281941     
  -4055979473.2787452        4549502.4044506550        635871710.93212020     
  -3857730623.3736124        22365126.591728687        646784052.05960858     
  -5032136886.1962576       -45684782.443870783        497685596.83951908     
  -4816051646.6626320       -27316332.134063959        488480619.70127416     
  -4599947510.5447140       -8884893.2099070549        485511242.31001478     
  -4383824477.8424854        9609534.3286018372        488777464.66573781     
  -4167682548.5559511        28166950.481466055        498279286.76844442     
  -5411642971.5727634       -54361248.447973490        349032937.44534016     
  -5178871773.0033369       -29554857.660793066        341005313.01009423     
  -4946747423.4117508       -6904630.1330678463        338091763.36062777     
  -4715269922.7979918        13589434.135223627        340292288.49694771     
  -4484439271.1620665        31927335.144070625        347606888.41904771     
  -5785136426.2450104       -61233925.240800142        201319457.61624119     
  -5538883625.6717873       -30950901.085854769        193692482.72816071     
  -5293943419.6385317       -5043192.0641436577        190058057.66466859     
  -5050315808.1452522        16489201.824329376        190416182.42574981     
  -4808000791.1919422        33646280.579547167        194766857.01140976     
  -6152617250.2129946       -66302812.822351456        54545157.352220006     
  -5896087204.6679859       -31504462.409234762        46542128.855484672     
  -5641535499.2250757       -3300579.0031552315        41410125.222129092     
  -5388962133.8842840        18308837.395884275        39149146.452151977     
  -5138367108.6456003        33323786.787895203        39759192.545540519     
  -3857730623.3736124        22365126.591728687        646784052.05960858     
  -3749618108.1096334        13848054.379127264        645717211.14976037     
  -3641723287.3047600        4605333.9695022106        647209463.00033212     
  -3534046160.9589906       -5363034.6371347904        651260807.61132956     
  -3426586729.0723295       -16057051.440798521        657871244.98274946     
  -4167682548.5559511        28166950.481466055        498279286.76844442     
  -4053333022.5617075        16372821.378216267        494982240.83826101     
  -3938879639.9221482        4924881.0926582813        494680046.60723817     
  -3824322400.6372976       -6176870.3752355576        497372704.07538319     
  -3709661304.7071428       -16932433.025458574        503060213.24268723     
  -4484439271.1620665        31927335.144070625        347606888.41904771     
  -4362607708.8982916        17229656.811953306        342454780.42366987     
  -4240350738.8848000        3950004.3122258186        340733283.06619722     
  -4117668361.1216021       -7911622.3551456928        342442396.34663111     
  -3994560575.6086893       -18355223.190145254        347582120.26496649     
  -4808000791.1919422        33646280.579547167        194766857.01140976     
  -4677442167.1193895        16418560.680333853        188134829.90598816     
  -4546136584.1927042        1680703.6282122135        185369172.37720922     
  -4414084042.4119053       -10567290.576856613        186469884.42507613     
  -4281284541.7769876       -20325421.934857368        191436966.04958367     
  -5138367108.6456003        33323786.787895203        39759192.545540519     
  -4997836397.2249994        13939532.983360529        32022389.285216380     
  -4856237175.8458614       -1883020.9593622684        28587714.540273428     
  -4713569444.5082035       -14143875.040348053        29455168.310715578     
  -4569833203.2120094       -22843029.259573460        34624750.596543230     
  -3426586729.0723295       -16057051.440798521        657871244.98274946     
  -3267194439.2958393       -11474657.425464630        650418197.39043653     
  -3107784529.7072506       -6833530.7031437159        647357249.44857216     
  -2948357000.3065586       -2133671.2738106251        648688401.15715265     
  -2788911851.0937777        2624920.8625009060        654411652.51618433     
  -3709661304.7071428       -16932433.025458574        503060213.24268723     
  -3538059803.2842841       -10675217.874094486        495002049.16771299     
  -3366607879.7240224       -4916595.5980341434        491556989.52348787     
  -3195305534.0263538        343433.80269980431        492725034.31001329     
  -3024152766.1912785        5104870.3281311989        498506183.52728552     
  -3994560575.6086893       -18355223.190145254        347582120.26496649     
  -3810118420.3100290       -10233754.233906507        338723775.75352001     
  -3625993040.5486598       -3168203.7352972031        334699540.45312357     
  -3442184436.3245821        2841428.3056769371        335509414.36377788     
  -3258692607.6377864        7795141.8890411854        341153397.48548973     
  -4281284541.7769876       -20325421.934857368        191436966.04958367     
  -4083370290.3730803       -10150266.504897118        181583377.14785320     
  -3885940012.1811657       -1588355.1149110794        176784902.23747706     
  -3688993707.2012296        5360312.2351498604        177041541.31846291     
  -3492531375.4332800        10695735.545250893        182353294.39079174     
  -4569833203.2120094       -22843029.259573460        34624750.596543230     
  -4357815413.4734344       -10424754.687106133        23580853.350722533     
  -4146448794.6215377       -177049.73688960075        17813074.876555454     
  -3935733346.6563239        7900085.5910513401        17321415.174042478     
  -3725669069.5777712        13806651.296774864        22105874.243193690     
  -2788911851.0937777        2624920.8625009060        654411652.51618433     
  -2658256558.7565413       -1765247.6998866796        645397236.98217034     
  -2527956339.1782546       -7338992.1254334450        639310931.53965950     
  -2398011192.3589211       -14096312.414156556        636152736.18865848     
  -2268421118.2985311       -22037208.566027761        635922650.92916512     
  -3024152766.1912785        5104870.3281311989        498506183.52728552     
  -2885895983.1199932       -273936.08379077911        489622482.64932585     
  -2747668598.5651402       -5750737.5504894257        483886119.44055170     
  -2609470612.5267301       -11325534.072001815        481297093.90097362     
  -2471302025.0047545       -16998325.648285151        481855406.03058934     
  -3258692607.6377864        7795141.8890411854        341153397.48548973     
  -3112207969.3247662        1615606.9799067974        332780364.54651171     
  -2965427055.2856808       -3576342.1756422520        327773896.85440332     
  -2818349865.5205154       -7780705.5776165724        326133994.40917373     
  -2670976400.0292859       -10997483.226021647        327860657.21082222     
  -3492531375.4332800        10695735.545250893        182353294.39079174     
  -3337192517.3708658        3903381.4912207127        174870882.67372313     
  -3181231709.3398695       -815806.00088274479        170974263.78120452     
  -3024648951.3402963       -3461826.9310451746        170663437.71326217     
  -2867444243.3721323       -4034681.2992626429        173938404.46987483     
  -3725669069.5777712        13806651.296774864        22105874.243193690     
  -3560849627.2582850        6589387.4501187801        15894037.030959552     
  -3395082560.7277131        2530870.9737837315        13487220.220972715     
  -3228367869.9860458        1631101.8677433729        14885423.813229654     
  -3060705555.0332899        3890080.1320097446        20088647.807738379     
  -2268421118.2985311       -22037208.566027761        635922650.92916512     
  -2124506893.3086259       -25426284.012484908        624431138.93575907     
  -1980069743.6301496       -27072277.163711786        615600712.69611442     
  -1835109669.2631207       -26975188.019756913        609431372.21023357     
  -1689626670.2075334       -25135016.580613017        605923117.47811413     
  -2471302025.0047545       -16998325.648285151        481855406.03058934     
  -2320178362.5567594       -18508048.101540446        471809659.14108181     
  -2168842963.1449342       -19311980.675341487        464214850.77483517     
  -2017295826.7692652       -19410123.369691014        459070980.93184388     
  -1865536953.4297647       -18802476.184579253        456378049.61210757     
  -2670976400.0292859       -10997483.226021647        327860657.21082222     
  -2513243720.7817988       -10807978.883671045        318897623.07971179     
  -2355610492.2952042       -10949977.077611089        312175380.24135399     
  -2198076714.5694962       -11423477.807841301        307693928.69574130     
  -2040642387.6046686       -12228481.074350715        305453268.44288093     
  -2867444243.3721323       -4034681.2992626429        173938404.46987483     
  -2703702967.9837513       -2326076.3588974476        165695030.75165185     
  -2540372331.0809798       -1986266.3705619574        159482301.09566349     
  -2377452332.6638041       -3015251.3342163563        155300215.50192705     
  -2214942972.7322383       -5413031.2498999834        153148773.97044000     
  -3060705555.0332899        3890080.1320097446        20088647.807738379     
  -2891556104.1625905        6937659.4728505611        12201882.156888282     
  -2723128479.5022349        7579151.4458768368        6135613.3377834009     
  -2555422681.0521965        5814556.0511850119        1889841.3504032395     
  -2388438708.8124952        1643873.2886910439       -535433.80523682991     
  -1689626670.2075334       -25135016.580613017        605923117.47811413     
  -1549567006.2564864       -25932909.166566789        592326674.87466836     
  -1410696902.2645674       -30696001.616270185        577551826.42758453     
  -1273016358.2317991       -39424293.929810822        561598572.13686252     
  -1136525374.1581666       -52117786.107144237        544466912.00250494     
  -1865536953.4297647       -18802476.184579253        456378049.61210757     
  -1728386039.9195538       -22371175.276933074        442704491.88394910     
  -1591311011.7217507       -26192825.410663724        428611256.54641777     
  -1454311868.8363705       -30267426.585790217        414098343.59951639     
  -1317388611.2634065       -34594978.802303433        399165753.04324150     
  -2040642387.6046686       -12228481.074350715        305453268.44288093     
  -1904232429.5802507       -17917648.186609864        293001882.67785901     
  -1766784682.2215285       -20147517.517856479        280889547.53772849     
  -1628299145.5284901       -18918089.068054140        269116263.02248746     
  -1488775819.5011435       -14229362.837225139        257682029.13214102     
  -2214942972.7322383       -5413031.2498999834        153148773.97044000     
  -2077106175.2385812       -12572327.895599246        143218847.25638825     
  -1937117913.7638836       -12560077.937805414        134386699.40150312     
  -1794978188.3081541       -5376281.3765779734        126652330.40577574     
  -1650686998.8713763        8979061.7881311178        120015740.26920334     
  -2388438708.8124952        1643873.2886910439       -535433.80523682991     
  -2247007276.8945370       -6335214.4038230181       -6644614.3804542981     
  -2102310706.3488328       -3430506.6705492735       -10897287.862243755     
  -1954348997.1753497        10357996.488671064       -13293454.250613526     
  -1803122149.3741217        35030295.073706985       -13833113.545556566     
  -1136525374.1581666       -52117786.107144237        544466912.00250494     
  -951625548.42825139       -40679725.197237968        562765999.54651570     
  -759200623.88841200       -4158001.5875730515        591963697.48228431     
  -559250600.53861809        57447384.721931130        632060005.80980122     
  -351775478.37891471        144136433.73113960        683054924.52906442     
  -1317388611.2634065       -34594978.802303433        399165753.04324150     
  -1117749812.7888477       -14722037.261355221        421083801.56627351     
  -914484031.31811774        17240847.600173771        441494400.12473631     
  -707591266.85123634        61293675.782208204        460397548.71862030     
  -497071519.38819110        117436447.28477702        477793247.34794027     
  -1488775819.5011435       -14229362.837225139        257682029.13214102     
  -1309843935.0142934        3444693.3150860667        278671236.85145187     
  -1131183183.3450320        20214973.408738136        285746934.24987489     
  -952793564.49340034        36081477.443634808        278909121.32739550     
  -774675078.45938349        51044205.419813067        258157798.08402312     
  -1650686998.8713763        8979061.7881311178        120015740.26920334     
  -1527907915.1045675        13820466.532112122        135528305.40206847     
  -1409298079.9691556        4764375.8381097317        124721299.85770711     
  -1294857493.4651134       -18189210.293796539        87594723.636131436     
  -1184586155.5924816       -55040291.863735974        24148576.737339202     
  -1803122149.3741217        35030295.073706985       -13833113.545556566     
  -1771941753.0597243        16405282.389606833       -8344992.7818971621     
  -1748828721.1904531       -29110945.111580968       -41582503.051767603     
  -1733783053.7663789       -101518387.43009782       -113545644.35519414     
  -1726804750.7874718       -200817044.56582588       -224234416.69214669     
  -351775478.37891471        144136433.73113960        683054924.52906442     
  -277765810.63871306        285280284.87495989        786354508.55283344     
  -148977216.34995320        609020557.84730780        905476764.14217079     
   34590304.487377286        1115357252.6482186        1040421691.2971023     
   272936751.87328100        1804290369.2777181        1191189290.0176127     
  -497071519.38819110        117436447.28477702        477793247.34794027     
  -388243218.54478902        223081584.01185271        597061949.39207518     
  -230288186.93240950        492482489.96883059        735483554.81541586     
  -23206424.551094294        925639165.15559709        893058063.61797428     
   233002068.59918293        1522551609.5722537        1069785475.7997296     
  -774675078.45938349        51044205.419813067        258157798.08402312     
  -621513196.47381330        124045112.14191759        386801389.73897684     
  -424876779.49889833        341961135.49514365        537928116.58676839     
  -184765827.53465694        704792275.47944820        711537978.62739050     
   98819659.418922663        1212538532.0949271        907630975.86085308     
  -1184586155.5924816       -55040291.863735974        24148576.737339202     
  -977575744.42581344       -11829130.734951854        155572829.59355685     
  -732742994.04942262        157456494.42624602        312810449.45623952     
  -450087904.46331286        452816583.61980450        495861436.32537585     
  -129610475.66749632        874251136.84578621        704725790.20099425     
  -1726804750.7874718       -200817044.56582588       -224234416.69214669     
  -1456430862.4007895       -184541144.61874080       -96623731.044204608     
  -1153886830.5839622       -61031433.237849534        60130553.423806690     
  -819172655.33706975        169712089.57659233        246028436.71192262     
  -452288336.66006696        507689423.82474661        461069918.82012540     
 </DataArray>
 <DataArray  type="Float64" Name="VM" NumberOfComponents="1" format="ascii">
   6120464425.3654118     
   5880950799.6215706     
   5640341988.3150854     
   5398565707.0627699     
   5155569730.8421116     
   5765318293.4201698     
   5533652200.0820189     
   5301653533.2581854     
   5069320694.1618967     
   4836690749.8855467     
   5418498233.2297239     
   5197824485.6046181     
   4977863035.9521160     
   4758721413.5789032     
   4540581765.9482536     
   5083076777.0914097     
   4876410844.6625586     
   4671818649.8558798     
   4469546524.7092743     
   4269965907.6817222     
   4762942579.7510996     
   4573066459.1609602     
   4386970035.9839764     
   4205049508.7659745     
   4027884460.1593289     
   5155569730.8421116     
   5005128047.3466702     
   4855548417.0043459     
   4706789950.7616892     
   4558849097.6034117     
   4836690749.8855467     
   4696990079.4805479     
   4558298648.1087484     
   4420624135.3090315     
   4284009322.0508223     
   4540581765.9482536     
   4411307623.1570196     
   4283180699.6100664     
   4156257724.6205764     
   4030628988.9817019     
   4269965907.6817222     
   4151043653.6501713     
   4033400628.7033997     
   3917141362.5997157     
   3802403035.7677875     
   4027884460.1593289     
   3919515887.2917347     
   3812555747.7127862     
   3707152510.6175084     
   3603486823.4896436     
   4558849097.6034117     
   4352804023.3707008     
   4146475060.3722444     
   3939803562.5252094     
   3732787920.8191128     
   4284009322.0508223     
   4090413943.3498950     
   3897193702.3086133     
   3704390447.1295576     
   3512122317.1970043     
   4030628988.9817019     
   3849976192.1486406     
   3670479400.6214886     
   3492294688.2168961     
   3315674466.6265836     
   3802403035.7677875     
   3635284398.6836715     
   3470216904.1285787     
   3307477713.9851193     
   3147457571.7863059     
   3603486823.4896436     
   3450555423.4435506     
   3300658792.6076570     
   3154189698.6802897     
   3011664109.7161999     
   3732787920.8191128     
   3564255205.0512424     
   3396429041.0032635     
   3229286653.2543297     
   3062850090.8012295     
   3512122317.1970043     
   3352854745.8395452     
   3194579343.6407576     
   3037337728.8223867     
   2881223221.0731988     
   3315674466.6265836     
   3165927584.8846121     
   3017527499.6546893     
   2870595391.2806993     
   2725314603.4502640     
   3147457571.7863059     
   3007789167.5301881     
   2869904529.3523450     
   2734017588.6489105     
   2600416993.9403830     
   3011664109.7161999     
   2882924096.8159566     
   2756486869.8873749     
   2632664844.0892177     
   2511856523.2222443     
   3062850090.8012295     
   2895108309.5840178     
   2726946662.4807262     
   2558337008.8791194     
   2389261249.6155100     
   2881223221.0731988     
   2717736311.7065392     
   2554359701.1556664     
   2391124116.4904122     
   2228087915.4286585     
   2725314603.4502640     
   2567963163.5880346     
   2411552864.1782794     
   2256233303.4938359     
   2102218359.4334965     
   2600416993.9403830     
   2451212204.7434788     
   2304095132.8318601     
   2159384574.6926780     
   2017510276.5982406     
   2511856523.2222443     
   2372741128.3003893     
   2237117970.3929820     
   2105486291.3408761     
   1978491782.2245710     
   2389261249.6155100     
   2243875891.6957707     
   2100682350.1562796     
   1959683795.6048043     
   1821047658.1418319     
   2228087915.4286585     
   2085653130.6698589     
   1944847698.5166428     
   1805670992.0565975     
   1668196974.6203051     
   2102218359.4334965     
   1962104261.0145562     
   1822919231.4198041     
   1684690589.4809303     
   1547472671.3699737     
   2017510276.5982406     
   1880721815.3963971     
   1744247315.1497879     
   1608214278.5709379     
   1472798163.2997477     
   1978491782.2245710     
   1847754938.1924286     
   1717091604.1023369     
   1586857278.0601306     
   1457568406.0208750     
   1821047658.1418319     
   1780259765.0669215     
   1735951208.9866810     
   1696754737.9677737     
   1681146491.8414512     
   1668196974.6203051     
   1552711746.3552103     
   1428119186.6023800     
   1294779072.7944965     
   1158802522.9911168     
   1547472671.3699737     
   1397565020.1086941     
   1244108037.4019971     
   1084834799.8453386     
   917717825.95530188     
   1472798163.2997477     
   1328555806.8217127     
   1198789675.5610671     
   1087984785.7079806     
   1002050342.7831813     
   1457568406.0208750     
   1348573642.5738611     
   1274562346.9798453     
   1243659307.6418111     
   1262900253.9563789     
   1681146491.8414512     
   1383648549.6005139     
   1129426109.5523186     
   1010177959.9017900     
   1153122589.1904147     
   1158802522.9911168     
   1008384405.4067307     
   985206129.69732523     
   1161492548.1794186     
   1544131260.4496865     
   917717825.95530188     
   963123804.45710778     
   1144923149.2806313     
   1476465704.2099218     
   1957440762.1053843     
   1002050342.7831813     
   1164713276.4316065     
   1425409670.9013722     
   1808724769.7317653     
   2334741652.9234257     
   1262900253.9563789     
   1446665142.8276634     
   1715661665.2183235     
   2110466685.4486930     
   2663512122.8027992     
   4762942579.7510996     
   4573066459.1609602     
   4386970035.9839764     
   4205049508.7659745     
   4027884460.1593289     
   4455362348.8201981     
   4285325485.6088977     
   4119480784.4629297     
   3958264231.6041322     
   3802276427.8175502     
   4172985863.5853806     
   4021936255.7290106     
   3875454559.1273818     
   3734006764.4358134     
   3598203296.3188806     
   3920051438.3056393     
   3787362498.4061723     
   3659562212.0415883     
   3537130720.0108895     
   3420671054.3060222     
   3701336604.7386928     
   3586621333.7091432     
   3477033959.1477594     
   3373045876.6361098     
   3275229177.6359434     
   4027884460.1593289     
   3919515887.2917347     
   3812555747.7127862     
   3707152510.6175084     
   3603486823.4896436     
   3802276427.8175502     
   3702294829.0493717     
   3604421782.9160471     
   3508845733.2531123     
   3415794588.2294555     
   3598203296.3188806     
   3507458075.4285464     
   3419648086.4862928     
   3334998228.9440575     
   3253778163.4356523     
   3420671054.3060222     
   3339790199.6792207     
   3262784027.7707882     
   3189902292.8846002     
   3121441180.7562532     
   3275229177.6359434     
   3204482219.5302730     
   3138634017.6771445     
   3077938997.1602335     
   3022695137.1606135     
   3603486823.4896436     
   3450555423.4435506     
   3300658792.6076570     
   3154189698.6802897     
   3011664109.7161999     
   3415794588.2294555     
   3276951132.4476047     
   3142074595.0841646     
   3011656431.4694128     
   2886321959.4848480     
   3253778163.4356523     
   3129965972.2610488     
   3011149085.0650048     
   2897899069.2968087     
   2790920093.1163087     
   3121441180.7562532     
   3013422542.8973761     
   2911465311.2741399     
   2816184151.6092496     
   2728310959.8884320     
   3022695137.1606135     
   2930883339.4080100     
   2846158258.3491268     
   2769126715.0443888     
   2700485868.1488266     
   3011664109.7161999     
   2882924096.8159566     
   2756486869.8873749     
   2632664844.0892177     
   2511856523.2222443     
   2886321959.4848480     
   2769247704.8977599     
   2655548091.0302806     
   2545647934.3902817     
   2440070278.9167795     
   2790920093.1163087     
   2686904660.6719108     
   2587427708.4150343     
   2492998288.6499176     
   2404220263.3802595     
   2728310959.8884320     
   2638339712.1926503     
   2554060582.8327985     
   2476014968.7572370     
   2404819726.9191823     
   2700485868.1488266     
   2624938596.8140407     
   2556121373.3809495     
   2494547020.7306323     
   2440775614.6183186     
   2511856523.2222443     
   2372741128.3003893     
   2237117970.3929820     
   2105486291.3408761     
   1978491782.2245710     
   2440070278.9167795     
   2314543597.1358581     
   2193984015.0412641     
   2079103562.7230175     
   1970779781.8189316     
   2404220263.3802595     
   2294554689.4250822     
   2191423411.6982012     
   2095670018.9813759     
   2008278317.9777999     
   2404819726.9191823     
   2312497322.7900558     
   2228148534.6975923     
   2152626955.8777742     
   2086870056.3227489     
   2440775614.6183186     
   2366288096.3466530     
   2300925149.0133233     
   2245442264.8394608     
   2200620832.8215771     
   1978491782.2245710     
   1847754938.1924286     
   1717091604.1023369     
   1586857278.0601306     
   1457568406.0208750     
   1970779781.8189316     
   1854815928.7819386     
   1743225186.1790862     
   1636926679.5667286     
   1537048456.8724513     
   2008278317.9777999     
   1912149660.3188891     
   1824750935.2373362     
   1747271197.7262409     
   1680990281.2980909     
   2086870056.3227489     
   2012100069.4243193     
   1949590995.3999112     
   1900407187.5220675     
   1865564005.7116318     
   2200620832.8215771     
   2145741986.1132312     
   2105653525.7786272     
   2081108990.0432813     
   2072775178.0781734     
   1457568406.0208750     
   1348573642.5738611     
   1274562346.9798453     
   1243659307.6418111     
   1262900253.9563789     
   1537048456.8724513     
   1476143560.3683317     
   1447943225.7917826     
   1456416915.3817830     
   1504859522.0335257     
   1680990281.2980909     
   1652407928.6002002     
   1651573557.8398435     
   1680859991.8178928     
   1742876984.3062744     
   1865564005.7116318     
   1854926154.0467846     
   1867304528.3074276     
   1904911401.0431378     
   1970778462.7048578     
   2072775178.0781734     
   2069100537.9128025     
   2084726662.2837961     
   2122287383.7282851     
   2185593792.9141741     
   1262900253.9563789     
   1446665142.8276634     
   1715661665.2183235     
   2110466685.4486930     
   2663512122.8027992     
   1504859522.0335257     
   1613255090.2800405     
   1788852841.9397154     
   2066399637.7339861     
   2476097446.2077937     
   1742876984.3062744     
   1787696759.5459826     
   1884658487.4126408     
   2060669939.3556983     
   2340960325.7085142     
   1970778462.7048578     
   1968946171.0114915     
   2003643286.0797682     
   2093544809.6897771     
   2257313508.5150728     
   2185593792.9141741     
   2156286387.4364338     
   2146547513.2212346     
   2166903053.3180652     
   2228429214.9683957     
   3701336604.7386928     
   3586621333.7091432     
   3477033959.1477594     
   3373045876.6361098     
   3275229177.6359434     
   3455510480.8607006     
   3356282160.4830270     
   3263704107.0900135     
   3178319720.5688047     
   3100773435.9051447     
   3236365634.6758680     
   3153691910.9585557     
   3079286866.1096773     
   3013717468.2909141     
   2957638746.2087870     
   3050605275.9692960     
   2984822582.3542585     
   2928951582.1650319     
   2883516461.0046706     
   2849106142.4087930     
   2905648125.9613228     
   2855999353.0065680     
   2817855030.7617874     
   2791629056.8859916     
   2777774688.7385149     
   3275229177.6359434     
   3204482219.5302730     
   3138634017.6771445     
   3077938997.1602335     
   3022695137.1606135     
   3100773435.9051447     
   3042866568.0421114     
   2990195022.2447758     
   2942994985.4816613     
   2901534827.2499394     
   2957638746.2087870     
   2912139238.9484625     
   2872130524.9787254     
   2837815534.1693764     
   2809418023.5032701     
   2849106142.4087930     
   2815307402.0306144     
   2787147863.7899356     
   2764786150.7313108     
   2748392117.5701685     
   2777774688.7385149     
   2754638059.2035227     
   2737168682.6321607     
   2725476859.2940722     
   2719677504.6726675     
   3022695137.1606135     
   2930883339.4080100     
   2846158258.3491268     
   2769126715.0443888     
   2700485868.1488266     
   2901534827.2499394     
   2826252955.8810945     
   2758767222.4358315     
   2699631411.2907548     
   2649458972.0678568     
   2809418023.5032701     
   2750127536.0298977     
   2699190581.4419212     
   2657070469.2290645     
   2624261711.2371254     
   2748392117.5701685     
   2704023590.7383728     
   2668386192.6396341     
   2641830541.1222701     
   2624717520.6784062     
   2719677504.6726675     
   2688599880.6305842     
   2666456629.8425918     
   2653483272.5426421     
   2649914186.2778006     
   2700485868.1488266     
   2624938596.8140407     
   2556121373.3809495     
   2494547020.7306323     
   2440775614.6183186     
   2649458972.0678568     
   2588386051.0623555     
   2534778345.9403558     
   2489089335.5570092     
   2451795940.5842338     
   2624261711.2371254     
   2577139855.7715688     
   2538061555.0826950     
   2507391646.8125577     
   2485499725.1531992     
   2624717520.6784062     
   2590476178.9814601     
   2564703601.4176064     
   2547664957.7568121     
   2539619631.3827434     
   2649914186.2778006     
   2626997908.1941290     
   2612858828.5348577     
   2607668528.4511814     
   2611589840.2805290     
   2440775614.6183186     
   2366288096.3466530     
   2300925149.0133233     
   2245442264.8394608     
   2200620832.8215771     
   2451795940.5842338     
   2394348028.4313359     
   2346645344.3726397     
   2309273514.3022423     
   2282803385.0673280     
   2485499725.1531992     
   2443684700.5374551     
   2411951890.2918367     
   2390711161.1141109     
   2380339393.5636148     
   2539619631.3827434     
   2511542769.2052054     
   2493684975.0538688     
   2486303834.9483347     
   2489622982.6207905     
   2611589840.2805290     
   2595054826.7740316     
   2588775556.5610580     
   2592894142.9851532     
   2607527160.8391838     
   2200620832.8215771     
   2145741986.1132312     
   2105653525.7786272     
   2081108990.0432813     
   2072775178.0781734     
   2282803385.0673280     
   2242436144.1671953     
   2215895542.5056815     
   2203626627.4323063     
   2206013652.0343318     
   2380339393.5636148     
   2351596681.9995689     
   2335693119.5552082     
   2332878384.7006469     
   2343373296.4854579     
   2489622982.6207905     
   2469893404.4445410     
   2462107068.3752832     
   2466401255.1842923     
   2482911110.8683491     
   2607527160.8391838     
   2594549248.8841910     
   2592771536.0723729     
   2602274188.0974751     
   2623153843.8000321     
   2072775178.0781734     
   2069100537.9128025     
   2084726662.2837961     
   2122287383.7282851     
   2185593792.9141741     
   2206013652.0343318     
   2191603720.2017779     
   2192223532.7214866     
   2209842977.3676600     
   2247380860.0270848     
   2343373296.4854579     
   2319020358.7944098     
   2306212827.1906734     
   2306356329.1877789     
   2321538539.9865689     
   2482911110.8683491     
   2450367860.2539062     
   2426372670.7066402     
   2411870928.8207822     
   2408239085.6341143     
   2623153843.8000321     
   2584859003.2496953     
   2552416574.3076253     
   2526408034.2743840     
   2507642008.9730663     
   2185593792.9141741     
   2156286387.4364338     
   2146547513.2212346     
   2166903053.3180652     
   2228429214.9683957     
   2247380860.0270848     
   2182682455.2612696     
   2134408533.2754962     
   2112227373.1391971     
   2127076227.1001394     
   2321538539.9865689     
   2224789139.9668393     
   2141370116.9128184     
   2079647657.6602108     
   2049794531.0949774     
   2408239085.6341143     
   2282901059.7182617     
   2168079418.3442278     
   2070514810.3516829     
   1998975607.3057413     
   2507642008.9730663     
   2357228510.8698792     
   2215007366.3770595     
   2085959769.7634892     
   1976961835.5254908     
   2905648125.9613228     
   2855999353.0065680     
   2817855030.7617874     
   2791629056.8859916     
   2777774688.7385149     
   2766697536.8580098     
   2732104537.4245811     
   2708921244.1890731     
   2697391664.6465807     
   2697775328.1003308     
   2678017488.9969521     
   2654792883.3263974     
   2642673477.2149444     
   2641767447.7917590     
   2652187241.3561454     
   2644039878.5182490     
   2627934678.7511916     
   2622459740.5037031     
   2627640680.0974450     
   2643503747.6000504     
   2666235997.4956894     
   2652824596.6346669     
   2649448562.8894348     
   2656107896.2599993     
   2672802596.7463565     
   2777774688.7385149     
   2754638059.2035227     
   2737168682.6321607     
   2725476859.2940722     
   2719677504.6726675     
   2697775328.1003308     
   2680238412.6502948     
   2668642189.4871707     
   2663055016.2446942     
   2663547353.9930706     
   2652187241.3561454     
   2638499277.9978671     
   2630987810.7377486     
   2629685339.9474554     
   2634625112.4426131     
   2643503747.6000504     
   2631593520.2218537     
   2626060142.2129755     
   2626912041.1475272     
   2634157808.4856534     
   2672802596.7463565     
   2660416672.9715476     
   2654573928.1018257     
   2655274362.1371884     
   2662517975.0776329     
   2719677504.6726675     
   2688599880.6305842     
   2666456629.8425918     
   2653483272.5426421     
   2649914186.2778006     
   2663547353.9930706     
   2641320148.7496915     
   2628365682.7948728     
   2624827423.6308331     
   2630845119.3768511     
   2634625112.4426131     
   2618912539.9967566     
   2612776813.8269696     
   2616285546.9846411     
   2629503496.4194951     
   2634157808.4856534     
   2622182306.8484797     
   2620089709.3063130     
   2627897626.0719075     
   2645622740.8651943     
   2662517975.0776329     
   2651209965.3130603     
   2650122409.2600088     
   2659255306.9184709     
   2678608658.2884474     
   2649914186.2778006     
   2626997908.1941290     
   2612858828.5348577     
   2607668528.4511814     
   2611589840.2805290     
   2630845119.3768511     
   2615800065.6834526     
   2609429114.9526978     
   2611827751.3020339     
   2623084820.2862482     
   2629503496.4194951     
   2620280887.6663046     
   2619637632.0691948     
   2627615323.7651486     
   2644252079.0062900     
   2645622740.8651943     
   2640054631.2216105     
   2643010373.5161858     
   2654500108.5547209     
   2674533035.2309418     
   2678608658.2884474     
   2674491599.1574397     
   2678903002.3101683     
   2691842867.7466283     
   2713311195.4668236     
   2611589840.2805290     
   2595054826.7740316     
   2588775556.5610580     
   2592894142.9851532     
   2607527160.8391838     
   2623084820.2862482     
   2613192698.8917694     
   2613414614.8976059     
   2623827873.7658820     
   2644494068.5751386     
   2644252079.0062900     
   2639335879.1243124     
   2644480711.6776972     
   2659719939.2691803     
   2685079480.7874031     
   2674533035.2309418     
   2672867962.0796118     
   2681329862.5416312     
   2699926906.0229883     
   2728665312.3498411     
   2713311195.4668236     
   2713151641.8490248     
   2723325732.3777771     
   2743833467.0530787     
   2774674845.8749342     
   2607527160.8391838     
   2594549248.8841910     
   2592771536.0723729     
   2602274188.0974751     
   2623153843.8000321     
   2644494068.5751386     
   2633393565.3212795     
   2632586897.0458112     
   2642113297.4999142     
   2662022989.7988024     
   2685079480.7874031     
   2675531799.5911193     
   2675553370.7543917     
   2685159277.8863654     
   2704370096.2813048     
   2728665312.3498411     
   2720514951.0564146     
   2721369111.3430524     
   2731231024.0122342     
   2750105410.9488926     
   2774674845.8749342     
   2767919769.5532336     
   2769744914.6312189     
   2780150281.1088910     
   2799135868.9862399     
   2623153843.8000321     
   2584859003.2496953     
   2552416574.3076253     
   2526408034.2743840     
   2507642008.9730663     
   2662022989.7988024     
   2616721230.7125993     
   2577070439.9330535     
   2543401670.9892478     
   2516177564.6726804     
   2704370096.2813048     
   2654158344.6606154     
   2609538327.4390202     
   2570657599.4346576     
   2537722884.8585081     
   2750105410.9488926     
   2697082875.8345175     
   2649735181.3124161     
   2608098994.9439592     
   2572225689.9269238     
   2799135868.9862399     
   2745398254.4043550     
   2697561136.7355409     
   2655624515.9798040     
   2619588392.1371307     
   2507642008.9730663     
   2357228510.8698792     
   2215007366.3770595     
   2085959769.7634892     
   1976961835.5254908     
   2516177564.6726804     
   2348260465.6506667     
   2183912302.7006106     
   2026233664.4423456     
   1879789784.4505904     
   2537722884.8585081     
   2357391619.8088112     
   2176800740.1224709     
   1997422146.6032853     
   1821534179.3989520     
   2572225689.9269238     
   2384724793.2411442     
   2194139169.7093301     
   2000847165.0156343     
   1805452836.0251093     
   2619588392.1371307     
   2430227982.5654564     
   2236069706.5469627     
   2037113564.0816596     
   1833359555.1695337     
   2666235997.4956894     
   2652824596.6346669     
   2649448562.8894348     
   2656107896.2599993     
   2672802596.7463565     
   2644039878.2232437     
   2627934678.5205216     
   2622459740.3453460     
   2627640680.0192709     
   2643503747.6096878     
   2678017488.5517416     
   2654792882.9767680     
   2642673476.9735436     
   2641767447.6712465     
   2652187241.3690553     
   2766697536.4192262     
   2732104537.0777202     
   2708921243.9480147     
   2697391664.5255570     
   2697775328.1139054     
   2905648125.6780806     
   2855999352.7799816     
   2817855030.6034231     
   2791629056.8079987     
   2777774688.7540188     
   2672802596.7463565     
   2660416672.9715476     
   2654573928.1018257     
   2655274362.1371884     
   2662517975.0776329     
   2643503747.6096878     
   2631593520.2255659     
   2626060142.2124400     
   2626912041.1443954     
   2634157808.4815736     
   2652187241.3690553     
   2638499277.9993396     
   2630987810.7312789     
   2629685339.9365330     
   2634625112.4307156     
   2697775328.1139054     
   2680238412.6463385     
   2668642189.4711270     
   2663055016.2220097     
   2663547353.9692221     
   2777774688.7540188     
   2754638059.1939101     
   2737168682.6048679     
   2725476859.2566156     
   2719677504.6326308     
   2662517975.0776329     
   2651209965.3130603     
   2650122409.2600088     
   2659255306.9184709     
   2678608658.2884474     
   2634157808.4815736     
   2622182306.8409700     
   2620089709.2955608     
   2627897626.0581155     
   2645622740.8486085     
   2634625112.4307156     
   2618912539.9786839     
   2612776813.8031616     
   2616285546.9555831     
   2629503496.3857307     
   2663547353.9692221     
   2641320148.7174397     
   2628365682.7549968     
   2624827423.5841670     
   2630845119.3243179     
   2719677504.6326308     
   2688599880.5802336     
   2666456629.7831030     
   2653483272.4752755     
   2649914186.2039628     
   2678608658.2884474     
   2674491599.1574397     
   2678903002.3101683     
   2691842867.7466283     
   2713311195.4668236     
   2645622740.8486085     
   2640054631.2074761     
   2643010373.5040927     
   2654500108.5442715     
   2674533035.2217207     
   2629503496.3857307     
   2620280887.6375847     
   2619637632.0446863     
   2627615323.7440529     
   2644252078.9877934     
   2630845119.3243179     
   2615800065.6388350     
   2609429114.9147644     
   2611827751.2695680     
   2623084820.2580347     
   2649914186.2039628     
   2626997908.1314831     
   2612858828.4817920     
   2607668528.4060717     
   2611589840.2417631     
   2713311195.4668236     
   2713151641.8490248     
   2723325732.3777771     
   2743833467.0530787     
   2774674845.8749342     
   2674533035.2217207     
   2672867962.0722313     
   2681329862.5357614     
   2699926906.0183277     
   2728665312.3460593     
   2644252078.9877934     
   2639335879.1096187     
   2644480711.6661692     
   2659719939.2601695     
   2685079480.7802310     
   2623084820.2580347     
   2613192698.8695707     
   2613414614.8804278     
   2623827873.7527299     
   2644494068.5649910     
   2611589840.2417631     
   2595054826.7438035     
   2588775556.5380344     
   2592894142.9679580     
   2607527160.8264098     
   2774674845.8749342     
   2767919769.5532336     
   2769744914.6312189     
   2780150281.1088910     
   2799135868.9862399     
   2728665312.3460593     
   2720514951.0528030     
   2721369111.3396554     
   2731231024.0090427     
   2750105410.9459443     
   2685079480.7802310     
   2675531799.5841932     
   2675553370.7477455     
   2685159277.8800249     
   2704370096.2753129     
   2644494068.5649910     
   2633393565.3113055     
   2632586897.0360589     
   2642113297.4904361     
   2662022989.7896566     
   2607527160.8264098     
   2594549248.8714099     
   2592771536.0596476     
   2602274188.0848660     
   2623153843.7876263     
   2799135868.9862399     
   2745398254.4043550     
   2697561136.7355409     
   2655624515.9798040     
   2619588392.1371307     
   2750105410.9459443     
   2697082875.8317995     
   2649735181.3098989     
   2608098994.9416595     
   2572225689.9248562     
   2704370096.2753129     
   2654158344.6550956     
   2609538327.4339819     
   2570657599.4300737     
   2537722884.8544168     
   2662022989.7896566     
   2616721230.7042317     
   2577070439.9254513     
   2543401670.9823947     
   2516177564.6665955     
   2623153843.7876263     
   2584859003.2384048     
   2552416574.2974114     
   2526408034.2652440     
   2507642008.9650331     
   2619588392.1371307     
   2430227982.5654564     
   2236069706.5469627     
   2037113564.0816596     
   1833359555.1695337     
   2572225689.9248562     
   2384724793.2399306     
   2194139169.7091336     
   2000847165.0166972     
   1805452836.0278375     
   2537722884.8544168     
   2357391619.8063641     
   2176800740.1219597     
   1997422146.6051490     
   1821534179.4039176     
   2516177564.6665955     
   2348260465.6469216     
   2183912302.6996093     
   2026233664.4446845     
   1879789784.4571075     
   2507642008.9650331     
   2357228510.8647733     
   2215007366.3753734     
   2085959769.7658975     
   1976961835.5328410     
   2905648125.6780806     
   2855999352.7799816     
   2817855030.6034231     
   2791629056.8079987     
   2777774688.7540188     
   3050605275.8505468     
   2984822582.2517519     
   2928951582.0889568     
   2883516460.9661574     
   2849106142.4202995     
   3236365634.6904531     
   3153691910.9550772     
   3079286866.0978789     
   3013717468.2818151     
   2957638746.2150006     
   3455510480.9749794     
   3356282160.5509844     
   3263704107.1219006     
   3178319720.5763803     
   3100773435.9019713     
   3701336604.9200449     
   3586621333.8213263     
   3477033959.2023087     
   3373045876.6463389     
   3275229177.6171250     
   2777774688.7540188     
   2754638059.1939101     
   2737168682.6048679     
   2725476859.2566156     
   2719677504.6326308     
   2849106142.4202995     
   2815307402.0197587     
   2787147863.7624540     
   2764786150.6930819     
   2748392117.5272202     
   2957638746.2150006     
   2912139238.9329472     
   2872130524.9456334     
   2837815534.1230593     
   2809418023.4483004     
   3100773435.9019713     
   3042866568.0167108     
   2990195022.1998496     
   2942994985.4201417     
   2901534827.1750197     
   3275229177.6171250     
   3204482219.4885144     
   3138634017.6138239     
   3077938997.0769844     
   3022695137.0593252     
   2719677504.6326308     
   2688599880.5802336     
   2666456629.7831030     
   2653483272.4752755     
   2649914186.2039628     
   2748392117.5272202     
   2704023590.6831384     
   2668386192.5732474     
   2641830541.0459619     
   2624717520.5935240     
   2809418023.4483004     
   2750127535.9617391     
   2699190581.3618422     
   2657070469.1384416     
   2624261711.1374402     
   2901534827.1750197     
   2826252955.7929235     
   2758767222.3359756     
   2699631411.1809058     
   2649458971.9498148     
   3022695137.0593252     
   2930883339.2939858     
   2846158258.2243872     
   2769126714.9110794     
   2700485868.0092459     
   2649914186.2039628     
   2626997908.1314831     
   2612858828.4817920     
   2607668528.4060717     
   2611589840.2417631     
   2624717520.5935240     
   2590476178.9091630     
   2564703601.3562646     
   2547664957.7047534     
   2539619631.3382144     
   2624261711.1374402     
   2577139855.6870708     
   2538061555.0118265     
   2507391646.7536578     
   2485499725.1044774     
   2649458971.9498148     
   2588386050.9631367     
   2534778345.8586063     
   2489089335.4912057     
   2451795940.5326357     
   2700485868.0092459     
   2624938596.6977787     
   2556121373.2869539     
   2494547020.6576514     
   2440775614.5648031     
   2611589840.2417631     
   2595054826.7438035     
   2588775556.5380344     
   2592894142.9679580     
   2607527160.8264098     
   2539619631.3382144     
   2511542769.1702843     
   2493684975.0272570     
   2486303834.9286942     
   2489622982.6067286     
   2485499725.1044774     
   2443684700.4991403     
   2411951890.2626100     
   2390711161.0926070     
   2380339393.5484028     
   2451795940.5326357     
   2394348028.3907032     
   2346645344.3415999     
   2309273514.2793465     
   2282803385.0510445     
   2440775614.5648031     
   2366288096.3045168     
   2300925148.9810500     
   2245442264.8154697     
   2200620832.8042254     
   2607527160.8264098     
   2594549248.8714099     
   2592771536.0596476     
   2602274188.0848660     
   2623153843.7876263     
   2489622982.6067286     
   2469893404.4302697     
   2462107068.3608403     
   2466401255.1697340     
   2482911110.8537483     
   2380339393.5484028     
   2351596681.9839139     
   2335693119.5391097     
   2332878384.6841540     
   2343373296.4686465     
   2282803385.0510445     
   2242436144.1501870     
   2215895542.4879322     
   2203626627.4138441     
   2206013652.0152264     
   2200620832.8042254     
   2145741986.0948679     
   2105653525.7591939     
   2081108990.0227678     
   2072775178.0566325     
   2623153843.7876263     
   2584859003.2384048     
   2552416574.2974114     
   2526408034.2652440     
   2507642008.9650331     
   2482911110.8537483     
   2450367860.2407732     
   2426372670.6948986     
   2411870928.8104219     
   2408239085.6251721     
   2343373296.4686465     
   2319020358.7793708     
   2306212827.1773357     
   2306356329.1761065     
   2321538539.9766002     
   2206013652.0152264     
   2191603720.1847539     
   2192223532.7064614     
   2209842977.3546019     
   2247380860.0159945     
   2072775178.0566325     
   2069100537.8936739     
   2084726662.2669756     
   2122287383.7137113     
   2185593792.9018464     
   2507642008.9650331     
   2357228510.8647733     
   2215007366.3753734     
   2085959769.7658975     
   1976961835.5328410     
   2408239085.6251721     
   2282901059.7127142     
   2168079418.3425603     
   2070514810.3545551     
   1998975607.3138466     
   2321538539.9766002     
   2224789139.9606113     
   2141370116.9108140     
   2079647657.6629870     
   2049794531.1030331     
   2247380860.0159945     
   2182682455.2541823     
   2134408533.2728412     
   2112227373.1414006     
   2127076227.1074800     
   2185593792.9018464     
   2156286387.4282560     
   2146547513.2175727     
   2166903053.3191757     
   2228429214.9743686     
   3701336604.9200449     
   3586621333.8213263     
   3477033959.2023087     
   3373045876.6463389     
   3275229177.6171250     
   3920051438.5092144     
   3787362498.5626988     
   3659562212.1501093     
   3537130720.0715833     
   3420671054.3204350     
   4172985863.7881026     
   4021936255.9106021     
   3875454559.2749000     
   3734006764.5367870     
   3598203296.3613448     
   4455362348.9741516     
   4285325485.7774668     
   4119480784.6222687     
   3958264231.7301641     
   3802276427.8855906     
   4762942579.7900677     
   4573066459.2648020     
   4386970036.1193399     
   4205049508.8985538     
   4027884460.2528639     
   3275229177.6171250     
   3204482219.4885144     
   3138634017.6138239     
   3077938997.0769844     
   3022695137.0593252     
   3420671054.3204350     
   3339790199.6628623     
   3262784027.7250748     
   3189902292.8111830     
   3121441180.6570516     
   3598203296.3613448     
   3507458075.4328952     
   3419648086.4539027     
   3334998228.8765202     
   3253778163.3348079     
   3802276427.8855906     
   3702294829.0723691     
   3604421782.8952971     
   3508845733.1900997     
   3415794588.1258874     
   4027884460.2528639     
   3919515887.3336501     
   3812555747.7042675     
   3707152510.5599208     
   3603486823.3845344     
   3022695137.0593252     
   2930883339.2939858     
   2846158258.2243872     
   2769126714.9110794     
   2700485868.0092459     
   3121441180.6570516     
   3013422542.7846556     
   2911465311.1501951     
   2816184151.4764738     
   2728310959.7492871     
   3253778163.3348079     
   3129965972.1477504     
   3011149084.9420848     
   2897899069.1671906     
   2790920092.9829521     
   3415794588.1258874     
   3276951132.3340535     
   3142074594.9642267     
   3011656431.3467999     
   2886321959.3633180     
   3603486823.3845344     
   3450555423.3319101     
   3300658792.4939985     
   3154189698.5693126     
   3011664109.6127167     
   2700485868.0092459     
   2624938596.6977787     
   2556121373.2869539     
   2494547020.6576514     
   2440775614.5648031     
   2728310959.7492871     
   2638339712.0769625     
   2554060582.7402158     
   2476014968.6872563     
   2404819726.8711066     
   2790920092.9829521     
   2686904660.5611377     
   2587427708.3269143     
   2492998288.5844617     
   2404220263.3374023     
   2886321959.3633180     
   2769247704.7969189     
   2655548090.9503670     
   2545647934.3315430     
   2440070278.8794847     
   3011664109.6127167     
   2882924096.7302999     
   2756486869.8197336     
   2632664844.0398078     
   2511856523.1913514     
   2440775614.5648031     
   2366288096.3045168     
   2300925148.9810500     
   2245442264.8154697     
   2200620832.8042254     
   2404819726.8711066     
   2312497322.7516990     
   2228148534.6678329     
   2152626955.8554420     
   2086870056.3066127     
   2404220263.3374023     
   2294554689.3900857     
   2191423411.6702614     
   2095670018.9596639     
   2008278317.9614663     
   2440070278.8794847     
   2314543597.1042514     
   2193984015.0147786     
   2079103562.7010663     
   1970779781.8009675     
   2511856523.1913514     
   2372741128.2726636     
   2237117970.3679581     
   2105486291.3181365     
   1978491782.2037022     
   2200620832.8042254     
   2145741986.0948679     
   2105653525.7591939     
   2081108990.0227678     
   2072775178.0566325     
   2086870056.3066127     
   2012100069.4071388     
   1949590995.3815129     
   1900407187.5023298     
   1865564005.6904805     
   2008278317.9614663     
   1912149660.3018153     
   1824750935.2193050     
   1747271197.7070272     
   1680990281.2774868     
   1970779781.8009675     
   1854815928.7638528     
   1743225186.1606619     
   1636926679.5477216     
   1537048456.8525691     
   1978491782.2037022     
   1847754938.1722717     
   1717091604.0827897     
   1586857278.0410080     
   1457568406.0019221     
   2072775178.0566325     
   2069100537.8936739     
   2084726662.2669756     
   2122287383.7137113     
   2185593792.9018464     
   1865564005.6904805     
   1854926154.0280986     
   1867304528.2910957     
   1904911401.0291102     
   1970778462.6930580     
   1680990281.2774868     
   1652407928.5820289     
   1651573557.8240199     
   1680859991.8043470     
   1742876984.2948859     
   1537048456.8525691     
   1476143560.3507500     
   1447943225.7764518     
   1456416915.3686206     
   1504859522.0223894     
   1457568406.0019221     
   1348573642.5570269     
   1274562346.9650412     
   1243659307.6289685     
   1262900253.9453642     
   2185593792.9018464     
   2156286387.4282560     
   2146547513.2175727     
   2166903053.3191757     
   2228429214.9743686     
   1970778462.6930580     
   1968946171.0037253     
   2003643286.0763755     
   2093544809.6909401     
   2257313508.5207076     
   1742876984.2948859     
   1787696759.5383930     
   1884658487.4091778     
   2060669939.3564386     
   2340960325.7130194     
   1504859522.0223894     
   1613255090.2724056     
   1788852841.9358680     
   2066399637.7337737     
   2476097446.2107024     
   1262900253.9453642     
   1446665142.8197753     
   1715661665.2137868     
   2110466685.4472671     
   2663512122.8037524     
   4762942579.7900677     
   4573066459.2648020     
   4386970036.1193399     
   4205049508.8985538     
   4027884460.2528639     
   5083076777.0903072     
   4876410844.7134848     
   4671818649.9392004     
   4469546524.8038921     
   4269965907.7646403     
   5418498233.2083015     
   5197824485.6123028     
   4977863035.9808617     
   4758721413.6194849     
   4540581765.9902029     
   5765318293.4231367     
   5533652200.0741100     
   5301653533.2411299     
   5069320694.1368914     
   4836690749.8533144     
   6120464425.4557972     
   5880950799.6390696     
   5640341988.2695866     
   5398565706.9643145     
   5155569730.7008553     
   4027884460.2528639     
   3919515887.3336501     
   3812555747.7042675     
   3707152510.5599208     
   3603486823.3845344     
   4269965907.7646403     
   4151043653.6935787     
   4033400628.7059975     
   3917141362.5601749     
   3802403035.6846590     
   4540581765.9902029     
   4411307623.1824093     
   4283180699.6163597     
   4156257724.6051641     
   4030628988.9417262     
   4836690749.8533144     
   4696990079.4660206     
   4558298648.1092730     
   4420624135.3219833     
   4284009322.0733576     
   5155569730.7008553     
   5005128047.2689123     
   4855548416.9882898     
   4706789950.8057556     
   4558849097.7059078     
   3603486823.3845344     
   3450555423.3319101     
   3300658792.4939985     
   3154189698.5693126     
   3011664109.6127167     
   3802403035.6846590     
   3635284398.5968628     
   3470216904.0419617     
   3307477713.9028420     
   3147457571.7127810     
   4030628988.9417262     
   3849976192.1053667     
   3670479400.5777493     
   3492294688.1757994     
   3315674466.5915575     
   4284009322.0733576     
   4090413943.3675222     
   3897193702.3229017     
   3704390447.1422668     
   3512122317.2101202     
   4558849097.7059078     
   4352804023.4651070     
   4146475060.4587717     
   3939803562.6041012     
   3732787920.8907022     
   3011664109.6127167     
   2882924096.7302999     
   2756486869.8197336     
   2632664844.0398078     
   2511856523.1913514     
   3147457571.7127810     
   3007789167.4670811     
   2869904529.3003974     
   2734017588.6089602     
   2600416993.9134493     
   3315674466.5915575     
   3165927584.8502584     
   3017527499.6219039     
   2870595391.2504478     
   2725314603.4236903     
   3512122317.2101202     
   3352854745.8411269     
   3194579343.6314578     
   3037337728.8028531     
   2881223221.0442028     
   3732787920.8907022     
   3564255205.0964971     
   3396429041.0223126     
   3229286653.2471747     
   3062850090.7678895     
   2511856523.1913514     
   2372741128.2726636     
   2237117970.3679581     
   2105486291.3181365     
   1978491782.2037022     
   2600416993.9134493     
   2451212204.7181492     
   2304095132.8077807     
   2159384574.6694455     
   2017510276.5754671     
   2725314603.4236903     
   2567963163.5618591     
   2411552864.1523380     
   2256233303.4679060     
   2102218359.4073293     
   2881223221.0442028     
   2717736311.6769509     
   2554359701.1255631     
   2391124116.4598522     
   2228087915.3976483     
   3062850090.7678895     
   2895108309.5491838     
   2726946662.4447594     
   2558337008.8423662     
   2389261249.5783005     
   1978491782.2037022     
   1847754938.1722717     
   1717091604.0827897     
   1586857278.0410080     
   1457568406.0019221     
   2017510276.5754671     
   1880721815.3755488     
   1744247315.1307123     
   1608214278.5534532     
   1472798163.2835977     
   2102218359.4073293     
   1962104260.9915512     
   1822919231.3998089     
   1684690589.4637802     
   1547472671.3554778     
   2228087915.3976483     
   2085653130.6433086     
   1944847698.4944711     
   1805670992.0386772     
   1668196974.6065395     
   2389261249.5783005     
   2243875891.6645241     
   2100682350.1309061     
   1959683795.5853167     
   1821047658.1281745     
   1457568406.0019221     
   1348573642.5570269     
   1274562346.9650412     
   1243659307.6289685     
   1262900253.9453642     
   1472798163.2835977     
   1328555806.8076754     
   1198789675.5490761     
   1087984785.6978869     
   1002050342.7747632     
   1547472671.3554778     
   1397565020.0965488     
   1244108037.3921933     
   1084834799.8378017     
   917717825.94992471     
   1668196974.6065395     
   1552711746.3440123     
   1428119186.5938091     
   1294779072.7886374     
   1158802522.9881003     
   1821047658.1281745     
   1780259765.0559654     
   1735951208.9785082     
   1696754737.9624414     
   1681146491.8390572     
   1262900253.9453642     
   1446665142.8197753     
   1715661665.2137868     
   2110466685.4472671     
   2663512122.8037524     
   1002050342.7747632     
   1164713276.4254386     
   1425409670.8978646     
   1808724769.7307003     
   2334741652.9242311     
   917717825.94992471     
   963123804.45282590     
   1144923149.2782431     
   1476465704.2093859     
   1957440762.1062315     
   1158802522.9881003     
   1008384405.4043750     
   985206129.69620335     
   1161492548.1796930     
   1544131260.4508669     
   1681146491.8390572     
   1383648549.5991781     
   1129426109.5523286     
   1010177959.9033214     
   1153122589.1925917     
 </DataArray>
 <DataArray  type="Float64" Name="strain" NumberOfComponents="3" format="ascii">
  0.10221210677225612       -2.9658039366641575E-002   2.3636234687569591E-003
   9.8110597765981744E-002  -2.8955361647972522E-002   2.0168255727688322E-003
   9.4009088759707371E-002  -2.8152667845639745E-002   1.7944387531793060E-003
   8.9907579753432998E-002  -2.7249957959643467E-002   1.6964630099883804E-003
   8.5806070747158625E-002  -2.6247231989983466E-002   1.7228983431961664E-003
   9.6112770812133652E-002  -2.7905116709036171E-002   8.7238431486637014E-003
   9.2159972589985539E-002  -2.7178569775561157E-002   8.3933409082916910E-003
   8.8207174367837538E-002  -2.6385663895878153E-002   8.2358491597734895E-003
   8.4254376145689563E-002  -2.5526399069987216E-002   8.2513679031092080E-003
   8.0301577923541534E-002  -2.4600775297888400E-002   8.4398971382989574E-003
   8.9922243284963899E-002  -2.6152194051430877E-002   1.5124760612104327E-002
   8.6166755262397393E-002  -2.5401777903150125E-002   1.4776896889892588E-002
   8.2411267239830943E-002  -2.4618659946116728E-002   1.4650643074990255E-002
   7.8655779217264521E-002  -2.3802840180331408E-002   1.4745999167396703E-002
   7.4900291194698099E-002  -2.2954318605793278E-002   1.5062965167112780E-002
   8.3640524190746718E-002  -2.4399271393825528E-002   2.1566375859078390E-002
   8.0130945783217111E-002  -2.3624986030738912E-002   2.1167493517571745E-002
   7.6621367375687560E-002  -2.2851655996355497E-002   2.1038820498829214E-002
   7.3111788968157981E-002  -2.2079281290675268E-002   2.1180356802851304E-002
   6.9602210560628347E-002  -2.1307861913698184E-002   2.1592102429637931E-002
   7.7267613529482249E-002  -2.2646348736220123E-002   2.8048688889586171E-002
   7.4052544152444721E-002  -2.1848194158327783E-002   2.7565130791328551E-002
   7.0837474775407278E-002  -2.1084652046594030E-002   2.7400381431290782E-002
   6.7622405398369848E-002  -2.0355722401019165E-002   2.7554440809472655E-002
   6.4407336021332362E-002  -1.9661405221603034E-002   2.8027308925874350E-002
   8.5806070747158625E-002  -2.6247231989983466E-002   1.7228983431961664E-003
   8.3366970953407948E-002  -2.5221507535830301E-002   1.3876368671108530E-003
   8.0927871159657161E-002  -2.4249802196353781E-002   1.2388009609042849E-003
   7.8488771365906373E-002  -2.3332115971553442E-002   1.2763906245766010E-003
   7.6049671572155697E-002  -2.2468448861429735E-002   1.5004058581278290E-003
   8.0301577923541534E-002  -2.4600775297888400E-002   8.4398971382989574E-003
   7.8039462255881292E-002  -2.3660853512645103E-002   8.1525092959008616E-003
   7.5777346588221106E-002  -2.2758694647320360E-002   8.0326641358055562E-003
   7.3515230920560920E-002  -2.1894298701914332E-002   8.0803616580122639E-003
   7.1253115252900678E-002  -2.1067665676426928E-002   8.2956018625209293E-003
   7.4900291194698099E-002  -2.2954318605793278E-002   1.5062965167112780E-002
   7.2796276765551671E-002  -2.2100199489459571E-002   1.4839707153160603E-002
   7.0692262336405354E-002  -2.1267587098286925E-002   1.4765108933933777E-002
   6.8588247907258981E-002  -2.0456481432274996E-002   1.4839170509432502E-002
   6.6484233478112609E-002  -1.9666882491424342E-002   1.5061891879656675E-002
   6.9602210560628347E-002  -2.1307861913698184E-002   2.1592102429637931E-002
   6.7637414482419125E-002  -2.0539545466274373E-002   2.1449230438889140E-002
   6.5672618404209904E-002  -1.9776479549253607E-002   2.1436135355288845E-002
   6.3707822326000613E-002  -1.9018664162635993E-002   2.1552817178837433E-002
   6.1743026247791391E-002  -1.8266099306421646E-002   2.1799275909534760E-002
   6.4407336021332362E-002  -1.9661405221603034E-002   2.8027308925874350E-002
   6.2562875406483531E-002  -1.8978891443089008E-002   2.7981079153086508E-002
   6.0718414791634728E-002  -1.8285372000220304E-002   2.8045743399870843E-002
   5.8873954176785856E-002  -1.7580846892996802E-002   2.8221301666227175E-002
   5.7029493561937095E-002  -1.6865316121418839E-002   2.8507753952155546E-002
   7.6049671572155697E-002  -2.2468448861429735E-002   1.5004058581278290E-003
   7.2578133116169119E-002  -2.1615331155671214E-002   1.0218369774339653E-003
   6.9106594660182485E-002  -2.0729293143967098E-002   7.7189991006598735E-004
   6.5635056204195852E-002  -1.9810334826316500E-002   7.5059465602314579E-004
   6.2163517748209274E-002  -1.8858456202720530E-002   9.5792121530613450E-004
   7.1253115252900678E-002  -2.1067665676426928E-002   8.2956018625209293E-003
   6.8005420173356812E-002  -2.0247680343542296E-002   7.8686130097411766E-003
   6.4757725093812890E-002  -1.9403227475944418E-002   7.6606790965212390E-003
   6.1510030014269024E-002  -1.8534307073632919E-002   7.6718001228607696E-003
   5.8262334934725102E-002  -1.7640919136608368E-002   7.9019760887610868E-003
   6.6484233478112609E-002  -1.9666882491424342E-002   1.5061891879656675E-002
   6.3450804901245800E-002  -1.8880029531413406E-002   1.4678030283557852E-002
   6.0417376324379046E-002  -1.8077161807921960E-002   1.4503646753253607E-002
   5.7383947747512321E-002  -1.7258279320949449E-002   1.4538741288743565E-002
   5.4350519170645512E-002  -1.6423382070496095E-002   1.4783313890027960E-002
   6.1743026247791391E-002  -1.8266099306421646E-002   2.1799275909534760E-002
   5.8914287299836131E-002  -1.7512378719284558E-002   2.1450088798884645E-002
   5.6085548351880982E-002  -1.6751096139899391E-002   2.1300802880263481E-002
   5.3256809403925721E-002  -1.5982251568265701E-002   2.1351418153670844E-002
   5.0428070455970517E-002  -1.5205845004384211E-002   2.1601934619107227E-002
   5.7029493561937095E-002  -1.6865316121418839E-002   2.8507753952155546E-002
   5.4395867369127826E-002  -1.6144727907155543E-002   2.8184788555721596E-002
   5.1762241176318613E-002  -1.5425030471876683E-002   2.8052147477550804E-002
   4.9128614983509372E-002  -1.4706223815582169E-002   2.8109830717642850E-002
   4.6494988790700131E-002  -1.3988307938271882E-002   2.8357838275998692E-002
   6.2163517748209274E-002  -1.8858456202720530E-002   9.5792121530613450E-004
   5.9380440724105643E-002  -1.7914071260380471E-002   6.8874160358578518E-004
   5.6597363700001846E-002  -1.7017593986500379E-002   5.8444620899372746E-004
   5.3814286675898160E-002  -1.6169024381078340E-002   6.4503503152979480E-004
   5.1031209651794418E-002  -1.5368362444115435E-002   8.7050807119415374E-004
   5.8262334934725102E-002  -1.7640919136608368E-002   7.9019760887610868E-003
   5.5639392196932147E-002  -1.6751018945329932E-002   7.5777382482954403E-003
   5.3016449459139192E-002  -1.5892561780256026E-002   7.4088847633236310E-003
   5.0393506721346265E-002  -1.5065547641388490E-002   7.3954156338446042E-003
   4.7770563983553282E-002  -1.4269976528725969E-002   7.5373308598593036E-003
   5.4350519170645512E-002  -1.6423382070496095E-002   1.4783313890027960E-002
   5.1878210857528417E-002  -1.5587966630278505E-002   1.4420482463071232E-002
   4.9405902544411268E-002  -1.4767529574013005E-002   1.4203535529972638E-002
   4.6933594231294146E-002  -1.3962070901698639E-002   1.4132473090732178E-002
   4.4461285918176996E-002  -1.3171590613336615E-002   1.4207295145350129E-002
   5.0428070455970517E-002  -1.5205845004384211E-002   2.1601934619107227E-002
   4.8096896705894260E-002  -1.4424914315227300E-002   2.1216974247912294E-002
   4.5765722955817968E-002  -1.3642497367769096E-002   2.0968398508940861E-002
   4.3434549205741760E-002  -1.2858594162009233E-002   2.0856207402192649E-002
   4.1103375455665427E-002  -1.2073204697947648E-002   2.0880400927668005E-002
   4.6494988790700131E-002  -1.3988307938271882E-002   2.8357838275998692E-002
   4.4295449742029813E-002  -1.3261862000176483E-002   2.7967213602819507E-002
   4.2095910693359440E-002  -1.2517465161525493E-002   2.7703473700228409E-002
   3.9896371644689108E-002  -1.1755117422319182E-002   2.7566618568225926E-002
   3.7696832596018748E-002  -1.0974818782558349E-002   2.7556648206811807E-002
   5.1031209651794418E-002  -1.5368362444115435E-002   8.7050807119415374E-004
   4.8227290033998171E-002  -1.4573408178831682E-002   5.2874822650172959E-004
   4.5423370416201980E-002  -1.3741961588446372E-002   2.6587657783960772E-004
   4.2619450798405761E-002  -1.2874022672961602E-002   8.1893125209175910E-005
   3.9815531180609542E-002  -1.1969591432375193E-002  -2.3202131390842595E-005
   4.7770563983553282E-002  -1.4269976528725969E-002   7.5373308598593036E-003
   4.5050085751778657E-002  -1.3479746900779910E-002   7.1801179989592345E-003
   4.2329607520004059E-002  -1.2668757216060533E-002   6.9108997140716610E-003
   3.9609129288229447E-002  -1.1837007474567923E-002   6.7296760051962223E-003
   3.6888651056454835E-002  -1.0984497676302496E-002   6.6364468723335568E-003
   4.4461285918176996E-002  -1.3171590613336615E-002   1.4207295145350129E-002
   4.1833355452405574E-002  -1.2386085622728082E-002   1.3818896999914981E-002
   3.9205424986634110E-002  -1.1595552843673834E-002   1.3527599810473773E-002
   3.6577494520862695E-002  -1.0799992276174473E-002   1.3333403577026615E-002
   3.3949564055091225E-002  -9.9994039202297991E-003   1.3236308299573396E-002
   4.1103375455665427E-002  -1.2073204697947648E-002   2.0880400927668005E-002
   3.8577099135878798E-002  -1.1292424344676394E-002   2.0445085229369650E-002
   3.6050822816092107E-002  -1.0522348471287343E-002   2.0115976867046928E-002
   3.3524546496305478E-002  -9.7629770777809093E-003   1.9893075840699933E-002
   3.0998270176518787E-002  -9.0143101641571022E-003   1.9776382150328287E-002
   3.7696832596018748E-002  -1.0974818782558349E-002   2.7556648206811807E-002
   3.5281316802198426E-002  -1.0198763066624428E-002   2.7058682687322921E-002
   3.2865801008378104E-002  -9.4491440989011577E-003   2.6676030883791280E-002
   3.0450285214557768E-002  -8.7259618793875879E-003   2.6408692796216243E-002
   2.8034769420737460E-002  -8.0292164080841832E-003   2.6256668424599061E-002
   3.9815531180609542E-002  -1.1969591432375193E-002  -2.3202131390842595E-005
   3.7418445210080642E-002  -1.1129449477885522E-002  -2.8793328973342192E-004
   3.5021359239551852E-002  -1.0454378420691302E-002  -4.7221580732892399E-004
   3.2624273269023035E-002  -9.9443782607899489E-003  -5.7604968417690472E-004
   3.0227187298494163E-002  -9.5994489981845454E-003  -5.9943492027825229E-004
   3.6888651056454835E-002  -1.0984497676302496E-002   6.6364468723335568E-003
   3.4555574614928253E-002  -1.0175992078059304E-002   6.2061500479815290E-003
   3.2222498173401642E-002  -9.4762549366326221E-003   5.8234236408870599E-003
   2.9889421731875157E-002  -8.8852862520235887E-003   5.4882676510497885E-003
   2.7556345290348450E-002  -8.4030860242312322E-003   5.2006820784700203E-003
   3.3949564055091225E-002  -9.9994039202297991E-003   1.3236308299573396E-002
   3.1647618919077219E-002  -9.2225346782321971E-003   1.2696748249689249E-002
   2.9345673783063228E-002  -8.4981314525744422E-003   1.2171880393573031E-002
   2.7043728647049257E-002  -7.8261942432563542E-003   1.1661704731224437E-002
   2.4741783511035259E-002  -7.2067230502776969E-003   1.1166221262643661E-002
   3.0998270176518787E-002  -9.0143101641571022E-003   1.9776382150328287E-002
   2.8694578122527716E-002  -8.2690772784055344E-003   1.9183861315389558E-002
   2.6390886068536647E-002  -7.5200079685161236E-003   1.8573154450729115E-002
   2.4087194014545538E-002  -6.7671022344891127E-003   1.7944261556346451E-002
   2.1783501960554452E-002  -6.0103600763242726E-003   1.7297182632242086E-002
   2.8034769420737460E-002  -8.0292164080841832E-003   2.6256668424599061E-002
   2.5696452225279609E-002  -7.3156198785787052E-003   2.5667489245082997E-002
   2.3358135029821758E-002  -6.5418844844576385E-003   2.5027245812355381E-002
   2.1019817834363907E-002  -5.7080102257220516E-003   2.4335938126416129E-002
   1.8681500638906057E-002  -4.8139971023711814E-003   2.3593566187265269E-002
   3.0227187298494163E-002  -9.5994489981845454E-003  -5.9943492027825229E-004
   2.9614388963122518E-002  -9.1331301385286778E-003  -3.6161635385401070E-004
   2.9001590627750873E-002  -8.2589611874787083E-003  -1.8019084655485074E-003
   2.8388792292379283E-002  -6.9769421450349978E-003  -4.9203112553609651E-003
   2.7775993957007583E-002  -5.2870730111980180E-003  -9.7168247232914950E-003
   2.7556345290348450E-002  -8.4030860242312322E-003   5.2006820784700203E-003
   2.5534234251246124E-002  -7.8698806844439417E-003   5.8728932342149154E-003
   2.3512123212143687E-002  -7.1258966638495513E-003   5.4045896606156330E-003
   2.1490012173041195E-002  -6.1711339624478112E-003   3.7957713576739494E-003
   1.9467901133938814E-002  -5.0055925802394707E-003   1.0464383253878662E-003
   2.4741783511035259E-002  -7.2067230502776969E-003   1.1166221262643661E-002
   2.1847955716976925E-002  -6.6066312303589836E-003   1.2075753597121763E-002
   1.8954127922918590E-002  -5.9928321402203388E-003   1.2382367151031082E-002
   1.6060300128860269E-002  -5.3653257798608328E-003   1.2086061924372310E-002
   1.3166472334801921E-002  -4.7241121492813676E-003   1.1186837917144921E-002
   2.1783501960554452E-002  -6.0103600763242726E-003   1.7297182632242086E-002
   1.8555553360315100E-002  -5.3433817762741365E-003   1.8246964734866894E-002
   1.5327604760075726E-002  -4.8597676165909320E-003   1.9131424005697714E-002
   1.2099656159836391E-002  -4.5595175972737503E-003   1.9950560444735137E-002
   8.8717075595969933E-003  -4.4426317183234865E-003   2.0704374051978641E-002
   1.8681500638906057E-002  -4.8139971023711814E-003   2.3593566187265269E-002
   1.5657027181260552E-002  -4.0801323221895669E-003   2.4386526647449780E-002
   1.2632553723615075E-002  -3.7267030929615252E-003   2.5651760224615405E-002
   9.6080802659695985E-003  -3.7537094146865013E-003   2.7389266918762700E-002
   6.5836068083240940E-003  -4.1611512873652723E-003   2.9599046729890888E-002
   2.7775993957007583E-002  -5.2870730111980180E-003  -9.7168247232914950E-003
   2.3351141983608770E-002  -4.2064685683709246E-003  -4.1870283452403179E-003
   1.8926290010210012E-002  -4.7522435989590939E-003   2.6056573150208262E-003
   1.4501438036811337E-002  -6.9243981029618595E-003   1.0661232257490272E-002
   1.0076586063412440E-002  -1.0722932080381220E-002   1.9979696482170795E-002
   1.9467901133938814E-002  -5.0055925802394707E-003   1.0464383253878662E-003
   1.6233783420120329E-002  -4.6907265432087897E-003   6.7414892824531059E-003
   1.2999665706301899E-002  -6.2879898773406939E-003   1.3555119476469923E-002
   9.7655479924837196E-003  -9.7973825826349059E-003   2.1487328907437875E-002
   6.5314302786649847E-003  -1.5218904659091592E-002   3.0538117575356960E-002
   1.3166472334801921E-002  -4.7241121492813676E-003   1.1186837917144921E-002
   1.0978778835305847E-002  -5.1749845180469878E-003   1.6761393555476845E-002
   8.7910853358097313E-003  -7.8237361557220719E-003   2.3310218385502068E-002
   6.6033918363137475E-003  -1.2670367062307175E-002   3.0833312407220842E-002
   4.4156983368175973E-003  -1.9714877237801964E-002   3.9330675620631972E-002
   8.8717075595969933E-003  -4.4426317183234865E-003   2.0704374051978641E-002
   7.5861282291650942E-003  -5.6592424928847973E-003   2.5872684473830482E-002
   6.3005488987330945E-003  -9.3594824341035610E-003   3.1870954042117122E-002
   5.0149695683012457E-003  -1.5543351541979389E-002   3.8699182756839354E-002
   3.7293902378692095E-003  -2.4210849816512336E-002   4.6357370617995997E-002
   6.5836068083240940E-003  -4.1611512873652723E-003   2.9599046729890888E-002
   6.0558316016982028E-003  -6.1435004677224958E-003   3.4075362037514378E-002
   5.5280563950723394E-003  -1.0895228712484856E-002   3.9237326446314780E-002
   5.0002811884464204E-003  -1.8416336021651776E-002   4.5084939956292064E-002
   4.4725059818205848E-003  -2.8706822395222709E-002   5.1618202567447202E-002
   7.7267613529482249E-002  -2.2646348736220123E-002   2.8048688889586171E-002
   7.4052544152444721E-002  -2.1848194158327783E-002   2.7565130791328551E-002
   7.0837474775407278E-002  -2.1084652046594030E-002   2.7400381431290782E-002
   6.7622405398369848E-002  -2.0355722401019165E-002   2.7554440809472655E-002
   6.4407336021332362E-002  -1.9661405221603034E-002   2.8027308925874350E-002
   7.0859915261006545E-002  -2.0705992885539759E-002   3.3891003694328958E-002
   6.7949264062070025E-002  -2.0019805939803986E-002   3.3390402605128572E-002
   6.5038612863133505E-002  -1.9347544094807267E-002   3.3179829133910127E-002
   6.2127961664197012E-002  -1.8689207350549533E-002   3.3259283280674040E-002
   5.9217310465260464E-002  -1.8044795707030825E-002   3.3628765045420117E-002
   6.4473833345155537E-002  -1.8765637034859367E-002   3.9611007184205280E-002
   6.1838819204082393E-002  -1.8191417721280315E-002   3.9114050469481604E-002
   5.9203805063009270E-002  -1.7610436143020540E-002   3.8878340252502704E-002
   5.6568790921936174E-002  -1.7022692300079988E-002   3.8903876533268211E-002
   5.3933776780863044E-002  -1.6428186192458644E-002   3.9190659311778328E-002
   5.8109367781929350E-002  -1.6825281184179017E-002   4.5208699359214871E-002
   5.5721209578482034E-002  -1.6363029502756650E-002   4.4736074384387980E-002
   5.3333051375034760E-002  -1.5873328191233851E-002   4.4495914787068110E-002
   5.0944893171587430E-002  -1.5356177249610397E-002   4.4488220567255161E-002
   4.8556734968140100E-002  -1.4811576677886504E-002   4.4712991724949261E-002
   5.1766518571327858E-002  -1.4884925333498611E-002   5.0684080219358218E-002
   4.9596435185268822E-002  -1.4534641284232930E-002   5.0256474349847480E-002
   4.7426351799209759E-002  -1.4136220239447023E-002   5.0032552737606373E-002
   4.5256268413150683E-002  -1.3689662199140799E-002   5.0012315382634648E-002
   4.3086185027091634E-002  -1.3194967163314253E-002   5.0195762284932444E-002
   6.4407336021332362E-002  -1.9661405221603034E-002   2.8027308925874350E-002
   6.2562875406483531E-002  -1.8978891443089008E-002   2.7981079153086508E-002
   6.0718414791634728E-002  -1.8285372000220304E-002   2.8045743399870843E-002
   5.8873954176785856E-002  -1.7580846892996802E-002   2.8221301666227175E-002
   5.7029493561937095E-002  -1.6865316121418839E-002   2.8507753952155546E-002
   5.9217310465260464E-002  -1.8044795707030825E-002   3.3628765045420117E-002
   5.7491760104549081E-002  -1.7403721537330621E-002   3.3506171287600681E-002
   5.5766209743837683E-002  -1.6755397214528386E-002   3.3510504018483808E-002
   5.4040659383126313E-002  -1.6099822738624033E-002   3.3641763238069652E-002
   5.2315109022414902E-002  -1.5436998109617739E-002   3.3899948946358560E-002
   5.3933776780863044E-002  -1.6428186192458644E-002   3.9190659311778328E-002
   5.2343169143419854E-002  -1.5828551631572291E-002   3.8987946057674402E-002
   5.0752561505976616E-002  -1.5225422428836573E-002   3.8928191761403934E-002
   4.9161953868533420E-002  -1.4618798584251318E-002   3.9011396422966887E-002
   4.7571346231090203E-002  -1.4008680097816861E-002   3.9237560042363590E-002
   4.8556734968140100E-002  -1.4811576677886504E-002   4.4712991724949261E-002
   4.7117102523095838E-002  -1.4253381725814043E-002   4.4426403463308076E-002
   4.5677470078051528E-002  -1.3695447643144679E-002   4.4298806628631268E-002
   4.4237837633007239E-002  -1.3137774429878672E-002   4.4330201220918561E-002
   4.2798205187962901E-002  -1.2580362086015873E-002   4.4520587240170419E-002
   4.3086185027091634E-002  -1.3194967163314253E-002   5.0195762284932444E-002
   4.1813560243577033E-002  -1.2678211820055602E-002   4.9821543504501492E-002
   4.0540935460062391E-002  -1.2165472857452869E-002   4.9622348620165790E-002
   3.9268310676547763E-002  -1.1656750275505813E-002   4.9598177631924964E-002
   3.7995685893033149E-002  -1.1152044074214884E-002   4.9749030539779193E-002
   5.7029493561937095E-002  -1.6865316121418839E-002   2.8507753952155546E-002
   5.4395867369127826E-002  -1.6144727907155543E-002   2.8184788555721596E-002
   5.1762241176318613E-002  -1.5425030471876683E-002   2.8052147477550804E-002
   4.9128614983509372E-002  -1.4706223815582169E-002   2.8109830717642850E-002
   4.6494988790700131E-002  -1.3988307938271882E-002   2.8357838275998692E-002
   5.2315109022414902E-002  -1.5436998109617739E-002   3.3899948946358560E-002
   4.9874972322297068E-002  -1.4768861957974555E-002   3.3552011529144027E-002
   4.7434835622179289E-002  -1.4097352914159561E-002   3.3400728779049066E-002
   4.4994698922061482E-002  -1.3422470978172778E-002   3.3446100696073830E-002
   4.2554562221943759E-002  -1.2744216150014087E-002   3.3688127280218361E-002
   4.7571346231090203E-002  -1.4008680097816861E-002   3.9237560042363590E-002
   4.5331029372520357E-002  -1.3392996008793595E-002   3.8868914275524469E-002
   4.3090712513950441E-002  -1.2769675356442453E-002   3.8703253524661682E-002
   4.0850395655380574E-002  -1.2138718140763390E-002   3.8740577789775001E-002
   3.8610078796810693E-002  -1.1500124361756292E-002   3.8980887070864445E-002
   4.2798205187962901E-002  -1.2580362086015873E-002   4.4520587240170419E-002
   4.0764038519797458E-002  -1.2017130059612566E-002   4.4135496794863290E-002
   3.8729871851631979E-002  -1.1441997798725255E-002   4.3959721714388486E-002
   3.6695705183466515E-002  -1.0854965303354001E-002   4.3993261998746425E-002
   3.4661538515301057E-002  -1.0256032573498330E-002   4.4236117647937050E-002
   3.7995685893033149E-002  -1.1152044074214884E-002   4.9749030539779193E-002
   3.6173999764128550E-002  -1.0641264110431647E-002   4.9351759087160052E-002
   3.4352313635223966E-002  -1.0114320241008196E-002   4.9170133348229533E-002
   3.2530627506319389E-002  -9.5712124659446604E-003   4.9204153322988359E-002
   3.0708941377414783E-002  -9.0119407852405908E-003   4.9453819011436306E-002
   4.6494988790700131E-002  -1.3988307938271882E-002   2.8357838275998692E-002
   4.4295449742029813E-002  -1.3261862000176483E-002   2.7967213602819507E-002
   4.2095910693359440E-002  -1.2517465161525493E-002   2.7703473700228409E-002
   3.9896371644689108E-002  -1.1755117422319182E-002   2.7566618568225926E-002
   3.7696832596018748E-002  -1.0974818782558349E-002   2.7556648206811807E-002
   4.2554562221943759E-002  -1.2744216150014087E-002   3.3688127280218361E-002
   4.0487328157068098E-002  -1.2056845833667201E-002   3.3315270456248713E-002
   3.8420094092192533E-002  -1.1354617433115444E-002   3.3080138829280070E-002
   3.6352860027316976E-002  -1.0637530948358745E-002   3.2982732399312611E-002
   3.4285625962441335E-002  -9.9055863793973131E-003   3.3023051166346074E-002
   3.8610078796810693E-002  -1.1500124361756292E-002   3.8980887070864445E-002
   3.6685990142142466E-002  -1.0851829667158003E-002   3.8622705279754255E-002
   3.4761901487474274E-002  -1.0191769704705186E-002   3.8413089112057527E-002
   3.2837812832806096E-002  -9.5199444743979782E-003   3.8352038567774853E-002
   3.0913724178137911E-002  -8.8363539762364440E-003   3.8439553646905489E-002
   3.4661538515301057E-002  -1.0256032573498330E-002   4.4236117647937050E-002
   3.2891435697252849E-002  -9.6468135006488737E-003   4.3889518073335868E-002
   3.1121332879204718E-002  -9.0289219762950332E-003   4.3702324548560767E-002
   2.9351230061156548E-002  -8.4023580004372652E-003   4.3674537073612164E-002
   2.7581127243108374E-002  -7.7671215730754362E-003   4.3806155648490018E-002
   3.0708941377414783E-002  -9.0119407852405908E-003   4.9453819011436306E-002
   2.9103664822399261E-002  -8.4417973341397445E-003   4.9115708836993510E-002
   2.7498388267383767E-002  -7.8660742478849910E-003   4.8947845138790025E-002
   2.5893111712368244E-002  -7.2847715264765800E-003   4.8950227916825240E-002
   2.4287835157352777E-002  -6.6978891699146503E-003   4.9122857171099543E-002
   3.7696832596018748E-002  -1.0974818782558349E-002   2.7556648206811807E-002
   3.5281316802198426E-002  -1.0198763066624428E-002   2.7058682687322921E-002
   3.2865801008378104E-002  -9.4491440989011577E-003   2.6676030883791280E-002
   3.0450285214557768E-002  -8.7259618793875879E-003   2.6408692796216243E-002
   2.8034769420737460E-002  -8.0292164080841832E-003   2.6256668424599061E-002
   3.4285625962441335E-002  -9.9055863793973131E-003   3.3023051166346074E-002
   3.1994341251982500E-002  -9.1750050651471238E-003   3.2551297192616624E-002
   2.9703056541523540E-002  -8.4620083445243188E-003   3.2212691669652821E-002
   2.7411771831064684E-002  -7.7665962175290232E-003   3.2007234597454665E-002
   2.5120487120605689E-002  -7.0887686841609732E-003   3.1934925976022155E-002
   3.0913724178137911E-002  -8.8363539762364440E-003   3.8439553646905489E-002
   2.8764505285848951E-002  -8.1512470636696255E-003   3.8002863373518159E-002
   2.6615286393559943E-002  -7.4748725901477159E-003   3.7717156285705225E-002
   2.4466067501270946E-002  -6.8072305556701289E-003   3.7582432383466431E-002
   2.2316848608981976E-002  -6.1483209602372080E-003   3.7598691666801687E-002
   2.7581127243108374E-002  -7.7671215730754362E-003   4.3806155648490018E-002
   2.5591808903797805E-002  -7.1274890621924464E-003   4.3413381230027678E-002
   2.3602490564487301E-002  -6.4877368357710505E-003   4.3189424731948270E-002
   2.1613172225176808E-002  -5.8478648938113994E-003   4.3134286154251564E-002
   1.9623853885866280E-002  -5.2078732363133873E-003   4.3247965496937477E-002
   2.4287835157352777E-002  -6.6978891699146503E-003   4.9122857171099543E-002
   2.2476252105829181E-002  -6.1037310607147677E-003   4.8782850762145002E-002
   2.0664669054305640E-002  -5.5006010813942463E-003   4.8629497008381872E-002
   1.8853086002782071E-002  -4.8884992319526629E-003   4.8662795909810069E-002
   1.7041502951258558E-002  -4.2674255123901217E-003   4.8882747466429288E-002
   2.8034769420737460E-002  -8.0292164080841832E-003   2.6256668424599061E-002
   2.5696452225279609E-002  -7.3156198785787052E-003   2.5667489245082997E-002
   2.3358135029821758E-002  -6.5418844844576385E-003   2.5027245812355381E-002
   2.1019817834363907E-002  -5.7080102257220516E-003   2.4335938126416129E-002
   1.8681500638906057E-002  -4.8139971023711814E-003   2.3593566187265269E-002
   2.5120487120605689E-002  -7.0887686841609732E-003   3.1934925976022155E-002
   2.2769001461973498E-002  -6.4119381631063677E-003   3.1532151091858585E-002
   2.0417515803341377E-002  -5.7195170730526268E-003   3.1154103534558386E-002
   1.8066030144709165E-002  -5.0115054139991122E-003   3.0800783304120824E-002
   1.5714544486077009E-002  -4.2879031859458516E-003   3.0472190400545995E-002
   2.2316848608981976E-002  -6.1483209602372080E-003   3.7598691666801687E-002
   2.0027986067250023E-002  -5.5082564476343354E-003   3.7337772782375434E-002
   1.7739123525518014E-002  -4.8971496616471433E-003   3.7177372804886727E-002
   1.5450260983786060E-002  -4.3150006022759438E-003   3.7117491734335400E-002
   1.3161398442054051E-002  -3.7618092695204663E-003   3.7158129570721732E-002
   1.9623853885866280E-002  -5.2078732363133873E-003   4.3247965496937477E-002
   1.7473406041108995E-002  -4.6045747321620395E-003   4.3084354316632961E-002
   1.5322958196351801E-002  -4.0747822502419512E-003   4.3097053623340591E-002
   1.3172510351594547E-002  -3.6184957905528899E-003   4.3286063417060316E-002
   1.1022062506837321E-002  -3.2357153530949423E-003   4.3651383697791868E-002
   1.7041502951258558E-002  -4.2674255123901217E-003   4.8882747466429288E-002
   1.5105261383550589E-002  -3.7008930166900211E-003   4.8771895694631362E-002
   1.3169019815842647E-002  -3.2524148388365925E-003   4.8913145989919748E-002
   1.1232778248134664E-002  -2.9219909788297665E-003   4.9306498352294947E-002
   9.2965366804267369E-003  -2.7096214366697513E-003   4.9951952781756570E-002
   1.8681500638906057E-002  -4.8139971023711814E-003   2.3593566187265269E-002
   1.5657027181260552E-002  -4.0801323221895669E-003   2.4386526647449780E-002
   1.2632553723615075E-002  -3.7267030929615252E-003   2.5651760224615405E-002
   9.6080802659695985E-003  -3.7537094146865013E-003   2.7389266918762700E-002
   6.5836068083240940E-003  -4.1611512873652723E-003   2.9599046729890888E-002
   1.5714544486077009E-002  -4.2879031859458516E-003   3.0472190400545995E-002
   1.3144344319877238E-002  -3.7749453173785419E-003   3.1252303724539021E-002
   1.0574144153677564E-002  -3.6988667367829353E-003   3.2468690514441706E-002
   8.0039439874778628E-003  -4.0596674441582964E-003   3.4121350770254952E-002
   5.4337438212781197E-003  -4.8573474395059435E-003   3.6210284491978384E-002
   1.3161398442054051E-002  -3.7618092695204663E-003   3.7158129570721732E-002
   1.1009471916229072E-002  -3.4697583125676001E-003   3.7868952021504310E-002
   8.8575453904041548E-003  -3.6710303806044564E-003   3.8980048287126284E-002
   6.7056188645791825E-003  -4.3656254736305355E-003   4.0491418367587434E-002
   4.5536923387542588E-003  -5.5535435916465592E-003   4.2403062262887897E-002
   1.1022062506837321E-002  -3.2357153530949423E-003   4.3651383697791868E-002
   9.2524099703160910E-003  -3.1645713077567278E-003   4.4236471538346520E-002
   7.4827574337948330E-003  -3.6431940244259220E-003   4.5185833542669682E-002
   5.7131048972736062E-003  -4.6715835031027747E-003   4.6499469710760702E-002
   3.9434523607523482E-003  -6.2497397437872027E-003   4.8177380042620142E-002
   9.2965366804267369E-003  -2.7096214366697513E-003   4.9951952781756570E-002
   7.8731584821382095E-003  -2.8593843029456889E-003   5.0354862275065027E-002
   6.4497802838496543E-003  -3.6153576682474153E-003   5.1086046281071051E-002
   5.0264020855610853E-003  -4.9775415325745767E-003   5.2145504799774284E-002
   3.6030238872725717E-003  -6.9459358959279571E-003   5.3533237831174252E-002
   6.5836068083240940E-003  -4.1611512873652723E-003   2.9599046729890888E-002
   6.0558316016982028E-003  -6.1435004677224958E-003   3.4075362037514378E-002
   5.5280563950723394E-003  -1.0895228712484856E-002   3.9237326446314780E-002
   5.0002811884464204E-003  -1.8416336021651776E-002   4.5084939956292064E-002
   4.4725059818205848E-003  -2.8706822395222709E-002   5.1618202567447202E-002
   5.4337438212781197E-003  -4.8573474395059435E-003   3.6210284491978384E-002
   5.4876740570938831E-003  -6.9915598494303954E-003   3.8349685342594808E-002
   5.5416042929096049E-003  -1.1361957800537476E-002   4.0966847976917686E-002
   5.5955345287253405E-003  -1.7968541292827649E-002   4.4061772394947046E-002
   5.6494647645412011E-003  -2.6811310326300131E-002   4.7634458596682139E-002
   4.5536923387542588E-003  -5.5535435916465592E-003   4.2403062262887897E-002
   4.9814406995408594E-003  -7.8396192311377955E-003   4.2738742179719402E-002
   5.4091890603275780E-003  -1.1828686888590081E-002   4.3344296562786114E-002
   5.8369374211142688E-003  -1.7520746564003351E-002   4.4219725412088427E-002
   6.2646857819008417E-003  -2.4915798257377553E-002   4.5365028727626711E-002
   3.9434523607523482E-003  -6.2497397437872027E-003   4.8177380042620142E-002
   4.5371315290391977E-003  -8.6876786128452232E-003   4.7242532548887849E-002
   5.1308106973260784E-003  -1.2295415976642694E-002   4.6369672203920742E-002
   5.7244898656129556E-003  -1.7072951835178804E-002   4.5558799007718753E-002
   6.3181690338998606E-003  -2.3020286188454864E-002   4.4809912960280557E-002
   3.6030238872725717E-003  -6.9459358959279571E-003   5.3533237831174252E-002
   4.1547465455888943E-003  -9.5357379945529841E-003   5.1861056450100973E-002
   4.7064692039052169E-003  -1.2762145064695224E-002   5.0042974900320891E-002
   5.2581918622214979E-003  -1.6625157106354906E-002   4.8078993181835533E-002
   5.8099145205378067E-003  -2.1124774119532397E-002   4.5969111294644094E-002
   5.1766518571327858E-002  -1.4884925333498611E-002   5.0684080219358218E-002
   4.9596435185268822E-002  -1.4534641284232930E-002   5.0256474349847480E-002
   4.7426351799209759E-002  -1.4136220239447023E-002   5.0032552737606373E-002
   4.5256268413150683E-002  -1.3689662199140799E-002   5.0012315382634648E-002
   4.3086185027091634E-002  -1.3194967163314253E-002   5.0195762284932444E-002
   4.5407733432271946E-002  -1.2997202505201644E-002   5.3433260743445288E-002
   4.3455266739215362E-002  -1.2694276900802437E-002   5.3011321946589668E-002
   4.1502800046158764E-002  -1.2349042599012233E-002   5.2820932278469318E-002
   3.9550333353102186E-002  -1.1961499599831303E-002   5.2862091739084419E-002
   3.7597866660045567E-002  -1.1531647903259529E-002   5.3134800328435067E-002
   3.8995460083682376E-002  -1.1109479676904788E-002   5.6137996971730969E-002
   3.7288474955094235E-002  -1.0853912517371805E-002   5.5715896949400406E-002
   3.5581489826506121E-002  -1.0561864958577513E-002   5.5553210927271529E-002
   3.3874504697918008E-002  -1.0233337000521810E-002   5.5649938905344108E-002
   3.2167519569329880E-002  -9.8683286432048600E-003   5.6006080883618137E-002
   3.2529698525559050E-002  -9.2217568486078483E-003   5.8798288904214659E-002
   3.1096059832905421E-002  -9.0135481339412155E-003   5.8370199358280285E-002
   2.9662421140251780E-002  -8.7746873181427307E-003   5.8229388684013395E-002
   2.8228782447598175E-002  -8.5051744012123436E-003   5.8375856881413876E-002
   2.6795143754944548E-002  -8.2050093831501358E-003   5.8809603950481883E-002
   2.6010448757902066E-002  -7.3340340203109644E-003   6.1414136540897002E-002
   2.4878021372648967E-002  -7.1731837505106533E-003   6.0974229173229033E-002
   2.3745593987395827E-002  -6.9875096777080314E-003   6.0849465548694526E-002
   2.2613166602142694E-002  -6.7770118019028422E-003   6.1039845667293535E-002
   2.1480739216889574E-002  -6.5416901230954116E-003   6.1545369529026006E-002
   4.3086185027091634E-002  -1.3194967163314253E-002   5.0195762284932444E-002
   4.1813560243577033E-002  -1.2678211820055602E-002   4.9821543504501492E-002
   4.0540935460062391E-002  -1.2165472857452869E-002   4.9622348620165790E-002
   3.9268310676547763E-002  -1.1656750275505813E-002   4.9598177631924964E-002
   3.7995685893033149E-002  -1.1152044074214884E-002   4.9749030539779193E-002
   3.7597866660045567E-002  -1.1531647903259529E-002   5.3134800328435067E-002
   3.6496987029226394E-002  -1.1081657922118487E-002   5.2812249826480945E-002
   3.5396107398407227E-002  -1.0633700069229639E-002   5.2658165733822718E-002
   3.4295227767588074E-002  -1.0187774344592821E-002   5.2672548050460379E-002
   3.3194348136768886E-002  -9.7438807482082002E-003   5.2855396776393726E-002
   3.2167519569329880E-002  -9.8683286432048600E-003   5.6006080883618137E-002
   3.1231827604406934E-002  -9.4851040241814150E-003   5.5737182912544488E-002
   3.0296135639484030E-002  -9.1019272810063528E-003   5.5630193863967572E-002
   2.9360443674561084E-002  -8.7187984136797743E-003   5.5685113737887322E-002
   2.8424751709638159E-002  -8.3357174222015717E-003   5.5901942534303722E-002
   2.6795143754944548E-002  -8.2050093831501358E-003   5.8809603950481883E-002
   2.6018081969118673E-002  -7.8885501262443217E-003   5.8596342762692405E-002
   2.5241020183292814E-002  -7.5701544927830947E-003   5.8538433010600438E-002
   2.4463958397466963E-002  -7.2498224827667549E-003   5.8635874694205940E-002
   2.3686896611641084E-002  -6.9275540961949711E-003   5.8888667813509023E-002
   2.1480739216889574E-002  -6.5416901230954116E-003   6.1545369529026006E-002
   2.0855750123361577E-002  -6.2919962283072284E-003   6.1389729376924496E-002
   2.0230761029833594E-002  -6.0383817045598503E-003   6.1382883173721398E-002
   1.9605771936305597E-002  -5.7808465518537112E-003   6.1524830919416448E-002
   1.8980782842777599E-002  -5.5193907701883149E-003   6.1815572614009939E-002
   3.7995685893033149E-002  -1.1152044074214884E-002   4.9749030539779193E-002
   3.6173999764128550E-002  -1.0641264110431647E-002   4.9351759087160052E-002
   3.4352313635223966E-002  -1.0114320241008196E-002   4.9170133348229533E-002
   3.2530627506319389E-002  -9.5712124659446604E-003   4.9204153322988359E-002
   3.0708941377414783E-002  -9.0119407852405908E-003   4.9453819011436306E-002
   3.3194348136768886E-002  -9.7438807482082002E-003   5.2855396776393726E-002
   3.1588820557989172E-002  -9.2935371716315052E-003   5.2505927486481752E-002
   2.9983292979209458E-002  -8.8282615064188275E-003   5.2373129583130534E-002
   2.8377765400429751E-002  -8.3480537525700074E-003   5.2457003066339936E-002
   2.6772237821650058E-002  -7.8529139100850243E-003   5.2757547936110094E-002
   2.8424751709638159E-002  -8.3357174222015717E-003   5.5901942534303722E-002
   2.7036408353854902E-002  -7.9458102328316405E-003   5.5599043590095182E-002
   2.5648064998071599E-002  -7.5422027718296397E-003   5.5513841705318923E-002
   2.4259721642288311E-002  -7.1248950391958020E-003   5.5646336879974730E-002
   2.2871378286505040E-002  -6.6938870349297352E-003   5.5996529114062776E-002
   2.3686896611641084E-002  -6.9275540961949711E-003   5.8888667813509023E-002
   2.2516763151725731E-002  -6.5980832940315259E-003   5.8631107397999836E-002
   2.1346629691810358E-002  -6.2561440372403895E-003   5.8592269714794282E-002
   2.0176496231894984E-002  -5.9017363258213728E-003   5.8772154763892442E-002
   1.9006362771979632E-002  -5.5348601597744185E-003   5.9170762545294381E-002
   1.8980782842777599E-002  -5.5193907701883149E-003   6.1815572614009939E-002
   1.8029884951601682E-002  -5.2503563552315780E-003   6.1602118910195847E-002
   1.7078987060425765E-002  -4.9700853026510561E-003   6.1608413611556945E-002
   1.6128089169249835E-002  -4.6785776124470477E-003   6.1834456718093372E-002
   1.5177191278073904E-002  -4.3758332846189352E-003   6.2280248229804769E-002
   3.0708941377414783E-002  -9.0119407852405908E-003   4.9453819011436306E-002
   2.9103664822399261E-002  -8.4417973341397445E-003   4.9115708836993510E-002
   2.7498388267383767E-002  -7.8660742478849910E-003   4.8947845138790025E-002
   2.5893111712368244E-002  -7.2847715264765800E-003   4.8950227916825240E-002
   2.4287835157352777E-002  -6.6978891699146503E-003   4.9122857171099543E-002
   2.6772237821650058E-002  -7.8529139100850243E-003   5.2757547936110094E-002
   2.5342115831354720E-002  -7.3474310562401390E-003   5.2465856655387055E-002
   2.3911993841059381E-002  -6.8361942683116961E-003   5.2354228027865352E-002
   2.2481871850764043E-002  -6.3192035462994942E-003   5.2422662053544955E-002
   2.1051749860468705E-002  -5.7964588902031933E-003   5.2671158732425727E-002
   2.2871378286505040E-002  -6.6938870349297352E-003   5.5996529114062776E-002
   2.1626227037892264E-002  -6.2530647783409776E-003   5.5751431025989118E-002
   2.0381075789279494E-002  -5.8063142887384012E-003   5.5696211768079415E-002
   1.9135924540666725E-002  -5.3536355661221308E-003   5.5830871340333502E-002
   1.7890773292053949E-002  -4.8950286104921248E-003   5.6155409742751322E-002
   1.9006362771979632E-002  -5.5348601597744185E-003   5.9170762545294381E-002
   1.7955998442011831E-002  -5.1586985004415387E-003   5.8972431948800426E-002
   1.6905634112044026E-002  -4.7764343091651063E-003   5.8973796359432659E-002
   1.5855269782076215E-002  -4.3880675859447951E-003   5.9174855777191067E-002
   1.4804905452108417E-002  -3.9935983307809175E-003   5.9575610202075670E-002
   1.5177191278073904E-002  -4.3758332846189352E-003   6.2280248229804769E-002
   1.4331430043713483E-002  -4.0643322225422107E-003   6.2128859423820515E-002
   1.3485668809353049E-002  -3.7465543295918530E-003   6.2186981801924807E-002
   1.2639907574992608E-002  -3.4224996057675809E-003   6.2454615364117741E-002
   1.1794146340632167E-002  -3.0921680510697103E-003   6.2931760110399027E-002
   2.4287835157352777E-002  -6.6978891699146503E-003   4.9122857171099543E-002
   2.2476252105829181E-002  -6.1037310607147677E-003   4.8782850762145002E-002
   2.0664669054305640E-002  -5.5006010813942463E-003   4.8629497008381872E-002
   1.8853086002782071E-002  -4.8884992319526629E-003   4.8662795909810069E-002
   1.7041502951258558E-002  -4.2674255123901217E-003   4.8882747466429288E-002
   2.1051749860468705E-002  -5.7964588902031933E-003   5.2671158732425727E-002
   1.9432275786861117E-002  -5.2695865730804092E-003   5.2417454003711172E-002
   1.7812801713253487E-002  -4.7402128679877309E-003   5.2361314575636697E-002
   1.6193327639645885E-002  -4.2083377749246240E-003   5.2502740448202981E-002
   1.4573853566038270E-002  -3.6739612938917476E-003   5.2841731621410315E-002
   1.7890773292053949E-002  -4.8950286104921248E-003   5.6155409742751322E-002
   1.6474320841811697E-002  -4.4354420854458565E-003   5.5981536212124899E-002
   1.5057868391569439E-002  -3.9798246545805632E-003   5.6016140627588543E-002
   1.3641415941327173E-002  -3.5281763178963664E-003   5.6259222989142078E-002
   1.2224963491084928E-002  -3.0804970753934291E-003   5.6710783296786055E-002
   1.4804905452108417E-002  -3.9935983307809175E-003   5.9575610202075670E-002
   1.3602387270680959E-002  -3.6012975978113454E-003   5.9475097387386648E-002
   1.2399869089253477E-002  -3.2194364411735552E-003   5.9593975164237090E-002
   1.1197350907826004E-002  -2.8480148608681626E-003   5.9932243532626800E-002
   9.9948327263985337E-003  -2.4870328568950828E-003   6.0489902492556147E-002
   1.1794146340632167E-002  -3.0921680510697103E-003   6.2931760110399027E-002
   1.0816475073468890E-002  -2.7671531101767233E-003   6.2898137529496134E-002
   9.8388038063056127E-003  -2.4590482277667969E-003   6.3094818185582213E-002
   8.8611325391423218E-003  -2.1678534038399935E-003   6.3521802078657152E-002
   7.8834612719790587E-003  -1.8935686383968475E-003   6.4179089208720952E-002
   1.7041502951258558E-002  -4.2674255123901217E-003   4.8882747466429288E-002
   1.5105261383550589E-002  -3.7008930166900211E-003   4.8771895694631362E-002
   1.3169019815842647E-002  -3.2524148388365925E-003   4.8913145989919748E-002
   1.1232778248134664E-002  -2.9219909788297665E-003   4.9306498352294947E-002
   9.2965366804267369E-003  -2.7096214366697513E-003   4.9951952781756570E-002
   1.4573853566038270E-002  -3.6739612938917476E-003   5.2841731621410315E-002
   1.2889535953755790E-002  -3.1963736412815025E-003   5.2732394366887259E-002
   1.1205218341473352E-002  -2.8348650334869552E-003   5.2874802956128314E-002
   9.5209007291908801E-003  -2.5894354705076061E-003   5.3268957389133745E-002
   7.8365831169084355E-003  -2.4600849523442880E-003   5.3914857665903704E-002
   1.2224963491084928E-002  -3.0804970753934291E-003   5.6710783296786055E-002
   1.0792213610905807E-002  -2.6918542658730671E-003   5.6604935832568593E-002
   9.3594637307266859E-003  -2.4173152281372345E-003   5.6750477988793513E-002
   7.9267138505475752E-003  -2.2568799621857857E-003   5.7147409765460733E-002
   6.4939639703684715E-003  -2.2105484680188248E-003   5.7795731162570169E-002
   9.9948327263985337E-003  -2.4870328568950828E-003   6.0489902492556147E-002
   8.8132943550006046E-003  -2.1873348904647011E-003   6.0389520091675863E-002
   7.6317559836026824E-003  -1.9997654227875555E-003   6.0540171087915533E-002
   6.4502176122047629E-003  -1.9243244538637953E-003   6.0941855481275384E-002
   5.2686792408068311E-003  -1.9610119836934725E-003   6.1594573271755500E-002
   7.8834612719790587E-003  -1.8935686383968475E-003   6.4179089208720952E-002
   6.9527781860401761E-003  -1.6828155150561686E-003   6.4086147144208683E-002
   6.0220951001013073E-003  -1.5822156174376545E-003   6.4243882253494200E-002
   5.0914120141624317E-003  -1.5917689455416384E-003   6.4652294536577948E-002
   4.1607289282235560E-003  -1.7114754993680092E-003   6.5311383993459482E-002
   9.2965366804267369E-003  -2.7096214366697513E-003   4.9951952781756570E-002
   7.8731584821382095E-003  -2.8593843029456889E-003   5.0354862275065027E-002
   6.4497802838496543E-003  -3.6153576682474153E-003   5.1086046281071051E-002
   5.0264020855610853E-003  -4.9775415325745767E-003   5.2145504799774284E-002
   3.6030238872725717E-003  -6.9459358959279571E-003   5.3533237831174252E-002
   7.8365831169084355E-003  -2.4600849523442880E-003   5.3914857665903704E-002
   6.7151821757052282E-003  -2.6452321628960274E-003   5.3849240864758618E-002
   5.5937812345020627E-003  -3.3432957860622114E-003   5.4059304065087271E-002
   4.4723802932988901E-003  -4.5542758218434856E-003   5.4545047266889315E-002
   3.3509793520956899E-003  -6.2781722702401899E-003   5.5306470470165014E-002
   6.4939639703684715E-003  -2.2105484680188248E-003   5.7795731162570169E-002
   5.6219457750270319E-003  -2.4310800228461160E-003   5.7354882153382164E-002
   4.7499275796856061E-003  -3.0712339038774378E-003   5.7137118634444164E-002
   3.8779093843441838E-003  -4.1310101111127241E-003   5.7142440605756080E-002
   3.0058911890027407E-003  -5.6104086445521451E-003   5.7370848067317931E-002
   5.2686792408068311E-003  -1.9610119836934725E-003   6.1594573271755500E-002
   4.5934492801035648E-003  -2.2169278827962186E-003   6.0871786140935240E-002
   3.9182193194002846E-003  -2.7991720216924490E-003   6.0319489989141564E-002
   3.2429893586970173E-003  -3.7077444003815758E-003   5.9937684816374293E-002
   2.5677593979937380E-003  -4.9426450188641280E-003   5.9726370622633120E-002
   4.1607289282235560E-003  -1.7114754993680092E-003   6.5311383993459482E-002
   3.6296926909348409E-003  -2.0027757427465986E-003   6.4399952827418061E-002
   3.0986564536460981E-003  -2.5271101395072659E-003   6.3606418129179665E-002
   2.5676202163573553E-003  -3.2844786896506564E-003   6.2930779898743822E-002
   2.0365839790686402E-003  -4.2748813931763330E-003   6.2373038136110504E-002
   3.6030238872725717E-003  -6.9459358959279571E-003   5.3533237831174252E-002
   4.1547465455888943E-003  -9.5357379945529841E-003   5.1861056450100973E-002
   4.7064692039052169E-003  -1.2762145064695224E-002   5.0042974900320891E-002
   5.2581918622214979E-003  -1.6625157106354906E-002   4.8078993181835533E-002
   5.8099145205378067E-003  -2.1124774119532397E-002   4.5969111294644094E-002
   3.3509793520956899E-003  -6.2781722702401899E-003   5.5306470470165014E-002
   3.7744190076201833E-003  -8.5463158080659185E-003   5.2952771258208242E-002
   4.1978586631446491E-003  -1.1390037112136542E-002   5.0488406209373615E-002
   4.6212983186691842E-003  -1.4809336182451685E-002   4.7913375323660773E-002
   5.0447379741936360E-003  -1.8804213019011140E-002   4.5227678601070798E-002
   3.0058911890027407E-003  -5.6104086445521451E-003   5.7370848067317931E-002
   3.3362821735635068E-003  -7.5568936215792415E-003   5.4396658229751066E-002
   3.6666731581242590E-003  -1.0017929159578068E-002   5.1347036887134365E-002
   3.9970641426850008E-003  -1.2993515258548295E-002   4.8221984039468070E-002
   4.3274551272457495E-003  -1.6483651918490105E-002   4.5021499686752176E-002
   2.5677593979937380E-003  -4.9426450188641280E-003   5.9726370622633120E-002
   2.8403360434188334E-003  -6.5674714350927033E-003   5.6192717364729000E-002
   3.1129126888438871E-003  -8.6458212070193788E-003   5.2618866933603403E-002
   3.3854893342689730E-003  -1.1177694334644989E-002   4.9004819329256037E-002
   3.6580659796940362E-003  -1.4163090817968960E-002   4.5350574551687284E-002
   2.0365839790686402E-003  -4.2748813931763330E-003   6.2373038136110504E-002
   2.2865806171861597E-003  -5.5780492486059430E-003   5.8340948663142655E-002
   2.5365772553036375E-003  -7.2737132544610228E-003   5.4303896348781078E-002
   2.7865738934211709E-003  -9.3618734107417112E-003   5.0261881193025937E-002
   3.0365705315386626E-003  -1.1842529717447814E-002   4.6214903195877177E-002
   2.6010448757902066E-002  -7.3340340203109644E-003   6.1414136540897002E-002
   2.4878021372648967E-002  -7.1731837505106533E-003   6.0974229173229033E-002
   2.3745593987395827E-002  -6.9875096777080314E-003   6.0849465548694526E-002
   2.2613166602142694E-002  -6.7770118019028422E-003   6.1039845667293535E-002
   2.1480739216889574E-002  -6.5416901230954116E-003   6.1545369529026006E-002
   1.9475300306353333E-002  -5.5005255135496256E-003   6.2792580896779804E-002
   1.8650007439998034E-002  -5.3798878122461036E-003   6.2388075974423335E-002
   1.7824714573642708E-002  -5.2406322583505860E-003   6.2282696346729199E-002
   1.6999421707287403E-002  -5.0827588518631145E-003   6.2476442013697106E-002
   1.6174128840932084E-002  -4.9062675927837307E-003   6.2969312975327096E-002
   1.2961842696554836E-002  -3.6670170067883701E-003   6.4133915659370905E-002
   1.2427665900625925E-002  -3.5865918739815400E-003   6.3758607231915954E-002
   1.1893489104697012E-002  -3.4937548389932377E-003   6.3666405650651473E-002
   1.1359312308768096E-002  -3.3885059018233903E-003   6.3857310915577808E-002
   1.0825135512839180E-002  -3.2708450624720775E-003   6.4331323026694823E-002
   6.4700759285065707E-003  -1.8335085000270868E-003   6.5438140828670693E-002
   6.2109967545326463E-003  -1.7932959357169556E-003   6.5085822945706515E-002
   5.9519175805587210E-003  -1.7468774196358131E-003   6.5000593460461373E-002
   5.6928384065847958E-003  -1.6942529517836365E-003   6.5182452372935656E-002
   5.4337592326108713E-003  -1.6354225321604104E-003   6.5631399683129227E-002
   2.2085180906294966E-012   6.7342242893175808E-012   6.6705256404678948E-002
   1.7181811529098923E-012   2.5476010190317311E-012   6.6369723115795032E-002
   1.2278407457433360E-012  -2.7847169015160489E-013   6.6285259776158900E-002
   7.3749513440635184E-013  -1.7438619992482529E-012   6.6451866385770719E-002
   2.4715646196327157E-013  -1.8487433806058107E-012   6.6869542944630378E-002
   2.1480739216889574E-002  -6.5416901230954116E-003   6.1545369529026006E-002
   2.0855750123361577E-002  -6.2919962283072284E-003   6.1389729376924496E-002
   2.0230761029833594E-002  -6.0383817045598503E-003   6.1382883173721398E-002
   1.9605771936305597E-002  -5.7808465518537112E-003   6.1524830919416448E-002
   1.8980782842777599E-002  -5.5193907701883149E-003   6.1815572614009939E-002
   1.6174128840932084E-002  -4.9062675927837307E-003   6.2969312975327096E-002
   1.5699797027410367E-002  -4.7189971715579093E-003   6.2776583752528176E-002
   1.5225465213888643E-002  -4.5287862786312222E-003   6.2736375140843570E-002
   1.4751133400366930E-002  -4.3356349140038046E-003   6.2848687140273210E-002
   1.4276801586845203E-002  -4.1395430776753894E-003   6.3113519750817026E-002
   1.0825135512839180E-002  -3.2708450624720775E-003   6.4331323026694823E-002
   1.0505187641539744E-002  -3.1459981148087013E-003   6.4100524575940246E-002
   1.0185239770240301E-002  -3.0191908527025316E-003   6.4025973398516040E-002
   9.8652918989408610E-003  -2.8904232761538962E-003   6.4107669494421926E-002
   9.5453440276414211E-003  -2.7596953851624362E-003   6.4345612863658280E-002
   5.4337592326108713E-003  -1.6354225321604104E-003   6.5631399683129227E-002
   5.2719219657497100E-003  -1.5729990580593822E-003   6.5361551847160929E-002
   5.1100846988885451E-003  -1.5095954267738999E-003   6.5251677946738765E-002
   4.9482474320273750E-003  -1.4452116383039610E-003   6.5301777981862930E-002
   4.7864101651662171E-003  -1.3798476926494413E-003   6.5511851952533506E-002
   2.4715646196327157E-013  -1.8487433806058107E-012   6.6869542944630378E-002
   4.0273340218277554E-014  -1.3101186802089160E-012   6.6559665566189974E-002
  -1.6661672042062037E-013  -8.4521278864713167E-013   6.6413488785511898E-002
  -3.7350244425082835E-013  -4.5413672822292028E-013   6.6431012602596096E-002
  -5.8038990280451230E-013  -1.3655743202889425E-013   6.6612237017442510E-002
   1.8980782842777599E-002  -5.5193907701883149E-003   6.1815572614009939E-002
   1.8029884951601682E-002  -5.2503563552315780E-003   6.1602118910195847E-002
   1.7078987060425765E-002  -4.9700853026510561E-003   6.1608413611556945E-002
   1.6128089169249835E-002  -4.6785776124470477E-003   6.1834456718093372E-002
   1.5177191278073904E-002  -4.3758332846189352E-003   6.2280248229804769E-002
   1.4276801586845203E-002  -4.1395430776753894E-003   6.3113519750817026E-002
   1.3550146117747831E-002  -3.9377672663977181E-003   6.2886915818545663E-002
   1.2823490648650453E-002  -3.7275639769228375E-003   6.2889048325255964E-002
   1.2096835179553077E-002  -3.5089332092503242E-003   6.3119917270948220E-002
   1.1370179710455702E-002  -3.2818749633803934E-003   6.3579522655622389E-002
   9.5453440276414211E-003  -2.7596953851624362E-003   6.4345612863658280E-002
   9.0519190144292723E-003  -2.6251781775640526E-003   6.4103049543503071E-002
   8.5584940012171165E-003  -2.4850426511944662E-003   6.4098210696136346E-002
   8.0650689880049677E-003  -2.3392888060537707E-003   6.4331096321558257E-002
   7.5716439747928119E-003  -2.1879166421418239E-003   6.4801706419768748E-002
   4.7864101651662171E-003  -1.3798476926494413E-003   6.5511851952533506E-002
   4.5352036416459879E-003  -1.3125890887303732E-003   6.5250520085068292E-002
   4.2839971181257500E-003  -1.2425213254661713E-003   6.5235900724198256E-002
   4.0327905946055146E-003  -1.1696444028572988E-003   6.5467993869923594E-002
   3.7815840710852828E-003  -1.0939583209031573E-003   6.5946799522244179E-002
  -5.8038990280451230E-013  -1.3655743202889425E-013   6.6612237017442510E-002
  -6.0202190454994309E-013   1.0347278589506459E-013   6.6329327443240937E-002
  -6.2365043684842192E-013   2.6212365611399946E-013   6.6302118409441446E-002
  -6.4528243859385270E-013   3.3939517862791035E-013   6.6530609916043870E-002
  -6.6691097089233153E-013   3.3528735343679728E-013   6.7014801963048209E-002
   1.5177191278073904E-002  -4.3758332846189352E-003   6.2280248229804769E-002
   1.4331430043713483E-002  -4.0643322225422107E-003   6.2128859423820515E-002
   1.3485668809353049E-002  -3.7465543295918530E-003   6.2186981801924807E-002
   1.2639907574992608E-002  -3.4224996057675809E-003   6.2454615364117741E-002
   1.1794146340632167E-002  -3.0921680510697103E-003   6.2931760110399027E-002
   1.1370179710455702E-002  -3.2818749633803934E-003   6.3579522655622389E-002
   1.0734411941313887E-002  -3.0482491668339107E-003   6.3442584189737999E-002
   1.0098644172172100E-002  -2.8099157471319913E-003   6.3516121470202497E-002
   9.4628764030302917E-003  -2.5668747042746978E-003   6.3800134497015604E-002
   8.8271086338884974E-003  -2.3191260382620094E-003   6.4294623270177431E-002
   7.5716439747928119E-003  -2.1879166421418239E-003   6.4801706419768748E-002
   7.1468342331297841E-003  -2.0321661111256661E-003   6.4677649086266137E-002
   6.7220244914667493E-003  -1.8732771646723587E-003   6.4765032061372407E-002
   6.2972147498037302E-003  -1.7112498027818720E-003   6.5063855345087462E-002
   5.8724050081406867E-003  -1.5460840254543640E-003   6.5574118937411413E-002
   3.7815840710852828E-003  -1.0939583209031573E-003   6.5946799522244179E-002
   3.5686969191611583E-003  -1.0160830554174494E-003   6.5834054113404955E-002
   3.3558097672370234E-003  -9.3663858221266702E-004   6.5933713575434635E-002
   3.1429226153128925E-003  -8.5562490128918405E-004   6.6245777908333220E-002
   2.9300354633887641E-003  -7.7304201264674632E-004   6.6770247112101055E-002
  -6.6691097089233153E-013   3.3528735343679728E-013   6.7014801963048209E-002
  -5.9201255009355691E-013   2.9071189899809724E-013   6.6911799271154093E-002
  -5.1710025150697447E-013   2.4713564528155985E-013   6.7022166012389139E-002
  -4.4219662653777192E-013   2.0378143616994748E-013   6.7345902186753237E-002
  -3.6728953212161741E-013   1.6098233857064770E-013   6.7883007794246497E-002
   1.1794146340632167E-002  -3.0921680510697103E-003   6.2931760110399027E-002
   1.0816475073468890E-002  -2.7671531101767233E-003   6.2898137529496134E-002
   9.8388038063056127E-003  -2.4590482277667969E-003   6.3094818185582213E-002
   8.8611325391423218E-003  -2.1678534038399935E-003   6.3521802078657152E-002
   7.8834612719790587E-003  -1.8935686383968475E-003   6.4179089208720952E-002
   8.8271086338884974E-003  -2.3191260382620094E-003   6.4294623270177431E-002
   8.0832692486681665E-003  -2.0753648326014007E-003   6.4262067114052912E-002
   7.3394298634478217E-003  -1.8442861708005687E-003   6.4466871484825522E-002
   6.5955904782274838E-003  -1.6258900528595410E-003   6.4909036382494900E-002
   5.8517510930071320E-003  -1.4201764787781235E-003   6.5588561807061407E-002
   5.8724050081406867E-003  -1.5460840254543640E-003   6.5574118937411413E-002
   5.3694547947713764E-003  -1.3835765550264112E-003   6.5546856720688940E-002
   4.8665045814020660E-003  -1.2295241138345486E-003   6.5764012320771489E-002
   4.3635543680327626E-003  -1.0839267018789185E-003   6.6225585737659021E-002
   3.8606041546634454E-003  -9.4678431915956596E-004   6.6931576971351880E-002
   2.9300354633887641E-003  -7.7304201264674632E-004   6.6770247112101055E-002
   2.6750317117785610E-003  -6.9178827745119964E-004   6.6752506349403995E-002
   2.4200279601683649E-003  -6.1476205686836899E-004   6.6986240693420171E-002
   2.1650242085581679E-003  -5.4196335089821447E-004   6.7471450144149278E-002
   1.9100204569479657E-003  -4.7339215954103619E-004   6.8208134701591872E-002
  -3.6728953212161741E-013   1.6098233857064770E-013   6.7883007794246497E-002
  -3.1028651870101953E-013   1.2378986724570495E-013   6.7879016000198411E-002
  -2.5328697472737360E-013   9.7588603864551260E-014   6.8133556602771594E-002
  -1.9628743075372768E-013   8.2239770549108471E-014   6.8646629601965964E-002
  -1.3928441733312980E-013   7.7604589421298442E-014   6.9418234997781658E-002
   7.8834612719790587E-003  -1.8935686383968475E-003   6.4179089208720952E-002
   6.9527781860401761E-003  -1.6828155150561686E-003   6.4086147144208683E-002
   6.0220951001013073E-003  -1.5822156174376545E-003   6.4243882253494200E-002
   5.0914120141624317E-003  -1.5917689455416384E-003   6.4652294536577948E-002
   4.1607289282235560E-003  -1.7114754993680092E-003   6.5311383993459482E-002
   5.8517510930071320E-003  -1.4201764787781235E-003   6.5588561807061407E-002
   5.1672435802884095E-003  -1.2621116362725449E-003   6.5435297310092844E-002
   4.4827360675696870E-003  -1.1866617130576462E-003   6.5523706785766272E-002
   3.7982285548509610E-003  -1.1938267091341354E-003   6.5853790234082374E-002
   3.1137210421322420E-003  -1.2836066245021094E-003   6.6425547655040329E-002
   3.8606041546634454E-003  -9.4678431915956596E-004   6.6931576971351880E-002
   3.4132690140091966E-003  -8.4140775748844931E-004   6.6745528348357785E-002
   2.9659338733549583E-003  -7.9110780867752695E-004   6.6792150496850278E-002
   2.5185987327007147E-003  -7.9588447272674334E-004   6.7071443416829482E-002
   2.0712635920464711E-003  -8.5573774963615401E-004   6.7583407108295440E-002
   1.9100204569479657E-003  -4.7339215954103619E-004   6.8208134701591872E-002
   1.6908544872025408E-003  -4.2070387870458970E-004   6.8016840259003522E-002
   1.4716885174571115E-003  -3.9555390429724113E-004   6.8049213386745994E-002
   1.2525225477116801E-003  -3.9794223631918479E-004   6.8305254084819744E-002
   1.0333565779662574E-003  -4.2786887477028190E-004   6.8784962353224066E-002
  -1.3928441733312980E-013   7.7604589421298442E-014   6.9418234997781658E-002
  -1.3156142841808105E-013   7.9158901655773661E-014   6.9249233042030012E-002
  -1.2384537839693621E-013   8.2822637637036678E-014   6.9294895455453698E-002
  -1.1612759365231540E-013   8.8262730457699945E-014   6.9555222238052716E-002
  -1.0840633946074263E-013   9.5701224722688494E-014   7.0030213389826845E-002
   4.1607289282235560E-003  -1.7114754993680092E-003   6.5311383993459482E-002
   3.6296926909348409E-003  -2.0027757427465986E-003   6.4399952827418061E-002
   3.0986564536460981E-003  -2.5271101395072659E-003   6.3606418129179665E-002
   2.5676202163573553E-003  -3.2844786896506564E-003   6.2930779898743822E-002
   2.0365839790686402E-003  -4.2748813931763330E-003   6.2373038136110504E-002
   3.1137210421322420E-003  -1.2836066245021094E-003   6.6425547655040329E-002
   2.7042969205269413E-003  -1.5020818070339836E-003   6.5318477688676047E-002
   2.2948727989216336E-003  -1.8953326046023122E-003   6.4336735485875401E-002
   1.8854486773163433E-003  -2.4633590172071854E-003   6.3480321046639268E-002
   1.4760245557110252E-003  -3.2061610448490541E-003   6.2749234370967133E-002
   2.0712635920464711E-003  -8.5573774963615401E-004   6.7583407108295440E-002
   1.7908828818859850E-003  -1.0013878713212299E-003   6.6338956879953476E-002
   1.5105021717255161E-003  -1.2635550696972336E-003   6.5227265710936802E-002
   1.2301214615650265E-003  -1.6422393447640439E-003   6.4248333601245933E-002
   9.4974075140456110E-004  -2.1374406965217752E-003   6.3402160550880104E-002
   1.0333565779662574E-003  -4.2786887477028190E-004   6.8784962353224066E-002
   8.8945057501198157E-004  -5.0069393560848996E-004   6.7461390401250043E-002
   7.4554457205770492E-004  -6.3177753479243953E-004   6.6278008804363478E-002
   6.0163856910343521E-004  -8.2111967232062662E-004   6.5234817562563482E-002
   4.5773256614915249E-004  -1.0687203481944962E-003   6.4331816675850112E-002
  -1.0840633946074263E-013   9.5701224722688494E-014   7.0030213389826845E-002
  -9.5083663165240750E-014   1.0408340855860843E-013   6.8685778252566942E-002
  -8.1764456316690826E-014   1.1299294833122531E-013   6.7488964766155290E-002
  -6.8438310574236993E-014   1.2256168302471337E-013   6.6439772930592084E-002
  -5.5122573172639022E-014   1.3267165144270621E-013   6.5538202745876961E-002
   2.0365839790686402E-003  -4.2748813931763330E-003   6.2373038136110504E-002
   2.2865806171861597E-003  -5.5780492486059430E-003   5.8340948663142655E-002
   2.5365772553036375E-003  -7.2737132544610228E-003   5.4303896348781078E-002
   2.7865738934211709E-003  -9.3618734107417112E-003   5.0261881193025937E-002
   3.0365705315386626E-003  -1.1842529717447814E-002   4.6214903195877177E-002
   1.4760245557110252E-003  -3.2061610448490541E-003   6.2749234370967133E-002
   1.7066742729009154E-003  -4.1835369364178754E-003   5.8393602305894576E-002
   1.9373239900908126E-003  -5.4552849408036896E-003   5.4004239240360519E-002
   2.1679737072807237E-003  -7.0214050580068785E-003   4.9581145174364599E-002
   2.3986234244706139E-003  -8.8818972880273517E-003   4.5124320107907012E-002
   9.4974075140456110E-004  -2.1374406965217752E-003   6.3402160550880104E-002
   1.1322753885986449E-003  -2.7890246242296968E-003   5.8821109931311677E-002
   1.3148100257927460E-003  -3.6368566271463565E-003   5.4177560152212978E-002
   1.4973446629868332E-003  -4.6809367052720458E-003   4.9471511213584771E-002
   1.6798793001809170E-003  -5.9212648586066674E-003   4.4702963115426320E-002
   4.5773256614915249E-004  -1.0687203481944962E-003   6.4331816675850112E-002
   5.6338396427928466E-004  -1.3945123120415737E-003   5.9623471539393756E-002
   6.6903536240939514E-004  -1.8184283134890233E-003   5.4823859084339344E-002
   7.7468676053953339E-004  -2.3404683525371020E-003   4.9932979310686749E-002
   8.8033815866965168E-004  -2.9606324291860941E-003   4.4950832218436210E-002
  -5.5122573172639022E-014   1.3267165144270621E-013   6.5538202745876961E-002
  -5.7155669086483840E-014   1.4632739464559563E-013   6.0800687130140862E-002
  -5.9178356659472797E-014   1.6817103265509559E-013   5.5943136036738450E-002
  -6.1199309508985777E-014   1.9747398161129581E-013   5.0965549465669974E-002
  -6.3241079040210479E-014   2.3447910280083306E-013   4.5867927416935128E-002
   2.2085180906294966E-012   6.7342242893175808E-012   6.6705256404678948E-002
   1.7181811529098923E-012   2.5476010190317311E-012   6.6369723115795032E-002
   1.2278407457433360E-012  -2.7847169015160489E-013   6.6285259776158900E-002
   7.3749513440635184E-013  -1.7438619992482529E-012   6.6451866385770719E-002
   2.4715646196327157E-013  -1.8487433806058107E-012   6.6869542944630378E-002
  -6.4700759244182664E-003   1.8335085081698232E-003   6.5438140821691665E-002
  -6.2109967513626352E-003   1.7932959384079628E-003   6.5085822940393140E-002
  -5.9519175783070109E-003   1.7468774186757963E-003   6.5000593456938829E-002
  -5.6928384052513754E-003   1.6942529489733099E-003   6.5182452371328581E-002
  -5.4337592321957486E-003   1.6354225293004898E-003   6.5631399683562269E-002
  -1.2961842693452769E-002   3.6670170096055055E-003   6.4133915648794754E-002
  -1.2427665898254971E-002   3.5865918742683939E-003   6.3758607223750929E-002
  -1.1893489103057195E-002   3.4937548376300781E-003   6.3666405645147375E-002
  -1.1359312307859413E-002   3.3885058996905131E-003   6.3857310912983967E-002
  -1.0825135512661625E-002   3.2708450604497230E-003   6.4331323027260939E-002
  -1.9475300304894957E-002   5.5005255110411322E-003   6.2792580885987798E-002
  -1.8650007438958841E-002   5.3798878101287487E-003   6.2388075965867817E-002
  -1.7824714573022715E-002   5.2406322565843252E-003   6.2282696340784066E-002
  -1.6999421707086584E-002   5.0827588504077283E-003   6.2476442010736842E-002
  -1.6174128841150468E-002   4.9062675915989562E-003   6.2969312975725958E-002
  -2.6010448758744850E-002   7.3340340124767867E-003   6.1414136533271380E-002
  -2.4878021373474210E-002   7.1731837459891867E-003   6.0974229166744054E-002
  -2.3745593988203577E-002   6.9875096755385863E-003   6.0849465543849318E-002
  -2.2613166602932933E-002   6.7770118011249054E-003   6.1039845664587214E-002
  -2.1480739217662286E-002   6.5416901227481894E-003   6.1545369528957727E-002
   2.4715646196327157E-013  -1.8487433806058107E-012   6.6869542944630378E-002
   4.0273340218277554E-014  -1.3101186802089160E-012   6.6559665566189974E-002
  -1.6661672042062037E-013  -8.4521278864713167E-013   6.6413488785511898E-002
  -3.7350244425082835E-013  -4.5413672822292028E-013   6.6431012602596096E-002
  -5.8038990280451230E-013  -1.3655743202889425E-013   6.6612237017442510E-002
  -5.4337592321957486E-003   1.6354225293004898E-003   6.5631399683562269E-002
  -5.2719219657225451E-003   1.5729990560031798E-003   6.5361551847340646E-002
  -5.1100846992493485E-003   1.5095954254273902E-003   6.5251677946716963E-002
  -4.9482474327761424E-003   1.4452116375730656E-003   6.5301777981691067E-002
  -4.7864101663029485E-003   1.3798476924402614E-003   6.5511851952263056E-002
  -1.0825135512661625E-002   3.2708450604497230E-003   6.4331323027260939E-002
  -1.0505187641672711E-002   3.1459981133165893E-003   6.4100524576053128E-002
  -1.0185239770683811E-002   3.0191908517002153E-003   6.4025973398278840E-002
  -9.8652918996948967E-003   2.8904232756003789E-003   6.4107669493938035E-002
  -9.5453440287059915E-003   2.7596953850170802E-003   6.4345612863030893E-002
  -1.6174128841150468E-002   4.9062675915989562E-003   6.2969312975725958E-002
  -1.5699797027810238E-002   4.7189971706299433E-003   6.2776583752327197E-002
  -1.5225465214470005E-002   4.5287862779728738E-003   6.2736375140197642E-002
  -1.4751133401129778E-002   4.3356349136274147E-003   6.2848687139337167E-002
  -1.4276801587789550E-002   4.1395430775940101E-003   6.3113519749745842E-002
  -2.1480739217662286E-002   6.5416901227481894E-003   6.1545369528957727E-002
  -2.0855750124135104E-002   6.2919962279434360E-003   6.1389729376163132E-002
  -2.0230761030607940E-002   6.0383817042456711E-003   6.1382883172473368E-002
  -1.9605771937080758E-002   5.7808465516548738E-003   6.1524830917888435E-002
  -1.8980782843553590E-002   5.5193907701707179E-003   6.1815572612408110E-002
  -5.8038990280451230E-013  -1.3655743202889425E-013   6.6612237017442510E-002
  -6.0202190454994309E-013   1.0347278589506459E-013   6.6329327443240937E-002
  -6.2365043684842192E-013   2.6212365611399946E-013   6.6302118409441446E-002
  -6.4528243859385270E-013   3.3939517862791035E-013   6.6530609916043870E-002
  -6.6691097089233153E-013   3.3528735343679728E-013   6.7014801963048209E-002
  -4.7864101663029485E-003   1.3798476924402614E-003   6.5511851952263056E-002
  -4.5352036428201355E-003   1.3125890889262026E-003   6.5250520084701058E-002
  -4.2839971193373155E-003   1.2425213259286139E-003   6.5235900723745993E-002
  -4.0327905958545034E-003   1.1696444034471620E-003   6.5467993869397806E-002
  -3.7815840723716895E-003   1.0939583214820692E-003   6.5946799521656663E-002
  -9.5453440287059915E-003   2.7596953850170802E-003   6.4345612863030893E-002
  -9.0519190155137451E-003   2.6251781777492100E-003   6.4103049542705987E-002
  -8.5584940023214814E-003   2.4850426515951596E-003   6.4098210695192948E-002
  -8.0650689891292315E-003   2.3392888065550399E-003   6.4331096320491915E-002
  -7.5716439759369782E-003   2.1879166426287400E-003   6.4801706418602750E-002
  -1.4276801587789550E-002   4.1395430775940101E-003   6.3113519749745842E-002
  -1.3550146118682865E-002   3.9377672665720509E-003   6.2886915817255612E-002
  -1.2823490649576153E-002   3.7275639772615665E-003   6.2889048323782448E-002
  -1.2096835180469456E-002   3.5089332096628068E-003   6.3119917269326184E-002
  -1.1370179711362763E-002   3.2818749637754663E-003   6.3579522653886819E-002
  -1.8980782843553590E-002   5.5193907701707179E-003   6.1815572612408110E-002
  -1.8029884952327453E-002   5.2503563553949473E-003   6.1602118908350212E-002
  -1.7078987061101329E-002   4.9700853029281677E-003   6.1608413609514384E-002
  -1.6128089169875192E-002   4.6785776127707332E-003   6.1834456715900349E-002
  -1.5177191278649062E-002   4.3758332849220816E-003   6.2280248227508328E-002
  -6.6691097089233153E-013   3.3528735343679728E-013   6.7014801963048209E-002
  -5.9201255009355691E-013   2.9071189899809724E-013   6.6911799271154093E-002
  -5.1710025150697447E-013   2.4713564528155985E-013   6.7022166012389139E-002
  -4.4219662653777192E-013   2.0378143616994748E-013   6.7345902186753237E-002
  -3.6728953212161741E-013   1.6098233857064770E-013   6.7883007794246497E-002
  -3.7815840723716895E-003   1.0939583214820692E-003   6.5946799521656663E-002
  -3.5686969203038675E-003   1.0160830559160505E-003   6.5834054112907159E-002
  -3.3558097682360438E-003   9.3663858263232092E-004   6.5933713575014402E-002
  -3.1429226161682261E-003   8.5562490163047789E-004   6.6245777907978490E-002
  -2.9300354641004049E-003   7.7304201291061858E-004   6.6770247111799130E-002
  -7.5716439759369782E-003   2.1879166426287400E-003   6.4801706418602750E-002
  -7.1468342341486097E-003   2.0321661115411394E-003   6.4677649085279454E-002
  -6.7220244923602446E-003   1.8732771650173952E-003   6.4765032060540337E-002
  -6.2972147505718813E-003   1.7112498030570078E-003   6.5063855344385829E-002
  -5.8724050087835249E-003   1.5460840256602548E-003   6.5574118936815418E-002
  -1.1370179711362763E-002   3.2818749637754663E-003   6.3579522653886819E-002
  -1.0734411942126224E-002   3.0482491671664641E-003   6.3442584188270978E-002
  -1.0098644172889694E-002   2.8099157474025249E-003   6.3516121468967235E-002
  -9.4628764036531702E-003   2.5668747044836210E-003   6.3800134495975422E-002
  -8.8271086344166305E-003   2.3191260384098911E-003   6.4294623269295498E-002
  -1.5177191278649062E-002   4.3758332849220816E-003   6.2280248227508328E-002
  -1.4331430044236735E-002   4.0643322227915113E-003   6.2128859421881732E-002
  -1.3485668809824401E-002   3.7465543297876269E-003   6.2186981800294749E-002
  -1.2639907575412078E-002   3.4224996059102272E-003   6.2454615362747296E-002
  -1.1794146340999741E-002   3.0921680511595273E-003   6.2931760109239732E-002
  -3.6728953212161741E-013   1.6098233857064770E-013   6.7883007794246497E-002
  -3.1028651870101953E-013   1.2378986724570495E-013   6.7879016000198411E-002
  -2.5328697472737360E-013   9.7588603864551260E-014   6.8133556602771594E-002
  -1.9628743075372768E-013   8.2239770549108471E-014   6.8646629601965964E-002
  -1.3928441733312980E-013   7.7604589421298442E-014   6.9418234997781658E-002
  -2.9300354641004049E-003   7.7304201291061858E-004   6.6770247111799130E-002
  -2.6750317123813080E-003   6.9178827764931894E-004   6.6752506349164797E-002
  -2.4200279606622112E-003   6.1476205702273856E-004   6.6986240693233223E-002
  -2.1650242089431273E-003   5.4196335103107868E-004   6.7471450144004796E-002
  -1.9100204572240313E-003   4.7339215967434622E-004   6.8208134701479406E-002
  -5.8724050087835249E-003   1.5460840256602548E-003   6.5574118936815418E-002
  -5.3694547953206367E-003   1.3835765551746815E-003   6.5546856720218705E-002
  -4.8665045818577501E-003   1.2295241139479995E-003   6.5764012320406823E-002
  -4.3635543683948636E-003   1.0839267019801396E-003   6.6225585737379536E-002
  -3.8606041549319754E-003   9.4678431927114337E-004   6.6931576971136636E-002
  -8.8271086344166305E-003   2.3191260384098911E-003   6.4294623269295498E-002
  -8.0832692491282464E-003   2.0753648327001828E-003   6.4262067113360716E-002
  -7.3394298638398726E-003   1.8442861708732605E-003   6.4466871484292129E-002
  -6.5955904785515015E-003   1.6258900529293671E-003   6.4909036382089863E-002
  -5.8517510932631148E-003   1.4201764788681348E-003   6.5588561806754056E-002
  -1.1794146340999741E-002   3.0921680511595273E-003   6.2931760109239732E-002
  -1.0816475073804177E-002   2.7671531102255176E-003   6.2898137528590414E-002
  -9.8388038066085960E-003   2.4590482277984105E-003   6.3094818184889212E-002
  -8.8611325394130306E-003   2.1678534038779840E-003   6.3521802078136042E-002
  -7.8834612722174513E-003   1.8935686384646822E-003   6.4179089208331153E-002
  -1.3928441733312980E-013   7.7604589421298442E-014   6.9418234997781658E-002
  -1.3156142841808105E-013   7.9158901655773661E-014   6.9249233042030012E-002
  -1.2384537839693621E-013   8.2822637637036678E-014   6.9294895455453698E-002
  -1.1612759365231540E-013   8.8262730457699945E-014   6.9555222238052716E-002
  -1.0840633946074263E-013   9.5701224722688494E-014   7.0030213389826845E-002
  -1.9100204572240313E-003   4.7339215967434622E-004   6.8208134701479406E-002
  -1.6908544874630928E-003   4.2070387884984850E-004   6.8016840258898037E-002
  -1.4716885177021733E-003   3.9555390445533689E-004   6.8049213386648322E-002
  -1.2525225479412365E-003   3.9794223649072813E-004   6.8305254084729344E-002
  -1.0333565781803153E-003   4.2786887495560588E-004   6.8784962353141521E-002
  -3.8606041549319754E-003   9.4678431927114337E-004   6.6931576971136636E-002
  -3.4132690142620360E-003   8.4140775762059361E-004   6.6745528348154115E-002
  -2.9659338735920984E-003   7.9110780882785114E-004   6.6792150496658598E-002
  -2.5185987329221673E-003   7.9588447289308251E-004   6.7071443416649820E-002
  -2.0712635922522215E-003   8.5573774981606565E-004   6.7583407108128130E-002
  -5.8517510932631148E-003   1.4201764788681348E-003   6.5588561806754056E-002
  -5.1672435805283816E-003   1.2621116363913110E-003   6.5435297309798038E-002
  -4.4827360677936554E-003   1.1866617132001434E-003   6.5523706785484595E-002
  -3.7982285550589084E-003   1.1938267092953814E-003   6.5853790233814241E-002
  -3.1137210423241956E-003   1.2836066246763589E-003   6.6425547654786116E-002
  -7.8834612722174513E-003   1.8935686384646822E-003   6.4179089208331153E-002
  -6.9527781862621235E-003   1.6828155151620838E-003   6.4086147143829653E-002
  -6.0220951003068096E-003   1.5822156175729352E-003   6.4243882253126827E-002
  -5.0914120143514888E-003   1.5917689456978606E-003   6.4652294536222538E-002
  -4.1607289283961679E-003   1.7114754995365411E-003   6.5311383993116756E-002
  -1.0840633946074263E-013   9.5701224722688494E-014   7.0030213389826845E-002
  -9.5083663165240750E-014   1.0408340855860843E-013   6.8685778252566942E-002
  -8.1764456316690826E-014   1.1299294833122531E-013   6.7488964766155290E-002
  -6.8438310574236993E-014   1.2256168302471337E-013   6.6439772930592084E-002
  -5.5122573172639022E-014   1.3267165144270621E-013   6.5538202745876961E-002
  -1.0333565781803153E-003   4.2786887495560588E-004   6.8784962353141521E-002
  -8.8945057519984605E-004   5.0069393580925992E-004   6.7461390401174104E-002
  -7.4554457221939242E-004   6.3177753500995304E-004   6.6278008804292715E-002
  -6.0163856923892926E-004   8.2111967255792812E-004   6.5234817562497396E-002
  -4.5773256625846956E-004   1.0687203484525121E-003   6.4331816675788023E-002
  -2.0712635922522215E-003   8.5573774981606565E-004   6.7583407108128130E-002
  -1.7908828820669409E-003   1.0013878715147972E-003   6.6338956879799654E-002
  -1.5105021718816551E-003   1.2635550699070380E-003   6.5227265710795304E-002
  -1.2301214616963676E-003   1.6422393449928539E-003   6.4248333601114316E-002
  -9.4974075151107486E-004   2.1374406967724080E-003   6.3402160550757120E-002
  -3.1137210423241956E-003   1.2836066246763589E-003   6.6425547654786116E-002
  -2.7042969206963804E-003   1.5020818072197656E-003   6.5318477688443705E-002
  -2.2948727990685655E-003   1.8953326048040606E-003   6.4336735485662475E-002
  -1.8854486774407433E-003   2.4633590174280001E-003   6.3480321046442745E-002
  -1.4760245558129354E-003   3.2061610450922762E-003   6.2749234370784168E-002
  -4.1607289283961679E-003   1.7114754995365411E-003   6.5311383993116756E-002
  -3.6296926910881419E-003   2.0027757429255666E-003   6.4399952827106088E-002
  -3.0986564537801124E-003   2.5271101397011386E-003   6.3606418128894726E-002
  -2.5676202164720760E-003   3.2844786898631045E-003   6.2930779898482447E-002
  -2.0365839791640569E-003   4.2748813934122554E-003   6.2373038135869030E-002
  -5.5122573172639022E-014   1.3267165144270621E-013   6.5538202745876961E-002
  -5.7155669086483840E-014   1.4632739464559563E-013   6.0800687130140862E-002
  -5.9178356659472797E-014   1.6817103265509559E-013   5.5943136036738450E-002
  -6.1199309508985777E-014   1.9747398161129581E-013   5.0965549465669974E-002
  -6.3241079040210479E-014   2.3447910280083306E-013   4.5867927416935128E-002
  -4.5773256625846956E-004   1.0687203484525121E-003   6.4331816675788023E-002
  -5.6338396439263583E-004   1.3945123123277892E-003   5.9623471539347495E-002
  -6.6903536252678995E-004   1.8184283138167334E-003   5.4823859084309146E-002
  -7.7468676066095189E-004   2.3404683529199000E-003   4.9932979310672532E-002
  -8.8033815879511035E-004   2.9606324296371778E-003   4.4950832218438208E-002
  -9.4974075151107486E-004   2.1374406967724080E-003   6.3402160550757120E-002
  -1.1322753887091381E-003   2.7890246245084738E-003   5.8821109931218890E-002
  -1.3148100259071900E-003   3.6368566274653097E-003   5.4177560152150431E-002
  -1.4973446631052450E-003   4.6809367056423294E-003   4.9471511213552206E-002
  -1.6798793003033052E-003   5.9212648590396544E-003   4.4702963115424654E-002
  -1.4760245558129354E-003   3.2061610450922762E-003   6.2749234370784168E-002
  -1.7066742730066718E-003   4.1835369366894359E-003   5.8393602305754161E-002
  -1.9373239902003806E-003   5.4552849411141011E-003   5.4004239240262639E-002
  -2.1679737073940818E-003   7.0214050583646461E-003   4.9581145174309595E-002
  -2.3986234245878396E-003   8.8818972884421310E-003   4.5124320107894800E-002
  -2.0365839791640569E-003   4.2748813934122554E-003   6.2373038135869030E-002
  -2.2865806172852124E-003   5.5780492488702871E-003   5.8340948662953807E-002
  -2.5365772554063783E-003   7.2737132547623096E-003   5.4303896348645131E-002
  -2.7865738935275441E-003   9.3618734110870946E-003   5.0261881192943364E-002
  -3.0365705316486996E-003   1.1842529717844830E-002   4.6214903195847867E-002
  -2.6010448758744850E-002   7.3340340124767867E-003   6.1414136533271380E-002
  -2.4878021373474210E-002   7.1731837459891867E-003   6.0974229166744054E-002
  -2.3745593988203577E-002   6.9875096755385863E-003   6.0849465543849318E-002
  -2.2613166602932933E-002   6.7770118011249054E-003   6.1039845664587214E-002
  -2.1480739217662286E-002   6.5416901227481894E-003   6.1545369528957727E-002
  -3.2529698528814058E-002   9.2217568448133003E-003   5.8798288897528750E-002
  -3.1096059835669973E-002   9.0135481321594324E-003   5.8370199352346636E-002
  -2.9662421142525916E-002   8.7746873177395324E-003   5.8229388679279098E-002
  -2.8228782449381807E-002   8.5051744015538361E-003   5.8375856878325666E-002
  -2.6795143756237740E-002   8.2050093836020521E-003   5.8809603949486478E-002
  -3.8995460088914233E-002   1.1109479677149786E-002   5.6137996964521084E-002
  -3.7288474959415015E-002   1.0853912518329650E-002   5.5715896942881704E-002
  -3.5581489829915831E-002   1.0561864959940583E-002   5.5553210921838146E-002
  -3.3874504700416634E-002   1.0233337001982709E-002   5.5649938901390555E-002
  -3.2167519570917458E-002   9.8683286444559704E-003   5.6006080881538911E-002
  -4.5407733439045306E-002   1.2997202509486314E-002   5.3433260734248714E-002
  -4.3455266744709335E-002   1.2694276904499813E-002   5.3011321938348760E-002
  -4.1502800050373399E-002   1.2349042602141581E-002   5.2820932271526573E-002
  -3.9550333356037422E-002   1.1961499602411611E-002   5.2862091733781903E-002
  -3.7597866661701472E-002   1.1531647905309861E-002   5.3134800325114757E-002
  -5.1766518579207332E-002   1.4884925341822786E-002   5.0684080206711390E-002
  -4.9596435191552907E-002   1.4534641290670114E-002   5.0256474338748192E-002
  -4.7426351803898550E-002   1.4136220244342593E-002   5.0032552728344309E-002
  -4.5256268416244173E-002   1.3689662202840517E-002   5.0012315375499702E-002
  -4.3086185028589782E-002   1.3194967166163751E-002   5.0195762280214329E-002
  -2.1480739217662286E-002   6.5416901227481894E-003   6.1545369528957727E-002
  -2.0855750124135104E-002   6.2919962279434360E-003   6.1389729376163132E-002
  -2.0230761030607940E-002   6.0383817042456711E-003   6.1382883172473368E-002
  -1.9605771937080758E-002   5.7808465516548738E-003   6.1524830917888435E-002
  -1.8980782843553590E-002   5.5193907701707179E-003   6.1815572612408110E-002
  -2.6795143756237740E-002   8.2050093836020521E-003   5.8809603949486478E-002
  -2.6018081970228615E-002   7.8885501265170410E-003   5.8596342761268072E-002
  -2.5241020184219483E-002   7.5701544929315731E-003   5.8538433008908750E-002
  -2.4463958398210341E-002   7.2498224828452650E-003   5.8635874692408725E-002
  -2.3686896612201233E-002   6.9275540962585591E-003   5.8888667811767659E-002
  -3.2167519570917458E-002   9.8683286444559704E-003   5.6006080881538911E-002
  -3.1231827605671995E-002   9.4851040250907986E-003   5.5737182910289083E-002
  -3.0296135640426505E-002   9.1019272816174196E-003   5.5630193861652771E-002
  -2.9360443675181050E-002   8.7187984140361004E-003   5.5685113735629919E-002
  -2.8424751709935549E-002   8.3357174223465114E-003   5.5901942532220694E-002
  -3.7597866661701472E-002   1.1531647905309861E-002   5.3134800325114757E-002
  -3.6496987030465278E-002   1.1081657923664341E-002   5.2812249823225965E-002
  -3.5396107399229070E-002   1.0633700070303238E-002   5.2658165730705156E-002
  -3.4295227767992834E-002   1.0187774345226769E-002   5.2672548047552246E-002
  -3.3194348136756632E-002   9.7438807484344081E-003   5.2855396773767264E-002
  -4.3086185028589782E-002   1.3194967166163751E-002   5.0195762280214329E-002
  -4.1813560244608430E-002   1.2678211822238217E-002   4.9821543500079002E-002
  -4.0540935460627085E-002   1.2165472858989224E-002   4.9622348616066070E-002
  -3.9268310676645726E-002   1.1656750276417369E-002   4.9598177628175477E-002
  -3.7995685892664388E-002   1.1152044074522249E-002   4.9749030536407224E-002
  -1.8980782843553590E-002   5.5193907701707179E-003   6.1815572612408110E-002
  -1.8029884952327453E-002   5.2503563553949473E-003   6.1602118908350212E-002
  -1.7078987061101329E-002   4.9700853029281677E-003   6.1608413609514384E-002
  -1.6128089169875192E-002   4.6785776127707332E-003   6.1834456715900349E-002
  -1.5177191278649062E-002   4.3758332849220816E-003   6.2280248227508328E-002
  -2.3686896612201233E-002   6.9275540962585591E-003   5.8888667811767659E-002
  -2.2516763152192705E-002   6.5980832940986944E-003   5.8631107396015347E-002
  -2.1346629692184167E-002   6.2561440372931598E-003   5.8592269712605866E-002
  -2.0176496232175621E-002   5.9017363258417957E-003   5.8772154761539214E-002
  -1.9006362772167072E-002   5.5348601597444702E-003   5.9170762542815392E-002
  -2.8424751709935549E-002   8.3357174223465114E-003   5.5901942532220694E-002
  -2.7036408354023701E-002   7.9458102328026081E-003   5.5599043587818919E-002
  -2.5648064998111807E-002   7.5422027716580547E-003   5.5513841702880942E-002
  -2.4259721642199930E-002   7.1248950389129172E-003   5.5646336877406756E-002
  -2.2871378286288064E-002   6.6938870345670254E-003   5.5996529111396298E-002
  -3.3194348136756632E-002   9.7438807484344081E-003   5.2855396773767264E-002
  -3.1588820557820474E-002   9.2935371715065496E-003   5.2505927483761101E-002
  -2.9983292978884305E-002   8.8282615060229705E-003   5.2373129580339697E-002
  -2.8377765399948126E-002   8.3480537519841202E-003   5.2457003063503024E-002
  -2.6772237821011947E-002   7.8529139093895528E-003   5.2757547933251180E-002
  -3.7995685892664388E-002   1.1152044074522249E-002   4.9749030536407224E-002
  -3.6173999763582987E-002   1.0641264110210269E-002   4.9351759083841873E-002
  -3.4352313634501599E-002   1.0114320240387997E-002   4.9170133344982131E-002
  -3.2530627505420191E-002   9.5712124650552260E-003   4.9204153319828081E-002
  -3.0708941376338811E-002   9.0119407842119137E-003   4.9453819008379807E-002
  -1.5177191278649062E-002   4.3758332849220816E-003   6.2280248227508328E-002
  -1.4331430044236735E-002   4.0643322227915113E-003   6.2128859421881732E-002
  -1.3485668809824401E-002   3.7465543297876269E-003   6.2186981800294749E-002
  -1.2639907575412078E-002   3.4224996059102272E-003   6.2454615362747296E-002
  -1.1794146340999741E-002   3.0921680511595273E-003   6.2931760109239732E-002
  -1.9006362772167072E-002   5.5348601597444702E-003   5.9170762542815392E-002
  -1.7955998442198959E-002   5.1586985003629626E-003   5.8972431946703791E-002
  -1.6905634112230793E-002   4.7764343090581363E-003   5.8973796357664116E-002
  -1.5855269782262676E-002   4.3880675858301230E-003   5.9174855775696547E-002
  -1.4804905452294487E-002   3.9935983306786937E-003   5.9575610200800933E-002
  -2.2871378286288064E-002   6.6938870345670254E-003   5.5996529111396298E-002
  -2.1626227037731684E-002   6.2530647779343862E-003   5.5751431023749909E-002
  -2.0381075789175349E-002   5.8063142883285485E-003   5.5696211766207718E-002
  -1.9135924540618982E-002   5.3536355657496336E-003   5.5830871338769954E-002
  -1.7890773292062630E-002   4.8950286101978602E-003   5.6155409741436818E-002
  -2.6772237821011947E-002   7.8529139093895528E-003   5.2757547933251180E-002
  -2.5342115830834986E-002   7.3474310555056571E-003   5.2465856653019984E-002
  -2.3911993840657980E-002   6.8361942675990092E-003   5.2354228025925542E-002
  -2.2481871850480995E-002   6.3192035456693368E-003   5.2422662051967980E-002
  -2.1051749860304014E-002   5.7964588897169711E-003   5.2671158731147083E-002
  -3.0708941376338811E-002   9.0119407842119137E-003   4.9453819008379807E-002
  -2.9103664821508807E-002   8.4417973330770946E-003   4.9115708834514049E-002
  -2.7498388266678789E-002   7.8660742468695116E-003   4.8947845136817464E-002
  -2.5893111711848806E-002   7.2847715255889949E-003   4.8950227915290093E-002
  -2.4287835157018767E-002   6.6978891692361930E-003   4.9122857169932033E-002
  -1.1794146340999741E-002   3.0921680511595273E-003   6.2931760109239732E-002
  -1.0816475073804177E-002   2.7671531102255176E-003   6.2898137528590414E-002
  -9.8388038066085960E-003   2.4590482277984105E-003   6.3094818184889212E-002
  -8.8611325394130306E-003   2.1678534038779840E-003   6.3521802078136042E-002
  -7.8834612722174513E-003   1.8935686384646822E-003   6.4179089208331153E-002
  -1.4804905452294487E-002   3.9935983306786937E-003   5.9575610200800933E-002
  -1.3602387270874192E-002   3.6012975977348649E-003   5.9475097386377684E-002
  -1.2399869089453903E-002   3.2194364411293752E-003   5.9593975163455826E-002
  -1.1197350908033595E-002   2.8480148608619610E-003   5.9932243532035370E-002
  -9.9948327266132925E-003   2.4870328569333022E-003   6.0489902492116499E-002
  -1.7890773292062630E-002   4.8950286101978602E-003   5.6155409741436818E-002
  -1.6474320841864214E-002   4.4354420852443510E-003   5.5981536211070881E-002
  -1.5057868391665782E-002   3.9798246544603399E-003   5.6016140626759720E-002
  -1.3641415941467358E-002   3.5281763178459380E-003   5.6259222988503318E-002
  -1.2224963491268934E-002   3.0804970754014782E-003   5.6710783296301942E-002
  -2.1051749860304014E-002   5.7964588897169711E-003   5.2671158731147083E-002
  -1.9432275786774113E-002   5.2695865727537677E-003   5.2417454002669936E-002
  -1.7812801713244199E-002   4.7402128677913602E-003   5.2361314574800852E-002
  -1.6193327639714272E-002   4.2083377748299705E-003   5.2502740447540053E-002
  -1.4573853566184385E-002   3.6739612938697652E-003   5.2841731620887275E-002
  -2.4287835157018767E-002   6.6978891692361930E-003   4.9122857169932033E-002
  -2.2476252105604014E-002   6.1037310602630179E-003   4.8782850761174834E-002
  -2.0664669054189205E-002   5.5006010811222694E-003   4.8629497007579292E-002
  -1.8853086002774438E-002   4.8884992318137255E-003   4.8662795909145351E-002
  -1.7041502951359644E-002   4.2674255123381633E-003   4.8882747465872955E-002
  -7.8834612722174513E-003   1.8935686384646822E-003   6.4179089208331153E-002
  -6.9527781862621235E-003   1.6828155151620838E-003   6.4086147143829653E-002
  -6.0220951003068096E-003   1.5822156175729352E-003   6.4243882253126827E-002
  -5.0914120143514888E-003   1.5917689456978606E-003   6.4652294536222538E-002
  -4.1607289283961679E-003   1.7114754995365411E-003   6.5311383993116756E-002
  -9.9948327266132925E-003   2.4870328569333022E-003   6.0489902492116499E-002
  -8.8132943551985504E-003   2.1873348905451229E-003   6.0389520091244986E-002
  -7.6317559837838292E-003   1.9997654229007011E-003   6.0540171087493794E-002
  -6.4502176123691166E-003   1.9243244540000648E-003   6.0941855480862880E-002
  -5.2686792409543694E-003   1.9610119838429085E-003   6.1594573271352371E-002
  -1.2224963491268934E-002   3.0804970754014782E-003   5.6710783296301942E-002
  -1.0792213611072975E-002   2.6918542659284672E-003   5.6604935832090086E-002
  -9.3594637308769615E-003   2.4173152282286614E-003   5.6750477988320364E-002
  -7.9267138506809894E-003   2.2568799623022620E-003   5.7147409764992857E-002
  -6.4939639704849894E-003   2.2105484681492205E-003   5.7795731162107511E-002
  -1.4573853566184385E-002   3.6739612938697652E-003   5.2841731620887275E-002
  -1.2889535953885306E-002   3.1963736413114924E-003   5.2732394366364843E-002
  -1.1205218341586229E-002   2.8348650335564135E-003   5.2874802955606419E-002
  -9.5209007292871590E-003   2.5894354706041296E-003   5.3268957388611884E-002
  -7.8365831169880731E-003   2.4600849524555046E-003   5.3914857665381566E-002
  -1.7041502951359644E-002   4.2674255123381633E-003   4.8882747465872955E-002
  -1.5105261383635604E-002   3.7008930166949061E-003   4.8771895694069478E-002
  -1.3169019815911606E-002   3.2524148388843876E-003   4.8913145989351980E-002
  -1.1232778248187587E-002   2.9219909789067189E-003   4.9306498351720379E-002
  -9.2965366804635685E-003   2.7096214367618998E-003   4.9951952781174480E-002
  -4.1607289283961679E-003   1.7114754995365411E-003   6.5311383993116756E-002
  -3.6296926910881419E-003   2.0027757429255666E-003   6.4399952827106088E-002
  -3.0986564537801124E-003   2.5271101397011386E-003   6.3606418128894726E-002
  -2.5676202164720760E-003   3.2844786898631045E-003   6.2930779898482447E-002
  -2.0365839791640569E-003   4.2748813934122554E-003   6.2373038135869030E-002
  -5.2686792409543694E-003   1.9610119838429085E-003   6.1594573271352371E-002
  -4.5934492802359866E-003   2.2169278829560213E-003   6.0871786140572870E-002
  -3.9182193195176022E-003   2.7991720218666361E-003   6.0319489988814673E-002
  -3.2429893587992168E-003   3.7077444005737814E-003   5.9937684816078404E-002
  -2.5677593980808280E-003   4.9426450190783733E-003   5.9726370622363745E-002
  -6.4939639704849894E-003   2.2105484681492205E-003   5.7795731162107511E-002
  -5.6219457751336323E-003   2.4310800229867813E-003   5.7354882152969022E-002
  -4.7499275797822753E-003   3.0712339040317727E-003   5.7137118634074779E-002
  -3.8779093844309304E-003   4.1310101112843403E-003   5.7142440605424547E-002
  -3.0058911890795612E-003   5.6104086447446577E-003   5.7370848067018948E-002
  -7.8365831169880731E-003   2.4600849524555046E-003   5.3914857665381566E-002
  -6.7151821757811580E-003   2.6452321630172221E-003   5.3849240864294615E-002
  -5.5937812345742298E-003   3.3432957861970897E-003   5.4059304064674664E-002
  -4.4723802933673007E-003   4.5542758219948472E-003   5.4545047266521651E-002
  -3.3509793521603864E-003   6.2781722704108589E-003   5.5306470469835507E-002
  -9.2965366804635685E-003   2.7096214367618998E-003   4.9951952781174480E-002
  -7.8731584821784550E-003   2.8593843030480515E-003   5.0354862274549772E-002
  -6.4497802838933693E-003   3.6153576683623789E-003   5.1086046280614694E-002
  -5.0264020856082628E-003   4.9775415327054581E-003   5.2145504799368941E-002
  -3.6030238873231701E-003   6.9459358960771711E-003   5.3533237830812763E-002
  -2.0365839791640569E-003   4.2748813934122554E-003   6.2373038135869030E-002
  -2.2865806172852124E-003   5.5780492488702871E-003   5.8340948662953807E-002
  -2.5365772554063783E-003   7.2737132547623096E-003   5.4303896348645131E-002
  -2.7865738935275441E-003   9.3618734110870946E-003   5.0261881192943364E-002
  -3.0365705316486996E-003   1.1842529717844830E-002   4.6214903195847867E-002
  -2.5677593980808280E-003   4.9426450190783733E-003   5.9726370622363745E-002
  -2.8403360435094172E-003   6.5674714353335939E-003   5.6192717364520972E-002
  -3.1129126889380045E-003   8.6458212072930141E-003   5.2618866933456521E-002
  -3.3854893343666396E-003   1.1177694334956786E-002   4.9004819329171168E-002
  -3.6580659797951845E-003   1.4163090818325008E-002   4.5350574551663358E-002
  -3.0058911890795612E-003   5.6104086447446577E-003   5.7370848067018948E-002
  -3.3362821736438644E-003   7.5568936217962901E-003   5.4396658229519890E-002
  -3.6666731582081259E-003   1.0017929159823843E-002   5.1347036886971162E-002
  -3.9970641427724378E-003   1.2993515258826926E-002   4.8221984039373021E-002
  -4.3274551273367219E-003   1.6483651918805409E-002   4.5021499686724309E-002
  -3.3509793521603864E-003   6.2781722704108589E-003   5.5306470469835507E-002
  -3.7744190076885358E-003   8.5463158082592916E-003   5.2952771257951545E-002
  -4.1978586632167138E-003   1.1390037112354610E-002   5.0488406209189873E-002
  -4.6212983187449127E-003   1.4809336182696952E-002   4.7913375323549952E-002
  -5.0447379742730421E-003   1.8804213019285587E-002   4.5227678601032079E-002
  -3.6030238873231701E-003   6.9459358960771711E-003   5.3533237830812763E-002
  -4.1547465456434757E-003   9.5357379947224041E-003   5.1861056449815313E-002
  -4.7064692039637951E-003   1.2762145064885183E-002   5.0042974900111503E-002
  -5.2581918622840867E-003   1.6625157106566764E-002   4.8078993181701363E-002
  -5.8099145206044200E-003   2.1124774119765988E-002   4.5969111294585474E-002
  -5.1766518579207332E-002   1.4884925341822786E-002   5.0684080206711390E-002
  -4.9596435191552907E-002   1.4534641290670114E-002   5.0256474338748192E-002
  -4.7426351803898550E-002   1.4136220244342593E-002   5.0032552728344309E-002
  -4.5256268416244173E-002   1.3689662202840517E-002   5.0012315375499702E-002
  -4.3086185028589782E-002   1.3194967166163751E-002   5.0195762280214329E-002
  -5.8109367790168079E-002   1.6825281188892760E-002   4.5208699345093917E-002
  -5.5721209584980017E-002   1.6363029507541094E-002   4.4736074372769663E-002
  -5.3333051379791892E-002   1.5873328195825945E-002   4.4495914777953671E-002
  -5.0944893174603753E-002   1.5356177253747303E-002   4.4488220560645678E-002
  -4.8556734969415705E-002   1.4811576681305394E-002   4.4712991720845918E-002
  -6.4473833352695187E-002   1.8765637035962762E-002   3.9611007170871751E-002
  -6.1838819210024522E-002   1.8191417724412101E-002   3.9114050458997809E-002
  -5.9203805067353871E-002   1.7610436147309234E-002   3.8878340244580763E-002
  -5.6568790924683157E-002   1.7022692304654197E-002   3.8903876527620784E-002
  -5.3933776782012471E-002   1.6428186196446981E-002   3.9190659308117909E-002
  -7.0859915266788823E-002   2.0705992883032723E-002   3.3891003684045115E-002
  -6.7949264066686665E-002   2.0019805941283123E-002   3.3390402597432617E-002
  -6.5038612866584522E-002   1.9347544098792514E-002   3.3179829128225875E-002
  -6.2127961666482372E-002   1.8689207355561094E-002   3.3259283276425113E-002
  -5.9217310466380284E-002   1.8044795711588596E-002   3.3628765042030315E-002
  -7.7267613532448876E-002   2.2646348730102739E-002   2.8048688884613981E-002
  -7.4052544154966399E-002   2.1848194158154144E-002   2.7565130788074099E-002
  -7.0837474777483894E-002   2.1084652050275848E-002   2.7400381428888843E-002
  -6.7622405400001334E-002   2.0355722406467901E-002   2.7554440807058544E-002
  -6.4407336022518857E-002   1.9661405226730211E-002   2.8027308922583039E-002
  -4.3086185028589782E-002   1.3194967166163751E-002   5.0195762280214329E-002
  -4.1813560244608430E-002   1.2678211822238217E-002   4.9821543500079002E-002
  -4.0540935460627085E-002   1.2165472858989224E-002   4.9622348616066070E-002
  -3.9268310676645726E-002   1.1656750276417369E-002   4.9598177628175477E-002
  -3.7995685892664388E-002   1.1152044074522249E-002   4.9749030536407224E-002
  -4.8556734969415705E-002   1.4811576681305394E-002   4.4712991720845918E-002
  -4.7117102523875035E-002   1.4253381728395270E-002   4.4426403459428748E-002
  -4.5677470078334309E-002   1.3695447644912498E-002   4.4298806625007986E-002
  -4.4237837632793611E-002   1.3137774430857067E-002   4.4330201217583423E-002
  -4.2798205187252934E-002   1.2580362086228758E-002   4.4520587237155351E-002
  -5.3933776782012471E-002   1.6428186196446981E-002   3.9190659308117909E-002
  -5.2343169144038471E-002   1.5828551634552573E-002   3.8987946054169359E-002
  -5.0752561506064470E-002   1.5225422430835717E-002   3.8928191758091146E-002
  -4.9161953868090462E-002   1.4618798585296709E-002   3.9011396419883215E-002
  -4.7571346230116461E-002   1.4008680097935294E-002   3.9237560039545649E-002
  -5.9217310466380284E-002   1.8044795711588596E-002   3.3628765042030315E-002
  -5.7491760105098884E-002   1.7403721540709752E-002   3.3506171284300695E-002
  -5.5766209743817505E-002   1.6755397216758991E-002   3.3510504015315502E-002
  -5.4040659382536174E-002   1.6099822739736380E-002   3.3641763235074576E-002
  -5.2315109021254795E-002   1.5436998109641789E-002   3.3899948943578090E-002
  -6.4407336022518857E-002   1.9661405226730211E-002   2.8027308922583039E-002
  -6.2562875407056198E-002   1.8978891446866958E-002   2.7981079149822952E-002
  -6.0718414791593511E-002   1.8285372002682168E-002   2.8045743396681061E-002
  -5.8873954176130838E-002   1.7580846894176039E-002   2.8221301663157616E-002
  -5.7029493560668165E-002   1.6865316121348339E-002   2.8507753949252479E-002
  -3.7995685892664388E-002   1.1152044074522249E-002   4.9749030536407224E-002
  -3.6173999763582987E-002   1.0641264110210269E-002   4.9351759083841873E-002
  -3.4352313634501599E-002   1.0114320240387997E-002   4.9170133344982131E-002
  -3.2530627505420191E-002   9.5712124650552260E-003   4.9204153319828081E-002
  -3.0708941376338811E-002   9.0119407842119137E-003   4.9453819008379807E-002
  -4.2798205187252934E-002   1.2580362086228758E-002   4.4520587237155351E-002
  -4.0764038518905803E-002   1.2017130059171627E-002   4.4135496791977175E-002
  -3.8729871850558678E-002   1.1441997797828549E-002   4.3959721711624739E-002
  -3.6695705182211581E-002   1.0854965302200491E-002   4.3993261996098029E-002
  -3.4661538513864443E-002   1.0256032572286577E-002   4.4236117645397199E-002
  -4.7571346230116461E-002   1.4008680097935294E-002   3.9237560039545649E-002
  -4.5331029371383488E-002   1.3392996008132596E-002   3.8868914272979629E-002
  -4.3090712512650522E-002   1.2769675355269267E-002   3.8703253522359357E-002
  -4.0850395653917591E-002   1.2138718139345590E-002   3.8740577787684929E-002
  -3.8610078795184653E-002   1.1500124360361269E-002   3.8980887068956457E-002
  -5.2315109021254795E-002   1.5436998109641789E-002   3.3899948943578090E-002
  -4.9874972321015981E-002   1.4768861957093704E-002   3.3552011526849099E-002
  -4.7434835620777105E-002   1.4097352912710040E-002   3.3400728777186070E-002
  -4.4994698920538284E-002   1.3422470976490828E-002   3.3446100694588976E-002
  -4.2554562220299422E-002   1.2744216148435947E-002   3.3688127279057969E-002
  -5.7029493560668165E-002   1.6865316121348339E-002   2.8507753949252479E-002
  -5.4395867367803330E-002   1.6144727906054784E-002   2.8184788553585582E-002
  -5.1762241174938453E-002   1.5425030470150522E-002   2.8052147476104794E-002
  -4.9128614982073597E-002   1.4706223813635951E-002   2.8109830716809947E-002
  -4.6494988789208797E-002   1.3988307936510569E-002   2.8357838275701319E-002
  -3.0708941376338811E-002   9.0119407842119137E-003   4.9453819008379807E-002
  -2.9103664821508807E-002   8.4417973330770946E-003   4.9115708834514049E-002
  -2.7498388266678789E-002   7.8660742468695116E-003   4.8947845136817464E-002
  -2.5893111711848806E-002   7.2847715255889949E-003   4.8950227915290093E-002
  -2.4287835157018767E-002   6.6978891692361930E-003   4.9122857169932033E-002
  -3.4661538513864443E-002   1.0256032572286577E-002   4.4236117645397199E-002
  -3.2891435696057368E-002   9.6468134995038590E-003   4.3889518071282108E-002
  -3.1121332878250273E-002   9.0289219752689165E-003   4.3702324546951971E-002
  -2.9351230060443202E-002   8.4023579995816597E-003   4.3674537072406677E-002
  -2.7581127242636089E-002   7.7671215724419707E-003   4.3806155647646505E-002
  -3.8610078795184653E-002   1.1500124360361269E-002   3.8980887068956457E-002
  -3.6685990140784788E-002   1.0851829665930818E-002   3.8622705278212544E-002
  -3.4761901486384889E-002   1.0191769703668439E-002   3.8413089110869165E-002
  -3.2837812831985044E-002   9.5199444735739377E-003   3.8352038566926455E-002
  -3.0913724177585186E-002   8.8363539756475262E-003   3.8439553646384350E-002
  -4.2554562220299422E-002   1.2744216148435947E-002   3.3688127279057969E-002
  -4.0487328155691095E-002   1.2056845832357679E-002   3.3315270455305433E-002
  -3.8420094091082740E-002   1.1354617432067903E-002   3.3080138828569250E-002
  -3.6352860026474414E-002   1.0637530947566243E-002   3.2982732398849281E-002
  -3.4285625961866059E-002   9.9055863788531373E-003   3.3023051166145651E-002
  -4.6494988789208797E-002   1.3988307936510569E-002   2.8357838275701319E-002
  -4.4295449740776260E-002   1.3261861998784596E-002   2.7967213602560714E-002
  -4.2095910692343738E-002   1.2517465160467381E-002   2.7703473700051912E-002
  -3.9896371643911237E-002   1.1755117421558662E-002   2.7566618568175202E-002
  -3.7696832595478708E-002   1.0974818782058859E-002   2.7556648206930490E-002
  -2.4287835157018767E-002   6.6978891692361930E-003   4.9122857169932033E-002
  -2.2476252105604014E-002   6.1037310602630179E-003   4.8782850761174834E-002
  -2.0664669054189205E-002   5.5006010811222694E-003   4.8629497007579292E-002
  -1.8853086002774438E-002   4.8884992318137255E-003   4.8662795909145351E-002
  -1.7041502951359644E-002   4.2674255123381633E-003   4.8882747465872955E-002
  -2.7581127242636089E-002   7.7671215724419707E-003   4.3806155647646505E-002
  -2.5591808903455346E-002   7.1274890617811226E-003   4.3413381229283232E-002
  -2.3602490564274672E-002   6.4877368355305554E-003   4.3189424731290282E-002
  -2.1613172225093947E-002   5.8478648936905603E-003   4.3134286153667697E-002
  -1.9623853885913256E-002   5.2078732362604852E-003   4.3247965496415242E-002
  -3.0913724177585186E-002   8.8363539756475262E-003   3.8439553646384350E-002
  -2.8764505285429846E-002   8.1512470632989775E-003   3.8002863372992940E-002
  -2.6615286393274519E-002   7.4748725899389523E-003   3.7717156285180520E-002
  -2.4466067501119178E-002   6.8072305555667845E-003   3.7582432382947062E-002
  -2.2316848608963852E-002   6.1483209601827515E-003   3.7598691666292594E-002
  -3.4285625961866059E-002   9.9055863788531373E-003   3.3023051166145651E-002
  -3.1994341251527322E-002   9.1750050648169573E-003   3.2551297192303957E-002
  -2.9703056541188703E-002   8.4620083443472938E-003   3.2212691669249782E-002
  -2.7411771830850033E-002   7.7665962174432585E-003   3.2007234596983292E-002
  -2.5120487120511341E-002   7.0887686841052677E-003   3.1934925975504680E-002
  -3.7696832595478708E-002   1.0974818782058859E-002   2.7556648206930490E-002
  -3.5281316801748008E-002   1.0198763066335048E-002   2.7058682687216229E-002
  -3.2865801008017267E-002   9.4491440987555519E-003   2.6676030883498292E-002
  -3.0450285214286561E-002   8.7259618793196561E-003   2.6408692795776789E-002
  -2.8034769420555827E-002   8.0292164080274508E-003   2.6256668424051610E-002
  -1.7041502951359644E-002   4.2674255123381633E-003   4.8882747465872955E-002
  -1.5105261383635604E-002   3.7008930166949061E-003   4.8771895694069478E-002
  -1.3169019815911606E-002   3.2524148388843876E-003   4.8913145989351980E-002
  -1.1232778248187587E-002   2.9219909789067189E-003   4.9306498351720379E-002
  -9.2965366804635685E-003   2.7096214367618998E-003   4.9951952781174480E-002
  -1.9623853885913256E-002   5.2078732362604852E-003   4.3247965496415242E-002
  -1.7473406041142135E-002   4.6045747321477593E-003   4.3084354316104800E-002
  -1.5322958196371049E-002   4.0747822502596454E-003   4.3097053622802556E-002
  -1.3172510351599939E-002   3.6184957905952969E-003   4.3286063416508772E-002
  -1.1022062506828842E-002   3.2357153531559213E-003   4.3651383697223156E-002
  -2.2316848608963852E-002   6.1483209601827515E-003   3.7598691666292594E-002
  -2.0027986067223176E-002   5.5082564476005846E-003   3.7337772781866480E-002
  -1.7739123525482476E-002   4.8971496616346810E-003   3.7177372804371167E-002
  -1.5450260983741826E-002   4.3150006022843190E-003   3.7117491733806518E-002
  -1.3161398442001100E-002   3.7618092695501648E-003   3.7158129570172921E-002
  -2.5120487120511341E-002   7.0887686841052677E-003   3.1934925975504680E-002
  -2.2769001461878657E-002   6.4119381630535349E-003   3.1532151091354405E-002
  -2.0417515803245953E-002   5.7195170730098832E-003   3.1154103534057592E-002
  -1.8066030144613283E-002   5.0115054139732301E-003   3.0800783303613889E-002
  -1.5714544485980558E-002   4.2879031859441863E-003   3.0472190400023531E-002
  -2.8034769420555827E-002   8.0292164080274508E-003   2.6256668424051610E-002
  -2.5696452225108607E-002   7.3156198785063187E-003   2.5667489244568964E-002
  -2.3358135029661442E-002   6.5418844843850021E-003   2.5027245811861998E-002
  -2.1019817834214263E-002   5.7080102256621482E-003   2.4335938125930712E-002
  -1.8681500638767057E-002   4.8139971023384298E-003   2.3593566186775217E-002
  -9.2965366804635685E-003   2.7096214367618998E-003   4.9951952781174480E-002
  -7.8731584821784550E-003   2.8593843030480515E-003   5.0354862274549772E-002
  -6.4497802838933693E-003   3.6153576683623789E-003   5.1086046280614694E-002
  -5.0264020856082628E-003   4.9775415327054581E-003   5.2145504799368941E-002
  -3.6030238873231701E-003   6.9459358960771711E-003   5.3533237830812763E-002
  -1.1022062506828842E-002   3.2357153531559213E-003   4.3651383697223156E-002
  -9.2524099703184676E-003   3.1645713078328752E-003   4.4236471537845712E-002
  -7.4827574338080793E-003   3.6431940245174876E-003   4.5185833542229076E-002
  -5.7131048972976946E-003   4.6715835032104178E-003   4.6499469710373734E-002
  -3.9434523607873168E-003   6.2497397439112978E-003   4.8177380042279450E-002
  -1.3161398442001100E-002   3.7618092695501648E-003   3.7158129570172921E-002
  -1.1009471916193926E-002   3.4697583126176712E-003   3.7868952021021807E-002
  -8.8575453903866966E-003   3.6710303806724992E-003   3.8980048286703470E-002
  -6.7056188645794931E-003   4.3656254737153809E-003   4.0491418367217806E-002
  -4.5536923387722375E-003   5.5535435917453690E-003   4.2403062262564878E-002
  -1.5714544485980558E-002   4.2879031859441863E-003   3.0472190400023531E-002
  -1.3144344319804876E-002   3.7749453174024811E-003   3.1252303724078632E-002
  -1.0574144153629245E-002   3.6988667368275593E-003   3.2468690514038029E-002
  -8.0039439874536131E-003   4.0596674442201202E-003   3.4121350769901450E-002
  -5.4337438212778717E-003   4.8573474395794680E-003   3.6210284491669222E-002
  -1.8681500638767057E-002   4.8139971023384298E-003   2.3593566186775217E-002
  -1.5657027181151334E-002   4.0801323221872909E-003   2.4386526647015683E-002
  -1.2632553723535667E-002   3.7267030929825085E-003   2.5651760224232323E-002
  -9.6080802659199577E-003   3.7537094147252759E-003   2.7389266918424721E-002
  -6.5836068083042765E-003   4.1611512874135670E-003   2.9599046729592793E-002
  -3.6030238873231701E-003   6.9459358960771711E-003   5.3533237830812763E-002
  -4.1547465456434757E-003   9.5357379947224041E-003   5.1861056449815313E-002
  -4.7064692039637951E-003   1.2762145064885183E-002   5.0042974900111503E-002
  -5.2581918622840867E-003   1.6625157106566764E-002   4.8078993181701363E-002
  -5.8099145206044200E-003   2.1124774119765988E-002   4.5969111294585474E-002
  -3.9434523607873168E-003   6.2497397439112978E-003   4.8177380042279450E-002
  -4.5371315290787112E-003   8.6876786129857497E-003   4.7242532548624649E-002
  -5.1308106973701265E-003   1.2295415976798535E-002   4.6369672203734003E-002
  -5.7244898656614654E-003   1.7072951835349966E-002   4.5558799007607148E-002
  -6.3181690339529362E-003   2.3020286188640160E-002   4.4809912960245502E-002
  -4.5536923387722375E-003   5.5535435917453690E-003   4.2403062262564878E-002
  -4.9814406995643511E-003   7.8396192312493729E-003   4.2738742179473405E-002
  -5.4091890603564403E-003   1.1828686888711762E-002   4.3344296562616194E-002
  -5.8369374211485851E-003   1.7520746564133386E-002   4.4219725411994128E-002
  -6.2646857819405877E-003   2.4915798257514110E-002   4.5365028727605283E-002
  -5.4337438212778717E-003   4.8573474395794680E-003   3.6210284491669222E-002
  -5.4876740571003354E-003   6.9915598495126352E-003   3.8349685342361502E-002
  -5.5416042929227732E-003   1.1361957800624940E-002   4.0966847976758869E-002
  -5.5955345287451537E-003   1.7968541292916362E-002   4.4061772394860532E-002
  -5.6494647645676174E-003   2.6811310326388171E-002   4.7634458596667317E-002
  -6.5836068083042765E-003   4.1611512874135670E-003   2.9599046729592793E-002
  -6.0558316016866842E-003   6.1435004677762306E-003   3.4075362037289447E-002
  -5.5280563950690920E-003   1.0895228712538230E-002   3.9237326446160736E-002
  -5.0002811884514720E-003   1.8416336021700092E-002   4.5084939956207770E-002
  -4.4725059818339075E-003   2.8706822395262233E-002   5.1618202567429883E-002
  -7.7267613532448876E-002   2.2646348730102739E-002   2.8048688884613981E-002
  -7.4052544154966399E-002   2.1848194158154144E-002   2.7565130788074099E-002
  -7.0837474777483894E-002   2.1084652050275848E-002   2.7400381428888843E-002
  -6.7622405400001334E-002   2.0355722406467901E-002   2.7554440807058544E-002
  -6.4407336022518857E-002   1.9661405226730211E-002   2.8027308922583039E-002
  -8.3640524191051613E-002   2.4399271390250110E-002   2.1566375863045828E-002
  -8.0130945783706886E-002   2.3624986031078765E-002   2.1167493520388547E-002
  -7.6621367376362368E-002   2.2851655999225118E-002   2.1038820500100641E-002
  -7.3111788969017766E-002   2.2079281294689126E-002   2.1180356802181971E-002
  -6.9602210561673192E-002   2.1307861917470861E-002   2.1592102426632592E-002
  -8.9922243283972858E-002   2.6152194050397592E-002   1.5124760622631406E-002
  -8.6166755261751660E-002   2.5401777904003470E-002   1.4776896897104083E-002
  -8.2411267239530503E-002   2.4618659948174290E-002   1.4650643078960537E-002
  -7.8655779217309318E-002   2.3802840182910356E-002   1.4745999168201067E-002
  -7.4900291195088134E-002   2.2954318608211510E-002   1.5062965164825401E-002
  -9.6112770811212833E-002   2.7905116710545047E-002   8.7238431633704511E-003
  -9.2159972589100511E-002   2.7178569776928022E-002   8.3933409182202975E-003
  -8.8207174366988134E-002   2.6385663897123594E-002   8.2358491654689718E-003
  -8.4254376144875853E-002   2.5526399071131751E-002   8.2513679051158251E-003
  -8.0301577922763434E-002   2.4600775298952160E-002   8.4398971371610898E-003
 -0.10221210677277148        2.9658039370692446E-002   2.3636234852628668E-003
  -9.8110597765753593E-002   2.8955361649852684E-002   2.0168255837376692E-003
  -9.4009088758735482E-002   2.8152667846072787E-002   1.7944387596255940E-003
  -8.9907579751717481E-002   2.7249957959352825E-002   1.6964630129265856E-003
  -8.5806070744699481E-002   2.6247231989692921E-002   1.7228983436400891E-003
  -6.4407336022518857E-002   1.9661405226730211E-002   2.8027308922583039E-002
  -6.2562875407056198E-002   1.8978891446866958E-002   2.7981079149822952E-002
  -6.0718414791593511E-002   1.8285372002682168E-002   2.8045743396681061E-002
  -5.8873954176130838E-002   1.7580846894176039E-002   2.8221301663157616E-002
  -5.7029493560668165E-002   1.6865316121348339E-002   2.8507753949252479E-002
  -6.9602210561673192E-002   2.1307861917470861E-002   2.1592102426632592E-002
  -6.7637414482919545E-002   2.0539545469112144E-002   2.1449230436324643E-002
  -6.5672618404165772E-002   1.9776479551155052E-002   2.1436135352980321E-002
  -6.3707822325412111E-002   1.9018664163599229E-002   2.1552817176599938E-002
  -6.1743026246658422E-002   1.8266099306444739E-002   2.1799275907183113E-002
  -7.4900291195088134E-002   2.2954318608211510E-002   1.5062965164825401E-002
  -7.2796276765697956E-002   2.2100199491357345E-002   1.4839707151692361E-002
  -7.0692262336307793E-002   2.1267587099627762E-002   1.4765108932868545E-002
  -6.8588247906917643E-002   2.0456481433022249E-002   1.4839170508354014E-002
  -6.6484233477527438E-002   1.9666882491541027E-002   1.5061891878148548E-002
  -8.0301577922763434E-002   2.4600775298952160E-002   8.4398971371610898E-003
  -7.8039462255391490E-002   2.3660853513602510E-002   8.1525092959261539E-003
  -7.5777346588019476E-002   2.2758694648100392E-002   8.0326641363457334E-003
  -7.3515230920647462E-002   2.1894298702445244E-002   8.0803616584199656E-003
  -7.1253115253275504E-002   2.1067665676637315E-002   8.2956018621486265E-003
  -8.5806070744699481E-002   2.6247231989692921E-002   1.7228983436400891E-003
  -8.3366970952000130E-002   2.5221507535847676E-002   1.3876368690260432E-003
  -8.0927871159300890E-002   2.4249802196573272E-002   1.2388009634118485E-003
  -7.8488771366601651E-002   2.3332115971868551E-002   1.2763906267976750E-003
  -7.6049671573902300E-002   2.2468448861733825E-002   1.5004058591835401E-003
  -5.7029493560668165E-002   1.6865316121348339E-002   2.8507753949252479E-002
  -5.4395867367803330E-002   1.6144727906054784E-002   2.8184788553585582E-002
  -5.1762241174938453E-002   1.5425030470150522E-002   2.8052147476104794E-002
  -4.9128614982073597E-002   1.4706223813635951E-002   2.8109830716809947E-002
  -4.6494988789208797E-002   1.3988307936510569E-002   2.8357838275701319E-002
  -6.1743026246658422E-002   1.8266099306444739E-002   2.1799275907183113E-002
  -5.8914287298700935E-002   1.7512378718519850E-002   2.1450088797267564E-002
  -5.6085548350743530E-002   1.6751096138652874E-002   2.1300802879351141E-002
  -5.3256809402786064E-002   1.5982251566843433E-002   2.1351418153433908E-002
  -5.0428070454828625E-002   1.5205845003091911E-002   2.1601934619515706E-002
  -6.6484233477527438E-002   1.9666882491541027E-002   1.5061891878148548E-002
  -6.3450804900664293E-002   1.8880029530985040E-002   1.4678030282652535E-002
  -6.0417376323801175E-002   1.8077161807155011E-002   1.4503646752968689E-002
  -5.7383947746938092E-002   1.7258279320050862E-002   1.4538741289097042E-002
  -5.4350519170074975E-002   1.6423382069672948E-002   1.4783313891037889E-002
  -7.1253115253275504E-002   2.1067665676637315E-002   8.2956018621486265E-003
  -6.8005420173693515E-002   2.0247680343450446E-002   7.8686130097403058E-003
  -6.4757725094111540E-002   1.9403227475657311E-002   7.6606790969573398E-003
  -6.1510030014529579E-002   1.8534307073258649E-002   7.6718001238000591E-003
  -5.8262334934947591E-002   1.7640919136253916E-002   7.9019760902676421E-003
  -7.6049671573902300E-002   2.2468448861733825E-002   1.5004058591835401E-003
  -7.2578133117788379E-002   2.1615331155915407E-002   1.0218369785313097E-003
  -6.9106594661674514E-002   2.0729293144159527E-002   7.7189991131740299E-004
  -6.5635056205560649E-002   1.9810334826465804E-002   7.5059465754184068E-004
  -6.2163517749446728E-002   1.8858456202835105E-002   9.5792121720505996E-004
  -4.6494988789208797E-002   1.3988307936510569E-002   2.8357838275701319E-002
  -4.4295449740776260E-002   1.3261861998784596E-002   2.7967213602560714E-002
  -4.2095910692343738E-002   1.2517465160467381E-002   2.7703473700051912E-002
  -3.9896371643911237E-002   1.1755117421558662E-002   2.7566618568175202E-002
  -3.7696832595478708E-002   1.0974818782058859E-002   2.7556648206930490E-002
  -5.0428070454828625E-002   1.5205845003091911E-002   2.1601934619515706E-002
  -4.8096896704914266E-002   1.4424914314203452E-002   2.1216974248137455E-002
  -4.5765722954999886E-002   1.3642497366984210E-002   2.0968398509090574E-002
  -4.3434549205085493E-002   1.2858594161433621E-002   2.0856207402375523E-002
  -4.1103375455171148E-002   1.2073204697552353E-002   2.0880400927992204E-002
  -5.4350519170074975E-002   1.6423382069672948E-002   1.4783313891037889E-002
  -5.1878210856978975E-002   1.5587966629622280E-002   1.4420482463682174E-002
  -4.9405902543883135E-002   1.4767529573501033E-002   1.4203535530357476E-002
  -4.6933594230787176E-002   1.3962070901308967E-002   1.4132473091064194E-002
  -4.4461285917691322E-002   1.3171590613046069E-002   1.4207295145802296E-002
  -5.8262334934947591E-002   1.7640919136253916E-002   7.9019760902676421E-003
  -5.5639392196970540E-002   1.6751018945041343E-002   7.5777382491946689E-003
  -5.3016449458993413E-002   1.5892561780017970E-002   7.4088847638521960E-003
  -5.0393506721016383E-002   1.5065547641184063E-002   7.3954156342413606E-003
  -4.7770563983039228E-002   1.4269976528539619E-002   7.5373308603612424E-003
  -6.2163517749446728E-002   1.8858456202835105E-002   9.5792121720505996E-004
  -5.9380440724888683E-002   1.7914071260460074E-002   6.8874160467491397E-004
  -5.6597363700330805E-002   1.7017593986534962E-002   5.8444620957548432E-004
  -5.3814286675772816E-002   1.6169024381059285E-002   6.4503503190661837E-004
  -5.1031209651214882E-002   1.5368362444033279E-002   8.7050807166866306E-004
  -3.7696832595478708E-002   1.0974818782058859E-002   2.7556648206930490E-002
  -3.5281316801748008E-002   1.0198763066335048E-002   2.7058682687216229E-002
  -3.2865801008017267E-002   9.4491440987555519E-003   2.6676030883498292E-002
  -3.0450285214286561E-002   8.7259618793196561E-003   2.6408692795776789E-002
  -2.8034769420555827E-002   8.0292164080274508E-003   2.6256668424051610E-002
  -4.1103375455171148E-002   1.2073204697552353E-002   2.0880400927992204E-002
  -3.8577099135438289E-002   1.1292424344424790E-002   2.0445085229446880E-002
  -3.6050822815705527E-002   1.0522348471135645E-002   2.0115976866909524E-002
  -3.3524546495972633E-002   9.7629770776848090E-003   1.9893075840379901E-002
  -3.0998270176239850E-002   9.0143101640725032E-003   1.9776382149857996E-002
  -4.4461285917691322E-002   1.3171590613046069E-002   1.4207295145802296E-002
  -4.1833355451944956E-002   1.2386085622514476E-002   1.3818897000120844E-002
  -3.9205424986198681E-002   1.1595552843515836E-002   1.3527599810458674E-002
  -3.6577494520452392E-002   1.0799992276050125E-002   1.3333403576815457E-002
  -3.3949564054706061E-002   9.9994039201175000E-003   1.3236308299191507E-002
  -4.7770563983039228E-002   1.4269976528539619E-002   7.5373308603612424E-003
  -4.5050085751268037E-002   1.3479746900603801E-002   7.1801179992382475E-003
  -4.2329607519496854E-002   1.2668757215895533E-002   6.9108997141454180E-003
  -3.9609129287725656E-002   1.1837007474415415E-002   6.7296760050835052E-003
  -3.6888651055954472E-002   1.0984497676162858E-002   6.6364468720523997E-003
  -5.1031209651214882E-002   1.5368362444033279E-002   8.7050807166866306E-004
  -4.8227290033407422E-002   1.4573408178693792E-002   5.2874822679849220E-004
  -4.5423370415599962E-002   1.3741961588275786E-002   2.6587657797061404E-004
  -4.2619450797792530E-002   1.2874022672780733E-002   8.1893125184140381E-005
  -3.9815531179985042E-002   1.1969591432207327E-002  -2.3202131560262629E-005
  -2.8034769420555827E-002   8.0292164080274508E-003   2.6256668424051610E-002
  -2.5696452225108607E-002   7.3156198785063187E-003   2.5667489244568964E-002
  -2.3358135029661442E-002   6.5418844843850021E-003   2.5027245811861998E-002
  -2.1019817834214263E-002   5.7080102256621482E-003   2.4335938125930712E-002
  -1.8681500638767057E-002   4.8139971023384298E-003   2.3593566186775217E-002
  -3.0998270176239850E-002   9.0143101640725032E-003   1.9776382149857996E-002
  -2.8694578122274564E-002   8.2690772783155508E-003   1.9183861314971129E-002
  -2.6390886068309194E-002   7.5200079684310250E-003   1.8573154450344770E-002
  -2.4087194014343893E-002   6.7671022344186829E-003   1.7944261555979044E-002
  -2.1783501960378593E-002   6.0103600762786424E-003   1.7297182631873798E-002
  -3.3949564054706061E-002   9.9994039201175000E-003   1.3236308299191507E-002
  -3.1647618918737797E-002   9.2225346781244222E-003   1.2696748249373890E-002
  -2.9345673782769525E-002   8.4981314524767010E-003   1.2171880393301568E-002
  -2.7043728646801230E-002   7.8261942431748811E-003   1.1661704730974456E-002
  -2.4741783510832935E-002   7.2067230502186330E-003   1.1166221262392778E-002
  -3.6888651055954472E-002   1.0984497676162858E-002   6.6364468720523997E-003
  -3.4555574614498361E-002   1.0175992077932919E-002   6.2061500477768247E-003
  -3.2222498173042367E-002   9.4762549365226614E-003   5.8234236407318021E-003
  -2.9889421731586343E-002   8.8852862519311366E-003   5.4882676509169486E-003
  -2.7556345290130260E-002   8.4030860241590677E-003   5.2006820783321445E-003
  -3.9815531179985042E-002   1.1969591432207327E-002  -2.3202131560262629E-005
  -3.7418445209556506E-002   1.1129449477742304E-002  -2.8793328981968624E-004
  -3.5021359239127803E-002   1.0454378420568344E-002  -4.7221580736389601E-004
  -3.2624273268699183E-002   9.9443782606879333E-003  -5.7604968419325275E-004
  -3.0227187298270564E-002   9.5994489980990583E-003  -5.9943492030745116E-004
  -1.8681500638767057E-002   4.8139971023384298E-003   2.3593566186775217E-002
  -1.5657027181151334E-002   4.0801323221872909E-003   2.4386526647015683E-002
  -1.2632553723535667E-002   3.7267030929825085E-003   2.5651760224232323E-002
  -9.6080802659199577E-003   3.7537094147252759E-003   2.7389266918424721E-002
  -6.5836068083042765E-003   4.1611512874135670E-003   2.9599046729592793E-002
  -2.1783501960378593E-002   6.0103600762786424E-003   1.7297182631873798E-002
  -1.8555553360174018E-002   5.3433817762549851E-003   1.8246964734538518E-002
  -1.5327604759969499E-002   4.8597676165934856E-003   1.9131424005405240E-002
  -1.2099656159764979E-002   4.5595175972929849E-003   1.9950560444473547E-002
  -8.8717075595604045E-003   4.4426317183539066E-003   2.0704374051744079E-002
  -2.4741783510832935E-002   7.2067230502186330E-003   1.1166221262392778E-002
  -2.1847955716813652E-002   6.6066312303229013E-003   1.2075753596896249E-002
  -1.8954127922794224E-002   5.9928321402041296E-003   1.2382367150827911E-002
  -1.6060300128774848E-002   5.3653257798609161E-003   1.2086061924187139E-002
  -1.3166472334755458E-002   4.7241121492938021E-003   1.1186837916974335E-002
  -2.7556345290130260E-002   8.4030860241590677E-003   5.2006820783321445E-003
  -2.5534234251070018E-002   7.8698806843913727E-003   5.8728932340896337E-003
  -2.3512123212009808E-002   7.1258966638142740E-003   5.4045896605006416E-003
  -2.1490012172949574E-002   6.1711339624289582E-003   3.7957713575656957E-003
  -1.9467901133889347E-002   5.0055925802334755E-003   1.0464383252846987E-003
  -3.0227187298270564E-002   9.5994489980990583E-003  -5.9943492030745116E-004
  -2.9614388962943439E-002   9.1331301384587338E-003  -3.6161635388221036E-004
  -2.9001590627616314E-002   8.2589611874259172E-003  -1.8019084655765960E-003
  -2.8388792292289161E-002   6.9769421449969310E-003  -4.9203112553917461E-003
  -2.7775993956962064E-002   5.2870730111735931E-003  -9.7168247233263561E-003
  -6.5836068083042765E-003   4.1611512874135670E-003   2.9599046729592793E-002
  -6.0558316016866842E-003   6.1435004677762306E-003   3.4075362037289447E-002
  -5.5280563950690920E-003   1.0895228712538230E-002   3.9237326446160736E-002
  -5.0002811884514720E-003   1.8416336021700092E-002   4.5084939956207770E-002
  -4.4725059818339075E-003   2.8706822395262233E-002   5.1618202567429883E-002
  -8.8717075595604045E-003   4.4426317183539066E-003   2.0704374051744079E-002
  -7.5861282291390802E-003   5.6592424929214902E-003   2.5872684473656593E-002
  -6.3005488987176450E-003   9.3594824341425575E-003   3.1870954042001354E-002
  -5.0149695682962236E-003   1.5543351542015423E-002   3.8699182756778888E-002
  -3.7293902378748855E-003   2.4210849816541646E-002   4.6357370617988281E-002
  -1.3166472334755458E-002   4.7241121492938021E-003   1.1186837916974335E-002
  -1.0978778835273144E-002   5.1749845180676934E-003   1.6761393555355664E-002
  -8.7910853357906910E-003   7.8237361557468854E-003   2.3310218385426629E-002
  -6.6033918363081895E-003   1.2670367062330753E-002   3.0833312407186925E-002
  -4.4156983368259239E-003   1.9714877237820838E-002   3.9330675620636968E-002
  -1.9467901133889347E-002   5.0055925802334755E-003   1.0464383252846987E-003
  -1.6233783420088799E-002   4.6907265432132028E-003   6.7414892823874639E-003
  -1.2999665706288275E-002   6.2879898773512133E-003   1.3555119476437047E-002
  -9.7655479924875707E-003   9.7973825826466396E-003   2.1487328907432955E-002
  -6.5314302786872031E-003   1.5218904659100585E-002   3.0538117575376417E-002
  -2.7775993956962064E-002   5.2870730111735931E-003  -9.7168247233263561E-003
  -2.3351141983586121E-002   4.2064685683582681E-003  -4.1870283452488666E-003
  -1.8926290010210123E-002   4.7522435989556522E-003   2.6056573150316231E-003
  -1.4501438036834124E-002   6.9243981029618873E-003   1.0661232257516647E-002
  -1.0076586063458182E-002   1.0722932080379444E-002   1.9979696482205433E-002
 </DataArray>
 </PointData>
 </Piece>
 </UnstructuredGrid>
 </VTKFile>
