 <VTKFile type="UnstructuredGrid"  version="0.1"   >
 <UnstructuredGrid>
 <Piece  NumberOfPoints="            25 "  NumberOfCells="           16 ">
 <Points>
 <DataArray  type="Float64" NumberOfComponents="3"  format="ascii" >
   0.0000000000000000        0.0000000000000000        0.0000000000000000     
  0.25000000000000000        0.0000000000000000        0.0000000000000000     
  0.50000000000000000        0.0000000000000000        0.0000000000000000     
  0.75000000000000000        0.0000000000000000        0.0000000000000000     
   1.0000000000000000        0.0000000000000000        0.0000000000000000     
   0.0000000000000000       0.25000000000000000        0.0000000000000000     
  0.25000000000000000       0.25000000000000000        0.0000000000000000     
  0.50000000000000000       0.25000000000000000        0.0000000000000000     
  0.75000000000000000       0.25000000000000000        0.0000000000000000     
   1.0000000000000000       0.25000000000000000        0.0000000000000000     
   0.0000000000000000       0.50000000000000000        0.0000000000000000     
  0.25000000000000000       0.50000000000000000        0.0000000000000000     
  0.50000000000000000       0.50000000000000000        0.0000000000000000     
  0.75000000000000000       0.50000000000000000        0.0000000000000000     
   1.0000000000000000       0.50000000000000000        0.0000000000000000     
   0.0000000000000000       0.75000000000000000        0.0000000000000000     
  0.25000000000000000       0.75000000000000000        0.0000000000000000     
  0.50000000000000000       0.75000000000000000        0.0000000000000000     
  0.75000000000000000       0.75000000000000000        0.0000000000000000     
   1.0000000000000000       0.75000000000000000        0.0000000000000000     
   0.0000000000000000        1.0000000000000000        0.0000000000000000     
  0.25000000000000000        1.0000000000000000        0.0000000000000000     
  0.50000000000000000        1.0000000000000000        0.0000000000000000     
  0.75000000000000000        1.0000000000000000        0.0000000000000000     
   1.0000000000000000        1.0000000000000000        0.0000000000000000     
 </DataArray>
 </Points>
 <Cells>
 <DataArray  type="Int32"  Name="connectivity"  format="ascii">
           0           1           6           5
           1           2           7           6
           2           3           8           7
           3           4           9           8
           5           6          11          10
           6           7          12          11
           7           8          13          12
           8           9          14          13
          10          11          16          15
          11          12          17          16
          12          13          18          17
          13          14          19          18
          15          16          21          20
          16          17          22          21
          17          18          23          22
          18          19          24          23
 </DataArray>
 <DataArray  type="Int32"  Name="offsets"  format="ascii"> 
           4
           8
          12
          16
          20
          24
          28
          32
          36
          40
          44
          48
          52
          56
          60
          64
 </DataArray>
 <DataArray  type="UInt8"  Name="types"  format="ascii">
 9
 9
 9
 9
 9
 9
 9
 9
 9
 9
 9
 9
 9
 9
 9
 9
 </DataArray>
 </Cells> 
 <PointData>
 <DataArray  type="Float64" Name="disp" NumberOfComponents="3" format="ascii">
   0.0000000000000000        0.0000000000000000        0.0000000000000000     
   3.0106871731505426E-002   2.4984827797788690E-002   0.0000000000000000     
   5.5189261562206937E-002   5.7627188311548734E-002   0.0000000000000000     
   7.5247169492104526E-002   9.7927081541280117E-002   0.0000000000000000     
   9.0280595521198187E-002  0.14588450748698287        0.0000000000000000     
   0.0000000000000000        0.0000000000000000        0.0000000000000000     
   1.5053435865752708E-002   2.2091962768946045E-002   0.0000000000000000     
   2.7594630781103451E-002   5.3096171624362004E-002   0.0000000000000000     
   3.7623584746052242E-002   9.3012626566247841E-002   0.0000000000000000     
   4.5140297760599066E-002  0.14184132759460361        0.0000000000000000     
   0.0000000000000000        0.0000000000000000        0.0000000000000000     
  -3.4694469519536142E-018   2.1127674425998510E-002   0.0000000000000000     
  -8.6736173798840355E-018   5.1585832728633096E-002   0.0000000000000000     
  -1.2143064331837650E-017   9.1374474907903763E-002   0.0000000000000000     
  -2.0816681711721685E-017  0.14049360096381050        0.0000000000000000     
   0.0000000000000000        0.0000000000000000        0.0000000000000000     
  -1.5053435865752699E-002   2.2091962768946094E-002   0.0000000000000000     
  -2.7594630781103444E-002   5.3096171624362039E-002   0.0000000000000000     
  -3.7623584746052235E-002   9.3012626566247827E-002   0.0000000000000000     
  -4.5140297760599066E-002  0.14184132759460349        0.0000000000000000     
   0.0000000000000000        0.0000000000000000        0.0000000000000000     
  -3.0106871731505384E-002   2.4984827797788781E-002   0.0000000000000000     
  -5.5189261562206861E-002   5.7627188311548817E-002   0.0000000000000000     
  -7.5247169492104415E-002   9.7927081541280103E-002   0.0000000000000000     
  -9.0280595521198076E-002  0.14588450748698265        0.0000000000000000     
 </DataArray>
 <DataArray  type="Float64" Name="stress" NumberOfComponents="3" format="ascii">
   8602842905.1184330        2580852871.5355296        1952867209.8279707     
   6972523455.7098217        1166040227.4832983        1270168457.5404589     
   5474569372.8593016        192445471.95803308        819368869.90543568     
   4108980656.5668712       -339931395.04026556        600468446.92290139     
   2875757306.8325291       -431090373.51159954        613467188.59285605     
   4301421452.5592136        1290426435.7677641        1627923666.9887166     
   3486261727.8549094        583020113.74165130        1061044610.4395337     
   2737284686.4296494        96222735.979018688        726064718.54283965     
   2054490328.2834327       -169965697.52013469        622983991.29863441     
   1437878653.4162610       -215545186.75580579        751802428.70691657     
  -9.1501897633941472E-007  -2.7450569290182442E-007   1519609152.7089672     
   5.7188686021213428E-007   5.3757364859940619E-006   991336661.40589333     
   2.7450569290182431E-007   5.0783553186837524E-006   694963334.75530815     
  -1.9444153247212563E-006  -1.6241586830024610E-006   630489172.75721133     
  -6.6796385272777269E-006  -1.5326567853685198E-005   797914175.41160297     
  -4301421452.5592117       -1290426435.7677636        1627923666.9887226     
  -3486261727.8549051       -583020113.74163938        1061044610.4395379     
  -2737284686.4296460       -96222735.979007483        726064718.54284120     
  -2054490328.2834356        169965697.52013123        622983991.29863310     
  -1437878653.4162724        215545186.75577658        751802428.70691276     
  -8602842905.1184196       -2580852871.5355258        1952867209.8279836     
  -6972523455.7098083       -1166040227.4832830        1270168457.5404675     
  -5474569372.8592901       -192445471.95801950        819368869.90543926     
  -4108980656.5668669        339931395.04026508        600468446.92289889     
  -2875757306.8325357        431090373.51157069        613467188.59284711     
 </DataArray>
 <DataArray  type="Float64" Name="VM" NumberOfComponents="1" format="ascii">
   8361106792.6010628     
   6832676931.3129787     
   5564933514.9765863     
   4413358583.1433392     
   3290069340.2884789     
   4750491063.1986141     
   3720056394.0691056     
   2969866524.6670432     
   2400695501.1583347     
   2029655943.2069774     
   2632040260.1386237     
   1717045464.9607122     
   1203711805.1936915     
   1092039280.8375611     
   1382027891.8923218     
   4750491063.1986189     
   3720056394.0691090     
   2969866524.6670461     
   2400695501.1583347     
   2029655943.2069683     
   8361106792.6010618     
   6832676931.3129759     
   5564933514.9765835     
   4413358583.1433344     
   3290069340.2884641     
 </DataArray>
 <DataArray  type="Float64" Name="strain" NumberOfComponents="3" format="ascii">
  0.13047645072762956        0.0000000000000000        8.4624245759212069E-002
  0.11037852312441387       -1.5428613487160809E-002   5.5040633160086554E-002
   9.0280595521198187E-002  -2.4165422331662620E-002   3.5505984362568882E-002
   7.0182667917982514E-002  -2.6210426533505450E-002   2.6020299366659061E-002
   5.0084740314766812E-002  -2.1563626092689303E-002   2.6583578172357097E-002
   6.5238225363814739E-002   0.0000000000000000        7.0543358902844383E-002
   5.5189261562206902E-002  -7.7143067435803611E-003   4.5978599785713128E-002
   4.5140297760599066E-002  -1.2082711165831268E-002   3.1462804470189717E-002
   3.5091333958991222E-002  -1.3105213266752742E-002   2.6995972956274157E-002
   2.5042370157383378E-002  -1.0781813046344735E-002   3.2578105243966385E-002
  -1.3877787807814457E-017   0.0000000000000000        6.5849729950721914E-002
  -1.7347234759768071E-017   8.6736173798840355E-017   4.2957921994255376E-002
  -2.0816681711721685E-017   8.3266726846886741E-017   3.0115077839396688E-002
  -2.4286128663675299E-017  -1.7347234759768071E-017   2.7321197486145823E-002
  -3.4694469519536142E-017  -2.2204460492503131E-016   3.4576280934502795E-002
  -6.5238225363814711E-002   0.0000000000000000        7.0543358902844647E-002
  -5.5189261562206889E-002   7.7143067435805363E-003   4.5978599785713309E-002
  -4.5140297760599066E-002   1.2082711165831438E-002   3.1462804470189787E-002
  -3.5091333958991250E-002   1.3105213266752699E-002   2.6995972956274102E-002
  -2.5042370157383420E-002   1.0781813046344305E-002   3.2578105243966218E-002
 -0.13047645072762937        0.0000000000000000        8.4624245759212624E-002
 -0.11037852312441372        1.5428613487160986E-002   5.5040633160086921E-002
  -9.0280595521198076E-002   2.4165422331662793E-002   3.5505984362569035E-002
  -7.0182667917982444E-002   2.6210426533505422E-002   2.6020299366658953E-002
  -5.0084740314766785E-002   2.1563626092688859E-002   2.6583578172356709E-002
 </DataArray>
 </PointData>
 </Piece>
 <Piece  NumberOfPoints="            25 "  NumberOfCells="           16 ">
 <Points>
 <DataArray  type="Float64" NumberOfComponents="3"  format="ascii" >
  0.50000000000000000        0.0000000000000000        0.0000000000000000     
  0.75000000000000000        0.0000000000000000        0.0000000000000000     
   1.0000000000000000        0.0000000000000000        0.0000000000000000     
   1.2500000000000000        0.0000000000000000        0.0000000000000000     
   1.5000000000000000        0.0000000000000000        0.0000000000000000     
  0.50000000000000000       0.25000000000000000        0.0000000000000000     
  0.75000000000000000       0.25000000000000000        0.0000000000000000     
   1.0000000000000000       0.25000000000000000        0.0000000000000000     
   1.2500000000000000       0.25000000000000000        0.0000000000000000     
   1.5000000000000000       0.25000000000000000        0.0000000000000000     
  0.50000000000000000       0.50000000000000000        0.0000000000000000     
  0.75000000000000000       0.50000000000000000        0.0000000000000000     
   1.0000000000000000       0.50000000000000000        0.0000000000000000     
   1.2500000000000000       0.50000000000000000        0.0000000000000000     
   1.5000000000000000       0.50000000000000000        0.0000000000000000     
  0.50000000000000000       0.75000000000000000        0.0000000000000000     
  0.75000000000000000       0.75000000000000000        0.0000000000000000     
   1.0000000000000000       0.75000000000000000        0.0000000000000000     
   1.2500000000000000       0.75000000000000000        0.0000000000000000     
   1.5000000000000000       0.75000000000000000        0.0000000000000000     
  0.50000000000000000        1.0000000000000000        0.0000000000000000     
  0.75000000000000000        1.0000000000000000        0.0000000000000000     
   1.0000000000000000        1.0000000000000000        0.0000000000000000     
   1.2500000000000000        1.0000000000000000        0.0000000000000000     
   1.5000000000000000        1.0000000000000000        0.0000000000000000     
 </DataArray>
 </Points>
 <Cells>
 <DataArray  type="Int32"  Name="connectivity"  format="ascii">
           0           1           6           5
           1           2           7           6
           2           3           8           7
           3           4           9           8
           5           6          11          10
           6           7          12          11
           7           8          13          12
           8           9          14          13
          10          11          16          15
          11          12          17          16
          12          13          18          17
          13          14          19          18
          15          16          21          20
          16          17          22          21
          17          18          23          22
          18          19          24          23
 </DataArray>
 <DataArray  type="Int32"  Name="offsets"  format="ascii"> 
           4
           8
          12
          16
          20
          24
          28
          32
          36
          40
          44
          48
          52
          56
          60
          64
 </DataArray>
 <DataArray  type="UInt8"  Name="types"  format="ascii">
 9
 9
 9
 9
 9
 9
 9
 9
 9
 9
 9
 9
 9
 9
 9
 9
 </DataArray>
 </Cells> 
 <PointData>
 <DataArray  type="Float64" Name="disp" NumberOfComponents="3" format="ascii">
   5.5189261562207069E-002   5.7627188311548644E-002   0.0000000000000000     
   7.5247169492104665E-002   9.7927081541280117E-002   0.0000000000000000     
   9.0280595521198312E-002  0.14588450748698292        0.0000000000000000     
  0.10028953964948806       0.20149946614865705        0.0000000000000000     
  0.10527400187697385       0.26477195752630256        0.0000000000000000     
   2.7594630781103559E-002   5.3096171624361893E-002   0.0000000000000000     
   3.7623584746052360E-002   9.3012626566247814E-002   0.0000000000000000     
   4.5140297760599198E-002  0.14184132759460358        0.0000000000000000     
   5.0144769824744063E-002  0.19958227470942924        0.0000000000000000     
   5.2637000938486958E-002  0.26623546791072467        0.0000000000000000     
   4.5102810375396984E-017   5.1585832728632992E-002   0.0000000000000000     
   5.2909066017292616E-017   9.1374474907903708E-002   0.0000000000000000     
   5.3342746886286818E-017  0.14049360096381047        0.0000000000000000     
   5.7571135358980285E-017  0.19894321089635322        0.0000000000000000     
   4.1633363423443370E-017  0.26672330470553207        0.0000000000000000     
  -2.7594630781103486E-002   5.3096171624361928E-002   0.0000000000000000     
  -3.7623584746052263E-002   9.3012626566247786E-002   0.0000000000000000     
  -4.5140297760599093E-002  0.14184132759460349        0.0000000000000000     
  -5.0144769824743966E-002  0.19958227470942916        0.0000000000000000     
  -5.2637000938486889E-002  0.26623546791072472        0.0000000000000000     
  -5.5189261562207020E-002   5.7627188311548713E-002   0.0000000000000000     
  -7.5247169492104582E-002   9.7927081541280020E-002   0.0000000000000000     
  -9.0280595521198242E-002  0.14588450748698278        0.0000000000000000     
 -0.10028953964948799       0.20149946614865702        0.0000000000000000     
 -0.10527400187697385       0.26477195752630267        0.0000000000000000     
 </DataArray>
 <DataArray  type="Float64" Name="stress" NumberOfComponents="3" format="ascii">
   5474569372.8593025        192445471.95802927        819368869.90544152     
   4108980656.5668693       -339931395.04026818        600468446.92290807     
   2875757306.8325191       -431090373.51162493        613467188.59286344     
   1774899323.6562529       -81031463.456035852        858365094.91530752     
   806406707.03806865        710245335.12649691        1335162165.8902409     
   2737284686.4296532        96222735.979017735        726064718.54284573     
   2054490328.2834342       -169965697.52013838        622983991.29863501     
   1437878653.4162588       -215545186.75581664        751802428.70691276     
   887449661.82812488       -40515731.728022039        1112520030.7676811     
   403203353.51903546        355122667.56325209        1705136797.4809358     
   5.0326043698667815E-006   5.6731176533043706E-006   694963334.75530910     
   4.5750948816970683E-008  -5.3986119604025470E-006   630489172.75720870     
  -2.8365588266521857E-006  -8.7613066984498954E-006   797914175.41159689     
  -2.6535550313843026E-006  -2.7736512720288509E-006   1197238342.7184727     
  -1.9215398503127708E-006   6.0848761926571078E-006   1828461674.6778374     
  -2737284686.4296412       -96222735.979005933        726064718.54283381     
  -2054490328.2834346        169965697.52012718        622983991.29862928     
  -1437878653.4162652        215545186.75579810        751802428.70691335     
  -887449661.82813275        40515731.728012204        1112520030.7676842     
  -403203353.51904154       -355122667.56324065        1705136797.4809434     
  -5474569372.8592854       -192445471.95801616        819368869.90541983     
  -4108980656.5668678        339931395.04025865        600468446.92289734     
  -2875757306.8325276        431090373.51160657        613467188.59286213     
  -1774899323.6562667        81031463.456025362        858365094.91531467     
  -806406707.03808451       -710245335.12648833        1335162165.8902550     
 </DataArray>
 <DataArray  type="Float64" Name="VM" NumberOfComponents="1" format="ascii">
   5564933514.9765921     
   4413358583.1433411     
   3290069340.2884879     
   2347557945.0516529     
   2435152487.8353267     
   2969866524.6670508     
   2400695501.1583385     
   2029655943.2069764     
   2130320763.5928981     
   2977914185.6683402     
   1203711805.1936932     
   1092039280.8375568     
   1382027891.8923113     
   2073677638.3579550     
   3166988520.2344899     
   2969866524.6670365     
   2400695501.1583285     
   2029655943.2069733     
   2130320763.5929041     
   2977914185.6683531     
   5564933514.9765720     
   4413358583.1433306     
   3290069340.2884851     
   2347557945.0516672     
   2435152487.8353515     
 </DataArray>
 <DataArray  type="Float64" Name="strain" NumberOfComponents="3" format="ascii">
   9.0280595521198229E-002  -2.4165422331662689E-002   3.5505984362569132E-002
   7.0182667917982500E-002  -2.6210426533505485E-002   2.6020299366659352E-002
   5.0084740314766778E-002  -2.1563626092689678E-002   2.6583578172357417E-002
   2.9986812711551059E-002  -1.0225021009215195E-002   3.7195820779663324E-002
   9.8888851083353269E-003   7.8053887169179381E-003   5.7857027188577104E-002
   4.5140297760599128E-002  -1.2082711165831303E-002   3.1462804470189981E-002
   3.5091333958991264E-002  -1.3105213266752812E-002   2.6995972956274185E-002
   2.5042370157383396E-002  -1.0781813046344905E-002   3.2578105243966218E-002
   1.4993406355775526E-002  -5.1125105046076593E-003   4.8209201333266179E-002
   4.9444425541676634E-003   3.9026943584590246E-003   7.3889261224173886E-002
   5.5511151231257827E-017   6.9388939039072284E-017   3.0115077839396730E-002
   2.7755575615628914E-017  -9.0205620750793969E-017   2.7321197486145709E-002
  -3.4694469519536142E-018  -1.3183898417423734E-016   3.4576280934502532E-002
  -3.0357660829594124E-017  -3.2959746043559335E-017   5.1880328184467153E-002
  -6.2450045135165055E-017   1.1102230246251565E-016   7.9233339236039618E-002
  -4.5140297760598996E-002   1.2082711165831442E-002   3.1462804470189468E-002
  -3.5091333958991215E-002   1.3105213266752628E-002   2.6995972956273939E-002
  -2.5042370157383410E-002   1.0781813046344627E-002   3.2578105243966246E-002
  -1.4993406355775608E-002   5.1125105046075344E-003   4.8209201333266317E-002
  -4.9444425541678230E-003  -3.9026943584588025E-003   7.3889261224174219E-002
  -9.0280595521198020E-002   2.4165422331662828E-002   3.5505984362568195E-002
  -7.0182667917982430E-002   2.6210426533505318E-002   2.6020299366658884E-002
  -5.0084740314766826E-002   2.1563626092689414E-002   2.6583578172357358E-002
  -2.9986812711551236E-002   1.0225021009215088E-002   3.7195820779663637E-002
  -9.8888851083356322E-003  -7.8053887169177161E-003   5.7857027188577714E-002
 </DataArray>
 </PointData>
 </Piece>
 </UnstructuredGrid>
 </VTKFile>
