 <VTKFile type="UnstructuredGrid"  version="0.1"   >
 <UnstructuredGrid>
 <Piece  NumberOfPoints="           400 "  NumberOfCells="          256 ">
 <Points>
 <DataArray  type="Float64" NumberOfComponents="3"  format="ascii" >
   0.0000000000000000        0.0000000000000000        0.0000000000000000     
   6.2500000000000000E-002   0.0000000000000000        0.0000000000000000     
  0.12500000000000000        0.0000000000000000        0.0000000000000000     
  0.18750000000000000        0.0000000000000000        0.0000000000000000     
  0.25000000000000000        0.0000000000000000        0.0000000000000000     
   0.0000000000000000        6.2500000000000000E-002   0.0000000000000000     
   6.2500000000000000E-002   6.2500000000000000E-002   0.0000000000000000     
  0.12500000000000000        6.2500000000000000E-002   0.0000000000000000     
  0.18750000000000000        6.2500000000000000E-002   0.0000000000000000     
  0.25000000000000000        6.2500000000000000E-002   0.0000000000000000     
   0.0000000000000000       0.12500000000000000        0.0000000000000000     
   6.2500000000000000E-002  0.12500000000000000        0.0000000000000000     
  0.12500000000000000       0.12500000000000000        0.0000000000000000     
  0.18750000000000000       0.12500000000000000        0.0000000000000000     
  0.25000000000000000       0.12500000000000000        0.0000000000000000     
   0.0000000000000000       0.18750000000000000        0.0000000000000000     
   6.2500000000000000E-002  0.18750000000000000        0.0000000000000000     
  0.12500000000000000       0.18750000000000000        0.0000000000000000     
  0.18750000000000000       0.18750000000000000        0.0000000000000000     
  0.25000000000000000       0.18750000000000000        0.0000000000000000     
   0.0000000000000000       0.25000000000000000        0.0000000000000000     
   6.2500000000000000E-002  0.25000000000000000        0.0000000000000000     
  0.12500000000000000       0.25000000000000000        0.0000000000000000     
  0.18750000000000000       0.25000000000000000        0.0000000000000000     
  0.25000000000000000       0.25000000000000000        0.0000000000000000     
  0.25000000000000000        0.0000000000000000        0.0000000000000000     
  0.31250000000000000        0.0000000000000000        0.0000000000000000     
  0.37500000000000000        0.0000000000000000        0.0000000000000000     
  0.43750000000000000        0.0000000000000000        0.0000000000000000     
  0.50000000000000000        0.0000000000000000        0.0000000000000000     
  0.25000000000000000        6.2500000000000000E-002   0.0000000000000000     
  0.31250000000000000        6.2500000000000000E-002   0.0000000000000000     
  0.37500000000000000        6.2500000000000000E-002   0.0000000000000000     
  0.43750000000000000        6.2500000000000000E-002   0.0000000000000000     
  0.50000000000000000        6.2500000000000000E-002   0.0000000000000000     
  0.25000000000000000       0.12500000000000000        0.0000000000000000     
  0.31250000000000000       0.12500000000000000        0.0000000000000000     
  0.37500000000000000       0.12500000000000000        0.0000000000000000     
  0.43750000000000000       0.12500000000000000        0.0000000000000000     
  0.50000000000000000       0.12500000000000000        0.0000000000000000     
  0.25000000000000000       0.18750000000000000        0.0000000000000000     
  0.31250000000000000       0.18750000000000000        0.0000000000000000     
  0.37500000000000000       0.18750000000000000        0.0000000000000000     
  0.43750000000000000       0.18750000000000000        0.0000000000000000     
  0.50000000000000000       0.18750000000000000        0.0000000000000000     
  0.25000000000000000       0.25000000000000000        0.0000000000000000     
  0.31250000000000000       0.25000000000000000        0.0000000000000000     
  0.37500000000000000       0.25000000000000000        0.0000000000000000     
  0.43750000000000000       0.25000000000000000        0.0000000000000000     
  0.50000000000000000       0.25000000000000000        0.0000000000000000     
  0.50000000000000000        0.0000000000000000        0.0000000000000000     
  0.56250000000000000        0.0000000000000000        0.0000000000000000     
  0.62500000000000000        0.0000000000000000        0.0000000000000000     
  0.68750000000000000        0.0000000000000000        0.0000000000000000     
  0.75000000000000000        0.0000000000000000        0.0000000000000000     
  0.50000000000000000        6.2500000000000000E-002   0.0000000000000000     
  0.56250000000000000        6.2500000000000000E-002   0.0000000000000000     
  0.62500000000000000        6.2500000000000000E-002   0.0000000000000000     
  0.68750000000000000        6.2500000000000000E-002   0.0000000000000000     
  0.75000000000000000        6.2500000000000000E-002   0.0000000000000000     
  0.50000000000000000       0.12500000000000000        0.0000000000000000     
  0.56250000000000000       0.12500000000000000        0.0000000000000000     
  0.62500000000000000       0.12500000000000000        0.0000000000000000     
  0.68750000000000000       0.12500000000000000        0.0000000000000000     
  0.75000000000000000       0.12500000000000000        0.0000000000000000     
  0.50000000000000000       0.18750000000000000        0.0000000000000000     
  0.56250000000000000       0.18750000000000000        0.0000000000000000     
  0.62500000000000000       0.18750000000000000        0.0000000000000000     
  0.68750000000000000       0.18750000000000000        0.0000000000000000     
  0.75000000000000000       0.18750000000000000        0.0000000000000000     
  0.50000000000000000       0.25000000000000000        0.0000000000000000     
  0.56250000000000000       0.25000000000000000        0.0000000000000000     
  0.62500000000000000       0.25000000000000000        0.0000000000000000     
  0.68750000000000000       0.25000000000000000        0.0000000000000000     
  0.75000000000000000       0.25000000000000000        0.0000000000000000     
  0.75000000000000000        0.0000000000000000        0.0000000000000000     
  0.81250000000000000        0.0000000000000000        0.0000000000000000     
  0.87500000000000000        0.0000000000000000        0.0000000000000000     
  0.93750000000000000        0.0000000000000000        0.0000000000000000     
   1.0000000000000000        0.0000000000000000        0.0000000000000000     
  0.75000000000000000        6.2500000000000000E-002   0.0000000000000000     
  0.81250000000000000        6.2500000000000000E-002   0.0000000000000000     
  0.87500000000000000        6.2500000000000000E-002   0.0000000000000000     
  0.93750000000000000        6.2500000000000000E-002   0.0000000000000000     
   1.0000000000000000        6.2500000000000000E-002   0.0000000000000000     
  0.75000000000000000       0.12500000000000000        0.0000000000000000     
  0.81250000000000000       0.12500000000000000        0.0000000000000000     
  0.87500000000000000       0.12500000000000000        0.0000000000000000     
  0.93750000000000000       0.12500000000000000        0.0000000000000000     
   1.0000000000000000       0.12500000000000000        0.0000000000000000     
  0.75000000000000000       0.18750000000000000        0.0000000000000000     
  0.81250000000000000       0.18750000000000000        0.0000000000000000     
  0.87500000000000000       0.18750000000000000        0.0000000000000000     
  0.93750000000000000       0.18750000000000000        0.0000000000000000     
   1.0000000000000000       0.18750000000000000        0.0000000000000000     
  0.75000000000000000       0.25000000000000000        0.0000000000000000     
  0.81250000000000000       0.25000000000000000        0.0000000000000000     
  0.87500000000000000       0.25000000000000000        0.0000000000000000     
  0.93750000000000000       0.25000000000000000        0.0000000000000000     
   1.0000000000000000       0.25000000000000000        0.0000000000000000     
   0.0000000000000000       0.25000000000000000        0.0000000000000000     
   6.2500000000000000E-002  0.25000000000000000        0.0000000000000000     
  0.12500000000000000       0.25000000000000000        0.0000000000000000     
  0.18750000000000000       0.25000000000000000        0.0000000000000000     
  0.25000000000000000       0.25000000000000000        0.0000000000000000     
   0.0000000000000000       0.31250000000000000        0.0000000000000000     
   6.2500000000000000E-002  0.31250000000000000        0.0000000000000000     
  0.12500000000000000       0.31250000000000000        0.0000000000000000     
  0.18750000000000000       0.31250000000000000        0.0000000000000000     
  0.25000000000000000       0.31250000000000000        0.0000000000000000     
   0.0000000000000000       0.37500000000000000        0.0000000000000000     
   6.2500000000000000E-002  0.37500000000000000        0.0000000000000000     
  0.12500000000000000       0.37500000000000000        0.0000000000000000     
  0.18750000000000000       0.37500000000000000        0.0000000000000000     
  0.25000000000000000       0.37500000000000000        0.0000000000000000     
   0.0000000000000000       0.43750000000000000        0.0000000000000000     
   6.2500000000000000E-002  0.43750000000000000        0.0000000000000000     
  0.12500000000000000       0.43750000000000000        0.0000000000000000     
  0.18750000000000000       0.43750000000000000        0.0000000000000000     
  0.25000000000000000       0.43750000000000000        0.0000000000000000     
   0.0000000000000000       0.50000000000000000        0.0000000000000000     
   6.2500000000000000E-002  0.50000000000000000        0.0000000000000000     
  0.12500000000000000       0.50000000000000000        0.0000000000000000     
  0.18750000000000000       0.50000000000000000        0.0000000000000000     
  0.25000000000000000       0.50000000000000000        0.0000000000000000     
  0.25000000000000000       0.25000000000000000        0.0000000000000000     
  0.31250000000000000       0.25000000000000000        0.0000000000000000     
  0.37500000000000000       0.25000000000000000        0.0000000000000000     
  0.43750000000000000       0.25000000000000000        0.0000000000000000     
  0.50000000000000000       0.25000000000000000        0.0000000000000000     
  0.25000000000000000       0.31250000000000000        0.0000000000000000     
  0.31250000000000000       0.31250000000000000        0.0000000000000000     
  0.37500000000000000       0.31250000000000000        0.0000000000000000     
  0.43750000000000000       0.31250000000000000        0.0000000000000000     
  0.50000000000000000       0.31250000000000000        0.0000000000000000     
  0.25000000000000000       0.37500000000000000        0.0000000000000000     
  0.31250000000000000       0.37500000000000000        0.0000000000000000     
  0.37500000000000000       0.37500000000000000        0.0000000000000000     
  0.43750000000000000       0.37500000000000000        0.0000000000000000     
  0.50000000000000000       0.37500000000000000        0.0000000000000000     
  0.25000000000000000       0.43750000000000000        0.0000000000000000     
  0.31250000000000000       0.43750000000000000        0.0000000000000000     
  0.37500000000000000       0.43750000000000000        0.0000000000000000     
  0.43750000000000000       0.43750000000000000        0.0000000000000000     
  0.50000000000000000       0.43750000000000000        0.0000000000000000     
  0.25000000000000000       0.50000000000000000        0.0000000000000000     
  0.31250000000000000       0.50000000000000000        0.0000000000000000     
  0.37500000000000000       0.50000000000000000        0.0000000000000000     
  0.43750000000000000       0.50000000000000000        0.0000000000000000     
  0.50000000000000000       0.50000000000000000        0.0000000000000000     
  0.50000000000000000       0.25000000000000000        0.0000000000000000     
  0.56250000000000000       0.25000000000000000        0.0000000000000000     
  0.62500000000000000       0.25000000000000000        0.0000000000000000     
  0.68750000000000000       0.25000000000000000        0.0000000000000000     
  0.75000000000000000       0.25000000000000000        0.0000000000000000     
  0.50000000000000000       0.31250000000000000        0.0000000000000000     
  0.56250000000000000       0.31250000000000000        0.0000000000000000     
  0.62500000000000000       0.31250000000000000        0.0000000000000000     
  0.68750000000000000       0.31250000000000000        0.0000000000000000     
  0.75000000000000000       0.31250000000000000        0.0000000000000000     
  0.50000000000000000       0.37500000000000000        0.0000000000000000     
  0.56250000000000000       0.37500000000000000        0.0000000000000000     
  0.62500000000000000       0.37500000000000000        0.0000000000000000     
  0.68750000000000000       0.37500000000000000        0.0000000000000000     
  0.75000000000000000       0.37500000000000000        0.0000000000000000     
  0.50000000000000000       0.43750000000000000        0.0000000000000000     
  0.56250000000000000       0.43750000000000000        0.0000000000000000     
  0.62500000000000000       0.43750000000000000        0.0000000000000000     
  0.68750000000000000       0.43750000000000000        0.0000000000000000     
  0.75000000000000000       0.43750000000000000        0.0000000000000000     
  0.50000000000000000       0.50000000000000000        0.0000000000000000     
  0.56250000000000000       0.50000000000000000        0.0000000000000000     
  0.62500000000000000       0.50000000000000000        0.0000000000000000     
  0.68750000000000000       0.50000000000000000        0.0000000000000000     
  0.75000000000000000       0.50000000000000000        0.0000000000000000     
  0.75000000000000000       0.25000000000000000        0.0000000000000000     
  0.81250000000000000       0.25000000000000000        0.0000000000000000     
  0.87500000000000000       0.25000000000000000        0.0000000000000000     
  0.93750000000000000       0.25000000000000000        0.0000000000000000     
   1.0000000000000000       0.25000000000000000        0.0000000000000000     
  0.75000000000000000       0.31250000000000000        0.0000000000000000     
  0.81250000000000000       0.31250000000000000        0.0000000000000000     
  0.87500000000000000       0.31250000000000000        0.0000000000000000     
  0.93750000000000000       0.31250000000000000        0.0000000000000000     
   1.0000000000000000       0.31250000000000000        0.0000000000000000     
  0.75000000000000000       0.37500000000000000        0.0000000000000000     
  0.81250000000000000       0.37500000000000000        0.0000000000000000     
  0.87500000000000000       0.37500000000000000        0.0000000000000000     
  0.93750000000000000       0.37500000000000000        0.0000000000000000     
   1.0000000000000000       0.37500000000000000        0.0000000000000000     
  0.75000000000000000       0.43750000000000000        0.0000000000000000     
  0.81250000000000000       0.43750000000000000        0.0000000000000000     
  0.87500000000000000       0.43750000000000000        0.0000000000000000     
  0.93750000000000000       0.43750000000000000        0.0000000000000000     
   1.0000000000000000       0.43750000000000000        0.0000000000000000     
  0.75000000000000000       0.50000000000000000        0.0000000000000000     
  0.81250000000000000       0.50000000000000000        0.0000000000000000     
  0.87500000000000000       0.50000000000000000        0.0000000000000000     
  0.93750000000000000       0.50000000000000000        0.0000000000000000     
   1.0000000000000000       0.50000000000000000        0.0000000000000000     
   0.0000000000000000       0.50000000000000000        0.0000000000000000     
   6.2500000000000000E-002  0.50000000000000000        0.0000000000000000     
  0.12500000000000000       0.50000000000000000        0.0000000000000000     
  0.18750000000000000       0.50000000000000000        0.0000000000000000     
  0.25000000000000000       0.50000000000000000        0.0000000000000000     
   0.0000000000000000       0.56250000000000000        0.0000000000000000     
   6.2500000000000000E-002  0.56250000000000000        0.0000000000000000     
  0.12500000000000000       0.56250000000000000        0.0000000000000000     
  0.18750000000000000       0.56250000000000000        0.0000000000000000     
  0.25000000000000000       0.56250000000000000        0.0000000000000000     
   0.0000000000000000       0.62500000000000000        0.0000000000000000     
   6.2500000000000000E-002  0.62500000000000000        0.0000000000000000     
  0.12500000000000000       0.62500000000000000        0.0000000000000000     
  0.18750000000000000       0.62500000000000000        0.0000000000000000     
  0.25000000000000000       0.62500000000000000        0.0000000000000000     
   0.0000000000000000       0.68750000000000000        0.0000000000000000     
   6.2500000000000000E-002  0.68750000000000000        0.0000000000000000     
  0.12500000000000000       0.68750000000000000        0.0000000000000000     
  0.18750000000000000       0.68750000000000000        0.0000000000000000     
  0.25000000000000000       0.68750000000000000        0.0000000000000000     
   0.0000000000000000       0.75000000000000000        0.0000000000000000     
   6.2500000000000000E-002  0.75000000000000000        0.0000000000000000     
  0.12500000000000000       0.75000000000000000        0.0000000000000000     
  0.18750000000000000       0.75000000000000000        0.0000000000000000     
  0.25000000000000000       0.75000000000000000        0.0000000000000000     
  0.25000000000000000       0.50000000000000000        0.0000000000000000     
  0.31250000000000000       0.50000000000000000        0.0000000000000000     
  0.37500000000000000       0.50000000000000000        0.0000000000000000     
  0.43750000000000000       0.50000000000000000        0.0000000000000000     
  0.50000000000000000       0.50000000000000000        0.0000000000000000     
  0.25000000000000000       0.56250000000000000        0.0000000000000000     
  0.31250000000000000       0.56250000000000000        0.0000000000000000     
  0.37500000000000000       0.56250000000000000        0.0000000000000000     
  0.43750000000000000       0.56250000000000000        0.0000000000000000     
  0.50000000000000000       0.56250000000000000        0.0000000000000000     
  0.25000000000000000       0.62500000000000000        0.0000000000000000     
  0.31250000000000000       0.62500000000000000        0.0000000000000000     
  0.37500000000000000       0.62500000000000000        0.0000000000000000     
  0.43750000000000000       0.62500000000000000        0.0000000000000000     
  0.50000000000000000       0.62500000000000000        0.0000000000000000     
  0.25000000000000000       0.68750000000000000        0.0000000000000000     
  0.31250000000000000       0.68750000000000000        0.0000000000000000     
  0.37500000000000000       0.68750000000000000        0.0000000000000000     
  0.43750000000000000       0.68750000000000000        0.0000000000000000     
  0.50000000000000000       0.68750000000000000        0.0000000000000000     
  0.25000000000000000       0.75000000000000000        0.0000000000000000     
  0.31250000000000000       0.75000000000000000        0.0000000000000000     
  0.37500000000000000       0.75000000000000000        0.0000000000000000     
  0.43750000000000000       0.75000000000000000        0.0000000000000000     
  0.50000000000000000       0.75000000000000000        0.0000000000000000     
  0.50000000000000000       0.50000000000000000        0.0000000000000000     
  0.56250000000000000       0.50000000000000000        0.0000000000000000     
  0.62500000000000000       0.50000000000000000        0.0000000000000000     
  0.68750000000000000       0.50000000000000000        0.0000000000000000     
  0.75000000000000000       0.50000000000000000        0.0000000000000000     
  0.50000000000000000       0.56250000000000000        0.0000000000000000     
  0.56250000000000000       0.56250000000000000        0.0000000000000000     
  0.62500000000000000       0.56250000000000000        0.0000000000000000     
  0.68750000000000000       0.56250000000000000        0.0000000000000000     
  0.75000000000000000       0.56250000000000000        0.0000000000000000     
  0.50000000000000000       0.62500000000000000        0.0000000000000000     
  0.56250000000000000       0.62500000000000000        0.0000000000000000     
  0.62500000000000000       0.62500000000000000        0.0000000000000000     
  0.68750000000000000       0.62500000000000000        0.0000000000000000     
  0.75000000000000000       0.62500000000000000        0.0000000000000000     
  0.50000000000000000       0.68750000000000000        0.0000000000000000     
  0.56250000000000000       0.68750000000000000        0.0000000000000000     
  0.62500000000000000       0.68750000000000000        0.0000000000000000     
  0.68750000000000000       0.68750000000000000        0.0000000000000000     
  0.75000000000000000       0.68750000000000000        0.0000000000000000     
  0.50000000000000000       0.75000000000000000        0.0000000000000000     
  0.56250000000000000       0.75000000000000000        0.0000000000000000     
  0.62500000000000000       0.75000000000000000        0.0000000000000000     
  0.68750000000000000       0.75000000000000000        0.0000000000000000     
  0.75000000000000000       0.75000000000000000        0.0000000000000000     
  0.75000000000000000       0.50000000000000000        0.0000000000000000     
  0.81250000000000000       0.50000000000000000        0.0000000000000000     
  0.87500000000000000       0.50000000000000000        0.0000000000000000     
  0.93750000000000000       0.50000000000000000        0.0000000000000000     
   1.0000000000000000       0.50000000000000000        0.0000000000000000     
  0.75000000000000000       0.56250000000000000        0.0000000000000000     
  0.81250000000000000       0.56250000000000000        0.0000000000000000     
  0.87500000000000000       0.56250000000000000        0.0000000000000000     
  0.93750000000000000       0.56250000000000000        0.0000000000000000     
   1.0000000000000000       0.56250000000000000        0.0000000000000000     
  0.75000000000000000       0.62500000000000000        0.0000000000000000     
  0.81250000000000000       0.62500000000000000        0.0000000000000000     
  0.87500000000000000       0.62500000000000000        0.0000000000000000     
  0.93750000000000000       0.62500000000000000        0.0000000000000000     
   1.0000000000000000       0.62500000000000000        0.0000000000000000     
  0.75000000000000000       0.68750000000000000        0.0000000000000000     
  0.81250000000000000       0.68750000000000000        0.0000000000000000     
  0.87500000000000000       0.68750000000000000        0.0000000000000000     
  0.93750000000000000       0.68750000000000000        0.0000000000000000     
   1.0000000000000000       0.68750000000000000        0.0000000000000000     
  0.75000000000000000       0.75000000000000000        0.0000000000000000     
  0.81250000000000000       0.75000000000000000        0.0000000000000000     
  0.87500000000000000       0.75000000000000000        0.0000000000000000     
  0.93750000000000000       0.75000000000000000        0.0000000000000000     
   1.0000000000000000       0.75000000000000000        0.0000000000000000     
   0.0000000000000000       0.75000000000000000        0.0000000000000000     
   6.2500000000000000E-002  0.75000000000000000        0.0000000000000000     
  0.12500000000000000       0.75000000000000000        0.0000000000000000     
  0.18750000000000000       0.75000000000000000        0.0000000000000000     
  0.25000000000000000       0.75000000000000000        0.0000000000000000     
   0.0000000000000000       0.81250000000000000        0.0000000000000000     
   6.2500000000000000E-002  0.81250000000000000        0.0000000000000000     
  0.12500000000000000       0.81250000000000000        0.0000000000000000     
  0.18750000000000000       0.81250000000000000        0.0000000000000000     
  0.25000000000000000       0.81250000000000000        0.0000000000000000     
   0.0000000000000000       0.87500000000000000        0.0000000000000000     
   6.2500000000000000E-002  0.87500000000000000        0.0000000000000000     
  0.12500000000000000       0.87500000000000000        0.0000000000000000     
  0.18750000000000000       0.87500000000000000        0.0000000000000000     
  0.25000000000000000       0.87500000000000000        0.0000000000000000     
   0.0000000000000000       0.93750000000000000        0.0000000000000000     
   6.2500000000000000E-002  0.93750000000000000        0.0000000000000000     
  0.12500000000000000       0.93750000000000000        0.0000000000000000     
  0.18750000000000000       0.93750000000000000        0.0000000000000000     
  0.25000000000000000       0.93750000000000000        0.0000000000000000     
   0.0000000000000000        1.0000000000000000        0.0000000000000000     
   6.2500000000000000E-002   1.0000000000000000        0.0000000000000000     
  0.12500000000000000        1.0000000000000000        0.0000000000000000     
  0.18750000000000000        1.0000000000000000        0.0000000000000000     
  0.25000000000000000        1.0000000000000000        0.0000000000000000     
  0.25000000000000000       0.75000000000000000        0.0000000000000000     
  0.31250000000000000       0.75000000000000000        0.0000000000000000     
  0.37500000000000000       0.75000000000000000        0.0000000000000000     
  0.43750000000000000       0.75000000000000000        0.0000000000000000     
  0.50000000000000000       0.75000000000000000        0.0000000000000000     
  0.25000000000000000       0.81250000000000000        0.0000000000000000     
  0.31250000000000000       0.81250000000000000        0.0000000000000000     
  0.37500000000000000       0.81250000000000000        0.0000000000000000     
  0.43750000000000000       0.81250000000000000        0.0000000000000000     
  0.50000000000000000       0.81250000000000000        0.0000000000000000     
  0.25000000000000000       0.87500000000000000        0.0000000000000000     
  0.31250000000000000       0.87500000000000000        0.0000000000000000     
  0.37500000000000000       0.87500000000000000        0.0000000000000000     
  0.43750000000000000       0.87500000000000000        0.0000000000000000     
  0.50000000000000000       0.87500000000000000        0.0000000000000000     
  0.25000000000000000       0.93750000000000000        0.0000000000000000     
  0.31250000000000000       0.93750000000000000        0.0000000000000000     
  0.37500000000000000       0.93750000000000000        0.0000000000000000     
  0.43750000000000000       0.93750000000000000        0.0000000000000000     
  0.50000000000000000       0.93750000000000000        0.0000000000000000     
  0.25000000000000000        1.0000000000000000        0.0000000000000000     
  0.31250000000000000        1.0000000000000000        0.0000000000000000     
  0.37500000000000000        1.0000000000000000        0.0000000000000000     
  0.43750000000000000        1.0000000000000000        0.0000000000000000     
  0.50000000000000000        1.0000000000000000        0.0000000000000000     
  0.50000000000000000       0.75000000000000000        0.0000000000000000     
  0.56250000000000000       0.75000000000000000        0.0000000000000000     
  0.62500000000000000       0.75000000000000000        0.0000000000000000     
  0.68750000000000000       0.75000000000000000        0.0000000000000000     
  0.75000000000000000       0.75000000000000000        0.0000000000000000     
  0.50000000000000000       0.81250000000000000        0.0000000000000000     
  0.56250000000000000       0.81250000000000000        0.0000000000000000     
  0.62500000000000000       0.81250000000000000        0.0000000000000000     
  0.68750000000000000       0.81250000000000000        0.0000000000000000     
  0.75000000000000000       0.81250000000000000        0.0000000000000000     
  0.50000000000000000       0.87500000000000000        0.0000000000000000     
  0.56250000000000000       0.87500000000000000        0.0000000000000000     
  0.62500000000000000       0.87500000000000000        0.0000000000000000     
  0.68750000000000000       0.87500000000000000        0.0000000000000000     
  0.75000000000000000       0.87500000000000000        0.0000000000000000     
  0.50000000000000000       0.93750000000000000        0.0000000000000000     
  0.56250000000000000       0.93750000000000000        0.0000000000000000     
  0.62500000000000000       0.93750000000000000        0.0000000000000000     
  0.68750000000000000       0.93750000000000000        0.0000000000000000     
  0.75000000000000000       0.93750000000000000        0.0000000000000000     
  0.50000000000000000        1.0000000000000000        0.0000000000000000     
  0.56250000000000000        1.0000000000000000        0.0000000000000000     
  0.62500000000000000        1.0000000000000000        0.0000000000000000     
  0.68750000000000000        1.0000000000000000        0.0000000000000000     
  0.75000000000000000        1.0000000000000000        0.0000000000000000     
  0.75000000000000000       0.75000000000000000        0.0000000000000000     
  0.81250000000000000       0.75000000000000000        0.0000000000000000     
  0.87500000000000000       0.75000000000000000        0.0000000000000000     
  0.93750000000000000       0.75000000000000000        0.0000000000000000     
   1.0000000000000000       0.75000000000000000        0.0000000000000000     
  0.75000000000000000       0.81250000000000000        0.0000000000000000     
  0.81250000000000000       0.81250000000000000        0.0000000000000000     
  0.87500000000000000       0.81250000000000000        0.0000000000000000     
  0.93750000000000000       0.81250000000000000        0.0000000000000000     
   1.0000000000000000       0.81250000000000000        0.0000000000000000     
  0.75000000000000000       0.87500000000000000        0.0000000000000000     
  0.81250000000000000       0.87500000000000000        0.0000000000000000     
  0.87500000000000000       0.87500000000000000        0.0000000000000000     
  0.93750000000000000       0.87500000000000000        0.0000000000000000     
   1.0000000000000000       0.87500000000000000        0.0000000000000000     
  0.75000000000000000       0.93750000000000000        0.0000000000000000     
  0.81250000000000000       0.93750000000000000        0.0000000000000000     
  0.87500000000000000       0.93750000000000000        0.0000000000000000     
  0.93750000000000000       0.93750000000000000        0.0000000000000000     
   1.0000000000000000       0.93750000000000000        0.0000000000000000     
  0.75000000000000000        1.0000000000000000        0.0000000000000000     
  0.81250000000000000        1.0000000000000000        0.0000000000000000     
  0.87500000000000000        1.0000000000000000        0.0000000000000000     
  0.93750000000000000        1.0000000000000000        0.0000000000000000     
   1.0000000000000000        1.0000000000000000        0.0000000000000000     
 </DataArray>
 </Points>
 <Cells>
 <DataArray  type="Int32"  Name="connectivity"  format="ascii">
           0           1           6           5
           1           2           7           6
           2           3           8           7
           3           4           9           8
           5           6          11          10
           6           7          12          11
           7           8          13          12
           8           9          14          13
          10          11          16          15
          11          12          17          16
          12          13          18          17
          13          14          19          18
          15          16          21          20
          16          17          22          21
          17          18          23          22
          18          19          24          23
          25          26          31          30
          26          27          32          31
          27          28          33          32
          28          29          34          33
          30          31          36          35
          31          32          37          36
          32          33          38          37
          33          34          39          38
          35          36          41          40
          36          37          42          41
          37          38          43          42
          38          39          44          43
          40          41          46          45
          41          42          47          46
          42          43          48          47
          43          44          49          48
          50          51          56          55
          51          52          57          56
          52          53          58          57
          53          54          59          58
          55          56          61          60
          56          57          62          61
          57          58          63          62
          58          59          64          63
          60          61          66          65
          61          62          67          66
          62          63          68          67
          63          64          69          68
          65          66          71          70
          66          67          72          71
          67          68          73          72
          68          69          74          73
          75          76          81          80
          76          77          82          81
          77          78          83          82
          78          79          84          83
          80          81          86          85
          81          82          87          86
          82          83          88          87
          83          84          89          88
          85          86          91          90
          86          87          92          91
          87          88          93          92
          88          89          94          93
          90          91          96          95
          91          92          97          96
          92          93          98          97
          93          94          99          98
         100         101         106         105
         101         102         107         106
         102         103         108         107
         103         104         109         108
         105         106         111         110
         106         107         112         111
         107         108         113         112
         108         109         114         113
         110         111         116         115
         111         112         117         116
         112         113         118         117
         113         114         119         118
         115         116         121         120
         116         117         122         121
         117         118         123         122
         118         119         124         123
         125         126         131         130
         126         127         132         131
         127         128         133         132
         128         129         134         133
         130         131         136         135
         131         132         137         136
         132         133         138         137
         133         134         139         138
         135         136         141         140
         136         137         142         141
         137         138         143         142
         138         139         144         143
         140         141         146         145
         141         142         147         146
         142         143         148         147
         143         144         149         148
         150         151         156         155
         151         152         157         156
         152         153         158         157
         153         154         159         158
         155         156         161         160
         156         157         162         161
         157         158         163         162
         158         159         164         163
         160         161         166         165
         161         162         167         166
         162         163         168         167
         163         164         169         168
         165         166         171         170
         166         167         172         171
         167         168         173         172
         168         169         174         173
         175         176         181         180
         176         177         182         181
         177         178         183         182
         178         179         184         183
         180         181         186         185
         181         182         187         186
         182         183         188         187
         183         184         189         188
         185         186         191         190
         186         187         192         191
         187         188         193         192
         188         189         194         193
         190         191         196         195
         191         192         197         196
         192         193         198         197
         193         194         199         198
         200         201         206         205
         201         202         207         206
         202         203         208         207
         203         204         209         208
         205         206         211         210
         206         207         212         211
         207         208         213         212
         208         209         214         213
         210         211         216         215
         211         212         217         216
         212         213         218         217
         213         214         219         218
         215         216         221         220
         216         217         222         221
         217         218         223         222
         218         219         224         223
         225         226         231         230
         226         227         232         231
         227         228         233         232
         228         229         234         233
         230         231         236         235
         231         232         237         236
         232         233         238         237
         233         234         239         238
         235         236         241         240
         236         237         242         241
         237         238         243         242
         238         239         244         243
         240         241         246         245
         241         242         247         246
         242         243         248         247
         243         244         249         248
         250         251         256         255
         251         252         257         256
         252         253         258         257
         253         254         259         258
         255         256         261         260
         256         257         262         261
         257         258         263         262
         258         259         264         263
         260         261         266         265
         261         262         267         266
         262         263         268         267
         263         264         269         268
         265         266         271         270
         266         267         272         271
         267         268         273         272
         268         269         274         273
         275         276         281         280
         276         277         282         281
         277         278         283         282
         278         279         284         283
         280         281         286         285
         281         282         287         286
         282         283         288         287
         283         284         289         288
         285         286         291         290
         286         287         292         291
         287         288         293         292
         288         289         294         293
         290         291         296         295
         291         292         297         296
         292         293         298         297
         293         294         299         298
         300         301         306         305
         301         302         307         306
         302         303         308         307
         303         304         309         308
         305         306         311         310
         306         307         312         311
         307         308         313         312
         308         309         314         313
         310         311         316         315
         311         312         317         316
         312         313         318         317
         313         314         319         318
         315         316         321         320
         316         317         322         321
         317         318         323         322
         318         319         324         323
         325         326         331         330
         326         327         332         331
         327         328         333         332
         328         329         334         333
         330         331         336         335
         331         332         337         336
         332         333         338         337
         333         334         339         338
         335         336         341         340
         336         337         342         341
         337         338         343         342
         338         339         344         343
         340         341         346         345
         341         342         347         346
         342         343         348         347
         343         344         349         348
         350         351         356         355
         351         352         357         356
         352         353         358         357
         353         354         359         358
         355         356         361         360
         356         357         362         361
         357         358         363         362
         358         359         364         363
         360         361         366         365
         361         362         367         366
         362         363         368         367
         363         364         369         368
         365         366         371         370
         366         367         372         371
         367         368         373         372
         368         369         374         373
         375         376         381         380
         376         377         382         381
         377         378         383         382
         378         379         384         383
         380         381         386         385
         381         382         387         386
         382         383         388         387
         383         384         389         388
         385         386         391         390
         386         387         392         391
         387         388         393         392
         388         389         394         393
         390         391         396         395
         391         392         397         396
         392         393         398         397
         393         394         399         398
 </DataArray>
 <DataArray  type="Int32"  Name="offsets"  format="ascii"> 
           4
           8
          12
          16
          20
          24
          28
          32
          36
          40
          44
          48
          52
          56
          60
          64
          68
          72
          76
          80
          84
          88
          92
          96
         100
         104
         108
         112
         116
         120
         124
         128
         132
         136
         140
         144
         148
         152
         156
         160
         164
         168
         172
         176
         180
         184
         188
         192
         196
         200
         204
         208
         212
         216
         220
         224
         228
         232
         236
         240
         244
         248
         252
         256
         260
         264
         268
         272
         276
         280
         284
         288
         292
         296
         300
         304
         308
         312
         316
         320
         324
         328
         332
         336
         340
         344
         348
         352
         356
         360
         364
         368
         372
         376
         380
         384
         388
         392
         396
         400
         404
         408
         412
         416
         420
         424
         428
         432
         436
         440
         444
         448
         452
         456
         460
         464
         468
         472
         476
         480
         484
         488
         492
         496
         500
         504
         508
         512
         516
         520
         524
         528
         532
         536
         540
         544
         548
         552
         556
         560
         564
         568
         572
         576
         580
         584
         588
         592
         596
         600
         604
         608
         612
         616
         620
         624
         628
         632
         636
         640
         644
         648
         652
         656
         660
         664
         668
         672
         676
         680
         684
         688
         692
         696
         700
         704
         708
         712
         716
         720
         724
         728
         732
         736
         740
         744
         748
         752
         756
         760
         764
         768
         772
         776
         780
         784
         788
         792
         796
         800
         804
         808
         812
         816
         820
         824
         828
         832
         836
         840
         844
         848
         852
         856
         860
         864
         868
         872
         876
         880
         884
         888
         892
         896
         900
         904
         908
         912
         916
         920
         924
         928
         932
         936
         940
         944
         948
         952
         956
         960
         964
         968
         972
         976
         980
         984
         988
         992
         996
        1000
        1004
        1008
        1012
        1016
        1020
        1024
 </DataArray>
 <DataArray  type="UInt8"  Name="types"  format="ascii">
 9
 9
 9
 9
 9
 9
 9
 9
 9
 9
 9
 9
 9
 9
 9
 9
 9
 9
 9
 9
 9
 9
 9
 9
 9
 9
 9
 9
 9
 9
 9
 9
 9
 9
 9
 9
 9
 9
 9
 9
 9
 9
 9
 9
 9
 9
 9
 9
 9
 9
 9
 9
 9
 9
 9
 9
 9
 9
 9
 9
 9
 9
 9
 9
 9
 9
 9
 9
 9
 9
 9
 9
 9
 9
 9
 9
 9
 9
 9
 9
 9
 9
 9
 9
 9
 9
 9
 9
 9
 9
 9
 9
 9
 9
 9
 9
 9
 9
 9
 9
 9
 9
 9
 9
 9
 9
 9
 9
 9
 9
 9
 9
 9
 9
 9
 9
 9
 9
 9
 9
 9
 9
 9
 9
 9
 9
 9
 9
 9
 9
 9
 9
 9
 9
 9
 9
 9
 9
 9
 9
 9
 9
 9
 9
 9
 9
 9
 9
 9
 9
 9
 9
 9
 9
 9
 9
 9
 9
 9
 9
 9
 9
 9
 9
 9
 9
 9
 9
 9
 9
 9
 9
 9
 9
 9
 9
 9
 9
 9
 9
 9
 9
 9
 9
 9
 9
 9
 9
 9
 9
 9
 9
 9
 9
 9
 9
 9
 9
 9
 9
 9
 9
 9
 9
 9
 9
 9
 9
 9
 9
 9
 9
 9
 9
 9
 9
 9
 9
 9
 9
 9
 9
 9
 9
 9
 9
 9
 9
 9
 9
 9
 9
 9
 9
 9
 9
 9
 9
 9
 9
 9
 9
 9
 9
 9
 9
 9
 9
 9
 9
 9
 9
 9
 9
 9
 9
 </DataArray>
 </Cells> 
 <PointData>
 <DataArray  type="Float64" Name="disp" NumberOfComponents="3" format="ascii">
   0.0000000000000000        0.0000000000000000        0.0000000000000000     
   1.0689154813587051E-002   6.3666257371949213E-003   0.0000000000000000     
   2.0500385835484594E-002   1.2956478407157173E-002   0.0000000000000000     
   2.9433693065692636E-002   1.9769558009886751E-002   0.0000000000000000     
   3.7489076504211162E-002   2.6805864545383661E-002   0.0000000000000000     
   0.0000000000000000        0.0000000000000000        0.0000000000000000     
   8.1743332263940760E-003   5.0274927239996811E-003   0.0000000000000000     
   1.5981221834089510E-002   1.0763672489384309E-002   0.0000000000000000     
   2.3420665823086301E-002   1.7208539296153888E-002   0.0000000000000000     
   3.0492665193384453E-002   2.4362093144308414E-002   0.0000000000000000     
   0.0000000000000000        0.0000000000000000        0.0000000000000000     
   6.1376643153432369E-003   4.0124415277302235E-003   0.0000000000000000     
   1.2245418827372361E-002   9.0813069257311887E-003   0.0000000000000000     
   1.8323263536087372E-002   1.5206596194002896E-002   0.0000000000000000     
   2.4371198441488266E-002   2.2388309332545344E-002   0.0000000000000000     
   0.0000000000000000        0.0000000000000000        0.0000000000000000     
   4.5791480804345374E-003   3.3214721483865494E-003   0.0000000000000000     
   9.2929768153331531E-003   7.9093817161978112E-003   0.0000000000000000     
   1.4141486204695842E-002   1.3763728703433781E-002   0.0000000000000000     
   1.9124676248522612E-002   2.0884513110094469E-002   0.0000000000000000     
   0.0000000000000000        0.0000000000000000        0.0000000000000000     
   3.4987845216679758E-003   2.9545845859686578E-003   0.0000000000000000     
   7.1238957979718812E-003   7.2478968607841716E-003   0.0000000000000000     
   1.0875333828911714E-002   1.2879936824446540E-002   0.0000000000000000     
   1.4753098614487479E-002   1.9850704476955763E-002   0.0000000000000000     
   3.7489076504211162E-002   2.6805864545383661E-002   0.0000000000000000     
   4.4927467626191653E-002   3.4394218401409847E-002   0.0000000000000000     
   5.2009797906785574E-002   4.2863439965727251E-002   0.0000000000000000     
   5.8736067345992925E-002   5.2213529238335880E-002   0.0000000000000000     
   6.5106275943813713E-002   6.2444486219235720E-002   0.0000000000000000     
   3.0492665193384453E-002   2.4362093144308414E-002   0.0000000000000000     
   3.7196318833808549E-002   3.2268024226496723E-002   0.0000000000000000     
   4.3530725633183193E-002   4.0970022735367664E-002   0.0000000000000000     
   4.9495885591508366E-002   5.0468088670921209E-002   0.0000000000000000     
   5.5091798708784091E-002   6.0762222033157384E-002   0.0000000000000000     
   2.4371198441488266E-002   2.2388309332545344E-002   0.0000000000000000     
   3.0230233488126791E-002   3.0476621221158743E-002   0.0000000000000000     
   3.5741378620554695E-002   3.9321706739643282E-002   0.0000000000000000     
   4.0904633838771957E-002   4.8923565887998968E-002   0.0000000000000000     
   4.5719999142778592E-002   5.9282198666225798E-002   0.0000000000000000     
   1.9124676248522612E-002   2.0884513110094469E-002   0.0000000000000000     
   2.4029211589146379E-002   2.9020009385395899E-002   0.0000000000000000     
   2.8641756868900067E-002   3.7918491978554125E-002   0.0000000000000000     
   3.2962312087783691E-002   4.7579960889569138E-002   0.0000000000000000     
   3.6990877245797228E-002   5.8004416118440927E-002   0.0000000000000000     
   1.4753098614487479E-002   1.9850704476955763E-002   0.0000000000000000     
   1.8593253136867306E-002   2.7898188719208194E-002   0.0000000000000000     
   2.2231860378219337E-002   3.6760378452100180E-002   0.0000000000000000     
   2.5668920338543563E-002   4.6437273675631725E-002   0.0000000000000000     
   2.8904433017839994E-002   5.6928874389802826E-002   0.0000000000000000     
   6.5106275943813713E-002   6.2444486219235720E-002   0.0000000000000000     
   7.1109059330777408E-002   7.3444494868137741E-002   0.0000000000000000     
   7.6733053137413548E-002   8.5101739144752886E-002   0.0000000000000000     
   8.1978257363722093E-002   9.7416219049081154E-002   0.0000000000000000     
   8.6844672009703056E-002  0.11038793458112257        0.0000000000000000     
   5.5091798708784091E-002   6.0762222033157384E-002   0.0000000000000000     
   6.0343919874704499E-002   7.1800059473761377E-002   0.0000000000000000     
   6.5277703978963764E-002   8.3529237644418358E-002   0.0000000000000000     
   6.9893151021561892E-002   9.5949756545128342E-002   0.0000000000000000     
   7.4190261002498842E-002  0.10906161617589130        0.0000000000000000     
   4.5719999142778592E-002   5.9282198666225798E-002   0.0000000000000000     
   5.0227563415946176E-002   7.0374525707993976E-002   0.0000000000000000     
   5.4467415541646282E-002   8.2177467646973743E-002   0.0000000000000000     
   5.8439555519878915E-002   9.4691024483165104E-002   0.0000000000000000     
   6.2143983350644076E-002  0.10791519621656802        0.0000000000000000     
   3.6990877245797228E-002   5.8004416118440927E-002   0.0000000000000000     
   4.0759989954502453E-002   6.9167893570835581E-002   0.0000000000000000     
   4.4302187825461095E-002   8.1046429152419108E-002   0.0000000000000000     
   4.7617470858673197E-002   9.3640022863191452E-002   0.0000000000000000     
   5.0705839054138724E-002  0.10694867470315274        0.0000000000000000     
   2.8904433017839994E-002   5.6928874389802826E-002   0.0000000000000000     
   3.1941199490373315E-002   6.8180163062286137E-002   0.0000000000000000     
   3.4782020830408225E-002   8.0136122160754344E-002   0.0000000000000000     
   3.7426897037944724E-002   9.2796751685207429E-002   0.0000000000000000     
   3.9875828112982806E-002  0.10616205163564540        0.0000000000000000     
   8.6844672009703056E-002  0.11038793458112257        0.0000000000000000     
   9.1310514605353527E-002  0.12393641097970824        0.0000000000000000     
   9.5354002680670624E-002  0.13798117348366928        0.0000000000000000     
   9.8975136235654307E-002  0.15252222209300578        0.0000000000000000     
  0.10217391527030459       0.16755955680771764        0.0000000000000000     
   7.4190261002498842E-002  0.10906161617589130        0.0000000000000000     
   7.8145629523584448E-002  0.12275302359049285        0.0000000000000000     
   8.1735852186628460E-002  0.13691218584271855        0.0000000000000000     
   8.4960928991630894E-002  0.15153910293256842        0.0000000000000000     
   8.7820859938591719E-002  0.16663377486004244        0.0000000000000000     
   6.2143983350644076E-002  0.10791519621656802        0.0000000000000000     
   6.5559696405319265E-002  0.12172136208135535        0.0000000000000000     
   6.8665692055282002E-002  0.13598090131169985        0.0000000000000000     
   7.1461970300532293E-002  0.15069381390760153        0.0000000000000000     
   7.3948531141070140E-002  0.16586009986906039        0.0000000000000000     
   5.0705839054138724E-002  0.10694867470315274        0.0000000000000000     
   5.3552715250557985E-002  0.12084142645229567        0.0000000000000000     
   5.6143522286631248E-002  0.13518731989061308        0.0000000000000000     
   5.8478260162358540E-002  0.14998635501810503        0.0000000000000000     
   6.0556928877739842E-002  0.16523853183477147        0.0000000000000000     
   3.9875828112982806E-002  0.10616205163564540        0.0000000000000000     
   4.2124686059300594E-002  0.12011321670331386        0.0000000000000000     
   4.4169342880676199E-002  0.13453144157945837        0.0000000000000000     
   4.6009798577109608E-002  0.14941672626407901        0.0000000000000000     
   4.7646053148600834E-002  0.16476907075717570        0.0000000000000000     
   0.0000000000000000        0.0000000000000000        0.0000000000000000     
   3.4987845216679758E-003   2.9545845859686578E-003   0.0000000000000000     
   7.1238957979718812E-003   7.2478968607841716E-003   0.0000000000000000     
   1.0875333828911714E-002   1.2879936824446540E-002   0.0000000000000000     
   1.4753098614487479E-002   1.9850704476955763E-002   0.0000000000000000     
   0.0000000000000000        0.0000000000000000        0.0000000000000000     
   2.6491436604303671E-003   2.7753604592505210E-003   0.0000000000000000     
   5.3455994962298466E-003   6.8924321937903774E-003   0.0000000000000000     
   8.0893675073984411E-003   1.2351215203619570E-002   0.0000000000000000     
   1.0880447693936146E-002   1.9151709488738101E-002   0.0000000000000000     
   0.0000000000000000        0.0000000000000000        0.0000000000000000     
   1.7827955181085268E-003   2.6473813870061102E-003   0.0000000000000000     
   3.5655116310483502E-003   6.6385675495165353E-003   0.0000000000000000     
   5.3481483388194695E-003   1.1973558487531271E-002   0.0000000000000000     
   7.1307056414218880E-003   1.8652354201050325E-002   0.0000000000000000     
   0.0000000000000000        0.0000000000000000        0.0000000000000000     
   8.9974009470245432E-004   2.5706473692354253E-003   0.0000000000000000     
   1.7836322024273896E-003   6.4863029279626410E-003   0.0000000000000000     
   2.6516763231748054E-003   1.1746966676181646E-002   0.0000000000000000     
   3.5038724569447025E-003   1.8352638613892445E-002   0.0000000000000000     
   0.0000000000000000        0.0000000000000000        0.0000000000000000     
  -2.2609787849793041E-008   2.5451584059384678E-003   0.0000000000000000     
  -3.8789633034904888E-008   6.4356383291286987E-003   0.0000000000000000     
  -4.8539535554142921E-008   1.1671439769570692E-002   0.0000000000000000     
  -5.1859495408916600E-008   1.8252562727264450E-002   0.0000000000000000     
   1.4753098614487479E-002   1.9850704476955763E-002   0.0000000000000000     
   1.8593253136867306E-002   2.7898188719208194E-002   0.0000000000000000     
   2.2231860378219337E-002   3.6760378452100180E-002   0.0000000000000000     
   2.5668920338543563E-002   4.6437273675631725E-002   0.0000000000000000     
   2.8904433017839994E-002   5.6928874389802826E-002   0.0000000000000000     
   1.0880447693936146E-002   1.9151709488738101E-002   0.0000000000000000     
   1.3641106978112695E-002   2.7063011202299897E-002   0.0000000000000000     
   1.6293612282197823E-002   3.5854216497458888E-002   0.0000000000000000     
   1.8837963606191523E-002   4.5525325374215081E-002   0.0000000000000000     
   2.1274160950093796E-002   5.6076337832568476E-002   0.0000000000000000     
   7.1307056414218880E-003   1.8652354201050325E-002   0.0000000000000000     
   8.8915219597056651E-003   2.6466328814375269E-002   0.0000000000000000     
   1.0608935714520869E-002   3.5206856451807676E-002   0.0000000000000000     
   1.2282946905867493E-002   4.4873937113347563E-002   0.0000000000000000     
   1.3913555533745545E-002   5.5467570798994913E-002   0.0000000000000000     
   3.5038724569447025E-003   1.8352638613892445E-002   0.0000000000000000     
   4.3444980816462137E-003   2.6108141555434311E-002   0.0000000000000000     
   5.1778306751884750E-003   3.4818298315146552E-002   0.0000000000000000     
   6.0038702375714856E-003   4.4483108893029151E-002   0.0000000000000000     
   6.8226167687952437E-003   5.5102573289082121E-002   0.0000000000000000     
  -5.1859495408916600E-008   1.8252562727264450E-002   0.0000000000000000     
   3.5343934343037148E-008   2.5988449425477032E-002   0.0000000000000000     
   2.9716420064387298E-007   3.4688542087475509E-002   0.0000000000000000     
   7.3360130349134117E-007   4.4352840713259872E-002   0.0000000000000000     
   1.3446552428889383E-006   5.4981345302830123E-002   0.0000000000000000     
   2.8904433017839994E-002   5.6928874389802826E-002   0.0000000000000000     
   3.1941199490373315E-002   6.8180163062286137E-002   0.0000000000000000     
   3.4782020830408225E-002   8.0136122160754344E-002   0.0000000000000000     
   3.7426897037944724E-002   9.2796751685207429E-002   0.0000000000000000     
   3.9875828112982806E-002  0.10616205163564540        0.0000000000000000     
   2.1274160950093796E-002   5.6076337832568476E-002   0.0000000000000000     
   2.3574204489131289E-002   6.7411823347269806E-002   0.0000000000000000     
   2.5710094398530635E-002   7.9436351393069829E-002   0.0000000000000000     
   2.7681830678291844E-002   9.2149921969968490E-002   0.0000000000000000     
   2.9489413328414905E-002  0.10555253507796585        0.0000000000000000     
   1.3913555533745545E-002   5.5467570798994913E-002   0.0000000000000000     
   1.5462017416348874E-002   6.6863363590710670E-002   0.0000000000000000     
   1.6889588371871326E-002   7.8936921570455718E-002   0.0000000000000000     
   1.8196268400312902E-002   9.1688244738230090E-002   0.0000000000000000     
   1.9382057501673603E-002  0.10511733309403382        0.0000000000000000     
   6.8226167687952437E-003   5.5102573289082121E-002   0.0000000000000000     
   7.6046382720260713E-003   6.6534783792608701E-002   0.0000000000000000     
   8.3205027504302913E-003   7.8637832692912066E-002   0.0000000000000000     
   8.9702102040078984E-003   9.1411719989992285E-002   0.0000000000000000     
   9.5537606327588953E-003  0.10485644568384930        0.0000000000000000     
   1.3446552428889383E-006   5.4981345302830123E-002   0.0000000000000000     
   2.0670561628861016E-006   6.6426083952963913E-002   0.0000000000000000     
   2.8375342075342199E-006   7.8539084760438874E-002   0.0000000000000000     
   3.6560893768351906E-006   9.1320347725255005E-002   0.0000000000000000     
   4.5227216707854900E-006  0.10476987284741232        0.0000000000000000     
   3.9875828112982806E-002  0.10616205163564540        0.0000000000000000     
   4.2124686059300594E-002  0.12011321670331386        0.0000000000000000     
   4.4169342880676199E-002  0.13453144157945837        0.0000000000000000     
   4.6009798577109608E-002  0.14941672626407901        0.0000000000000000     
   4.7646053148600834E-002  0.16476907075717570        0.0000000000000000     
   2.9489413328414905E-002  0.10555253507796585        0.0000000000000000     
   3.1138333648924689E-002  0.11954243542505408        0.0000000000000000     
   3.2634082939846036E-002  0.13401786771922539        0.0000000000000000     
   3.3976661201178961E-002  0.14897883196047981        0.0000000000000000     
   3.5166068432923456E-002  0.16442532814881725        0.0000000000000000     
   1.9382057501673603E-002  0.10511733309403382        0.0000000000000000     
   2.0456382836807827E-002  0.11913478520816051        0.0000000000000000     
   2.1428671566569975E-002  0.13365119965090380        0.0000000000000000     
   2.2298923690960037E-002  0.14866657642226375        0.0000000000000000     
   2.3067139209978028E-002  0.16418091552224029        0.0000000000000000     
   9.5537606327588953E-003  0.10485644568384930        0.0000000000000000     
   1.0078833622950017E-002  0.11889026605263311        0.0000000000000000     
   1.0553108760848003E-002  0.13343143737449362        0.0000000000000000     
   1.0976586046452848E-002  0.14847995964943084        0.0000000000000000     
   1.1349265479764559E-002  0.16403583287744483        0.0000000000000000     
   4.5227216707854900E-006  0.10476987284741232        0.0000000000000000     
   5.6860073512593305E-006  0.11880887795847189        0.0000000000000000     
   7.3945226801300570E-006  0.13335858088999486        0.0000000000000000     
   9.6482676573915981E-006  0.14841898164198117        0.0000000000000000     
   1.2447242283048290E-005  0.16399008021443084        0.0000000000000000     
   0.0000000000000000        0.0000000000000000        0.0000000000000000     
  -2.2609787849793041E-008   2.5451584059384678E-003   0.0000000000000000     
  -3.8789633034904888E-008   6.4356383291286987E-003   0.0000000000000000     
  -4.8539535554142921E-008   1.1671439769570692E-002   0.0000000000000000     
  -5.1859495408916600E-008   1.8252562727264450E-002   0.0000000000000000     
   0.0000000000000000        0.0000000000000000        0.0000000000000000     
  -8.9977490114432008E-004   2.5708626889213355E-003   0.0000000000000000     
  -1.7836983350811872E-003   6.4865335769106018E-003   0.0000000000000000     
  -2.6517703018106007E-003   1.1747012663967797E-002   0.0000000000000000     
  -3.5039908013325639E-003   1.8352299950092927E-002   0.0000000000000000     
   0.0000000000000000        0.0000000000000000        0.0000000000000000     
  -1.7827990851488900E-003   2.6477084099901294E-003   0.0000000000000000     
  -3.5655434238653326E-003   6.6389484952042470E-003   0.0000000000000000     
  -5.3482330161493275E-003   1.1973720255642355E-002   0.0000000000000000     
  -7.1308678620008769E-003   1.8652023691304444E-002   0.0000000000000000     
   0.0000000000000000        0.0000000000000000        0.0000000000000000     
  -2.6490951618015597E-003   2.7756955691448501E-003   0.0000000000000000     
  -5.3455740559854720E-003   6.8928830840096359E-003   0.0000000000000000     
  -8.0894366825517358E-003   1.2351562544594356E-002   0.0000000000000000     
  -1.0880683041500352E-002   1.9151733950899016E-002   0.0000000000000000     
   0.0000000000000000        0.0000000000000000        0.0000000000000000     
  -3.4986631311023303E-003   2.9548241663854970E-003   0.0000000000000000     
  -7.1237902314416034E-003   7.2483373433267686E-003   0.0000000000000000     
  -1.0875381301017822E-002   1.2880539530823812E-002   0.0000000000000000     
  -1.4753436339830985E-002   1.9851430728876629E-002   0.0000000000000000     
  -5.1859495408916600E-008   1.8252562727264450E-002   0.0000000000000000     
   3.5343934343037148E-008   2.5988449425477032E-002   0.0000000000000000     
   2.9716420064387298E-007   3.4688542087475509E-002   0.0000000000000000     
   7.3360130349134117E-007   4.4352840713259872E-002   0.0000000000000000     
   1.3446552428889383E-006   5.4981345302830123E-002   0.0000000000000000     
  -3.5039908013325639E-003   1.8352299950092927E-002   0.0000000000000000     
  -4.3444858256253922E-003   2.6107519422547527E-002   0.0000000000000000     
  -5.1773813666674082E-003   3.4817795068593137E-002   0.0000000000000000     
  -6.0026774244586120E-003   4.4483126888229779E-002   0.0000000000000000     
  -6.8203739989990027E-003   5.5103514881457413E-002   0.0000000000000000     
  -7.1308678620008769E-003   1.8652023691304444E-002   0.0000000000000000     
  -8.8916849992284348E-003   2.6465618544689890E-002   0.0000000000000000     
  -1.0608921465640461E-002   3.5206264558298055E-002   0.0000000000000000     
  -1.2282577261236955E-002   4.4873961732128938E-002   0.0000000000000000     
  -1.3912652386017915E-002   5.5468710066182522E-002   0.0000000000000000     
  -1.0880683041500352E-002   1.9151733950899016E-002   0.0000000000000000     
  -1.3641562176874787E-002   2.7062746791904135E-002   0.0000000000000000     
  -1.6294323132718516E-002   3.5853950556590242E-002   0.0000000000000000     
  -1.8838965909031537E-002   4.5525345244957341E-002   0.0000000000000000     
  -2.1275490505813847E-002   5.6076930857005436E-002   0.0000000000000000     
  -1.4753436339830985E-002   1.9851430728876629E-002   0.0000000000000000     
  -1.8594117358564446E-002   2.7898904164190257E-002   0.0000000000000000     
  -2.2233586367901570E-002   3.6760853063469719E-002   0.0000000000000000     
  -2.5671843367842357E-002   4.6437277426715017E-002   0.0000000000000000     
  -2.8908888358386797E-002   5.6928177253926154E-002   0.0000000000000000     
   1.3446552428889383E-006   5.4981345302830123E-002   0.0000000000000000     
   2.0670561628861016E-006   6.6426083952963913E-002   0.0000000000000000     
   2.8375342075342199E-006   7.8539084760438874E-002   0.0000000000000000     
   3.6560893768351906E-006   9.1320347725255005E-002   0.0000000000000000     
   4.5227216707854900E-006  0.10476987284741232        0.0000000000000000     
  -6.8203739989990027E-003   5.5103514881457413E-002   0.0000000000000000     
  -7.6011510809881498E-003   6.6536558308739974E-002   0.0000000000000000     
  -8.3156886611256177E-003   7.8639856430541333E-002   0.0000000000000000     
  -8.9639867394114142E-003   9.1413409246861504E-002   0.0000000000000000     
  -9.5460453158455263E-003  0.10485721675770046        0.0000000000000000     
  -1.3912652386017915E-002   5.5468710066182522E-002   0.0000000000000000     
  -1.5460470989174493E-002   6.6865501096900537E-002   0.0000000000000000     
  -1.6887357219897842E-002   7.8939326360724676E-002   0.0000000000000000     
  -1.8193311078187956E-002   9.1690185857654941E-002   0.0000000000000000     
  -1.9378332564044844E-002  0.10511807958769136        0.0000000000000000     
  -2.1275490505813847E-002   5.6076930857005436E-002   0.0000000000000000     
  -2.3575892668396145E-002   6.7412912317445603E-002   0.0000000000000000     
  -2.5712168142109134E-002   7.9437494550988877E-002   0.0000000000000000     
  -2.7684316926952807E-002   9.2150677557635396E-002   0.0000000000000000     
  -2.9492339022927170E-002  0.10555246133738501        0.0000000000000000     
  -2.8908888358386797E-002   5.6928177253926154E-002   0.0000000000000000     
  -3.1947416118653107E-002   6.8178791970375158E-002   0.0000000000000000     
  -3.4790121427759495E-002   8.0134361001334017E-002   0.0000000000000000     
  -3.7437004285705962E-002   9.2794884346802775E-002   0.0000000000000000     
  -3.9888064692492495E-002  0.10616036200678139        0.0000000000000000     
   4.5227216707854900E-006  0.10476987284741232        0.0000000000000000     
   5.6860073512593305E-006  0.11880887795847189        0.0000000000000000     
   7.3945226801300570E-006  0.13335858088999486        0.0000000000000000     
   9.6482676573915981E-006  0.14841898164198117        0.0000000000000000     
   1.2447242283048290E-005  0.16399008021443084        0.0000000000000000     
  -9.5460453158455263E-003  0.10485721675770046        0.0000000000000000     
  -1.0069116608364410E-002  0.11889044411430395        0.0000000000000000     
  -1.0540452834904504E-002  0.13343225646791768        0.0000000000000000     
  -1.0960053995465803E-002  0.14848265381854164        0.0000000000000000     
  -1.1327920090048318E-002  0.16404163616617584        0.0000000000000000     
  -1.9378332564044844E-002  0.10511807958769136        0.0000000000000000     
  -2.0451630822572956E-002  0.11913478770875632        0.0000000000000000     
  -2.1422414998876742E-002  0.13365209037877226        0.0000000000000000     
  -2.2290685092956203E-002  0.14866998759773925        0.0000000000000000     
  -2.3056441104811348E-002  0.16418847936565723        0.0000000000000000     
  -2.9492339022927170E-002  0.10555246133738501        0.0000000000000000     
  -3.1141856635274374E-002  0.11954190874182903        0.0000000000000000     
  -3.2638491969236592E-002  0.13401808262255868        0.0000000000000000     
  -3.3982245024813812E-002  0.14898098297957404        0.0000000000000000     
  -3.5173115802006050E-002  0.16443060981287497        0.0000000000000000     
  -3.9888064692492495E-002  0.10616036200678139        0.0000000000000000     
  -4.2139794046468677E-002  0.12011180721352202        0.0000000000000000     
  -4.4188683745984045E-002  0.13453023319927684        0.0000000000000000     
  -4.6034733791038618E-002  0.14941563996404592        0.0000000000000000     
  -4.7677944181632403E-002  0.16476802750782915        0.0000000000000000     
   0.0000000000000000        0.0000000000000000        0.0000000000000000     
  -3.4986631311023303E-003   2.9548241663854970E-003   0.0000000000000000     
  -7.1237902314416034E-003   7.2483373433267686E-003   0.0000000000000000     
  -1.0875381301017822E-002   1.2880539530823812E-002   0.0000000000000000     
  -1.4753436339830985E-002   1.9851430728876629E-002   0.0000000000000000     
   0.0000000000000000        0.0000000000000000        0.0000000000000000     
  -4.5789959005731306E-003   3.3216074426886907E-003   0.0000000000000000     
  -9.2928368935532198E-003   7.9098062787694382E-003   0.0000000000000000     
  -1.4141522978940269E-002   1.3764596508242240E-002   0.0000000000000000     
  -1.9125054156734270E-002   2.0885978131107107E-002   0.0000000000000000     
   0.0000000000000000        0.0000000000000000        0.0000000000000000     
  -6.1375863777358933E-003   4.0125586390310514E-003   0.0000000000000000     
  -1.2245358985639809E-002   9.0817848959514422E-003   0.0000000000000000     
  -1.8323317823711750E-002   1.5207678770761174E-002   0.0000000000000000     
  -2.4371462891951714E-002   2.2390240263460242E-002   0.0000000000000000     
   0.0000000000000000        0.0000000000000000        0.0000000000000000     
  -8.1744345625906194E-003   5.0276777554125809E-003   0.0000000000000000     
  -1.5981356507701373E-002   1.0764273194872782E-002   0.0000000000000000     
  -2.3420765835332275E-002   1.7209786318380604E-002   0.0000000000000000     
  -3.0492662545483305E-002   2.4364217125936050E-002   0.0000000000000000     
   0.0000000000000000        0.0000000000000000        0.0000000000000000     
  -1.0689540455137304E-002   6.3669647918332770E-003   0.0000000000000000     
  -2.0500829459737913E-002   1.2957271175533455E-002   0.0000000000000000     
  -2.9433867013801830E-002   1.9770919151100540E-002   0.0000000000000000     
  -3.7488653117329046E-002   2.6807908718534522E-002   0.0000000000000000     
  -1.4753436339830985E-002   1.9851430728876629E-002   0.0000000000000000     
  -1.8594117358564446E-002   2.7898904164190257E-002   0.0000000000000000     
  -2.2233586367901570E-002   3.6760853063469719E-002   0.0000000000000000     
  -2.5671843367842357E-002   4.6437277426715017E-002   0.0000000000000000     
  -2.8908888358386797E-002   5.6928177253926154E-002   0.0000000000000000     
  -1.9125054156734270E-002   2.0885978131107107E-002   0.0000000000000000     
  -2.4030260352975306E-002   2.9021770332635609E-002   0.0000000000000000     
  -2.8643971493703450E-002   3.7919792298099358E-002   0.0000000000000000     
  -3.2966187578918699E-002   4.7580044027498360E-002   0.0000000000000000     
  -3.6996908608621058E-002   5.8002525520832578E-002   0.0000000000000000     
  -2.4371462891951714E-002   2.2390240263460242E-002   0.0000000000000000     
  -3.0230900968785269E-002   3.0479024968327568E-002   0.0000000000000000     
  -3.5742738832637982E-002   3.9323588479642062E-002   0.0000000000000000     
  -4.0906976483509862E-002   4.8923930797403745E-002   0.0000000000000000     
  -4.5723613921400882E-002   5.9280051921612585E-002   0.0000000000000000     
  -3.0492662545483305E-002   2.4364217125936050E-002   0.0000000000000000     
  -3.7196039205994319E-002   3.2270668071266127E-002   0.0000000000000000     
  -4.3529888384705166E-002   4.0972241608097835E-002   0.0000000000000000     
  -4.9494210081615815E-002   5.0468937736431199E-002   0.0000000000000000     
  -5.5089004296726300E-002   6.0760756456266177E-002   0.0000000000000000     
  -3.7488653117329046E-002   2.6807908718534522E-002   0.0000000000000000     
  -4.4925675064602474E-002   3.4396699641451277E-002   0.0000000000000000     
  -5.2005420149904981E-002   4.2865751683466666E-002   0.0000000000000000     
  -5.8727888373236593E-002   5.2215064844580696E-002   0.0000000000000000     
  -6.5093079734597298E-002   6.2444639124793366E-002   0.0000000000000000     
  -2.8908888358386797E-002   5.6928177253926154E-002   0.0000000000000000     
  -3.1947416118653107E-002   6.8178791970375158E-002   0.0000000000000000     
  -3.4790121427759495E-002   8.0134361001334017E-002   0.0000000000000000     
  -3.7437004285705962E-002   9.2794884346802775E-002   0.0000000000000000     
  -3.9888064692492495E-002  0.10616036200678139        0.0000000000000000     
  -3.6996908608621058E-002   5.8002525520832578E-002   0.0000000000000000     
  -4.0768505938628373E-002   6.9164188153786124E-002   0.0000000000000000     
  -4.4313350924758528E-002   8.1041983302043083E-002   0.0000000000000000     
  -4.7631443567011503E-002   9.3635910965603461E-002   0.0000000000000000     
  -5.0722783865387318E-002  0.10694597114446724        0.0000000000000000     
  -4.5723613921400882E-002   5.9280051921612585E-002   0.0000000000000000     
  -5.0232626727004924E-002   7.0370148965775439E-002   0.0000000000000000     
  -5.4473990481015803E-002   8.2172419043399211E-002   0.0000000000000000     
  -5.8447705183433535E-002   9.4686862154483811E-002   0.0000000000000000     
  -6.2153770834258111E-002  0.10791347829902932        0.0000000000000000     
  -5.5089004296726300E-002   6.0760756456266177E-002   0.0000000000000000     
  -6.0339778483782754E-002   7.1796674406343131E-002   0.0000000000000000     
  -6.5272040096531342E-002   8.3525668225402361E-002   0.0000000000000000     
  -6.9885789134972065E-002   9.5947737913443853E-002   0.0000000000000000     
  -7.4181025599104888E-002  0.10906288347046764        0.0000000000000000     
  -6.5093079734597298E-002   6.2444639124793366E-002   0.0000000000000000     
  -7.1089961208961883E-002   7.3443764475489157E-002   0.0000000000000000     
  -7.6707499771305129E-002   8.5101730848052545E-002   0.0000000000000000     
  -8.1945695421627052E-002   9.7418538242483546E-002   0.0000000000000000     
  -8.6804548159927636E-002  0.11039418665878215        0.0000000000000000     
  -3.9888064692492495E-002  0.10616036200678139        0.0000000000000000     
  -4.2139794046468677E-002  0.12011180721352202        0.0000000000000000     
  -4.4188683745984045E-002  0.13453023319927684        0.0000000000000000     
  -4.6034733791038618E-002  0.14941563996404592        0.0000000000000000     
  -4.7677944181632403E-002  0.16476802750782915        0.0000000000000000     
  -5.0722783865387318E-002  0.10694597114446724        0.0000000000000000     
  -5.3573686995956181E-002  0.12083987377357962        0.0000000000000000     
  -5.6170468134788293E-002  0.13518532878788578        0.0000000000000000     
  -5.8513127281883667E-002  0.14998233618738571        0.0000000000000000     
  -6.0601664437242311E-002  0.16523089597207941        0.0000000000000000     
  -6.2153770834258111E-002  0.10791347829902932        0.0000000000000000     
  -6.5571779423537202E-002  0.12172149907174604        0.0000000000000000     
  -6.8681322941318484E-002  0.13598015606734432        0.0000000000000000     
  -7.1482401387601979E-002  0.15068944928582417        0.0000000000000000     
  -7.3975014762387617E-002  0.16584937872718553        0.0000000000000000     
  -7.4181025599104888E-002  0.10906288347046764        0.0000000000000000     
  -7.8134071329211768E-002  0.12275668310802131        0.0000000000000000     
  -8.1721248165574661E-002  0.13691471503765248        0.0000000000000000     
  -8.4942556108193512E-002  0.15153697925936122        0.0000000000000000     
  -8.7797995157068362E-002  0.16662347577314746        0.0000000000000000     
  -8.6804548159927636E-002  0.11039418665878215        0.0000000000000000     
  -9.1260562712979887E-002  0.12394542588240540        0.0000000000000000     
  -9.5290243807556782E-002  0.13798900569881031        0.0000000000000000     
  -9.8893591443658335E-002  0.15252492610799695        0.0000000000000000     
 -0.10207060562128453       0.16755318710996525        0.0000000000000000     
 </DataArray>
 <DataArray  type="Float64" Name="stress" NumberOfComponents="3" format="ascii">
   11739551693.466520        3521865508.0399561        2309542992.2995410     
   10338293529.225346        1660361093.9757965        1375141395.0699842     
   9112469061.2075291        383635667.32283592        661152604.65668654     
   8062078289.4130745       -308310771.91892624        167576621.05964789     
   7187121213.8419771       -415478223.74949265       -105586555.72113170     
   8817289356.3886395        2645186806.9165916        1725470475.0672767     
   8057125224.3956566        1287129146.7756424        1146864367.5951684     
   7428807640.7548647        368559981.14198756        724814688.74621034     
   6932336605.4662628       -110520689.98437166        459321438.52040094     
   6567712118.5298443       -150112866.60343838        350384616.91774333     
   6490675217.9343767        1947202565.3803129        1286484772.6504071     
   6189158323.3521347        1037857620.7113370        1012822482.4193819     
   5975900829.2509089        422710677.64575291        831860242.61839700     
   5850902735.6307039        101761736.18356013        743598053.24745226     
   5814164042.4915142        75010796.324758768        748035914.30654752     
   4759709278.1037340        1427912783.4311204        992585885.04893315     
   4734392826.0947781        912546515.78288186        973015739.54262447     
   4753748626.6956663        546087756.83413100        982289266.27324700     
   4817776679.9064007        328536506.58486843        1020406465.2407997     
   4926476985.7269821        259892765.03509426        1087367336.4452834     
   3624391536.8967147        1087317461.0690145        843773812.26285422     
   3692828732.6235857        911195831.99027574        1027444138.9648958     
   3762351033.0891318        738691218.70712185        1176101759.7107594     
   3832958438.2933526        569803621.21955299        1289746674.5004439     
   3904650948.2362494        404533039.52756917        1368378883.3339508     
   7187121213.8419771       -415478223.74949265       -105586555.72113170     
   6933398266.4196892       -121826689.38675594       -31345035.899806242     
   6645636401.5094242        58361786.682711840        31650651.461056121     
   6323835619.1111784        125087204.45891356        83400506.361454383     
   5967995919.2249489        78349563.941843987        123904528.80139253     
   6567712118.5298443       -150112866.60343838        350384616.91774333     
   6257291227.6343250       -3259278.2302331924        352743775.93742430     
   5927233471.5822191        78138092.954359770        356611413.82035697     
   5577538850.3735313        94079246.950341225        361987530.56654054     
   5208207364.0082607        44564183.757713795        368872126.17597246     
   5814164042.4915142        75010796.324758768        748035914.30654752     
   5483486097.6190796        85998705.557327747        695315106.91121686     
   5147573339.9214602        79537238.705940723        656857089.70284963     
   4806425769.3986530        55626395.770599604        632661862.68144488     
   4460043386.0506601        14266176.751302481        622729425.84700418     
   4926476985.7269821        259892765.03509426        1087367336.4452834     
   4611982876.3739586        145947261.97592449        996368957.02156985     
   4306656006.5271444        62559223.937455177        932387679.10853159     
   4010496376.1865411        9728650.9196877480        895423502.70617008     
   3723503985.3521485       -12544457.077378035        885476427.81448460     
   3904650948.2362494        404533039.52756917        1368378883.3339508     
   3642781563.8989582        176586391.02555776        1255905326.2684827     
   3404481471.3992739        27204048.648903131        1183203182.0374048     
   3189750670.7371984       -43613987.602391243        1150272450.6407154     
   2998589161.9127288       -35867717.728331327        1157113132.0784154     
   5967995919.2249489        78349563.941843987        123904528.80139253     
   5577729477.8327789       -10411916.983802557        88281418.348936364     
   5200603612.4186239       -55371477.982734442        76793564.845211729     
   4836618322.9824677       -56529119.055000067        89440968.290218979     
   4485773609.5243254       -13884840.200551510        126223628.68395713     
   5208207364.0082607        44564183.757713795        368872126.17597246     
   4886987879.8082895       -7488832.9265215397        348095943.95625758     
   4574215225.0674124       -31385751.413769722        347826364.72609812     
   4269889399.7856359       -27126571.704018831        368063388.48549849     
   3974010403.9629502        5288706.2027020454        408807015.23445654     
   4460043386.0506601        14266176.751302481        622729425.84700418     
   4197503276.3023925       -4188650.5136692524        611324134.25462914     
   3938716249.4943070       -10133201.311359644        616796791.69263947     
   3683682305.6264062       -3567475.6417751312        639147398.16103292     
   3432401444.6986899        15508526.495086432        678375953.65981042     
   3723503985.3521485       -12544457.077378035        885476427.81448460     
   3509275667.3150921       -511369.74523043633        877965989.24405289     
   3294106685.6993041        8386172.3244819641        883704845.74483144     
   3077997040.5047874        14148169.131760836        902692997.31682181     
   2860946731.7315388        16774620.676605344        934930443.96002483     
   2998589161.9127288       -35867717.728331327        1157113132.0784154     
   2822305052.8463860        3543009.3787798882        1148021508.9245267     
   2640386533.6824007        24172369.493749738        1148550526.8826768     
   2452833604.4207716        26020362.616574645        1158700185.9528661     
   2259646265.0615005        9086988.7472583055        1178470486.1350939     
   4485773609.5243254       -13884840.200551510        126223628.68395713     
   4089906183.7793255        18091539.049654007        126372327.78547762     
   3682769993.5388446        12505369.981588602        147972879.23400149     
   3264365038.8028593       -30643347.404808760        191025283.02954307     
   2834691319.5714021       -111354613.10947478        255529539.17208096     
   3974010403.9629502        5288706.2027020454        408807015.23445654     
   3629578820.9004378        25650175.060740948        387646424.63870394     
   3278356650.4381146        23376352.586084962        387280378.46528774     
   2920343892.5759897       -1532761.2212452888        407708876.71419501     
   2555540547.3140569       -49077166.361270070        448931919.38543385     
   3432401444.6986899        15508526.495086432        678375953.65981042     
   3137527681.6767182        23691678.168363094        641130613.31175542     
   2840341508.3506246        24166795.494565964        624022509.46134734     
   2540842924.7204123        16933878.473698974        627051642.10859203     
   2239031930.7860742        1992927.1057565212        650218011.25348735     
   2860946731.7315388        16774620.676605344        934930443.96002483     
   2613752766.1081753        12216048.372542500        886824893.80462384     
   2368724567.2763753        14876698.707026243        858199272.22219872     
   2125862135.2361357        24756571.680033565        849053579.21273935     
   1885165469.9874520        41855667.291584849        859387814.77625763     
   2259646265.0615005        9086988.7472583055        1178470486.1350939     
   2058254074.1948097       -8776714.3267198801        1124729266.1173134     
   1863505827.2153616       -4493937.7765520811        1089810666.7478266     
   1675401524.1231561        21935318.397763968        1073714688.0266391     
   1493941164.9181962        70511054.196222782        1076441329.9537368     
   3624391536.8967147        1087317461.0690145        843773812.26285422     
   3692828732.6235857        911195831.99027574        1027444138.9648958     
   3762351033.0891318        738691218.70712185        1176101759.7107594     
   3832958438.2933526        569803621.21955299        1289746674.5004439     
   3904650948.2362494        404533039.52756917        1368378883.3339508     
   2769745131.6878886        830923539.50636649        777047934.13139188     
   2771044502.7909007        683855815.33524728        955651050.50417149     
   2773147281.0133352        539466114.89553535        1110917645.0668652     
   2776053466.3551922        397754438.18722945        1242847717.8194730     
   2779763058.8164706        258720785.21033049        1351441268.7619944     
   1880793199.8518279        564237959.95554829        729407630.49376726     
   1848315272.4626751        456232298.53155684        902614889.31482255     
   1816359054.5736911        349965668.77479386        1064161810.4718840     
   1784924546.1848755        245438070.68525928        1214048393.9649522     
   1754011747.2962284        142649504.26295274        1352274639.7940261     
   957535741.38853347        287260722.41656005        700852901.34998071     
   924641041.63890815        228325281.57920390        868335655.39684892     
   891986353.77019799        170189880.34489796        1035834255.9258161     
   859571677.78240263        112854518.71364182        1203348702.9368818     
   827397013.67552221        56319196.685435683        1370878996.4300463     
  -27243.701994567538       -8173.1105983702610        691383746.70003188     
   21810.319599825318        134764.47818859888        852813348.75025058     
   29178.602856078825        138749.60584739601        1025934981.4286608     
  -5138.8522262702454        3782.2723780383390        1210748644.7352619     
  -81142.045647439212       -270137.52222037205        1407254338.6700544     
   3904650948.2362494        404533039.52756917        1368378883.3339508     
   3642781563.8989582        176586391.02555776        1255905326.2684827     
   3404481471.3992739        27204048.648903131        1183203182.0374048     
   3189750670.7371984       -43613987.602391243        1150272450.6407154     
   2998589161.9127288       -35867717.728331327        1157113132.0784154     
   2779763058.8164706        258720785.21033049        1351441268.7619944     
   2628715578.0985303        101321919.10975540        1292450922.7493815     
   2495367047.7315564        2919554.1790673733        1262656524.5938570     
   2379717467.7155485       -36486309.581732988        1262058074.2954185     
   2281766838.0505061       -16895672.172647476        1290655571.8540678     
   1754011747.2962284        142649504.26295274        1352274639.7940261     
   1683570555.9767764        46733736.297553658        1339918773.0998538     
   1624957973.5216501       -9753335.4534268379        1346183389.2854667     
   1578173999.9308488       -26811710.989989936        1371068488.3508666     
   1543218635.2043724       -4441390.3121370077        1414574070.2960515     
   827397013.67552221        56319196.685435683        1370878996.4300463     
   807346497.53369701        12821842.588954031        1398308877.3198996     
   793254248.76955652       -10814620.248577952        1433783776.1122370     
   785120267.38310063       -14590191.827162176        1477303692.8070602     
   782944553.37432849        1495127.8532003462        1528868627.4043653     
  -81142.045647439212       -270137.52222037205        1407254338.6700544     
   43402.769292730867       -413762.01604133326        1467621235.4095192     
   255873.47527638573       -264300.20638331783        1525457685.0741665     
   556270.07230375090        178247.90675373210        1580763687.6639974     
   944592.56037340942        913882.32336439856        1633539243.1790099     
   2998589161.9127288       -35867717.728331327        1157113132.0784154     
   2822305052.8463860        3543009.3787798882        1148021508.9245267     
   2640386533.6824007        24172369.493749738        1148550526.8826768     
   2452833604.4207716        26020362.616574645        1158700185.9528661     
   2259646265.0615005        9086988.7472583055        1178470486.1350939     
   2281766838.0505061       -16895672.172647476        1290655571.8540678     
   2131460364.1129806        7374362.8776572943        1270307351.3495798     
   1976896358.0154548        17452624.061292291        1263815291.8452530     
   1818074819.7579269        13339111.378257513        1271179393.3410866     
   1654995749.3403986       -4966175.1714471579        1292399655.8370800     
   1543218635.2043724       -4441390.3121370077        1414574070.2960515     
   1430991281.7902994        8318398.2997537255        1384575610.0348790     
   1315883274.1538665        11476006.170444369        1372668830.6619878     
   1197894612.2950749        5031433.2999390364        1378853732.1773810     
   1077025296.2139235       -11015320.311764777        1403130314.5810559     
   782944553.37432849        1495127.8532003462        1528868627.4043653     
   720897805.87834191        6375115.6450654566        1490826284.9804232     
   657347282.09763837        6242515.8212068379        1475111143.3328867     
   592292982.03221464        1097328.3816143274        1481723202.4617536     
   525734905.68207538       -9060446.6736957431        1510662462.3670244     
   944592.56037340942        913882.32336439856        1633539243.1790099     
   1179936.3771083758        1544514.9135961626        1589059376.1862135     
   1288381.8467659424        1752153.0135688861        1571142229.8579431     
   1269928.9693487054        1536796.6232936524        1579787804.1942005     
   1124577.7448554640        898445.74276333535        1614996099.1949859     
   2259646265.0615005        9086988.7472583055        1178470486.1350939     
   2058254074.1948097       -8776714.3267198801        1124729266.1173134     
   1863505827.2153616       -4493937.7765520811        1089810666.7478266     
   1675401524.1231561        21935318.397763968        1073714688.0266391     
   1493941164.9181962        70511054.196222782        1076441329.9537368     
   1654995749.3403986       -4966175.1714471579        1292399655.8370800     
   1503898107.8954468       -18477685.304983437        1254836200.3877134     
   1357848777.3298786       -15161492.507242918        1236133887.0128248     
   1216847757.6436918        4982403.2217761278        1236292715.7124219     
   1080895048.8368888        41954001.882065892        1255312686.4864984     
   1077025296.2139235       -11015320.311764777        1403130314.5810559     
   976332265.40839231       -20141619.139552116        1379883051.8575978     
   879091912.47438169       -17758991.728936255        1375535452.6348073     
   785304237.41189289       -3867438.0799103975        1390087516.9126837     
   694969240.22092748        21533041.807516098        1423539244.6912329     
   525734905.68207538       -9060446.6736957431        1510662462.3670244     
   475556546.73364115       -13768515.830435187        1499869820.5269690     
   427235232.64886844       -12286435.441636980        1508015363.6137700     
   380770963.42775720       -4614205.5073004365        1535099091.6274266     
   336163739.07030487        9248173.9725679010        1581121004.5679410     
   1124577.7448554640        898445.74276333535        1614996099.1949859     
   1570951.8712001967        641624.62238476367        1614796506.3958278     
   2278737.8533411114        1256176.3546601317        1633573619.9497147     
   3247935.6912859748        2742100.9396160208        1671327439.8566463     
   4478545.3850254873        5099398.3772193529        1728057966.1166182     
  -27243.701994567538       -8173.1105983702610        691383746.70003188     
   21810.319599825318        134764.47818859888        852813348.75025058     
   29178.602856078825        138749.60584739601        1025934981.4286608     
  -5138.8522262702454        3782.2723780383390        1210748644.7352619     
  -81142.045647439212       -270137.52222037205        1407254338.6700544     
  -957574295.99793887       -287272288.79938167        700969325.31225991     
  -924624176.10497856       -228163250.88669577        868385926.43991923     
  -891957283.96146846       -169998305.47217706        1035811447.5349222     
  -859573619.56740797       -112777452.55582491        1203245888.5972700     
  -827473182.92279816       -56500692.137640923        1370689249.6269627     
  -1880783956.0774825       -564235186.82324469        729578795.95500410     
  -1848313086.4870038       -456174143.43881416        902700597.14713991     
  -1816366986.6570873       -349862332.58958954        1064148207.6457732     
  -1784945656.5877323       -245299754.27557087        1213921627.4509046     
  -1754049096.2789388       -142486408.49675804        1352020856.5625329     
  -2769656223.9406247       -830896867.18218744        777212158.62826431     
  -2771044920.8264761       -683897913.17816675        955757360.87191319     
  -2773199929.4840016       -539453331.74639058        1110945261.7612128     
  -2776121249.9131999       -397563122.88685971        1242775861.2961631     
  -2779808882.1140709       -258227286.59957290        1351249159.4767644     
  -3624191099.5873666       -1087257329.8762100        843869413.33204079     
  -3692819679.1233954       -911334560.10475314        1027556217.6142390     
  -3762456112.4422102       -738771302.94258022        1176202609.8812413     
  -3833100399.5438094       -569567558.38969064        1289808590.1330481     
  -3904752540.4281931       -403723326.44608414        1368374158.3696587     
  -81142.045647439212       -270137.52222037205        1407254338.6700544     
   43402.769292730867       -413762.01604133326        1467621235.4095192     
   255873.47527638573       -264300.20638331783        1525457685.0741665     
   556270.07230375090        178247.90675373210        1580763687.6639974     
   944592.56037340942        913882.32336439856        1633539243.1790099     
  -827473182.92279816       -56500692.137640923        1370689249.6269627     
  -807159470.54293871       -13106663.940709889        1398235343.1392190     
  -792725199.60604250        10689226.113010049        1433794862.0014420     
  -784170370.11211181        14886978.023512989        1477367806.2136307     
  -781494982.06114304       -513408.20919257402        1528954175.7757859     
  -1754049096.2789388       -142486408.49675804        1352020856.5625329     
  -1683420866.5490644       -46517122.673545957        1339784218.2912390     
  -1624639445.5961604        9962800.5597623587        1346104877.7946951     
  -1577704833.4202280        26953361.203166723        1370982835.0729015     
  -1542617030.0212669        4454559.2566673756        1414418090.1258571     
  -2779808882.1140709       -258227286.59957290        1351249159.4767644     
  -2628740785.2490849       -100645138.21455157        1292267860.8655784     
  -2495486864.4950762       -2443576.8661240339        1262387732.4539261     
  -2380047119.8520474        36377397.445708990        1261608774.2418075     
  -2282421551.3199959        15817784.720946431        1289930986.2292218     
  -3904752540.4281931       -403723326.44608414        1368374158.3696587     
  -3643119226.6429987       -175490710.56372380        1255686270.8622384     
  -3405267456.3027911       -26529906.164649725        1182643425.9791353     
  -3191197229.4075694        43159086.751138568        1149245623.7203498     
  -3000908545.9573317        33576268.183642387        1155492864.0858810     
   944592.56037340942        913882.32336439856        1633539243.1790099     
   1179936.3771083758        1544514.9135961626        1589059376.1862135     
   1288381.8467659424        1752153.0135688861        1571142229.8579431     
   1269928.9693487054        1536796.6232936524        1579787804.1942005     
   1124577.7448554640        898445.74276333535        1614996099.1949859     
  -781494982.06114304       -513408.20919257402        1528954175.7757859     
  -719203262.74055123       -4840749.7325854301        1490548339.1532071     
  -655523434.72748256       -4541062.2810555696        1474459603.2029808     
  -590455498.02193713        385654.14539721608        1480687967.9251080     
  -523999452.62391698        9939399.5467656255        1509233433.3195877     
  -1542617030.0212669        4454559.2566673756        1414418090.1258571     
  -1430399278.0316000       -8469859.2307829261        1383853792.0863068     
  -1315278410.3099043       -11717225.278137028        1371360974.7269359     
  -1197254426.8561790       -5287538.8853910565        1376939638.0477438     
  -1076327327.6704261        10819199.947447717        1400589782.0487318     
  -2282421551.3199959        15817784.720946431        1289930986.2292218     
  -2132408109.4960372       -9342813.5809973478        1268975734.9855118     
  -1977976544.9004970       -19776335.977666378        1261846344.4298079     
  -1819126857.5333762       -15482782.469066143        1268542814.5621085     
  -1655859047.3946733        3537846.9448046684        1289065145.3824148     
  -3000908545.9573317        33576268.183642387        1155492864.0858810     
  -2825229757.1338649       -7459612.7832298279        1145914167.8508229     
  -2643617838.4992628       -28718394.379652023        1145915712.3115962     
  -2456072790.0535254       -30200076.605621457        1155497497.4682009     
  -2262594611.7966552       -11904659.461152196        1174659523.3206363     
   1124577.7448554640        898445.74276333535        1614996099.1949859     
   1570951.8712001967        641624.62238476367        1614796506.3958278     
   2278737.8533411114        1256176.3546601317        1633573619.9497147     
   3247935.6912859748        2742100.9396160208        1671327439.8566463     
   4478545.3850254873        5099398.3772193529        1728057966.1166182     
  -523999452.62391698        9939399.5467656255        1509233433.3195877     
  -472950115.50258183        14551645.485754013        1498656531.7463992     
  -423499537.82936013        13834693.264364570        1506904649.1103044     
  -375647719.60424781        7788542.8826089352        1533977785.4113030     
  -329394660.82725012       -3586805.6595257223        1579875940.6493988     
  -1076327327.6704261        10819199.947447717        1400589782.0487318     
  -975108420.17109978        20170495.160701692        1377465371.8469484     
  -877348443.42379618        17992021.200546682        1373014293.1663086     
  -783047397.42851436        4283778.0669869781        1387236546.0068145     
  -692205282.18525696       -20954234.239990145        1420132130.3684661     
  -1655859047.3946733        3537846.9448046684        1289065145.3824148     
  -1504903962.1343529        17498173.647230864        1251223026.6974735     
  -1359267978.9299681        13728160.163207352        1231902552.1177256     
  -1218951097.7815154       -7772193.5072610974        1231103721.6431746     
  -1083953318.6889985       -47002887.364175022        1248826535.2738190     
  -2262594611.7966552       -11904659.461152196        1174659523.3206363     
  -2062336741.3923426        6534680.9453357458        1119929496.2979753     
  -1869258144.3478730        1043110.1523522139        1083569425.9645591     
  -1683358820.6632495       -28379371.840118945        1065579312.3203875     
  -1504638770.3384697       -81732765.032078743        1065959155.3654633     
  -3624191099.5873666       -1087257329.8762100        843869413.33204079     
  -3692819679.1233954       -911334560.10475314        1027556217.6142390     
  -3762456112.4422102       -738771302.94258022        1176202609.8812413     
  -3833100399.5438094       -569567558.38969064        1289808590.1330481     
  -3904752540.4281931       -403723326.44608414        1368374158.3696587     
  -4759462000.2141380       -1427838600.0642416        992607413.90498292     
  -4734338400.9281158       -912588973.40856850        973086098.24046910     
  -4753842362.6794195       -546097883.54398203        982416057.48098683     
  -4817973885.4680500       -328365330.47048116        1020597291.6265358     
  -4926732969.2940054       -259391314.18806887        1087629800.6771166     
  -6490542343.0173693       -1947162702.9052107        1286483014.1857412     
  -6189118887.9943600       -1037821916.2908410        1012863920.1108842     
  -5975942701.2632198       -422638690.64936066        831987787.86128592     
  -5851013782.8239431       -101613025.98076868        743854617.43694663     
  -5814332132.6765356       -74744922.285066128        748464408.83786631     
  -8817432127.9970608       -2645229638.3991184        1725496214.1743150     
  -8057161140.3221302       -1287033388.7515709        1146889683.2254839     
  -7428757128.1936083       -368393724.25871634        724917801.02213931     
  -6932220091.6114922        110689355.07944727        459580567.56428099     
  -6567550030.5757847        150215849.26291800        350877982.85190874     
  -11740131355.153214       -3522039406.5459642        2309647013.8707047     
  -10338465157.911427       -1660223390.7907588        1375163387.5842688     
  -9112285643.4705849       -383362984.37204838        661206096.96354616     
  -8061592811.8306932        308541812.71016932        167775142.00853726     
  -7186386662.9917526        415491000.45588875       -105129477.28075783     
  -3904752540.4281931       -403723326.44608414        1368374158.3696587     
  -3643119226.6429987       -175490710.56372380        1255686270.8622384     
  -3405267456.3027911       -26529906.164649725        1182643425.9791353     
  -3191197229.4075694        43159086.751138568        1149245623.7203498     
  -3000908545.9573317        33576268.183642387        1155492864.0858810     
  -4926732969.2940054       -259391314.18806887        1087629800.6771166     
  -4612684534.0103655       -145347374.21719909        996374872.01934254     
  -4307924361.0153952       -62264308.541890383        932145457.86947608     
  -4012452450.3090925       -10142117.162142992        894941558.22751629     
  -3726268801.8914557        11019199.922049284        884763173.09346652     
  -5814332132.6765356       -74744922.285066128        748464408.83786631     
  -5483924370.5127630       -85706396.611183167        695551267.04544234     
  -5148311589.4813423       -79317808.045135498        657044111.64451683     
  -4807493789.5822697       -55579156.586917877        632942942.63508904     
  -4461470970.8155489       -14490442.236534119        623247760.01715958     
  -6567550030.5757847        150215849.26291800        350877982.85190874     
  -6256838736.1501942        3432222.2543225288        353215455.94053811     
  -5926429141.7006350       -77690404.674381495        357339387.30425733     
  -5576321247.2271090       -93152031.523195267        363249776.94306487     
  -5206515052.7296114       -42952658.292108059        370946624.85696173     
  -7186386662.9917526        415491000.45588875       -105129477.28075783     
  -6931427630.9226532        122068482.37931967       -30632561.295368824     
  -6642277017.6732712       -57382098.429634571        33031284.848698668     
  -6318934823.2435999       -122860741.97096276        85862061.151445821     
  -5961401047.6336441       -74367448.244672537        127859767.61287330     
  -3000908545.9573317        33576268.183642387        1155492864.0858810     
  -2825229757.1338649       -7459612.7832298279        1145914167.8508229     
  -2643617838.4992628       -28718394.379652023        1145915712.3115962     
  -2456072790.0535254       -30200076.605621457        1155497497.4682009     
  -2262594611.7966552       -11904659.461152196        1174659523.3206363     
  -3726268801.8914557        11019199.922049284        884763173.09346652     
  -3512458136.7124648       -1886083.2215936184        877707170.37391436     
  -3297505168.7544131       -10983690.435036898        883911463.11895883     
  -3081409898.0173016       -16273621.718277454        903376051.32859778     
  -2864172324.5011315       -17755877.071325779        936100935.00283492     
  -4461470970.8155489       -14490442.236534119        623247760.01715958     
  -4199013987.0845633        3889205.1019952297        613125152.60902607     
  -3940205527.6065922        10107104.930471182        619942895.43425548     
  -3685045592.3816385        4163257.2488956451        643700988.49284530     
  -3433534181.4096980       -13942337.942726374        684399431.78479457     
  -5206515052.7296114       -42952658.292108059        370946624.85696173     
  -4884897308.2501602        9866252.1875300407        352168114.55616391     
  -4571718915.0558014        34553991.716863394        354010009.25748831     
  -4266979873.1465268        31110560.295910835        376472308.96093994     
  -3970680182.5223484       -464042.07535028458        419555013.66651618     
  -5961401047.6336441       -74367448.244672537        127859767.61287330     
  -5570108100.2092609        16045058.035011768        94836056.215318903     
  -5192045331.1020346        62356969.924156427        86112804.588654876     
  -4827212740.3119764        64568287.422749043        101690012.73288219     
  -4475610327.8390808        22679010.530800581        141567680.64799836     
  -2262594611.7966552       -11904659.461152196        1174659523.3206363     
  -2062336741.3923426        6534680.9453357458        1119929496.2979753     
  -1869258144.3478730        1043110.1523522139        1083569425.9645591     
  -1683358820.6632495       -28379371.840118945        1065579312.3203875     
  -1504638770.3384697       -81732765.032078743        1065959155.3654633     
  -2864172324.5011315       -17755877.071325779        936100935.00283492     
  -2618783320.5804491       -12982904.226607800        887514879.94153655     
  -2375980707.9598794       -16831235.715596795        858428901.87168717     
  -2135764486.6394103       -29300871.538271308        848843000.79328406     
  -1898134656.6190619       -50391811.694658875        858757176.70633268     
  -3433534181.4096980       -13942337.942726374        684399431.78479457     
  -3139785128.8234944       -21867058.115044713        647315711.08788478     
  -2844029585.4776664       -23103475.755273581        630862187.68462706     
  -2546267551.3722124       -17651590.863417029        635038861.57501769     
  -2246499026.5071306       -5511403.4394717216        659845732.75906110     
  -3970680182.5223484       -464042.07535028458        419555013.66651618     
  -3625342166.1214757       -20117780.719952345        399331989.73702127     
  -3273404776.9012456       -17773609.966694593        400869283.40337694     
  -2914868014.8616467        6568470.1844531298        424166894.66558820     
  -2549731880.0026903        52908459.733466268        469224823.52365047     
  -4475610327.8390808        22679010.530800581        141567680.64799836     
  -4075454432.4743900       -7735072.0413429737        143563715.88894072     
  -3664106282.2306061       -841638.34984254837        168450189.02793881     
  -3241565877.1077166        43359311.605332851        216227100.06499305     
  -2807833217.1057401        124867777.82415056        286894449.00010282     
 </DataArray>
 <DataArray  type="Float64" Name="VM" NumberOfComponents="1" format="ascii">
   11174858161.563490     
   9906808430.2710094     
   8999987159.2899818     
   8225693480.1367331     
   7405867364.1183939     
   8387489042.6438913     
   7755598058.1454620     
   7359424380.8955584     
   7033391842.5533161     
   6671700126.4340496     
   6184410431.9411888     
   6003065233.9775610     
   5953148103.2062674     
   5941955439.6278696     
   5920530233.4380302     
   4566508274.7245588     
   4665526956.9082928     
   4816124014.9913502     
   4985958374.9367685     
   5157951840.3739662     
   3537438594.3557110     
   3777472186.4477272     
   4008912619.4679642     
   4221676492.9907169     
   4409962357.6976538     
   7405867364.1183939     
   6995317988.0447865     
   6616875649.1557178     
   6263894935.3090467     
   5933092032.4018259     
   6671700126.4340496     
   6288670996.1477785     
   5920859276.2918568     
   5566521786.0087833     
   5225276101.7361250     
   5920530233.4380302     
   5572686259.5609388     
   5233430748.7150497     
   4902880982.4459286     
   4581696036.9972906     
   5157951840.3739662     
   4857657221.1002092     
   4570538142.2740860     
   4295405552.2606087     
   4032809707.9956169     
   4409962357.6976538     
   4170092228.2082505     
   3962136769.4391799     
   3779538252.1811085     
   3621754879.3427753     
   5933092032.4018259     
   5585036277.2911692     
   5230200837.1861315     
   4867595009.5442839     
   4498048368.7651501     
   5225276101.7361250     
   4927759817.0318661     
   4629356835.7378855     
   4330696338.0149326     
   4033997869.9623456     
   4581696036.9972906     
   4331025832.8695498     
   4085928906.2819934     
   3848142109.1603341     
   3620631230.4249372     
   4032809707.9956169     
   3824824615.9687643     
   3628551639.6369910     
   3446053086.0020676     
   3280181564.8883390     
   3621754879.3427753     
   3450982333.4560447     
   3296347355.8178358     
   3159272779.1697512     
   3041698291.4914389     
   4498048368.7651501     
   4086756304.7186999     
   3685455837.1019158     
   3296440681.9338136     
   2925648085.2040915     
   4033997869.9623456     
   3678615265.0232825     
   3334889958.4545689     
   3005256490.6491323     
   2695038840.2650256     
   3620631230.4249372     
   3317145360.5170851     
   3027820047.9289141     
   2755489881.0642023     
   2505425336.7218642     
   3280181564.8883390     
   3026433247.3666224     
   2790225181.3435965     
   2574868848.8272834     
   2385862136.8330965     
   3041698291.4914389     
   2837181583.6948633     
   2654074322.7815084     
   2495854693.9283333     
   2368052038.5019398     
   3537438594.3557110     
   3777472186.4477272     
   4008912619.4679642     
   4221676492.9907169     
   4409962357.6976538     
   2805688163.4414597     
   2998526022.2013016     
   3191827781.0611091     
   3375574795.9924860     
   3543164847.3256183     
   2095385189.4457519     
   2285890865.0051432     
   2486623001.1371207     
   2688837584.1331968     
   2886630784.9786782     
   1482536804.8925068     
   1719882262.0167468     
   1972727811.2083275     
   2235785626.1778226     
   2505810647.9866920     
   1197511777.0566077     
   1477116054.7220886     
   1776971517.6140003     
   2097078167.8909755     
   2437436025.5719285     
   4409962357.6976538     
   4170092228.2082505     
   3962136769.4391799     
   3779538252.1811085     
   3621754879.3427753     
   3543164847.3256183     
   3415458004.1058192     
   3316999301.2822461     
   3244932254.1255469     
   3200417592.5821214     
   2886630784.9786782     
   2853780172.3635244     
   2844830655.1079364     
   2858872502.6359954     
   2896801152.8835859     
   2505810647.9866920     
   2550965355.7420368     
   2608669345.2009368     
   2678686313.4017591     
   2761186637.3790250     
   2437436025.5719285     
   2541994583.5733232     
   2642170253.7514029     
   2737963065.9974165     
   2829373118.0611582     
   3621754879.3427753     
   3450982333.4560447     
   3296347355.8178358     
   3159272779.1697512     
   3041698291.4914389     
   3200417592.5821214     
   3060800843.4895816     
   2943740656.2369790     
   2851142513.0604157     
   2785344718.9267712     
   2896801152.8835859     
   2790528722.0480428     
   2714634148.7122340     
   2670704501.5993400     
   2660506087.8857107     
   2761186637.3790250     
   2680079759.5789080     
   2637403945.7449398     
   2633756478.2901473     
   2669746411.4477811     
   2829373118.0611582     
   2752331931.0146432     
   2721298622.3225851     
   2736273111.6763725     
   2797255487.5722079     
   3041698291.4914389     
   2837181583.6948633     
   2654074322.7815084     
   2495854693.9283333     
   2368052038.5019398     
   2785344718.9267712     
   2648335546.9359632     
   2539419450.7562265     
   2461694436.8071022     
   2419127155.5093279     
   2660506087.8857107     
   2585638605.9064932     
   2542640970.0808005     
   2533137329.8571615     
   2558881212.2813320     
   2669746411.4477811     
   2642294409.1441011     
   2647689768.3267655     
   2686326941.4396834     
   2758589056.1486621     
   2797255487.5722079     
   2796909927.5477300     
   2829433198.2776113     
   2894825624.4011698     
   2993088075.2364798     
   1197511777.0566077     
   1477116054.7220886     
   1776971517.6140003     
   2097078167.8909755     
   2437436025.5719285     
   1482721594.1124530     
   1719972508.4841332     
   1972706784.5935669     
   2235631240.4868779     
   2505497644.4284921     
   2095557397.7292650     
   2286002751.5415854     
   2486633972.8032632     
   2688712217.4457431     
   2886337409.6677871     
   2805755288.9767704     
   2998618159.8853183     
   3191901303.0406222     
   3375603312.2291451     
   3543136904.0288491     
   3537344773.9895859     
   3777521542.7863927     
   4009067493.8352375     
   4221927858.0365620     
   4410327510.9234543     
   2437436025.5719285     
   2541994583.5733232     
   2642170253.7514029     
   2737963065.9974165     
   2829373118.0611582     
   2505497644.4284921     
   2550742098.2942967     
   2608506131.7648087     
   2678556630.5479555     
   2761057054.7350416     
   2886337409.6677871     
   2853563914.9002705     
   2844597259.7940826     
   2858528515.7784324     
   2896255241.5845900     
   3543136904.0288491     
   3415509662.2458663     
   3316961125.6561427     
   3244610550.6687655     
   3199619827.5244451     
   4410327510.9234543     
   4170614479.8786955     
   3962593251.6257248     
   3779633333.1069112     
   3621164184.8967175     
   2829373118.0611582     
   2752331931.0146432     
   2721298622.3225851     
   2736273111.6763725     
   2797255487.5722079     
   2761057054.7350416     
   2679365286.2291837     
   2636066802.3425055     
   2631762932.0587549     
   2667065639.7404847     
   2896255241.5845900     
   2789113211.4338646     
   2712300858.2328272     
   2667396463.1898327     
   2656162228.6077662     
   3199619827.5244451     
   3059121963.9155455     
   2941161977.4820156     
   2847612984.9515867     
   2780792463.3440394     
   3621164184.8967175     
   3449675571.2167206     
   3294387351.4964714     
   3156668403.2735400     
   3038423220.5339103     
   2797255487.5722079     
   2796909927.5477300     
   2829433198.2776113     
   2894825624.4011698     
   2993088075.2364798     
   2667065639.7404847     
   2639827639.2582769     
   2645314179.4527202     
   2683907814.6283441     
   2755967379.4606376     
   2656162228.6077662     
   2581306694.5921369     
   2537982274.0744901     
   2527807683.0272040     
   2552529804.7441721     
   2780792463.3440394     
   2643492458.8117242     
   2533615962.0565610     
   2454236619.0524201     
   2409339801.3528795     
   3038423220.5339103     
   2833633441.2893629     
   2649234803.3145103     
   2488595478.2717156     
   2357211604.7851062     
   3537344773.9895859     
   3777521542.7863927     
   4009067493.8352375     
   4221927858.0365620     
   4410327510.9234543     
   4566318700.4728966     
   4665507836.4079857     
   4816284956.7529917     
   4986331021.8269196     
   5158570113.4140568     
   6184299165.1036253     
   6003061192.1884613     
   5953273139.2410021     
   5942230839.8415146     
   5920983876.2638807     
   8387623497.0067148     
   7755677469.7765274     
   7359480712.3470430     
   7033412642.3328323     
   6671669535.2404928     
   11175403730.187305     
   9907031082.8367844     
   8999943572.8920345     
   8225342586.6812534     
   7405121312.0876589     
   4410327510.9234543     
   4170614479.8786955     
   3962593251.6257248     
   3779633333.1069112     
   3621164184.8967175     
   5158570113.4140568     
   4858583285.3985586     
   4571711350.9755621     
   4296736429.3846903     
   4034188731.9503412     
   5920983876.2638807     
   5573341850.8202543     
   5234326283.3520565     
   4904053367.9082117     
   4583186426.4998741     
   6671669535.2404928     
   6288386206.8448792     
   5920409259.9617786     
   5566007680.7345314     
   5224826739.5847769     
   7405121312.0876589     
   6993462206.2446127     
   6614020115.5153694     
   6260175710.1621323     
   5928705014.1436749     
   3621164184.8967175     
   3449675571.2167206     
   3294387351.4964714     
   3156668403.2735400     
   3038423220.5339103     
   4034188731.9503412     
   3826467112.3487611     
   3630611605.1342378     
   3448691195.4632421     
   3283564734.4682269     
   4583186426.4998741     
   4333108788.6822739     
   4088781408.3006425     
   3852008960.4227629     
   3625836126.5345411     
   5224826739.5847769     
   4927735973.7069321     
   4629875615.4035816     
   4331977312.6907749     
   4036401614.4353676     
   5928705014.1436749     
   5580565924.0178089     
   5225631978.2218990     
   4863009288.4660444     
   4493687659.6563187     
   3038423220.5339103     
   2833633441.2893629     
   2649234803.3145103     
   2488595478.2717156     
   2357211604.7851062     
   3283564734.4682269     
   3031046553.4636889     
   2795760623.2379322     
   2580963394.2757158     
   2392111145.1583257     
   3625836126.5345411     
   3323721385.5849409     
   3035999404.5848527     
   2765622428.3001680     
   2518054022.9162922     
   4036401614.4353676     
   3680893209.7941399     
   3337574427.9360113     
   3009218765.0787401     
   2701730955.6190233     
   4493687659.6563187     
   4079178391.5928164     
   3675284764.7525935     
   3284881110.0090499     
   2914970412.5330601     
 </DataArray>
 <DataArray  type="Float64" Name="strain" NumberOfComponents="3" format="ascii">
  0.17804986735090889        0.0000000000000000       0.10008019633298011     
  0.16400308668387675       -2.4018782746530111E-002   5.9589460453032650E-002
  0.14995630601684465       -3.9168417517323716E-002   2.8649946201789751E-002
  0.13590952534981254       -4.5448904312380814E-002   7.2616535792514088E-003
  0.12186274468278041       -4.2860243131701427E-002  -4.5754174145823737E-003
  0.13372888857189436        0.0000000000000000        7.4770387252915321E-002
  0.12784977467271608       -1.8833473675717582E-002   4.9697455929123967E-002
  0.12197066077353781       -3.1001371851407868E-002   3.1408636512335782E-002
  0.11609154687435957       -3.6503694527070842E-002   1.9903929002550707E-002
  0.11021243297518127       -3.5340441702706532E-002   1.5183333399768878E-002
   9.8441907472004708E-002   0.0000000000000000        5.5747673481517643E-002
   9.7963350618978887E-002  -1.3648164604905054E-002   4.3888974238173215E-002
   9.7484793765953065E-002  -2.2834326185492002E-002   3.6047277180130538E-002
   9.7006236912927257E-002  -2.7558484741760848E-002   3.2222582307389599E-002
   9.6527680059901450E-002  -2.7820640273711592E-002   3.2414889619950392E-002
   7.2188924051239972E-002   0.0000000000000000        4.3012055018787104E-002
   7.4343814522665225E-002  -8.4628555340925254E-003   4.2164015380180393E-002
   7.6498704994090450E-002  -1.4667280519576149E-002   4.2565868205174037E-002
   7.8653595465515674E-002  -1.8613274956450866E-002   4.4217613493767988E-002
   8.0808485936940899E-002  -2.0300838844716673E-002   4.7119251245962286E-002
   5.4969938309600175E-002   0.0000000000000000        3.6563531864723685E-002
   5.6991166383775049E-002  -3.2775464632799987E-003   4.4522579355145489E-002
   5.9012394457949917E-002  -6.5002348536602923E-003   5.0964409587466238E-002
   6.1033622532124777E-002  -9.6680651711408792E-003   5.5889022561685903E-002
   6.3054850606299645E-002  -1.2781037415721761E-002   5.9296418277804533E-002
  0.12186274468278041       -4.2860243131701427E-002  -4.5754174145823737E-003
  0.11616577122059528       -3.6697436155211052E-002  -1.3582848889916038E-003
  0.11046879775841018       -3.2255485562835258E-002   1.3715282299790986E-003
  0.10477182429622507       -2.9534391354573999E-002   3.6140219423296902E-003
   9.9074850834039940E-002  -2.8534153530427347E-002   5.3691962480603428E-003
  0.11021243297518127       -3.5340441702706532E-002   1.5183333399768878E-002
  0.10430448351838992       -3.1340777442008846E-002   1.5285563623955053E-002
   9.8396534061598526E-002  -2.8333865808671768E-002   1.5453161265548802E-002
   9.2488584604807161E-002  -2.6319706802695308E-002   1.5686126324550090E-002
   8.6580635148015783E-002  -2.5298300424079406E-002   1.5984458800958806E-002
   9.6527680059901450E-002  -2.7820640273711592E-002   3.2414889619950392E-002
   9.0961441432531362E-002  -2.5984118728806606E-002   3.0130321299486063E-002
   8.5395202805161302E-002  -2.4412246054508289E-002   2.8463807220456817E-002
   7.9828964177791215E-002  -2.3105022250816603E-002   2.7415347382862613E-002
   7.4262725550421155E-002  -2.2062447317731590E-002   2.6984941786703513E-002
   8.0808485936940899E-002  -2.0300838844716673E-002   4.7119251245962286E-002
   7.6136644963019681E-002  -2.0627460015604383E-002   4.3175988137601359E-002
   7.1464803989098477E-002  -2.0490626300344806E-002   4.0403466094703036E-002
   6.6792963015177245E-002  -1.9890337698937909E-002   3.8801685117267372E-002
   6.2121122041256034E-002  -1.8826594211383711E-002   3.8370645205294332E-002
   6.3054850606299645E-002  -1.2781037415721761E-002   5.9296418277804533E-002
   5.9830094109854848E-002  -1.5270801302402163E-002   5.4422564138300912E-002
   5.6605337613410051E-002  -1.6569006546181316E-002   5.1272137888287536E-002
   5.3380581116965267E-002  -1.6675653147059179E-002   4.9845139527764329E-002
   5.0155824620520470E-002  -1.5590741105035832E-002   5.0141569056731339E-002
   9.9074850834039940E-002  -2.8534153530427347E-002   5.3691962480603428E-003
   9.3014217548798656E-002  -2.8062179338893933E-002   3.8255281284539089E-003
   8.6953584263557399E-002  -2.6925876028472025E-002   3.3277211432925086E-003
   8.0892950978316114E-002  -2.5125243599162336E-002   3.8757752925761557E-003
   7.4832317693074857E-002  -2.2660282050964153E-002   5.4696905763048087E-003
   8.6580635148015783E-002  -2.5298300424079406E-002   1.5984458800958806E-002
   8.1487242161437420E-002  -2.4559753281150135E-002   1.5084157571437828E-002
   7.6393849174859058E-002  -2.3394171982233224E-002   1.5072475804797585E-002
   7.1300456188280695E-002  -2.1801556527328493E-002   1.5949413501038269E-002
   6.6207063201702332E-002  -1.9781906916436387E-002   1.7714970660159784E-002
   7.4262725550421155E-002  -2.2062447317731590E-002   2.6984941786703513E-002
   6.9979331190941546E-002  -2.1057327223406447E-002   2.6490712484367261E-002
   6.5695936831461924E-002  -1.9862467935994197E-002   2.6727860973347711E-002
   6.1412542471982308E-002  -1.8477869455494948E-002   2.7696387253644761E-002
   5.7129148112502734E-002  -1.6903531781908676E-002   2.9396291325258450E-002
   6.2121122041256034E-002  -1.8826594211383711E-002   3.8370645205294332E-002
   5.8490484637311026E-002  -1.7554901165662634E-002   3.8045192867242290E-002
   5.4859847233365996E-002  -1.6330763889755157E-002   3.8293876648942696E-002
   5.1229209829420981E-002  -1.5154182383661254E-002   3.9116696550395610E-002
   4.7598572425475952E-002  -1.4025156647380937E-002   4.0513652571601076E-002
   5.0155824620520470E-002  -1.5590741105035832E-002   5.0141569056731339E-002
   4.7020702500545866E-002  -1.4052475107918933E-002   4.9747598720062819E-002
   4.3885580380571269E-002  -1.2799059843516175E-002   4.9770522831582661E-002
   4.0750458260596659E-002  -1.1830495311827616E-002   5.0210341391290866E-002
   3.7615336140622055E-002  -1.1146781512853199E-002   5.1067054399187406E-002
   7.4832317693074857E-002  -2.2660282050964153E-002   5.4696905763048087E-003
   6.8074645367740494E-002  -2.0148005268069064E-002   5.4761342040373640E-003
   6.1316973042406131E-002  -1.8205427134667745E-002   6.4121581001400640E-003
   5.4559300717071699E-002  -1.6832547650761108E-002   8.2777622646135335E-003
   4.7801628391737405E-002  -1.6029366816348256E-002   1.1072946697456842E-002
   6.6207063201702332E-002  -1.9781906916436387E-002   1.7714970660159784E-002
   6.0364729473036921E-002  -1.7720391186823170E-002   1.6798011734343837E-002
   5.4522395744371482E-002  -1.6002177375755822E-002   1.6782149733495802E-002
   4.8680062015706058E-002  -1.4627265483234037E-002   1.7667384657615116E-002
   4.2837728287040633E-002  -1.3595655509258120E-002   1.9453716506702134E-002
   5.7129148112502734E-002  -1.6903531781908676E-002   2.9396291325258450E-002
   5.2173669637103487E-002  -1.5292777105577540E-002   2.7782326576842736E-002
   4.7218191161704247E-002  -1.3798927616843690E-002   2.7040975409991716E-002
   4.2262712686305048E-002  -1.2421983315707080E-002   2.7172237824705653E-002
   3.7307234210905788E-002  -1.1161944202167762E-002   2.8176113820984450E-002
   4.7598572425475952E-002  -1.4025156647380937E-002   4.0513652571601076E-002
   4.3501465859940205E-002  -1.2865163024331834E-002   3.8429078731533700E-002
   3.9404359294404459E-002  -1.1595677857931440E-002   3.7188635129628611E-002
   3.5307252728868761E-002  -1.0216701148180121E-002   3.6792321765885372E-002
   3.1210146163332946E-002  -8.7282328950775145E-003   3.7240138640304496E-002
   3.7615336140622055E-002  -1.1146781512853199E-002   5.1067054399187406E-002
   3.4348118141547090E-002  -1.0437548943086045E-002   4.8738268198416909E-002
   3.1080900142472119E-002  -9.3924280990193426E-003   4.7225128892405821E-002
   2.7813682143397116E-002  -8.0114189806530477E-003   4.6527636481154364E-002
   2.4546464144322155E-002  -6.2945215879872674E-003   4.6645790964661926E-002
   5.4969938309600175E-002   0.0000000000000000        3.6563531864723685E-002
   5.6991166383775049E-002  -3.2775464632799987E-003   4.4522579355145489E-002
   5.9012394457949917E-002  -6.5002348536602923E-003   5.0964409587466238E-002
   6.1033622532124777E-002  -9.6680651711408792E-003   5.5889022561685903E-002
   6.3054850606299645E-002  -1.2781037415721761E-002   5.9296418277804533E-002
   4.2007801163932976E-002   0.0000000000000000        3.3672077145693646E-002
   4.2764795969838773E-002  -2.4576255917003811E-003   4.1411545521847434E-002
   4.3521790775744584E-002  -4.8746344901410901E-003   4.8139764619564158E-002
   4.4278785581650396E-002  -7.2510266953221391E-003   5.3856734438843833E-002
   4.5035780387556193E-002  -9.5868022072435125E-003   5.8562454979686422E-002
   2.8525363531086055E-002   0.0000000000000000        3.1607663988063250E-002
   2.8524093048386802E-002  -1.6377047201207610E-003   3.9113311870308975E-002
   2.8522822565687552E-002  -3.2490341266218914E-003   4.6113678453781642E-002
   2.8521552082988299E-002  -4.8339882195033903E-003   5.2608763738481265E-002
   2.8520281600289042E-002  -6.3925669987652620E-003   5.8598567724407802E-002
   1.4522625411059425E-002   0.0000000000000000        3.0370292391832497E-002
   1.4269057619419117E-002  -8.1778384854114174E-004   3.7627878400530120E-002
   1.4015489827778810E-002  -1.6234337631026909E-003   4.4886151090118696E-002
   1.3761922036138501E-002  -2.4169497436846493E-003   5.2145110460598207E-002
   1.3508354244498191E-002  -3.1983317902870160E-003   5.9404756511968679E-002
  -4.1319614691760764E-007   0.0000000000000000        2.9959962357001380E-002
  -3.1031706427923911E-007   2.1370230384775216E-006   3.6955245112510859E-002
  -2.0743798163566640E-007   2.1666004165095398E-006   4.4457182528575299E-002
  -1.0455889899469578E-007   8.8732134098656879E-008   5.2465774605194679E-002
  -1.6798163554598844E-009  -4.0965818087690051E-006   6.0981021342369025E-002
   6.3054850606299645E-002  -1.2781037415721761E-002   5.9296418277804533E-002
   5.9830094109854848E-002  -1.5270801302402163E-002   5.4422564138300912E-002
   5.6605337613410051E-002  -1.6569006546181316E-002   5.1272137888287536E-002
   5.3380581116965267E-002  -1.6675653147059179E-002   4.9845139527764329E-002
   5.0155824620520470E-002  -1.5590741105035832E-002   5.0141569056731339E-002
   4.5035780387556193E-002  -9.5868022072435125E-003   5.8562454979686422E-002
   4.3305316706093396E-002  -1.1454879238663396E-002   5.6006206652473196E-002
   4.1574853024630598E-002  -1.2428176002339990E-002   5.4715116065733801E-002
   3.9844389343167808E-002  -1.2506692498273294E-002   5.4689183219468140E-002
   3.8113925661705010E-002  -1.1690428726463323E-002   5.5928408113676276E-002
   2.8520281600289042E-002  -6.3925669987652620E-003   5.8598567724407802E-002
   2.7825840584791837E-002  -7.6389571749246547E-003   5.8063146834326999E-002
   2.7131399569294636E-002  -8.2873454584986971E-003   5.8334613535703558E-002
   2.6436958553797432E-002  -8.3377318494874102E-003   5.9412967828537548E-002
   2.5742517538300227E-002  -7.7901163478908131E-003   6.1298209712828899E-002
   1.3508354244498191E-002  -3.1983317902870160E-003   5.9404756511968679E-002
   1.3391665745950181E-002  -3.8230351111859179E-003   6.0593384683862314E-002
   1.3274977247402165E-002  -4.1465149146574154E-003   6.2130630298196932E-002
   1.3158288748854155E-002  -4.1687712007015395E-003   6.4016493354972615E-002
   1.3041600250306141E-002  -3.8898039693183034E-003   6.6250973854189169E-002
  -1.6798163554598844E-009  -4.0965818087690051E-006   6.0981021342369025E-002
   2.7921895684188472E-006  -7.1130474471525415E-006   6.3596920201079168E-002
   5.5860589531896848E-006  -5.6843708161038922E-006   6.6103166353213880E-002
   8.3799283379605224E-006   1.8944808437678035E-007   6.8499759798773222E-002
   1.1173797722734830E-005   1.0508409254206263E-005   7.0786700537757097E-002
   5.0155824620520470E-002  -1.5590741105035832E-002   5.0141569056731339E-002
   4.7020702500545866E-002  -1.4052475107918933E-002   4.9747598720062819E-002
   4.3885580380571269E-002  -1.2799059843516175E-002   4.9770522831582661E-002
   4.0750458260596659E-002  -1.1830495311827616E-002   5.0210341391290866E-002
   3.7615336140622055E-002  -1.1146781512853199E-002   5.1067054399187406E-002
   3.8113925661705010E-002  -1.1690428726463323E-002   5.5928408113676276E-002
   3.5487467587494721E-002  -1.0534395772603948E-002   5.5046651891815131E-002
   3.2861009513284453E-002  -9.5936047223890708E-003   5.4765329313294295E-002
   3.0234551439074164E-002  -8.8680555758186771E-003   5.5084440378113754E-002
   2.7608093364863882E-002  -8.3577483328927810E-003   5.6003985086273467E-002
   2.5742517538300227E-002  -7.7901163478908131E-003   6.1298209712828899E-002
   2.3808262705006224E-002  -7.0163164372889358E-003   5.9998276434844761E-002
   2.1874007871712217E-002  -6.3881496012619249E-003   5.9482315995352808E-002
   1.9939753038418221E-002  -5.9056158398097247E-003   5.9750328394353180E-002
   1.8005498205124214E-002  -5.5687151529323631E-003   6.0802313631845753E-002
   1.3041600250306141E-002  -3.8898039693183034E-003   6.6250973854189169E-002
   1.1983087853080370E-002  -3.4982371019739514E-003   6.4602472349151674E-002
   1.0924575455854605E-002  -3.1826944801347443E-003   6.3921482877758423E-002
   9.8660630586288392E-003  -2.9431761038008347E-003   6.4208005440009319E-002
   8.8075506614030685E-003  -2.7796819729719729E-003   6.5462040035904390E-002
   1.1173797722734830E-005   1.0508409254206263E-005   7.0786700537757097E-002
   1.1943031717158784E-005   1.9842233341060833E-005   6.8859239634735919E-002
   1.2712265711587942E-005   2.2760640992318393E-005   6.8082829960510863E-002
   1.3481499706010161E-005   1.9263632208150680E-005   6.8457471515082025E-002
   1.4250733700441054E-005   9.3512069884449378E-006   6.9983164298449391E-002
   3.7615336140622055E-002  -1.1146781512853199E-002   5.1067054399187406E-002
   3.4348118141547090E-002  -1.0437548943086045E-002   4.8738268198416909E-002
   3.1080900142472119E-002  -9.3924280990193426E-003   4.7225128892405821E-002
   2.7813682143397116E-002  -8.0114189806530477E-003   4.6527636481154364E-002
   2.4546464144322155E-002  -6.2945215879872674E-003   4.6645790964661926E-002
   2.7608093364863882E-002  -8.3577483328927810E-003   5.6003985086273467E-002
   2.5157356891449031E-002  -7.8274519612269583E-003   5.4376235350134250E-002
   2.2706620418034191E-002  -7.0419354284367748E-003   5.3565801770555740E-002
   2.0255883944619316E-002  -6.0011987345221897E-003   5.3572684347538278E-002
   1.7805147471204485E-002  -4.7052418794833462E-003   5.4396883081081593E-002
   1.8005498205124214E-002  -5.5687151529323631E-003   6.0802313631845753E-002
   1.6372912519170967E-002  -5.2173549793678303E-003   5.9794932247162577E-002
   1.4740326833217710E-002  -4.6914427578541792E-003   5.9606536280841650E-002
   1.3107741147264432E-002  -3.9909784883913040E-003   6.0237125732882965E-002
   1.1475155461311212E-002  -3.1159621709793694E-003   6.1686700603286765E-002
   8.8075506614030685E-003  -2.7796819729719729E-003   6.5462040035904390E-002
   7.9947850247128627E-003  -2.6072579975087926E-003   6.4994358889501988E-002
   7.1820193880226587E-003  -2.3409500872716253E-003   6.5347332423263363E-002
   6.3692537513324555E-003  -1.9807582422604600E-003   6.6520960637188487E-002
   5.5564881146422419E-003  -1.5266824624753927E-003   6.8515243531277442E-002
   1.4250733700441054E-005   9.3512069884449378E-006   6.9983164298449391E-002
   2.2974408074746128E-005   2.8389843504117440E-006   6.9974515277152538E-002
   3.1698082449051201E-005   9.5425833109633040E-006   7.0788190197820969E-002
   4.0421756823352806E-005   2.9462003870503808E-005   7.2424189060454669E-002
   4.9145431197661349E-005   6.2597246028528453E-005   7.4882511865053458E-002
  -4.1319614691760764E-007   0.0000000000000000        2.9959962357001380E-002
  -3.1031706427923911E-007   2.1370230384775216E-006   3.6955245112510859E-002
  -2.0743798163566640E-007   2.1666004165095398E-006   4.4457182528575299E-002
  -1.0455889899469578E-007   8.8732134098656879E-008   5.2465774605194679E-002
  -1.6798163554598844E-009  -4.0965818087690051E-006   6.0981021342369025E-002
  -1.4523210155968740E-002   0.0000000000000000        3.0375337430197928E-002
  -1.4269586680649498E-002   8.2040003241329665E-004   3.7630056812396499E-002
  -1.4015963205330256E-002   1.6264813286043910E-003   4.4885162726513300E-002
  -1.3762339730011008E-002   2.4182438885732918E-003   5.2140655172548372E-002
  -1.3508716254691765E-002   3.1956877123199756E-003   5.9396534150501716E-002
  -2.8525223333841818E-002   0.0000000000000000        3.1615081158050180E-002
  -2.8524347390922661E-002   1.6386630417881171E-003   3.9117025876376062E-002
  -2.8523471448003507E-002   3.2507960567922777E-003   4.6113088997983505E-002
  -2.8522595505084354E-002   4.8363990450124815E-003   5.2603270522872531E-002
  -2.8521719562165190E-002   6.3954720064487262E-003   5.8587570451043097E-002
  -4.2006452729766143E-002   0.0000000000000000        3.3679193540558122E-002
  -4.2764592447883776E-002   2.4569260511629375E-003   4.1416152304449574E-002
  -4.3522732166001409E-002   4.8751107849801653E-003   4.8140961342985893E-002
  -4.4280871884119034E-002   7.2545542014516712E-003   5.3853620656167070E-002
  -4.5039011602236653E-002   9.5952563005774743E-003   5.8554130243993127E-002
  -5.4966898343741730E-002   0.0000000000000000        3.6567674577721768E-002
  -5.6990321851532827E-002   3.2751890605377575E-003   4.4527436096617024E-002
  -5.9013745359323938E-002   6.4994255131680459E-003   5.0968779761520457E-002
  -6.1037168867115035E-002   9.6727093578908678E-003   5.5891705572432088E-002
  -6.3060592374906133E-002   1.2795040594706229E-002   5.9296213529351875E-002
  -1.6798163554598844E-009  -4.0965818087690051E-006   6.0981021342369025E-002
   2.7921895684188472E-006  -7.1130474471525415E-006   6.3596920201079168E-002
   5.5860589531896848E-006  -5.6843708161038922E-006   6.6103166353213880E-002
   8.3799283379605224E-006   1.8944808437678035E-007   6.8499759798773222E-002
   1.1173797722734830E-005   1.0508409254206263E-005   7.0786700537757097E-002
  -1.3508716254691765E-002   3.1956877123199756E-003   5.9396534150501716E-002
  -1.3387124522678762E-002   3.8173529537028619E-003   6.0590198202699494E-002
  -1.3265532790665757E-002   4.1417797665803790E-003   6.2131110686729156E-002
  -1.3143941058652762E-002   4.1689681509524427E-003   6.4019271602590661E-002
  -1.3022349326639756E-002   3.8989181068191728E-003   6.6254680950284056E-002
  -2.8521719562165190E-002   6.3954720064487262E-003   5.8587570451043097E-002
  -2.7824428829116676E-002   7.6418189548528893E-003   5.8057316125953690E-002
  -2.7127138096068152E-002   8.2892439039768413E-003   5.8331211371103461E-002
  -2.6429847363019635E-002   8.3377468538205855E-003   5.9409256186492398E-002
  -2.5732556629971121E-002   7.7873278043841254E-003   6.1291450572120480E-002
  -4.5039011602236653E-002   9.5952563005774743E-003   5.8554130243993127E-002
  -4.3309120729745326E-002   1.1466284956002900E-002   5.5998273970841728E-002
  -4.1579229857253978E-002   1.2436708041373312E-002   5.4703468406336796E-002
  -3.9849338984762665E-002   1.2506525556688719E-002   5.4669713550478324E-002
  -3.8119448112271324E-002   1.1675737501949085E-002   5.5897009403266279E-002
  -6.3060592374906133E-002   1.2795040594706229E-002   5.9296213529351875E-002
  -5.9841200224564690E-002   1.5290750957152929E-002   5.4413071737363664E-002
  -5.6621808074223269E-002   1.6584172178769795E-002   5.1247881792429194E-002
  -5.3402415923881848E-002   1.6675304259556822E-002   4.9800643694548487E-002
  -5.0183023773540406E-002   1.5564147199514031E-002   5.0071357443721515E-002
   1.1173797722734830E-005   1.0508409254206263E-005   7.0786700537757097E-002
   1.1943031717158784E-005   1.9842233341060833E-005   6.8859239634735919E-002
   1.2712265711587942E-005   2.2760640992318393E-005   6.8082829960510863E-002
   1.3481499706010161E-005   1.9263632208150680E-005   6.8457471515082025E-002
   1.4250733700441054E-005   9.3512069884449378E-006   6.9983164298449391E-002
  -1.3022349326639756E-002   3.8989181068191728E-003   6.6254680950284056E-002
  -1.1962517297012927E-002   3.5153371514929990E-003   6.4590428029972308E-002
  -1.0902685267386098E-002   3.2019328022864866E-003   6.3893249472129168E-002
  -9.8428532377592727E-003   2.9587050591996394E-003   6.4163145276754679E-002
  -8.7830212081324438E-003   2.7856539222323451E-003   6.5400115443848800E-002
  -2.5732556629971121E-002   7.7873278043841254E-003   6.1291450572120480E-002
  -2.3797638671039418E-002   7.0108320696449511E-003   5.9966997657073300E-002
  -2.1862720712107722E-002   6.3811049635805715E-003   5.9425642238167223E-002
  -1.9927802753176030E-002   5.8981464861910448E-003   5.9667384315402236E-002
  -1.7992884794244341E-002   5.5619566374762591E-003   6.0692223888778381E-002
  -3.8119448112271324E-002   1.1675737501949085E-002   5.5897009403266279E-002
  -3.5493421090362298E-002   1.0506326987796896E-002   5.4988948516038846E-002
  -3.2867394068453286E-002   9.5602771248747120E-003   5.4680008258625006E-002
  -3.0241367046544270E-002   8.8375879131824438E-003   5.4970188631024701E-002
  -2.7615340024635247E-002   8.3382593527201107E-003   5.5859489633237981E-002
  -5.0183023773540406E-002   1.5564147199514031E-002   5.0071357443721515E-002
  -4.7049864554981599E-002   1.4001821905948827E-002   4.9656280606868997E-002
  -4.3916705336422786E-002   1.2739449286168780E-002   4.9656347533502503E-002
  -4.0783546117863979E-002   1.1777029340173936E-002   5.0071558223622040E-002
  -3.7650386899305159E-002   1.1114562067964073E-002   5.0901912677227573E-002
   1.4250733700441054E-005   9.3512069884449378E-006   6.9983164298449391E-002
   2.2974408074746128E-005   2.8389843504117440E-006   6.9974515277152538E-002
   3.1698082449051201E-005   9.5425833109633040E-006   7.0788190197820969E-002
   4.0421756823352806E-005   2.9462003870503808E-005   7.2424189060454669E-002
   4.9145431197661349E-005   6.2597246028528453E-005   7.4882511865053458E-002
  -8.7830212081324438E-003   2.7856539222323451E-003   6.5400115443848800E-002
  -7.9552601524718013E-003   2.6072780022754760E-003   6.4941783042343965E-002
  -7.1274990968111587E-003   2.3480759102195436E-003   6.5299201461446521E-002
  -6.2997380411505084E-003   2.0080476460647215E-003   6.6472370701156469E-002
  -5.4719769854898737E-003   1.5871932098108221E-003   6.8461290761473947E-002
  -1.7992884794244341E-002   5.5619566374762591E-003   6.0692223888778381E-002
  -1.6352659478655170E-002   5.2117170202005264E-003   5.9690166113367762E-002
  -1.4712434163066003E-002   4.6866092371280928E-003   5.9497286037206706E-002
  -1.3072208847476841E-002   3.9866332882590215E-003   6.0113583660295296E-002
  -1.1431983531887666E-002   3.1117891735931158E-003   6.1539058982633538E-002
  -2.7615340024635247E-002   8.3382593527201107E-003   5.5859489633237981E-002
  -2.5169223570475369E-002   7.8161560381256115E-003   5.4219664490223855E-002
  -2.2723107116315505E-002   7.0251425640366297E-003   5.3382443925101448E-002
  -2.0276990662155617E-002   5.9652189304532244E-003   5.3347827937870899E-002
  -1.7830874207995766E-002   4.6363851373754095E-003   5.4115816528532153E-002
  -3.7650386899305159E-002   1.1114562067964073E-002   5.0901912677227573E-002
  -3.4404952427932387E-002   1.0420595056050641E-002   4.8530278172912264E-002
  -3.1159517956559645E-002   9.3636758909452361E-003   4.6954675125130893E-002
  -2.7914083485186897E-002   7.9438045726475982E-003   4.6175103533883460E-002
  -2.4668649013814103E-002   6.1609811011577031E-003   4.6191563399170077E-002
  -5.4966898343741730E-002   0.0000000000000000        3.6567674577721768E-002
  -5.6990321851532827E-002   3.2751890605377575E-003   4.4527436096617024E-002
  -5.9013745359323938E-002   6.4994255131680459E-003   5.0968779761520457E-002
  -6.1037168867115035E-002   9.6727093578908678E-003   5.5891705572432088E-002
  -6.3060592374906133E-002   1.2795040594706229E-002   5.9296213529351875E-002
  -7.2185173669914435E-002   0.0000000000000000        4.3012987935882596E-002
  -7.4342695148425758E-002   8.4618757811644393E-003   4.2167064257086995E-002
  -7.6500216626937081E-002   1.4667580420997396E-002   4.2571362490842764E-002
  -7.8657738105448419E-002   1.8617113919498895E-002   4.4225882637149883E-002
  -8.0815259583959756E-002   2.0310476276668883E-002   4.7130624696008386E-002
  -9.8439892202430102E-002   0.0000000000000000        5.5747597281382122E-002
  -9.7962871885118472E-002   1.3648562501791119E-002   4.3890769871471648E-002
  -9.7485851567806855E-002   2.2835735328826753E-002   3.6052804140655724E-002
  -9.7008831250495212E-002   2.7561518481106904E-002   3.2233700088934357E-002
  -9.6531810933183596E-002   2.7825911958631575E-002   3.2433457716307540E-002
 -0.13373105394128876        0.0000000000000000        7.4771502614220317E-002
 -0.12785085206161098        1.8835249222417798E-002   4.9698552939770969E-002
 -0.12197065018193322        3.1003890236656100E-002   3.1413104710959372E-002
 -0.11609044830225544        3.6505923042714918E-002   1.9915157927785511E-002
 -0.11021024642257768        3.5341347640594226E-002   1.5204712590249379E-002
 -0.17805865888649042        0.0000000000000000       0.10008470393439721     
 -0.16400663567790330        2.4021935943044484E-002   5.9590413461984980E-002
 -0.14995461246931618        3.9172045144485454E-002   2.8652264201753666E-002
 -0.13590258926072907        4.5450327604322951E-002   7.2702561537032820E-003
 -0.12185056605214198        4.2856783322556907E-002  -4.5556106821661724E-003
  -6.3060592374906133E-002   1.2795040594706229E-002   5.9296213529351875E-002
  -5.9841200224564690E-002   1.5290750957152929E-002   5.4413071737363664E-002
  -5.6621808074223269E-002   1.6584172178769795E-002   5.1247881792429194E-002
  -5.3402415923881848E-002   1.6675304259556822E-002   4.9800643694548487E-002
  -5.0183023773540406E-002   1.5564147199514031E-002   5.0071357443721515E-002
  -8.0815259583959756E-002   2.0310476276668883E-002   4.7130624696008386E-002
  -7.6151338695753440E-002   2.0640966433098512E-002   4.3176244454171508E-002
  -7.1487417807547138E-002   2.0501883329378801E-002   4.0392969841010630E-002
  -6.6823496919340822E-002   1.9893226965509745E-002   3.8780800856525709E-002
  -6.2159576031134506E-002   1.8814997341491432E-002   3.8339737500716883E-002
  -9.6531810933183596E-002   2.7825911958631575E-002   3.2433457716307540E-002
  -9.0970207525490149E-002   2.5991181909044102E-002   3.0140554905302500E-002
  -8.5408604117796702E-002   2.4419594479987788E-002   2.8471911504595729E-002
  -7.9847000710103241E-002   2.3111149671462716E-002   2.7427527514187193E-002
  -7.4285397302409809E-002   2.2065847483468841E-002   2.7007402934076916E-002
 -0.11021024642257768        3.5341347640594226E-002   1.5204712590249379E-002
 -0.10429780671377485        3.1341397384989679E-002   1.5306003090756651E-002
  -9.8385367004972010E-002   2.8337305630596818E-002   1.5484706783184483E-002
  -9.2472927296169169E-002   2.6329072377415622E-002   1.5740823667532811E-002
  -8.6560487587366328E-002   2.5316697625446260E-002   1.6074353743801676E-002
 -0.12185056605214198        4.2856783322556907E-002  -4.5556106821661724E-003
 -0.11613413626060749        3.6691612860935266E-002  -1.3274109894659825E-003
 -0.11041770646907301        3.2255016781205778E-002   1.4313556767769423E-003
 -0.10470127667753852        2.9546995083368621E-002   3.7206893165626521E-003
  -9.8984846886004035E-002   2.8567547767423679E-002   5.5405899298911765E-003
  -5.0183023773540406E-002   1.5564147199514031E-002   5.0071357443721515E-002
  -4.7049864554981599E-002   1.4001821905948827E-002   4.9656280606868997E-002
  -4.3916705336422786E-002   1.2739449286168780E-002   4.9656347533502503E-002
  -4.0783546117863979E-002   1.1777029340173936E-002   5.0071558223622040E-002
  -3.7650386899305159E-002   1.1114562067964073E-002   5.0901912677227573E-002
  -6.2159576031134506E-002   1.8814997341491432E-002   3.8339737500716883E-002
  -5.8531538529099786E-002   1.7530855963202432E-002   3.8033977382869621E-002
  -5.4903501027065038E-002   1.6304464336521454E-002   3.8302830068488218E-002
  -5.1275463525030304E-002   1.5135822461448550E-002   3.9146295557572569E-002
  -4.7647426022995563E-002   1.4024930337983563E-002   4.0564373850122848E-002
  -7.4285397302409809E-002   2.2065847483468841E-002   2.7007402934076916E-002
  -7.0003012476919368E-002   2.1059890020456072E-002   2.6568756613057798E-002
  -6.5720627651428887E-002   1.9869479386874146E-002   2.6864192135484403E-002
  -6.1438242825938454E-002   1.8494615582723122E-002   2.7893709501356629E-002
  -5.7155858000448007E-002   1.6935298608003052E-002   2.9657308710674429E-002
  -8.6560487587366328E-002   2.5316697625446260E-002   1.6074353743801676E-002
  -8.1464286398440333E-002   2.4588924077709639E-002   1.5260618297433769E-002
  -7.6368085209514353E-002   2.3434494437226731E-002   1.5340433734491161E-002
  -7.1271884020588344E-002   2.1853408703997816E-002   1.6313800054974063E-002
  -6.6175682831662391E-002   1.9845666878022569E-002   1.8180717258882369E-002
  -9.8984846886004035E-002   2.8567547767423679E-002   5.5405899298911765E-003
  -9.2915360293662735E-002   2.8117958134963164E-002   4.1095624359971522E-003
  -8.6845873701321366E-002   2.6999509487579447E-002   3.7315548655083783E-003
  -8.0776387108980024E-002   2.5212201825272368E-002   4.4065672184248946E-003
  -7.4706900516638697E-002   2.2756035148042086E-002   6.1345994947465954E-003
  -3.7650386899305159E-002   1.1114562067964073E-002   5.0901912677227573E-002
  -3.4404952427932387E-002   1.0420595056050641E-002   4.8530278172912264E-002
  -3.1159517956559645E-002   9.3636758909452361E-003   4.6954675125130893E-002
  -2.7914083485186897E-002   7.9438045726475982E-003   4.6175103533883460E-002
  -2.4668649013814103E-002   6.1609811011577031E-003   4.6191563399170077E-002
  -4.7647426022995563E-002   1.4024930337983563E-002   4.0564373850122848E-002
  -4.3581474155207779E-002   1.2877534865792115E-002   3.8458978130799917E-002
  -3.9515522287420002E-002   1.1599382944539448E-002   3.7198585747773114E-002
  -3.5449570419632148E-002   1.0190474574225863E-002   3.6783196701042312E-002
  -3.1383618551844406E-002   8.6508097548509966E-003   3.7212810990607748E-002
  -5.7155858000448007E-002   1.6935298608003052E-002   2.9657308710674429E-002
  -5.2220416856483022E-002   1.5334474675533394E-002   2.8050347480475007E-002
  -4.7284975712518072E-002   1.3835089998133772E-002   2.7337361466333837E-002
  -4.2349534568553122E-002   1.2437144575804112E-002   2.7518350668250768E-002
  -3.7414093424588152E-002   1.1140638408544457E-002   2.8593315086225979E-002
  -6.6175682831662391E-002   1.9845666878022569E-002   1.8180717258882369E-002
  -6.0321780531758171E-002   1.7791414485274840E-002   1.7304386221937588E-002
  -5.4467878231853957E-002   1.6070797051727984E-002   1.7371002280813001E-002
  -4.8613975931949709E-002   1.4683814577382451E-002   1.8380565435508821E-002
  -4.2760073632045502E-002   1.3630467062237889E-002   2.0333075686024854E-002
  -7.4706900516638697E-002   2.2756035148042086E-002   6.1345994947465954E-003
  -6.7885565181033114E-002   2.0248354295016230E-002   6.2210943551874315E-003
  -6.1064229845427559E-002   1.8306504105322322E-002   7.2995081912106824E-003
  -5.4242894509821935E-002   1.6930484578960795E-002   9.3698410028163655E-003
  -4.7421559174216421E-002   1.6120295715931210E-002   1.2432092790004456E-002
 </DataArray>
 </PointData>
 </Piece>
 <Piece  NumberOfPoints="           400 "  NumberOfCells="          256 ">
 <Points>
 <DataArray  type="Float64" NumberOfComponents="3"  format="ascii" >
  0.50000000000000000        0.0000000000000000        0.0000000000000000     
  0.56250000000000000        0.0000000000000000        0.0000000000000000     
  0.62500000000000000        0.0000000000000000        0.0000000000000000     
  0.68750000000000000        0.0000000000000000        0.0000000000000000     
  0.75000000000000000        0.0000000000000000        0.0000000000000000     
  0.50000000000000000        6.2500000000000000E-002   0.0000000000000000     
  0.56250000000000000        6.2500000000000000E-002   0.0000000000000000     
  0.62500000000000000        6.2500000000000000E-002   0.0000000000000000     
  0.68750000000000000        6.2500000000000000E-002   0.0000000000000000     
  0.75000000000000000        6.2500000000000000E-002   0.0000000000000000     
  0.50000000000000000       0.12500000000000000        0.0000000000000000     
  0.56250000000000000       0.12500000000000000        0.0000000000000000     
  0.62500000000000000       0.12500000000000000        0.0000000000000000     
  0.68750000000000000       0.12500000000000000        0.0000000000000000     
  0.75000000000000000       0.12500000000000000        0.0000000000000000     
  0.50000000000000000       0.18750000000000000        0.0000000000000000     
  0.56250000000000000       0.18750000000000000        0.0000000000000000     
  0.62500000000000000       0.18750000000000000        0.0000000000000000     
  0.68750000000000000       0.18750000000000000        0.0000000000000000     
  0.75000000000000000       0.18750000000000000        0.0000000000000000     
  0.50000000000000000       0.25000000000000000        0.0000000000000000     
  0.56250000000000000       0.25000000000000000        0.0000000000000000     
  0.62500000000000000       0.25000000000000000        0.0000000000000000     
  0.68750000000000000       0.25000000000000000        0.0000000000000000     
  0.75000000000000000       0.25000000000000000        0.0000000000000000     
  0.75000000000000000        0.0000000000000000        0.0000000000000000     
  0.81250000000000000        0.0000000000000000        0.0000000000000000     
  0.87500000000000000        0.0000000000000000        0.0000000000000000     
  0.93750000000000000        0.0000000000000000        0.0000000000000000     
   1.0000000000000000        0.0000000000000000        0.0000000000000000     
  0.75000000000000000        6.2500000000000000E-002   0.0000000000000000     
  0.81250000000000000        6.2500000000000000E-002   0.0000000000000000     
  0.87500000000000000        6.2500000000000000E-002   0.0000000000000000     
  0.93750000000000000        6.2500000000000000E-002   0.0000000000000000     
   1.0000000000000000        6.2500000000000000E-002   0.0000000000000000     
  0.75000000000000000       0.12500000000000000        0.0000000000000000     
  0.81250000000000000       0.12500000000000000        0.0000000000000000     
  0.87500000000000000       0.12500000000000000        0.0000000000000000     
  0.93750000000000000       0.12500000000000000        0.0000000000000000     
   1.0000000000000000       0.12500000000000000        0.0000000000000000     
  0.75000000000000000       0.18750000000000000        0.0000000000000000     
  0.81250000000000000       0.18750000000000000        0.0000000000000000     
  0.87500000000000000       0.18750000000000000        0.0000000000000000     
  0.93750000000000000       0.18750000000000000        0.0000000000000000     
   1.0000000000000000       0.18750000000000000        0.0000000000000000     
  0.75000000000000000       0.25000000000000000        0.0000000000000000     
  0.81250000000000000       0.25000000000000000        0.0000000000000000     
  0.87500000000000000       0.25000000000000000        0.0000000000000000     
  0.93750000000000000       0.25000000000000000        0.0000000000000000     
   1.0000000000000000       0.25000000000000000        0.0000000000000000     
   1.0000000000000000        0.0000000000000000        0.0000000000000000     
   1.0625000000000000        0.0000000000000000        0.0000000000000000     
   1.1250000000000000        0.0000000000000000        0.0000000000000000     
   1.1875000000000000        0.0000000000000000        0.0000000000000000     
   1.2500000000000000        0.0000000000000000        0.0000000000000000     
   1.0000000000000000        6.2500000000000000E-002   0.0000000000000000     
   1.0625000000000000        6.2500000000000000E-002   0.0000000000000000     
   1.1250000000000000        6.2500000000000000E-002   0.0000000000000000     
   1.1875000000000000        6.2500000000000000E-002   0.0000000000000000     
   1.2500000000000000        6.2500000000000000E-002   0.0000000000000000     
   1.0000000000000000       0.12500000000000000        0.0000000000000000     
   1.0625000000000000       0.12500000000000000        0.0000000000000000     
   1.1250000000000000       0.12500000000000000        0.0000000000000000     
   1.1875000000000000       0.12500000000000000        0.0000000000000000     
   1.2500000000000000       0.12500000000000000        0.0000000000000000     
   1.0000000000000000       0.18750000000000000        0.0000000000000000     
   1.0625000000000000       0.18750000000000000        0.0000000000000000     
   1.1250000000000000       0.18750000000000000        0.0000000000000000     
   1.1875000000000000       0.18750000000000000        0.0000000000000000     
   1.2500000000000000       0.18750000000000000        0.0000000000000000     
   1.0000000000000000       0.25000000000000000        0.0000000000000000     
   1.0625000000000000       0.25000000000000000        0.0000000000000000     
   1.1250000000000000       0.25000000000000000        0.0000000000000000     
   1.1875000000000000       0.25000000000000000        0.0000000000000000     
   1.2500000000000000       0.25000000000000000        0.0000000000000000     
   1.2500000000000000        0.0000000000000000        0.0000000000000000     
   1.3125000000000000        0.0000000000000000        0.0000000000000000     
   1.3750000000000000        0.0000000000000000        0.0000000000000000     
   1.4375000000000000        0.0000000000000000        0.0000000000000000     
   1.5000000000000000        0.0000000000000000        0.0000000000000000     
   1.2500000000000000        6.2500000000000000E-002   0.0000000000000000     
   1.3125000000000000        6.2500000000000000E-002   0.0000000000000000     
   1.3750000000000000        6.2500000000000000E-002   0.0000000000000000     
   1.4375000000000000        6.2500000000000000E-002   0.0000000000000000     
   1.5000000000000000        6.2500000000000000E-002   0.0000000000000000     
   1.2500000000000000       0.12500000000000000        0.0000000000000000     
   1.3125000000000000       0.12500000000000000        0.0000000000000000     
   1.3750000000000000       0.12500000000000000        0.0000000000000000     
   1.4375000000000000       0.12500000000000000        0.0000000000000000     
   1.5000000000000000       0.12500000000000000        0.0000000000000000     
   1.2500000000000000       0.18750000000000000        0.0000000000000000     
   1.3125000000000000       0.18750000000000000        0.0000000000000000     
   1.3750000000000000       0.18750000000000000        0.0000000000000000     
   1.4375000000000000       0.18750000000000000        0.0000000000000000     
   1.5000000000000000       0.18750000000000000        0.0000000000000000     
   1.2500000000000000       0.25000000000000000        0.0000000000000000     
   1.3125000000000000       0.25000000000000000        0.0000000000000000     
   1.3750000000000000       0.25000000000000000        0.0000000000000000     
   1.4375000000000000       0.25000000000000000        0.0000000000000000     
   1.5000000000000000       0.25000000000000000        0.0000000000000000     
  0.50000000000000000       0.25000000000000000        0.0000000000000000     
  0.56250000000000000       0.25000000000000000        0.0000000000000000     
  0.62500000000000000       0.25000000000000000        0.0000000000000000     
  0.68750000000000000       0.25000000000000000        0.0000000000000000     
  0.75000000000000000       0.25000000000000000        0.0000000000000000     
  0.50000000000000000       0.31250000000000000        0.0000000000000000     
  0.56250000000000000       0.31250000000000000        0.0000000000000000     
  0.62500000000000000       0.31250000000000000        0.0000000000000000     
  0.68750000000000000       0.31250000000000000        0.0000000000000000     
  0.75000000000000000       0.31250000000000000        0.0000000000000000     
  0.50000000000000000       0.37500000000000000        0.0000000000000000     
  0.56250000000000000       0.37500000000000000        0.0000000000000000     
  0.62500000000000000       0.37500000000000000        0.0000000000000000     
  0.68750000000000000       0.37500000000000000        0.0000000000000000     
  0.75000000000000000       0.37500000000000000        0.0000000000000000     
  0.50000000000000000       0.43750000000000000        0.0000000000000000     
  0.56250000000000000       0.43750000000000000        0.0000000000000000     
  0.62500000000000000       0.43750000000000000        0.0000000000000000     
  0.68750000000000000       0.43750000000000000        0.0000000000000000     
  0.75000000000000000       0.43750000000000000        0.0000000000000000     
  0.50000000000000000       0.50000000000000000        0.0000000000000000     
  0.56250000000000000       0.50000000000000000        0.0000000000000000     
  0.62500000000000000       0.50000000000000000        0.0000000000000000     
  0.68750000000000000       0.50000000000000000        0.0000000000000000     
  0.75000000000000000       0.50000000000000000        0.0000000000000000     
  0.75000000000000000       0.25000000000000000        0.0000000000000000     
  0.81250000000000000       0.25000000000000000        0.0000000000000000     
  0.87500000000000000       0.25000000000000000        0.0000000000000000     
  0.93750000000000000       0.25000000000000000        0.0000000000000000     
   1.0000000000000000       0.25000000000000000        0.0000000000000000     
  0.75000000000000000       0.31250000000000000        0.0000000000000000     
  0.81250000000000000       0.31250000000000000        0.0000000000000000     
  0.87500000000000000       0.31250000000000000        0.0000000000000000     
  0.93750000000000000       0.31250000000000000        0.0000000000000000     
   1.0000000000000000       0.31250000000000000        0.0000000000000000     
  0.75000000000000000       0.37500000000000000        0.0000000000000000     
  0.81250000000000000       0.37500000000000000        0.0000000000000000     
  0.87500000000000000       0.37500000000000000        0.0000000000000000     
  0.93750000000000000       0.37500000000000000        0.0000000000000000     
   1.0000000000000000       0.37500000000000000        0.0000000000000000     
  0.75000000000000000       0.43750000000000000        0.0000000000000000     
  0.81250000000000000       0.43750000000000000        0.0000000000000000     
  0.87500000000000000       0.43750000000000000        0.0000000000000000     
  0.93750000000000000       0.43750000000000000        0.0000000000000000     
   1.0000000000000000       0.43750000000000000        0.0000000000000000     
  0.75000000000000000       0.50000000000000000        0.0000000000000000     
  0.81250000000000000       0.50000000000000000        0.0000000000000000     
  0.87500000000000000       0.50000000000000000        0.0000000000000000     
  0.93750000000000000       0.50000000000000000        0.0000000000000000     
   1.0000000000000000       0.50000000000000000        0.0000000000000000     
   1.0000000000000000       0.25000000000000000        0.0000000000000000     
   1.0625000000000000       0.25000000000000000        0.0000000000000000     
   1.1250000000000000       0.25000000000000000        0.0000000000000000     
   1.1875000000000000       0.25000000000000000        0.0000000000000000     
   1.2500000000000000       0.25000000000000000        0.0000000000000000     
   1.0000000000000000       0.31250000000000000        0.0000000000000000     
   1.0625000000000000       0.31250000000000000        0.0000000000000000     
   1.1250000000000000       0.31250000000000000        0.0000000000000000     
   1.1875000000000000       0.31250000000000000        0.0000000000000000     
   1.2500000000000000       0.31250000000000000        0.0000000000000000     
   1.0000000000000000       0.37500000000000000        0.0000000000000000     
   1.0625000000000000       0.37500000000000000        0.0000000000000000     
   1.1250000000000000       0.37500000000000000        0.0000000000000000     
   1.1875000000000000       0.37500000000000000        0.0000000000000000     
   1.2500000000000000       0.37500000000000000        0.0000000000000000     
   1.0000000000000000       0.43750000000000000        0.0000000000000000     
   1.0625000000000000       0.43750000000000000        0.0000000000000000     
   1.1250000000000000       0.43750000000000000        0.0000000000000000     
   1.1875000000000000       0.43750000000000000        0.0000000000000000     
   1.2500000000000000       0.43750000000000000        0.0000000000000000     
   1.0000000000000000       0.50000000000000000        0.0000000000000000     
   1.0625000000000000       0.50000000000000000        0.0000000000000000     
   1.1250000000000000       0.50000000000000000        0.0000000000000000     
   1.1875000000000000       0.50000000000000000        0.0000000000000000     
   1.2500000000000000       0.50000000000000000        0.0000000000000000     
   1.2500000000000000       0.25000000000000000        0.0000000000000000     
   1.3125000000000000       0.25000000000000000        0.0000000000000000     
   1.3750000000000000       0.25000000000000000        0.0000000000000000     
   1.4375000000000000       0.25000000000000000        0.0000000000000000     
   1.5000000000000000       0.25000000000000000        0.0000000000000000     
   1.2500000000000000       0.31250000000000000        0.0000000000000000     
   1.3125000000000000       0.31250000000000000        0.0000000000000000     
   1.3750000000000000       0.31250000000000000        0.0000000000000000     
   1.4375000000000000       0.31250000000000000        0.0000000000000000     
   1.5000000000000000       0.31250000000000000        0.0000000000000000     
   1.2500000000000000       0.37500000000000000        0.0000000000000000     
   1.3125000000000000       0.37500000000000000        0.0000000000000000     
   1.3750000000000000       0.37500000000000000        0.0000000000000000     
   1.4375000000000000       0.37500000000000000        0.0000000000000000     
   1.5000000000000000       0.37500000000000000        0.0000000000000000     
   1.2500000000000000       0.43750000000000000        0.0000000000000000     
   1.3125000000000000       0.43750000000000000        0.0000000000000000     
   1.3750000000000000       0.43750000000000000        0.0000000000000000     
   1.4375000000000000       0.43750000000000000        0.0000000000000000     
   1.5000000000000000       0.43750000000000000        0.0000000000000000     
   1.2500000000000000       0.50000000000000000        0.0000000000000000     
   1.3125000000000000       0.50000000000000000        0.0000000000000000     
   1.3750000000000000       0.50000000000000000        0.0000000000000000     
   1.4375000000000000       0.50000000000000000        0.0000000000000000     
   1.5000000000000000       0.50000000000000000        0.0000000000000000     
  0.50000000000000000       0.50000000000000000        0.0000000000000000     
  0.56250000000000000       0.50000000000000000        0.0000000000000000     
  0.62500000000000000       0.50000000000000000        0.0000000000000000     
  0.68750000000000000       0.50000000000000000        0.0000000000000000     
  0.75000000000000000       0.50000000000000000        0.0000000000000000     
  0.50000000000000000       0.56250000000000000        0.0000000000000000     
  0.56250000000000000       0.56250000000000000        0.0000000000000000     
  0.62500000000000000       0.56250000000000000        0.0000000000000000     
  0.68750000000000000       0.56250000000000000        0.0000000000000000     
  0.75000000000000000       0.56250000000000000        0.0000000000000000     
  0.50000000000000000       0.62500000000000000        0.0000000000000000     
  0.56250000000000000       0.62500000000000000        0.0000000000000000     
  0.62500000000000000       0.62500000000000000        0.0000000000000000     
  0.68750000000000000       0.62500000000000000        0.0000000000000000     
  0.75000000000000000       0.62500000000000000        0.0000000000000000     
  0.50000000000000000       0.68750000000000000        0.0000000000000000     
  0.56250000000000000       0.68750000000000000        0.0000000000000000     
  0.62500000000000000       0.68750000000000000        0.0000000000000000     
  0.68750000000000000       0.68750000000000000        0.0000000000000000     
  0.75000000000000000       0.68750000000000000        0.0000000000000000     
  0.50000000000000000       0.75000000000000000        0.0000000000000000     
  0.56250000000000000       0.75000000000000000        0.0000000000000000     
  0.62500000000000000       0.75000000000000000        0.0000000000000000     
  0.68750000000000000       0.75000000000000000        0.0000000000000000     
  0.75000000000000000       0.75000000000000000        0.0000000000000000     
  0.75000000000000000       0.50000000000000000        0.0000000000000000     
  0.81250000000000000       0.50000000000000000        0.0000000000000000     
  0.87500000000000000       0.50000000000000000        0.0000000000000000     
  0.93750000000000000       0.50000000000000000        0.0000000000000000     
   1.0000000000000000       0.50000000000000000        0.0000000000000000     
  0.75000000000000000       0.56250000000000000        0.0000000000000000     
  0.81250000000000000       0.56250000000000000        0.0000000000000000     
  0.87500000000000000       0.56250000000000000        0.0000000000000000     
  0.93750000000000000       0.56250000000000000        0.0000000000000000     
   1.0000000000000000       0.56250000000000000        0.0000000000000000     
  0.75000000000000000       0.62500000000000000        0.0000000000000000     
  0.81250000000000000       0.62500000000000000        0.0000000000000000     
  0.87500000000000000       0.62500000000000000        0.0000000000000000     
  0.93750000000000000       0.62500000000000000        0.0000000000000000     
   1.0000000000000000       0.62500000000000000        0.0000000000000000     
  0.75000000000000000       0.68750000000000000        0.0000000000000000     
  0.81250000000000000       0.68750000000000000        0.0000000000000000     
  0.87500000000000000       0.68750000000000000        0.0000000000000000     
  0.93750000000000000       0.68750000000000000        0.0000000000000000     
   1.0000000000000000       0.68750000000000000        0.0000000000000000     
  0.75000000000000000       0.75000000000000000        0.0000000000000000     
  0.81250000000000000       0.75000000000000000        0.0000000000000000     
  0.87500000000000000       0.75000000000000000        0.0000000000000000     
  0.93750000000000000       0.75000000000000000        0.0000000000000000     
   1.0000000000000000       0.75000000000000000        0.0000000000000000     
   1.0000000000000000       0.50000000000000000        0.0000000000000000     
   1.0625000000000000       0.50000000000000000        0.0000000000000000     
   1.1250000000000000       0.50000000000000000        0.0000000000000000     
   1.1875000000000000       0.50000000000000000        0.0000000000000000     
   1.2500000000000000       0.50000000000000000        0.0000000000000000     
   1.0000000000000000       0.56250000000000000        0.0000000000000000     
   1.0625000000000000       0.56250000000000000        0.0000000000000000     
   1.1250000000000000       0.56250000000000000        0.0000000000000000     
   1.1875000000000000       0.56250000000000000        0.0000000000000000     
   1.2500000000000000       0.56250000000000000        0.0000000000000000     
   1.0000000000000000       0.62500000000000000        0.0000000000000000     
   1.0625000000000000       0.62500000000000000        0.0000000000000000     
   1.1250000000000000       0.62500000000000000        0.0000000000000000     
   1.1875000000000000       0.62500000000000000        0.0000000000000000     
   1.2500000000000000       0.62500000000000000        0.0000000000000000     
   1.0000000000000000       0.68750000000000000        0.0000000000000000     
   1.0625000000000000       0.68750000000000000        0.0000000000000000     
   1.1250000000000000       0.68750000000000000        0.0000000000000000     
   1.1875000000000000       0.68750000000000000        0.0000000000000000     
   1.2500000000000000       0.68750000000000000        0.0000000000000000     
   1.0000000000000000       0.75000000000000000        0.0000000000000000     
   1.0625000000000000       0.75000000000000000        0.0000000000000000     
   1.1250000000000000       0.75000000000000000        0.0000000000000000     
   1.1875000000000000       0.75000000000000000        0.0000000000000000     
   1.2500000000000000       0.75000000000000000        0.0000000000000000     
   1.2500000000000000       0.50000000000000000        0.0000000000000000     
   1.3125000000000000       0.50000000000000000        0.0000000000000000     
   1.3750000000000000       0.50000000000000000        0.0000000000000000     
   1.4375000000000000       0.50000000000000000        0.0000000000000000     
   1.5000000000000000       0.50000000000000000        0.0000000000000000     
   1.2500000000000000       0.56250000000000000        0.0000000000000000     
   1.3125000000000000       0.56250000000000000        0.0000000000000000     
   1.3750000000000000       0.56250000000000000        0.0000000000000000     
   1.4375000000000000       0.56250000000000000        0.0000000000000000     
   1.5000000000000000       0.56250000000000000        0.0000000000000000     
   1.2500000000000000       0.62500000000000000        0.0000000000000000     
   1.3125000000000000       0.62500000000000000        0.0000000000000000     
   1.3750000000000000       0.62500000000000000        0.0000000000000000     
   1.4375000000000000       0.62500000000000000        0.0000000000000000     
   1.5000000000000000       0.62500000000000000        0.0000000000000000     
   1.2500000000000000       0.68750000000000000        0.0000000000000000     
   1.3125000000000000       0.68750000000000000        0.0000000000000000     
   1.3750000000000000       0.68750000000000000        0.0000000000000000     
   1.4375000000000000       0.68750000000000000        0.0000000000000000     
   1.5000000000000000       0.68750000000000000        0.0000000000000000     
   1.2500000000000000       0.75000000000000000        0.0000000000000000     
   1.3125000000000000       0.75000000000000000        0.0000000000000000     
   1.3750000000000000       0.75000000000000000        0.0000000000000000     
   1.4375000000000000       0.75000000000000000        0.0000000000000000     
   1.5000000000000000       0.75000000000000000        0.0000000000000000     
  0.50000000000000000       0.75000000000000000        0.0000000000000000     
  0.56250000000000000       0.75000000000000000        0.0000000000000000     
  0.62500000000000000       0.75000000000000000        0.0000000000000000     
  0.68750000000000000       0.75000000000000000        0.0000000000000000     
  0.75000000000000000       0.75000000000000000        0.0000000000000000     
  0.50000000000000000       0.81250000000000000        0.0000000000000000     
  0.56250000000000000       0.81250000000000000        0.0000000000000000     
  0.62500000000000000       0.81250000000000000        0.0000000000000000     
  0.68750000000000000       0.81250000000000000        0.0000000000000000     
  0.75000000000000000       0.81250000000000000        0.0000000000000000     
  0.50000000000000000       0.87500000000000000        0.0000000000000000     
  0.56250000000000000       0.87500000000000000        0.0000000000000000     
  0.62500000000000000       0.87500000000000000        0.0000000000000000     
  0.68750000000000000       0.87500000000000000        0.0000000000000000     
  0.75000000000000000       0.87500000000000000        0.0000000000000000     
  0.50000000000000000       0.93750000000000000        0.0000000000000000     
  0.56250000000000000       0.93750000000000000        0.0000000000000000     
  0.62500000000000000       0.93750000000000000        0.0000000000000000     
  0.68750000000000000       0.93750000000000000        0.0000000000000000     
  0.75000000000000000       0.93750000000000000        0.0000000000000000     
  0.50000000000000000        1.0000000000000000        0.0000000000000000     
  0.56250000000000000        1.0000000000000000        0.0000000000000000     
  0.62500000000000000        1.0000000000000000        0.0000000000000000     
  0.68750000000000000        1.0000000000000000        0.0000000000000000     
  0.75000000000000000        1.0000000000000000        0.0000000000000000     
  0.75000000000000000       0.75000000000000000        0.0000000000000000     
  0.81250000000000000       0.75000000000000000        0.0000000000000000     
  0.87500000000000000       0.75000000000000000        0.0000000000000000     
  0.93750000000000000       0.75000000000000000        0.0000000000000000     
   1.0000000000000000       0.75000000000000000        0.0000000000000000     
  0.75000000000000000       0.81250000000000000        0.0000000000000000     
  0.81250000000000000       0.81250000000000000        0.0000000000000000     
  0.87500000000000000       0.81250000000000000        0.0000000000000000     
  0.93750000000000000       0.81250000000000000        0.0000000000000000     
   1.0000000000000000       0.81250000000000000        0.0000000000000000     
  0.75000000000000000       0.87500000000000000        0.0000000000000000     
  0.81250000000000000       0.87500000000000000        0.0000000000000000     
  0.87500000000000000       0.87500000000000000        0.0000000000000000     
  0.93750000000000000       0.87500000000000000        0.0000000000000000     
   1.0000000000000000       0.87500000000000000        0.0000000000000000     
  0.75000000000000000       0.93750000000000000        0.0000000000000000     
  0.81250000000000000       0.93750000000000000        0.0000000000000000     
  0.87500000000000000       0.93750000000000000        0.0000000000000000     
  0.93750000000000000       0.93750000000000000        0.0000000000000000     
   1.0000000000000000       0.93750000000000000        0.0000000000000000     
  0.75000000000000000        1.0000000000000000        0.0000000000000000     
  0.81250000000000000        1.0000000000000000        0.0000000000000000     
  0.87500000000000000        1.0000000000000000        0.0000000000000000     
  0.93750000000000000        1.0000000000000000        0.0000000000000000     
   1.0000000000000000        1.0000000000000000        0.0000000000000000     
   1.0000000000000000       0.75000000000000000        0.0000000000000000     
   1.0625000000000000       0.75000000000000000        0.0000000000000000     
   1.1250000000000000       0.75000000000000000        0.0000000000000000     
   1.1875000000000000       0.75000000000000000        0.0000000000000000     
   1.2500000000000000       0.75000000000000000        0.0000000000000000     
   1.0000000000000000       0.81250000000000000        0.0000000000000000     
   1.0625000000000000       0.81250000000000000        0.0000000000000000     
   1.1250000000000000       0.81250000000000000        0.0000000000000000     
   1.1875000000000000       0.81250000000000000        0.0000000000000000     
   1.2500000000000000       0.81250000000000000        0.0000000000000000     
   1.0000000000000000       0.87500000000000000        0.0000000000000000     
   1.0625000000000000       0.87500000000000000        0.0000000000000000     
   1.1250000000000000       0.87500000000000000        0.0000000000000000     
   1.1875000000000000       0.87500000000000000        0.0000000000000000     
   1.2500000000000000       0.87500000000000000        0.0000000000000000     
   1.0000000000000000       0.93750000000000000        0.0000000000000000     
   1.0625000000000000       0.93750000000000000        0.0000000000000000     
   1.1250000000000000       0.93750000000000000        0.0000000000000000     
   1.1875000000000000       0.93750000000000000        0.0000000000000000     
   1.2500000000000000       0.93750000000000000        0.0000000000000000     
   1.0000000000000000        1.0000000000000000        0.0000000000000000     
   1.0625000000000000        1.0000000000000000        0.0000000000000000     
   1.1250000000000000        1.0000000000000000        0.0000000000000000     
   1.1875000000000000        1.0000000000000000        0.0000000000000000     
   1.2500000000000000        1.0000000000000000        0.0000000000000000     
   1.2500000000000000       0.75000000000000000        0.0000000000000000     
   1.3125000000000000       0.75000000000000000        0.0000000000000000     
   1.3750000000000000       0.75000000000000000        0.0000000000000000     
   1.4375000000000000       0.75000000000000000        0.0000000000000000     
   1.5000000000000000       0.75000000000000000        0.0000000000000000     
   1.2500000000000000       0.81250000000000000        0.0000000000000000     
   1.3125000000000000       0.81250000000000000        0.0000000000000000     
   1.3750000000000000       0.81250000000000000        0.0000000000000000     
   1.4375000000000000       0.81250000000000000        0.0000000000000000     
   1.5000000000000000       0.81250000000000000        0.0000000000000000     
   1.2500000000000000       0.87500000000000000        0.0000000000000000     
   1.3125000000000000       0.87500000000000000        0.0000000000000000     
   1.3750000000000000       0.87500000000000000        0.0000000000000000     
   1.4375000000000000       0.87500000000000000        0.0000000000000000     
   1.5000000000000000       0.87500000000000000        0.0000000000000000     
   1.2500000000000000       0.93750000000000000        0.0000000000000000     
   1.3125000000000000       0.93750000000000000        0.0000000000000000     
   1.3750000000000000       0.93750000000000000        0.0000000000000000     
   1.4375000000000000       0.93750000000000000        0.0000000000000000     
   1.5000000000000000       0.93750000000000000        0.0000000000000000     
   1.2500000000000000        1.0000000000000000        0.0000000000000000     
   1.3125000000000000        1.0000000000000000        0.0000000000000000     
   1.3750000000000000        1.0000000000000000        0.0000000000000000     
   1.4375000000000000        1.0000000000000000        0.0000000000000000     
   1.5000000000000000        1.0000000000000000        0.0000000000000000     
 </DataArray>
 </Points>
 <Cells>
 <DataArray  type="Int32"  Name="connectivity"  format="ascii">
           0           1           6           5
           1           2           7           6
           2           3           8           7
           3           4           9           8
           5           6          11          10
           6           7          12          11
           7           8          13          12
           8           9          14          13
          10          11          16          15
          11          12          17          16
          12          13          18          17
          13          14          19          18
          15          16          21          20
          16          17          22          21
          17          18          23          22
          18          19          24          23
          25          26          31          30
          26          27          32          31
          27          28          33          32
          28          29          34          33
          30          31          36          35
          31          32          37          36
          32          33          38          37
          33          34          39          38
          35          36          41          40
          36          37          42          41
          37          38          43          42
          38          39          44          43
          40          41          46          45
          41          42          47          46
          42          43          48          47
          43          44          49          48
          50          51          56          55
          51          52          57          56
          52          53          58          57
          53          54          59          58
          55          56          61          60
          56          57          62          61
          57          58          63          62
          58          59          64          63
          60          61          66          65
          61          62          67          66
          62          63          68          67
          63          64          69          68
          65          66          71          70
          66          67          72          71
          67          68          73          72
          68          69          74          73
          75          76          81          80
          76          77          82          81
          77          78          83          82
          78          79          84          83
          80          81          86          85
          81          82          87          86
          82          83          88          87
          83          84          89          88
          85          86          91          90
          86          87          92          91
          87          88          93          92
          88          89          94          93
          90          91          96          95
          91          92          97          96
          92          93          98          97
          93          94          99          98
         100         101         106         105
         101         102         107         106
         102         103         108         107
         103         104         109         108
         105         106         111         110
         106         107         112         111
         107         108         113         112
         108         109         114         113
         110         111         116         115
         111         112         117         116
         112         113         118         117
         113         114         119         118
         115         116         121         120
         116         117         122         121
         117         118         123         122
         118         119         124         123
         125         126         131         130
         126         127         132         131
         127         128         133         132
         128         129         134         133
         130         131         136         135
         131         132         137         136
         132         133         138         137
         133         134         139         138
         135         136         141         140
         136         137         142         141
         137         138         143         142
         138         139         144         143
         140         141         146         145
         141         142         147         146
         142         143         148         147
         143         144         149         148
         150         151         156         155
         151         152         157         156
         152         153         158         157
         153         154         159         158
         155         156         161         160
         156         157         162         161
         157         158         163         162
         158         159         164         163
         160         161         166         165
         161         162         167         166
         162         163         168         167
         163         164         169         168
         165         166         171         170
         166         167         172         171
         167         168         173         172
         168         169         174         173
         175         176         181         180
         176         177         182         181
         177         178         183         182
         178         179         184         183
         180         181         186         185
         181         182         187         186
         182         183         188         187
         183         184         189         188
         185         186         191         190
         186         187         192         191
         187         188         193         192
         188         189         194         193
         190         191         196         195
         191         192         197         196
         192         193         198         197
         193         194         199         198
         200         201         206         205
         201         202         207         206
         202         203         208         207
         203         204         209         208
         205         206         211         210
         206         207         212         211
         207         208         213         212
         208         209         214         213
         210         211         216         215
         211         212         217         216
         212         213         218         217
         213         214         219         218
         215         216         221         220
         216         217         222         221
         217         218         223         222
         218         219         224         223
         225         226         231         230
         226         227         232         231
         227         228         233         232
         228         229         234         233
         230         231         236         235
         231         232         237         236
         232         233         238         237
         233         234         239         238
         235         236         241         240
         236         237         242         241
         237         238         243         242
         238         239         244         243
         240         241         246         245
         241         242         247         246
         242         243         248         247
         243         244         249         248
         250         251         256         255
         251         252         257         256
         252         253         258         257
         253         254         259         258
         255         256         261         260
         256         257         262         261
         257         258         263         262
         258         259         264         263
         260         261         266         265
         261         262         267         266
         262         263         268         267
         263         264         269         268
         265         266         271         270
         266         267         272         271
         267         268         273         272
         268         269         274         273
         275         276         281         280
         276         277         282         281
         277         278         283         282
         278         279         284         283
         280         281         286         285
         281         282         287         286
         282         283         288         287
         283         284         289         288
         285         286         291         290
         286         287         292         291
         287         288         293         292
         288         289         294         293
         290         291         296         295
         291         292         297         296
         292         293         298         297
         293         294         299         298
         300         301         306         305
         301         302         307         306
         302         303         308         307
         303         304         309         308
         305         306         311         310
         306         307         312         311
         307         308         313         312
         308         309         314         313
         310         311         316         315
         311         312         317         316
         312         313         318         317
         313         314         319         318
         315         316         321         320
         316         317         322         321
         317         318         323         322
         318         319         324         323
         325         326         331         330
         326         327         332         331
         327         328         333         332
         328         329         334         333
         330         331         336         335
         331         332         337         336
         332         333         338         337
         333         334         339         338
         335         336         341         340
         336         337         342         341
         337         338         343         342
         338         339         344         343
         340         341         346         345
         341         342         347         346
         342         343         348         347
         343         344         349         348
         350         351         356         355
         351         352         357         356
         352         353         358         357
         353         354         359         358
         355         356         361         360
         356         357         362         361
         357         358         363         362
         358         359         364         363
         360         361         366         365
         361         362         367         366
         362         363         368         367
         363         364         369         368
         365         366         371         370
         366         367         372         371
         367         368         373         372
         368         369         374         373
         375         376         381         380
         376         377         382         381
         377         378         383         382
         378         379         384         383
         380         381         386         385
         381         382         387         386
         382         383         388         387
         383         384         389         388
         385         386         391         390
         386         387         392         391
         387         388         393         392
         388         389         394         393
         390         391         396         395
         391         392         397         396
         392         393         398         397
         393         394         399         398
 </DataArray>
 <DataArray  type="Int32"  Name="offsets"  format="ascii"> 
           4
           8
          12
          16
          20
          24
          28
          32
          36
          40
          44
          48
          52
          56
          60
          64
          68
          72
          76
          80
          84
          88
          92
          96
         100
         104
         108
         112
         116
         120
         124
         128
         132
         136
         140
         144
         148
         152
         156
         160
         164
         168
         172
         176
         180
         184
         188
         192
         196
         200
         204
         208
         212
         216
         220
         224
         228
         232
         236
         240
         244
         248
         252
         256
         260
         264
         268
         272
         276
         280
         284
         288
         292
         296
         300
         304
         308
         312
         316
         320
         324
         328
         332
         336
         340
         344
         348
         352
         356
         360
         364
         368
         372
         376
         380
         384
         388
         392
         396
         400
         404
         408
         412
         416
         420
         424
         428
         432
         436
         440
         444
         448
         452
         456
         460
         464
         468
         472
         476
         480
         484
         488
         492
         496
         500
         504
         508
         512
         516
         520
         524
         528
         532
         536
         540
         544
         548
         552
         556
         560
         564
         568
         572
         576
         580
         584
         588
         592
         596
         600
         604
         608
         612
         616
         620
         624
         628
         632
         636
         640
         644
         648
         652
         656
         660
         664
         668
         672
         676
         680
         684
         688
         692
         696
         700
         704
         708
         712
         716
         720
         724
         728
         732
         736
         740
         744
         748
         752
         756
         760
         764
         768
         772
         776
         780
         784
         788
         792
         796
         800
         804
         808
         812
         816
         820
         824
         828
         832
         836
         840
         844
         848
         852
         856
         860
         864
         868
         872
         876
         880
         884
         888
         892
         896
         900
         904
         908
         912
         916
         920
         924
         928
         932
         936
         940
         944
         948
         952
         956
         960
         964
         968
         972
         976
         980
         984
         988
         992
         996
        1000
        1004
        1008
        1012
        1016
        1020
        1024
 </DataArray>
 <DataArray  type="UInt8"  Name="types"  format="ascii">
 9
 9
 9
 9
 9
 9
 9
 9
 9
 9
 9
 9
 9
 9
 9
 9
 9
 9
 9
 9
 9
 9
 9
 9
 9
 9
 9
 9
 9
 9
 9
 9
 9
 9
 9
 9
 9
 9
 9
 9
 9
 9
 9
 9
 9
 9
 9
 9
 9
 9
 9
 9
 9
 9
 9
 9
 9
 9
 9
 9
 9
 9
 9
 9
 9
 9
 9
 9
 9
 9
 9
 9
 9
 9
 9
 9
 9
 9
 9
 9
 9
 9
 9
 9
 9
 9
 9
 9
 9
 9
 9
 9
 9
 9
 9
 9
 9
 9
 9
 9
 9
 9
 9
 9
 9
 9
 9
 9
 9
 9
 9
 9
 9
 9
 9
 9
 9
 9
 9
 9
 9
 9
 9
 9
 9
 9
 9
 9
 9
 9
 9
 9
 9
 9
 9
 9
 9
 9
 9
 9
 9
 9
 9
 9
 9
 9
 9
 9
 9
 9
 9
 9
 9
 9
 9
 9
 9
 9
 9
 9
 9
 9
 9
 9
 9
 9
 9
 9
 9
 9
 9
 9
 9
 9
 9
 9
 9
 9
 9
 9
 9
 9
 9
 9
 9
 9
 9
 9
 9
 9
 9
 9
 9
 9
 9
 9
 9
 9
 9
 9
 9
 9
 9
 9
 9
 9
 9
 9
 9
 9
 9
 9
 9
 9
 9
 9
 9
 9
 9
 9
 9
 9
 9
 9
 9
 9
 9
 9
 9
 9
 9
 9
 9
 9
 9
 9
 9
 9
 9
 9
 9
 9
 9
 9
 9
 9
 9
 9
 9
 9
 9
 9
 9
 9
 9
 9
 </DataArray>
 </Cells> 
 <PointData>
 <DataArray  type="Float64" Name="disp" NumberOfComponents="3" format="ascii">
   6.5882184011535894E-002   6.2478978941681113E-002   0.0000000000000000     
   7.1688722306226305E-002   7.3469545583503673E-002   0.0000000000000000     
   7.7165940925073478E-002   8.5118600075795581E-002   0.0000000000000000     
   8.2313839868077388E-002   9.7426142418556808E-002   0.0000000000000000     
   8.7132419135238059E-002  0.11039217261178738        0.0000000000000000     
   5.5054719322616644E-002   6.0732781646852842E-002   0.0000000000000000     
   6.0360769171020068E-002   7.1801510620050094E-002   0.0000000000000000     
   6.5319614499839015E-002   8.3545896890158691E-002   0.0000000000000000     
   6.9931255309073487E-002   9.5965940457178656E-002   0.0000000000000000     
   7.4195691598723468E-002  0.10906164132110997        0.0000000000000000     
   4.5270886822096179E-002   5.9221091707395604E-002   0.0000000000000000     
   4.9955109086279224E-002   7.0363781918493060E-002   0.0000000000000000     
   5.4305550402002425E-002   8.2193344187272033E-002   0.0000000000000000     
   5.8322210769265803E-002   9.4709778513732509E-002   0.0000000000000000     
   6.2005090188069330E-002  0.10791308489787449        0.0000000000000000     
   3.6530686509974507E-002   5.7943909123309399E-002   0.0000000000000000     
   4.0471742052003754E-002   6.9156359478832599E-002   0.0000000000000000     
   4.4123748631563688E-002   8.1060941967135577E-002   0.0000000000000000     
   4.7486706248654288E-002   9.3657656588218341E-002   0.0000000000000000     
   5.0560614903275590E-002  0.10694650334208090        0.0000000000000000     
   2.8834118386251623E-002   5.6901233894594228E-002   0.0000000000000000     
   3.1910668068193662E-002   6.8179243301068698E-002   0.0000000000000000     
   3.4774209188522795E-002   8.0148690229749353E-002   0.0000000000000000     
   3.7424741747238997E-002   9.2809574680636206E-002   0.0000000000000000     
   3.9862265744342290E-002  0.10616189665372924        0.0000000000000000     
   8.7132419135238059E-002  0.11039217261178738        0.0000000000000000     
   9.1593068679738904E-002  0.12393716091657314        0.0000000000000000     
   9.5667178454763302E-002  0.13798157759399990        0.0000000000000000     
   9.9354748460311310E-002  0.15252542264406768        0.0000000000000000     
  0.10265577869638287       0.16756869606677646        0.0000000000000000     
   7.4195691598723468E-002  0.10906164132110997        0.0000000000000000     
   7.8119975221538449E-002  0.12273697186767096        0.0000000000000000     
   8.1711158030267877E-002  0.13689590448257985        0.0000000000000000     
   8.4969240024911727E-002  0.15153843916583667        0.0000000000000000     
   8.7894221205470024E-002  0.16666457591744144        0.0000000000000000     
   6.2005090188069330E-002  0.10791308489787449        0.0000000000000000     
   6.5379610340859151E-002  0.12169737322557887        0.0000000000000000     
   6.8471192910081399E-002  0.13595675338272656        0.0000000000000000     
   7.1279837895736026E-002  0.15069122536931756        0.0000000000000000     
   7.3805545297823072E-002  0.16590078918535189        0.0000000000000000     
   5.0560614903275590E-002  0.10694650334208090        0.0000000000000000     
   5.3371974037700984E-002  0.12081836499029693        0.0000000000000000     
   5.5947283094203840E-002  0.13516412429444008        0.0000000000000000     
   5.8286542072784185E-002  0.14998378125451034        0.0000000000000000     
   6.0389750973442000E-002  0.16527733587050777        0.0000000000000000     
   3.9862265744342290E-002  0.10616189665372924        0.0000000000000000     
   4.2097066312063953E-002  0.12009994716182508        0.0000000000000000     
   4.4139428582635254E-002  0.13451801721772033        0.0000000000000000     
   4.5989352556056219E-002  0.14941610682141501        0.0000000000000000     
   4.7646838232326807E-002  0.16479421597290911        0.0000000000000000     
  0.10265577869638287       0.16756869606677646        0.0000000000000000     
  0.10562585739761203       0.18300893459461481        0.0000000000000000     
  0.10832057279863275       0.19874367496007123        0.0000000000000000     
  0.11073992489944502       0.21477291716314575        0.0000000000000000     
  0.11288391370004885       0.23109666120383837        0.0000000000000000     
   8.7894221205470024E-002  0.16666457591744144        0.0000000000000000     
   9.0494988722655170E-002  0.18219134446101362        0.0000000000000000     
   9.2780429727179495E-002  0.19803577452017279        0.0000000000000000     
   9.4750544219043067E-002  0.21419786609491887        0.0000000000000000     
   9.6405332198245819E-002  0.23067761918525190        0.0000000000000000     
   7.3805545297823072E-002  0.16590078918535189        0.0000000000000000     
   7.6026872242503624E-002  0.18151340101386187        0.0000000000000000     
   7.7922375855938822E-002  0.19745701703788002        0.0000000000000000     
   7.9492056138128639E-002  0.21373163725740621        0.0000000000000000     
   8.0735913089073075E-002  0.23033726167244048        0.0000000000000000     
   6.0389750973442000E-002  0.16527733587050777        0.0000000000000000     
   6.2221507957157446E-002  0.18097510425315955        0.0000000000000000     
   6.3746411184910701E-002  0.19700740251319285        0.0000000000000000     
   6.4964460656701736E-002  0.21337423065060773        0.0000000000000000     
   6.5875656372530622E-002  0.23007558866540417        0.0000000000000000     
   4.7646838232326807E-002  0.16479421597290911        0.0000000000000000     
   4.9078895866616595E-002  0.18057645417890655        0.0000000000000000     
   5.0252535714095138E-002  0.19668693094611134        0.0000000000000000     
   5.1167757774762422E-002  0.21312564627452346        0.0000000000000000     
   5.1824562048618461E-002  0.22989260016414292        0.0000000000000000     
  0.11288391370004885       0.23109666120383837        0.0000000000000000     
  0.11470571222200711       0.24795255021461124        0.0000000000000000     
  0.11615849348688263       0.26557822732792657        0.0000000000000000     
  0.11724225749467544       0.28397369254378430        0.0000000000000000     
  0.11795700424538549       0.30313894586218448        0.0000000000000000     
   9.6405332198245819E-002  0.23067761918525190        0.0000000000000000     
   9.7757413269000296E-002  0.24763088804894490        0.0000000000000000     
   9.8819407035519002E-002  0.26521352694377087        0.0000000000000000     
   9.9591313497801967E-002  0.28342553586972985        0.0000000000000000     
  0.10007313265584913       0.30226691482682189        0.0000000000000000     
   8.0735913089073075E-002  0.23033726167244048        0.0000000000000000     
   8.1708100159881308E-002  0.24734538530590869        0.0000000000000000     
   8.2462770801662519E-002  0.26482750318073656        0.0000000000000000     
   8.2999925014416706E-002  0.28278361529692408        0.0000000000000000     
   8.3319562798143842E-002  0.30121372165447124        0.0000000000000000     
   6.5875656372530622E-002  0.23007558866540417        0.0000000000000000     
   6.6557772894650133E-002  0.24709604198550264        0.0000000000000000     
   6.7088584785313141E-002  0.26442015603882346        0.0000000000000000     
   6.7468092044519631E-002  0.28204793082536694        0.0000000000000000     
   6.7696294672269633E-002  0.29997936634513273        0.0000000000000000     
   5.1824562048618461E-002  0.22989260016414292        0.0000000000000000     
   5.2306431473306762E-002  0.24688285808772667        0.0000000000000000     
   5.2696848986470868E-002  0.26399148551803181        0.0000000000000000     
   5.2995814588110778E-002  0.28121848245505826        0.0000000000000000     
   5.3203328278226492E-002  0.29856384889880616        0.0000000000000000     
   2.8834118386251623E-002   5.6901233894594228E-002   0.0000000000000000     
   3.1910668068193662E-002   6.8179243301068698E-002   0.0000000000000000     
   3.4774209188522795E-002   8.0148690229749353E-002   0.0000000000000000     
   3.7424741747238997E-002   9.2809574680636206E-002   0.0000000000000000     
   3.9862265744342290E-002  0.10616189665372924        0.0000000000000000     
   2.1649601802651242E-002   5.6088516152110857E-002   0.0000000000000000     
   2.3840355281808313E-002   6.7423129458004827E-002   0.0000000000000000     
   2.5900103159390564E-002   7.9445692870120349E-002   0.0000000000000000     
   2.7828845435398000E-002   9.2156206388457437E-002   0.0000000000000000     
   2.9626582109830622E-002  0.10555467001301609        0.0000000000000000     
   1.4445556110897081E-002   5.5501206026720068E-002   0.0000000000000000     
   1.5829271839807046E-002   6.6878714022444455E-002   0.0000000000000000     
   1.7144601630677814E-002   7.8941053783255569E-002   0.0000000000000000     
   1.8391545483509394E-002   9.1688225309153423E-002   0.0000000000000000     
   1.9570103398301782E-002  0.10512022860013805        0.0000000000000000     
   7.2219813109891404E-003   5.5139303518421855E-002   0.0000000000000000     
   7.8774177421898593E-003   6.6545996994387568E-002   0.0000000000000000     
   8.5077046023845412E-003   7.8634772969155012E-002   0.0000000000000000     
   9.1128418915731833E-003   9.1405631442724219E-002   0.0000000000000000     
   9.6928296097557858E-003  0.10485857241509512        0.0000000000000000     
  -2.1122597072579033E-005   5.5002808627216210E-002   0.0000000000000000     
  -1.5207011043240695E-005   6.6424978373834195E-002   0.0000000000000000     
  -1.0587925489258200E-005   7.8526850427818720E-002   0.0000000000000000     
  -7.2653404106371301E-006   9.1308424789169756E-002   0.0000000000000000     
  -5.2392558073724449E-006  0.10476970145788733        0.0000000000000000     
   3.9862265744342290E-002  0.10616189665372924        0.0000000000000000     
   4.2097066312063953E-002  0.12009994716182508        0.0000000000000000     
   4.4139428582635254E-002  0.13451801721772033        0.0000000000000000     
   4.5989352556056219E-002  0.14941610682141501        0.0000000000000000     
   4.7646838232326807E-002  0.16479421597290911        0.0000000000000000     
   2.9626582109830622E-002  0.10555467001301609        0.0000000000000000     
   3.1284344106888198E-002  0.11954138374231955        0.0000000000000000     
   3.2793162350770517E-002  0.13401664757489110        0.0000000000000000     
   3.4153036841477566E-002  0.14898046151073069        0.0000000000000000     
   3.5363967579009364E-002  0.16443282554983835        0.0000000000000000     
   1.9570103398301782E-002  0.10512022860013805        0.0000000000000000     
   2.0663264365113860E-002  0.11914193873393654        0.0000000000000000     
   2.1654017374004509E-002  0.13365823078827602        0.0000000000000000     
   2.2542362424973726E-002  0.14866910476315648        0.0000000000000000     
   2.3328299518021522E-002  0.16417456065857794        0.0000000000000000     
   9.6928296097557858E-003  0.10485857241509512        0.0000000000000000     
   1.0233827086740942E-002  0.11890161213667602        0.0000000000000000     
   1.0721993652337242E-002  0.13344276685787515        0.0000000000000000     
   1.1157329306544688E-002  0.14848203657869244        0.0000000000000000     
   1.1539834049363278E-002  0.16401942129912792        0.0000000000000000     
  -5.2392558073724449E-006  0.10476970145788733        0.0000000000000000     
  -3.9677282305575733E-006  0.11882040395053801        0.0000000000000000     
  -2.9088142312842097E-006  0.13337025578368841        0.0000000000000000     
  -2.0625138095506194E-006  0.14841925695733849        0.0000000000000000     
  -1.4288269653594046E-006  0.16396740747148827        0.0000000000000000     
   4.7646838232326807E-002  0.16479421597290911        0.0000000000000000     
   4.9078895866616595E-002  0.18057645417890655        0.0000000000000000     
   5.0252535714095138E-002  0.19668693094611134        0.0000000000000000     
   5.1167757774762422E-002  0.21312564627452346        0.0000000000000000     
   5.1824562048618461E-002  0.22989260016414292        0.0000000000000000     
   3.5363967579009364E-002  0.16443282554983835        0.0000000000000000     
   3.6402977065113189E-002  0.18028868473410359        0.0000000000000000     
   3.7247087801536349E-002  0.19646298410541588        0.0000000000000000     
   3.7896299788278839E-002  0.21295572366377521        0.0000000000000000     
   3.8350613025340652E-002  0.22976690340918168        0.0000000000000000     
   2.3328299518021522E-002  0.16417456065857794        0.0000000000000000     
   2.3997692646879312E-002  0.18008302986175115        0.0000000000000000     
   2.4536405805278532E-002  0.19630294375988680        0.0000000000000000     
   2.4944438993219194E-002  0.21283430235298487        0.0000000000000000     
   2.5221792210701286E-002  0.22967710564104538        0.0000000000000000     
   1.1539834049363278E-002  0.16401942129912792        0.0000000000000000     
   1.1863042611914967E-002  0.17995948956184929        0.0000000000000000     
   1.2120489725321707E-002  0.19620680990952410        0.0000000000000000     
   1.2312175389583499E-002  0.21276138234215236        0.0000000000000000     
   1.2438099604700339E-002  0.22962320685973411        0.0000000000000000     
  -1.4288269653594046E-006  0.16396740747148827        0.0000000000000000     
  -9.7303977984394829E-007  0.17991806383439798        0.0000000000000000     
  -6.6043833413980194E-007  0.19617458255432782        0.0000000000000000     
  -4.9102262825097710E-007  0.21273696363127775        0.0000000000000000     
  -4.6479266217498011E-007  0.22960520706524781        0.0000000000000000     
   5.1824562048618461E-002  0.22989260016414292        0.0000000000000000     
   5.2306431473306762E-002  0.24688285808772667        0.0000000000000000     
   5.2696848986470868E-002  0.26399148551803181        0.0000000000000000     
   5.2995814588110778E-002  0.28121848245505826        0.0000000000000000     
   5.3203328278226492E-002  0.29856384889880616        0.0000000000000000     
   3.8350613025340652E-002  0.22976690340918168        0.0000000000000000     
   3.8685861210217616E-002  0.24671214821257048        0.0000000000000000     
   3.8977878040405534E-002  0.26360708294487706        0.0000000000000000     
   3.9226663515904391E-002  0.28045170760610122        0.0000000000000000     
   3.9432217636714201E-002  0.29724602219624324        0.0000000000000000     
   2.5221792210701286E-002  0.22967710564104538        0.0000000000000000     
   2.5427847419749093E-002  0.24659022696002356        0.0000000000000000     
   2.5621986582386905E-002  0.26333253964587461        0.0000000000000000     
   2.5804209698614723E-002  0.27990404369859856        0.0000000000000000     
   2.5974516768432543E-002  0.29630473911819538        0.0000000000000000     
   1.2438099604700339E-002  0.22962320685973411        0.0000000000000000     
   1.2532390101901190E-002  0.24651709433008601        0.0000000000000000     
   1.2629174612415002E-002  0.26316785562102474        0.0000000000000000     
   1.2728453136241775E-002  0.27957549073255039        0.0000000000000000     
   1.2830225673381513E-002  0.29573999966466274        0.0000000000000000     
  -4.6479266217498011E-007  0.22960520706524781        0.0000000000000000     
  -5.1074332609209183E-007  0.24649275032275778        0.0000000000000000     
  -5.5786951018237628E-007  0.26311303087032728        0.0000000000000000     
  -6.0617121444773081E-007  0.27946604870795644        0.0000000000000000     
  -6.5564843888983593E-007  0.29555180383564517        0.0000000000000000     
  -2.1122597072579033E-005   5.5002808627216210E-002   0.0000000000000000     
  -1.5207011043240695E-005   6.6424978373834195E-002   0.0000000000000000     
  -1.0587925489258200E-005   7.8526850427818720E-002   0.0000000000000000     
  -7.2653404106371301E-006   9.1308424789169756E-002   0.0000000000000000     
  -5.2392558073724449E-006  0.10476970145788733        0.0000000000000000     
  -7.2583852802861632E-003   5.5104013876676836E-002   0.0000000000000000     
  -7.9036553358301856E-003   6.6523442734250135E-002   0.0000000000000000     
  -8.5260013576307254E-003   7.8621715833953096E-002   0.0000000000000000     
  -9.1254233456877897E-003   9.1398833175785663E-002   0.0000000000000000     
  -9.7019213000013732E-003  0.10485479475974786        0.0000000000000000     
  -1.4464436405649697E-002   5.5455211790377407E-002   0.0000000000000000     
  -1.5842980148108893E-002   6.6849174649101228E-002   0.0000000000000000     
  -1.7154261098726996E-002   7.8923798862264610E-002   0.0000000000000000     
  -1.8398279257503994E-002   9.1679084429867538E-002   0.0000000000000000     
  -1.9575034624439894E-002  0.10511503135191001        0.0000000000000000     
  -2.1639275973163181E-002   5.6056402368317909E-002   0.0000000000000000     
  -2.3833181447879378E-002   6.7402174118387448E-002   0.0000000000000000     
  -2.5895367148778069E-002   7.9433099512753277E-002   0.0000000000000000     
  -2.7825833075859261E-002   9.2149178551415384E-002   0.0000000000000000     
  -2.9624579229122941E-002  0.10555041123437379        0.0000000000000000     
  -2.8782903982826614E-002   5.6907585610498364E-002   0.0000000000000000     
  -3.1874259235141630E-002   6.8182441142108793E-002   0.0000000000000000     
  -3.4749319507783941E-002   8.0149617785419069E-002   0.0000000000000000     
  -3.7408084800753576E-002   9.2809115540429157E-002   0.0000000000000000     
  -3.9850555114050508E-002  0.10616093440713911        0.0000000000000000     
  -5.2392558073724449E-006  0.10476970145788733        0.0000000000000000     
  -3.9677282305575733E-006  0.11882040395053801        0.0000000000000000     
  -2.9088142312842097E-006  0.13337025578368841        0.0000000000000000     
  -2.0625138095506194E-006  0.14841925695733849        0.0000000000000000     
  -1.4288269653594046E-006  0.16396740747148827        0.0000000000000000     
  -9.7019213000013732E-003  0.10485479475974786        0.0000000000000000     
  -1.0240726306117012E-002  0.11889907899981923        0.0000000000000000     
  -1.0727069449580228E-002  0.13344116430997921        0.0000000000000000     
  -1.1160950730391025E-002  0.14848105069022779        0.0000000000000000     
  -1.1542370148549407E-002  0.16401873814056503        0.0000000000000000     
  -1.9575034624439894E-002  0.10511503135191001        0.0000000000000000     
  -2.0667054873234784E-002  0.11913840210881636        0.0000000000000000     
  -2.1656867677588745E-002  0.13365595918101084        0.0000000000000000     
  -2.2544473037501771E-002  0.14866770256849349        0.0000000000000000     
  -2.3329870952973873E-002  0.16417363227126422        0.0000000000000000     
  -2.9624579229122941E-002  0.10555041123437379        0.0000000000000000     
  -3.1282953429583885E-002  0.11953837327752945        0.0000000000000000     
  -3.2792303498256833E-002  0.13401464039678337        0.0000000000000000     
  -3.4152629435141794E-002  0.14897921259213551        0.0000000000000000     
  -3.5363931240238768E-002  0.16443208986358590        0.0000000000000000     
  -3.9850555114050508E-002  0.10616093440713911        0.0000000000000000     
  -4.2088421975164304E-002  0.12009899250595843        0.0000000000000000     
  -4.4133376911584490E-002  0.13451720795729666        0.0000000000000000     
  -4.5985419923311080E-002  0.14941558076115385        0.0000000000000000     
  -4.7644551010344080E-002  0.16479411091753002        0.0000000000000000     
  -1.4288269653594046E-006  0.16396740747148827        0.0000000000000000     
  -9.7303977984394829E-007  0.17991806383439798        0.0000000000000000     
  -6.6043833413980194E-007  0.19617458255432782        0.0000000000000000     
  -4.9102262825097710E-007  0.21273696363127775        0.0000000000000000     
  -4.6479266217498011E-007  0.22960520706524781        0.0000000000000000     
  -1.1542370148549407E-002  0.16401873814056503        0.0000000000000000     
  -1.1864802878485218E-002  0.17995895683428884        0.0000000000000000     
  -1.2121724094628319E-002  0.19620643694469725        0.0000000000000000     
  -1.2313133796978707E-002  0.21276117847179019        0.0000000000000000     
  -1.2439031985536378E-002  0.22962318141556767        0.0000000000000000     
  -2.3329870952973873E-002  0.16417363227126422        0.0000000000000000     
  -2.3998895474481259E-002  0.18008237271641353        0.0000000000000000     
  -2.4537380652500138E-002  0.19630254833103167        0.0000000000000000     
  -2.4945326487030513E-002  0.21283415911511877        0.0000000000000000     
  -2.5222732978072385E-002  0.22967720506867473        0.0000000000000000     
  -3.5363931240238768E-002  0.16443208986358590        0.0000000000000000     
  -3.6403250827767970E-002  0.18028831148077198        0.0000000000000000     
  -3.7247630111949599E-002  0.19646291671333121        0.0000000000000000     
  -3.7897069092783689E-002  0.21295590556126359        0.0000000000000000     
  -3.8351567770270205E-002  0.22976727802456909        0.0000000000000000     
  -4.7644551010344080E-002  0.16479411091753002        0.0000000000000000     
  -4.9077868938345329E-002  0.18057677312736425        0.0000000000000000     
  -5.0252472472976692E-002  0.19668754209159578        0.0000000000000000     
  -5.1168361614238198E-002  0.21312641781022462        0.0000000000000000     
  -5.1825536362129825E-002  0.22989340028325070        0.0000000000000000     
  -4.6479266217498011E-007  0.22960520706524781        0.0000000000000000     
  -5.1074332609209183E-007  0.24649275032275778        0.0000000000000000     
  -5.5786951018237628E-007  0.26311303087032728        0.0000000000000000     
  -6.0617121444773081E-007  0.27946604870795644        0.0000000000000000     
  -6.5564843888983593E-007  0.29555180383564517        0.0000000000000000     
  -1.2439031985536378E-002  0.22962318141556767        0.0000000000000000     
  -1.2533419775671666E-002  0.24651721644350907        0.0000000000000000     
  -1.2630298282754903E-002  0.26316805422309364        0.0000000000000000     
  -1.2729667506786082E-002  0.27957569475432137        0.0000000000000000     
  -1.2831527447765216E-002  0.29574013803719235        0.0000000000000000     
  -2.5222732978072385E-002  0.22967720506867473        0.0000000000000000     
  -2.5428901654874454E-002  0.24659051419781000        0.0000000000000000     
  -2.5623134046685415E-002  0.26333291450863505        0.0000000000000000     
  -2.5805430153505272E-002  0.27990440600114969        0.0000000000000000     
  -2.5975789975334021E-002  0.29630498867535399        0.0000000000000000     
  -3.8351567770270205E-002  0.22976727802456909        0.0000000000000000     
  -3.8686956380934459E-002  0.24671264358566072        0.0000000000000000     
  -3.8979065161301715E-002  0.26360761172695146        0.0000000000000000     
  -3.9227894111372008E-002  0.28045218244844128        0.0000000000000000     
  -3.9433443231145296E-002  0.29724635575013014        0.0000000000000000     
  -5.1825536362129825E-002  0.22989340028325070        0.0000000000000000     
  -5.2307583953851655E-002  0.24688360460706116        0.0000000000000000     
  -5.2698091626603813E-002  0.26399214587804298        0.0000000000000000     
  -5.2997059380386277E-002  0.28121902409619620        0.0000000000000000     
  -5.3204487215199055E-002  0.29856423926152076        0.0000000000000000     
  -2.8782903982826614E-002   5.6907585610498364E-002   0.0000000000000000     
  -3.1874259235141630E-002   6.8182441142108793E-002   0.0000000000000000     
  -3.4749319507783941E-002   8.0149617785419069E-002   0.0000000000000000     
  -3.7408084800753576E-002   9.2809115540429157E-002   0.0000000000000000     
  -3.9850555114050508E-002  0.10616093440713911        0.0000000000000000     
  -3.6458924370888816E-002   5.7981596693505791E-002   0.0000000000000000     
  -4.0420516521597449E-002   6.9179815269795442E-002   0.0000000000000000     
  -4.4088551218858157E-002   8.1073743588938540E-002   0.0000000000000000     
  -4.7463028462670934E-002   9.3663381650935060E-002   0.0000000000000000     
  -5.0543948253035785E-002  0.10694872945578505        0.0000000000000000     
  -4.5230941073598610E-002   5.9251270793927224E-002   0.0000000000000000     
  -4.9926256318948668E-002   7.0384136050977542E-002   0.0000000000000000     
  -5.4285495325114216E-002   8.2205866831988203E-002   0.0000000000000000     
  -5.8308658092095331E-002   9.4716463136959236E-002   0.0000000000000000     
  -6.1995744619891935E-002  0.10791592496589066        0.0000000000000000     
  -5.5098954090956005E-002   6.0716607911762678E-002   0.0000000000000000     
  -6.0391478627195239E-002   7.1795403485655038E-002   0.0000000000000000     
  -6.5340151826552159E-002   8.3545987514568043E-002   0.0000000000000000     
  -6.9944973689026718E-002   9.5968359998501632E-002   0.0000000000000000     
  -7.4205944214618971E-002  0.10906252093745580        0.0000000000000000     
  -6.6062963422960988E-002   6.2377608047012124E-002   0.0000000000000000     
  -7.1816183446337223E-002   7.3413617573828027E-002   0.0000000000000000     
  -7.7252520723171930E-002   8.5094105636678088E-002   0.0000000000000000     
  -8.2371975253465179E-002   9.7419072235562273E-002   0.0000000000000000     
  -8.7174547037216901E-002  0.11038851737048064        0.0000000000000000     
  -3.9850555114050508E-002  0.10616093440713911        0.0000000000000000     
  -4.2088421975164304E-002  0.12009899250595843        0.0000000000000000     
  -4.4133376911584490E-002  0.13451720795729666        0.0000000000000000     
  -4.5985419923311080E-002  0.14941558076115385        0.0000000000000000     
  -4.7644551010344080E-002  0.16479411091753002        0.0000000000000000     
  -5.0543948253035785E-002  0.10694872945578505        0.0000000000000000     
  -5.3359708533960860E-002  0.12081919355675363        0.0000000000000000     
  -5.5938707249454302E-002  0.13516418050710602        0.0000000000000000     
  -5.8280944399516130E-002  0.14998369030684214        0.0000000000000000     
  -6.0386419984146317E-002  0.16527772295596205        0.0000000000000000     
  -6.1995744619891935E-002  0.10791592496589066        0.0000000000000000     
  -6.5373061129958360E-002  0.12169791019256536        0.0000000000000000     
  -6.8466913843748853E-002  0.13595607669076643        0.0000000000000000     
  -7.1277302761263372E-002  0.15069042446049383        0.0000000000000000     
  -7.3804227882502002E-002  0.16590095350174749        0.0000000000000000     
  -7.4205944214618971E-002  0.10906252093745580        0.0000000000000000     
  -7.8128479763156802E-002  0.12273514241339359        0.0000000000000000     
  -8.1717996694468109E-002  0.13689289650827799        0.0000000000000000     
  -8.4974495008552864E-002  0.15153578322210889        0.0000000000000000     
  -8.7897974705411122E-002  0.16666380255488636        0.0000000000000000     
  -8.7174547037216901E-002  0.11038851737048064        0.0000000000000000     
  -9.1625964433556195E-002  0.12393089021923834        0.0000000000000000     
  -9.5691955801612091E-002  0.13797463995964054        0.0000000000000000     
  -9.9372521141384590E-002  0.15251976659168728        0.0000000000000000     
 -0.10266766045287370       0.16756627011537858        0.0000000000000000     
  -4.7644551010344080E-002  0.16479411091753002        0.0000000000000000     
  -4.9077868938345329E-002  0.18057677312736425        0.0000000000000000     
  -5.0252472472976692E-002  0.19668754209159578        0.0000000000000000     
  -5.1168361614238198E-002  0.21312641781022462        0.0000000000000000     
  -5.1825536362129825E-002  0.22989340028325070        0.0000000000000000     
  -6.0386419984146317E-002  0.16527772295596205        0.0000000000000000     
  -6.2219880768510462E-002  0.18097614029398132        0.0000000000000000     
  -6.3746073517774185E-002  0.19700880416041547        0.0000000000000000     
  -6.4964998231937479E-002  0.21337571455526455        0.0000000000000000     
  -6.5876654911000310E-002  0.23007687147852854        0.0000000000000000     
  -7.3804227882502002E-002  0.16590095350174749        0.0000000000000000     
  -7.6026417280560518E-002  0.18151479561841413        0.0000000000000000     
  -7.7922599028534822E-002  0.19745908261438039        0.0000000000000000     
  -7.9492773126424887E-002  0.21373381448964618        0.0000000000000000     
  -8.0736939574230740E-002  0.23033899124421156        0.0000000000000000     
  -8.7897974705411122E-002  0.16666380255488636        0.0000000000000000     
  -9.0497478474495505E-002  0.18219273910066280        0.0000000000000000     
  -9.2782049005258591E-002  0.19803837745349048        0.0000000000000000     
  -9.4751686297700463E-002  0.21420071761336951        0.0000000000000000     
  -9.6406390351821095E-002  0.23067975958029979        0.0000000000000000     
 -0.10266766045287370       0.16756627011537858        0.0000000000000000     
 -0.10563306435031536       0.18300997074072717        0.0000000000000000     
 -0.10832442344794553       0.19874668867774581        0.0000000000000000     
 -0.11074173774576419       0.21477642392643451        0.0000000000000000     
 -0.11288500724377137       0.23109917648679323        0.0000000000000000     
  -5.1825536362129825E-002  0.22989340028325070        0.0000000000000000     
  -5.2307583953851655E-002  0.24688360460706116        0.0000000000000000     
  -5.2698091626603813E-002  0.26399214587804298        0.0000000000000000     
  -5.2997059380386277E-002  0.28121902409619620        0.0000000000000000     
  -5.3204487215199055E-002  0.29856423926152076        0.0000000000000000     
  -6.5876654911000310E-002  0.23007687147852854        0.0000000000000000     
  -6.6558968868219257E-002  0.24709701655032490        0.0000000000000000     
  -6.7089865416850872E-002  0.26442089139077102        0.0000000000000000     
  -6.7469344556895169E-002  0.28204849599986692        0.0000000000000000     
  -6.7697406288352122E-002  0.29997983037761256        0.0000000000000000     
  -8.0736939574230740E-002  0.23033899124421156        0.0000000000000000     
  -8.1709295618630454E-002  0.24734649870376554        0.0000000000000000     
  -8.2464038506302101E-002  0.26482822269399697        0.0000000000000000     
  -8.3001168237245751E-002  0.28278416321490596        0.0000000000000000     
  -8.3320684811461335E-002  0.30121432026649247        0.0000000000000000     
  -9.6406390351821095E-002  0.23067975958029979        0.0000000000000000     
  -9.7758564205085163E-002  0.24763205106738304        0.0000000000000000     
  -9.8820610894957472E-002  0.26521413978772096        0.0000000000000000     
  -9.9592530421437994E-002  0.28342602574131337        0.0000000000000000     
 -0.10007432278452670       0.30226770892816041        0.0000000000000000     
 -0.11288500724377137       0.23109917648679323        0.0000000000000000     
 -0.11470677462758350       0.24795367364117751        0.0000000000000000     
 -0.11615958258281700       0.26557864267194281        0.0000000000000000     
 -0.11724343110947191       0.28397408357908910        0.0000000000000000     
 -0.11795832020754821       0.30313999636261646        0.0000000000000000     
 </DataArray>
 <DataArray  type="Float64" Name="stress" NumberOfComponents="3" format="ascii">
   5709534425.5204220       -76052605.957109213       -254015286.10366356     
   5387522139.9014282       -95603928.655363083       -173275972.94093388     
   5071885980.9989758       -93901495.631815434       -104920309.44251500     
   4762625948.8130598       -70945306.886464834       -48948295.608403079     
   4459742043.3436842       -26735362.419320822       -5359931.4385994058     
   5265198090.2535448        15773554.619019270        157016023.39263439     
   4922988700.3353996       -13869949.104472876        199292681.23546702     
   4585270877.2728052       -28541563.309454203        240745719.51830935     
   4252044621.0657582       -28241287.995942831        281375138.24117452     
   3923309931.7142673       -12969123.163914680        321180937.40405071     
   4676341302.7320633        64243579.518766642        567595486.49931407     
   4346963465.9556894        34416492.002312660        569210835.85109770     
   4020192636.1738753        13279427.801069736        581562595.74721932     
   3696028813.3866291        832386.91504383087        604650766.18767655     
   3374471997.5939445       -2924630.6557714939        638475347.17247772     
   3942964062.9559803        69357468.742132425        977723103.21637976     
   3659446436.7623014        49255394.664995193        936478490.90596116     
   3376651257.7021937        31561477.699774504        917530319.24420595     
   3094578525.7756639        16275717.846471786        920878588.23111308     
   2813228240.9827113        3398115.1050941944        946523297.86667931     
   3065066370.9252944        31115222.289117694        1387398873.5438354     
   2860437612.7552299        30646758.883569360        1301095646.4000633     
   2654646741.8577571        26304586.386653423        1248648890.0092785     
   2447693758.2328672        18088704.798354864        1230058604.3714762     
   2239578661.8805695        5999114.1186891794        1245324789.4866590     
   4459742043.3436842       -26735362.419320822       -5359931.4385994058     
   4096598910.6677246       -285209.01465082169       -16525017.546367064     
   3727289306.5056834        5610039.4364166260       -7354047.8409732915     
   3351813230.8575373       -9049617.0662004948        22152977.677581590     
   2970170683.7233038       -44264178.522436738        71996059.009292141     
   3923309931.7142673       -12969123.163914680        321180937.40405071     
   3609774131.4704742        7834147.7638914585        299225505.70894605     
   3292387273.8415508        15800560.741263509        296396631.41239744     
   2971149358.8274965        10930115.768197894        312694314.51439887     
   2646060386.4283104       -6777187.1553065777        348118555.01495093     
   3374471997.5939445       -2924630.6557714939        638475347.17247772     
   3107087820.0262933        11195044.868352294        608430886.34115767     
   2838167999.1744728        20195909.445246816        596303484.49378586     
   2567712535.0384808        24077963.074903846        602093141.63035858     
   2295721427.6183186        22841205.757330537        625799857.75087416     
   2813228240.9827113        3398115.1050941944        946523297.86667931     
   2588539976.3351793        9797482.2987344265        911091124.35026872     
   2364631482.5044365        18796085.548339486        892366511.40319347     
   2141502759.4904854        30393924.853919387        890349459.02545667     
   1919153807.2933261        44591000.215464354        905039967.21705472     
   2239578661.8805695        5999114.1186891794        1245324789.4866590     
   2054130600.3971326        3641460.0550333261        1207206219.7362759     
   1871777723.8314447        11601089.050541401        1184585712.1406226     
   1692520032.1835136        29878001.105239034        1177463266.6996942     
   1516357525.4533327        58472196.219100952        1185838883.4134972     
   2970170683.7233038       -44264178.522436738        71996059.009292141     
   2707171525.0044928       -39765480.251471400        46244187.429357916     
   2453055481.6416106       -5656397.4607508183        296718.53758120100     
   2207822553.6346684        58063069.849772692       -65846347.666028403     
   1971472740.9836533        151392921.68005395       -152185011.18148434     
   2646060386.4283104       -6777187.1553065777        348118555.01495093     
   2340684895.3759599       -15650650.148619533        327177867.25346845     
   2041085601.6161015       -5270122.1669615507        296921481.45439667     
   1747262505.1487246        24364396.789636135        257349397.61773029     
   1459215605.9738250        73252906.721159399        208461615.74348223     
   2295721427.6183186        22841205.757330537        625799857.75087416     
   1979055030.7302907        9921209.4491081238        606045616.06714869     
   1665057913.0713043        5898810.5710147619        587855575.62009346     
   1353730074.6413589        10774009.123059809        571229736.40970087     
   1045071515.4404495        24546805.105227411        556168098.43596435     
   1919153807.2933261        44591000.215464354        905039967.21705472     
   1622281931.0674844        36950098.541686177        882847433.87041163     
   1324972416.0072365        27850400.753223240        873099001.03468144     
   1027225262.1125778        17291906.850058854        875794668.70986784     
   729040469.38351166        5274616.8322000504        890934436.89596713     
   1516357525.4533327        58472196.219100952        1185838883.4134972     
   1270365596.3875353        65436017.129119813        1157583320.6632438     
   1020829110.4238902        60584648.379647374        1152651757.6981547     
   767748067.56238520        43918089.970640808        1171044194.5182316     
   511122467.80302852        15436341.902129114        1212760631.1234791     
   1971472740.9836533        151392921.68005395       -152185011.18148434     
   1619728172.6478682        159766249.89218140       -57972484.765522748     
   1225910534.9477897        27896013.556659579        66557392.419450350     
   790019827.88339996       -244217787.32657468        221404620.37343684     
   312056051.45470428       -656575152.75747395        406569199.09642589     
   1459215605.9738250        73252906.721159399        208461615.74348223     
   1177279313.2285328        61744637.791331947        283993051.64181548     
   848536079.81256509       -105786766.70742923        387493871.18120736     
   472985905.72591960       -429341306.77511775        518964074.36164755     
   50628790.968580663       -908918982.41176701        678403661.18313479     
   1045071515.4404495        24546805.105227411        556168098.43596435     
   826235020.77719140       -8855604.2191392183        607495593.95923543     
   555857714.13688242       -214060720.13367388        684444505.99560130     
   233939595.51951855       -591068542.63839984        787014834.54505992     
  -139519335.07488945       -1139879071.7332642        915206579.60761404     
   729040469.38351166        5274616.8322000504        890934436.89596713     
   566595295.29384470       -52034476.139215410        912535142.18673599     
   347875437.92074960       -296925846.72204435        957409296.86263883     
   72880897.264230549       -729399494.91628981        1025556900.9236814     
  -258388326.67571414       -1349455420.7219610        1116977954.3698642     
   511122467.80302852        15436341.902129114        1212760631.1234791     
   398360136.77849519       -67791977.968880773        1199111696.3243086     
   224589251.16416338       -354382146.47254920        1206388243.7823234     
  -10190189.039968520       -844334163.60887790        1234590273.4975140     
  -305978183.83389455       -1537648029.3778646        1283717785.4698837     
   3065066370.9252944        31115222.289117694        1387398873.5438354     
   2860437612.7552299        30646758.883569360        1301095646.4000633     
   2654646741.8577571        26304586.386653423        1248648890.0092785     
   2447693758.2328672        18088704.798354864        1230058604.3714762     
   2239578661.8805695        5999114.1186891794        1245324789.4866590     
   2158683533.8162866       -24408316.434710622        1401731857.8852594     
   2036224653.9703121       -13386657.548545718        1343221013.4688380     
   1912720467.5032387       -5849354.0660424232        1311409730.3275642     
   1788170974.4150636       -1796405.9872088432        1306298008.4614410     
   1662576174.7057917       -1227813.3120317459        1327885847.8704650     
   1345610693.1441312       -51938856.227483213        1410934843.3292150     
   1284873378.8284268       -35561568.887750983        1380352655.4308398     
   1223207563.9979360       -22279283.263974011        1369313119.3297782     
   1160613248.6526592       -12091999.356151044        1377816235.0260301     
   1097090432.7925959       -4999717.1642807126        1405862002.5195930     
   625847848.90882945       -51476397.089199752        1415007829.8757021     
   606383787.32957792       -35877975.134045362        1412490572.2860713     
   586108031.34185350       -22985201.207138479        1422359057.0159199     
   565020580.94565642       -12798075.308471948        1444613284.0652442     
   543121436.14098477       -5316597.4380520582        1479253253.4340456     
  -604998.88962134253       -23020939.019861016        1413950817.5247176     
   755879.47376450431       -14335876.287429918        1439634764.0345318     
   1421869.5349880913       -7967107.8955382993        1470547543.3859875     
   1392971.2940527450       -3914633.8441761117        1506689155.5790825     
   669184.75095717411       -2178454.1333500887        1548059600.6138194     
   2239578661.8805695        5999114.1186891794        1245324789.4866590     
   2054130600.3971326        3641460.0550333261        1207206219.7362759     
   1871777723.8314447        11601089.050541401        1184585712.1406226     
   1692520032.1835136        29878001.105239034        1177463266.6996942     
   1516357525.4533327        58472196.219100952        1185838883.4134972     
   1662576174.7057917       -1227813.3120317459        1327885847.8704650     
   1518687145.0936241       -4237901.8584170938        1297509344.2938285     
   1377102490.9482572        433261.15119814873        1283753826.4209924     
   1237822212.2696912        12785675.716815174        1286619294.2519600     
   1100846309.0579247        32819341.838432968        1306105747.7867272     
   1097090432.7925959       -4999717.1642807126        1405862002.5195930     
   997968788.04905510       -7699734.2941774726        1382304954.0905902     
   900360709.32135928       -5354531.3712579012        1376491814.9144657     
   804266196.60951173        2035891.6044891775        1388422584.9912131     
   709685249.91351044        14471534.633054674        1418097264.3208365     
   543121436.14098477       -5316597.4380520582        1479253253.4340456     
   491975529.26342022       -6744037.2522642612        1461593049.1265655     
   441552378.95074856       -5762288.5168329179        1462799677.6210358     
   391851985.20297337       -2371351.2317470163        1482873138.9174538     
   342874348.02009124        3428774.6029841155        1521813433.0158186     
   669184.75095717411       -2178454.1333500887        1548059600.6138194     
   707368.73672366864       -1370810.7326636687        1535373629.4017525     
   677499.83643054415       -790010.28550931253        1542677414.5407083     
   579578.05007672508       -436052.79189129820        1569970956.0306845     
   413603.37766488822       -308938.25179862260        1617254253.8716826     
   1516357525.4533327        58472196.219100952        1185838883.4134972     
   1270365596.3875353        65436017.129119813        1157583320.6632438     
   1020829110.4238902        60584648.379647374        1152651757.6981547     
   767748067.56238520        43918089.970640808        1171044194.5182316     
   511122467.80302852        15436341.902129114        1212760631.1234791     
   1100846309.0579247        32819341.838432968        1306105747.7867272     
   915213851.80502474        37720483.306907862        1282884062.0012739     
   726923903.62986147        33763321.701169342        1283244742.3117034     
   535976464.53242838        20947857.021199435        1307187788.7180090     
   342371534.51273245       -725910.73298001289        1354713201.2202032     
   709685249.91351044        14471534.633054674        1418097264.3208365     
   585150453.93269396        17531453.497750700        1400944365.8050373     
   458845233.00519806        14689955.873514652        1407632199.6958311     
   330769587.13102078        5947041.7603395432        1438160765.9932210     
   200923516.31016302       -8697288.8417677954        1492530064.6972013     
   342874348.02009124        3428774.6029841155        1521813433.0158186     
   280175402.77054065        4868927.7016497701        1511764232.0745254     
   216593098.54988974        3364550.8966496438        1525814129.8505402     
   152127435.35815454       -1084355.8119663149        1563963126.3438606     
   86778413.195323661       -8477792.4242332354        1626211221.5544937     
   413603.37766488822       -308938.25179862260        1617254253.8716826     
   288698.31856271031       -267094.08140691486        1615343660.8097444     
   167500.26394788118       -212893.22938793569        1637790532.7758274     
   50009.213830077089       -146335.69571359406        1684594869.7699320     
  -63774.831792463316       -67421.480388373515        1755756671.7920637     
   511122467.80302852        15436341.902129114        1212760631.1234791     
   398360136.77849519       -67791977.968880773        1199111696.3243086     
   224589251.16416338       -354382146.47254920        1206388243.7823234     
  -10190189.039968520       -844334163.60887790        1234590273.4975140     
  -305978183.83389455       -1537648029.3778646        1283717785.4698837     
   342371534.51273245       -725910.73298001289        1354713201.2202032     
   284558598.72735649       -55095361.679272532        1285217627.4715719     
   180985605.64727485       -261998336.94125772        1230405598.0517192     
   31652555.272485614       -621434836.51892436        1190277112.9606440     
  -163440552.39700574       -1133404860.4122760        1164832172.1983438     
   200923516.31016302       -8697288.8417677954        1492530064.6972013     
   180225867.39707303       -39558103.373416916        1384977765.5100572     
   129016658.48436917       -172124117.90377554        1285867072.7232873     
   47295889.572053105       -406395332.43284041        1195197986.3368871     
  -64936439.339873999       -742371746.96061432        1112970506.3508563     
   86778413.195323661       -8477792.4242332354        1626211221.5544937     
   85361942.787645116       -21180203.051306710        1498392110.4397726     
   68682409.675452739       -84759489.360094503        1372772667.7970195     
   36739813.858739674       -199215651.35061562        1249352893.6262341     
  -10465844.662494123       -364548689.02287835        1128132787.9274189     
  -63774.831792463316       -67421.480388373515        1755756671.7920637     
  -33175.100922604885        38339.287071552295        1625460662.2607119     
  -17140.779480811747        95548.689770566620        1491122383.2729254     
  -15671.867459717985        104206.72773565105        1352741834.8286946     
  -28768.364868153531        64313.400931474433        1210319016.9280331     
  -604998.88962134253       -23020939.019861016        1413950817.5247176     
   755879.47376450431       -14335876.287429918        1439634764.0345318     
   1421869.5349880913       -7967107.8955382993        1470547543.3859875     
   1392971.2940527450       -3914633.8441761117        1506689155.5790825     
   669184.75095717411       -2178454.1333500887        1548059600.6138194     
  -621227180.24606371        30785364.243552059        1424621476.5119746     
  -601507091.74388802        23162084.605005264        1419679166.8081110     
  -581635241.94663966        16044675.950036198        1427393957.2242074     
  -561611630.85431957        9433138.2786383629        1447765847.7602646     
  -541436258.46692622        3327471.5908180177        1480794838.4162836     
  -1339059549.5035641        55428611.136646867        1426407446.7934291     
  -1279756630.0673971        37864075.365683913        1391826638.7393239     
  -1219455299.7389259        23627575.902406693        1377331198.0835016     
  -1158155558.5181479        12719112.746815324        1382921124.8259594     
  -1095857406.4050651        5138685.8989077806        1408596418.9667010     
  -2154102106.6621232        50908801.659423709        1419308728.3690825     
  -2033992735.4967647        29770095.994606614        1356077179.8281763     
  -1912038303.8418684        14781591.961581826        1320359265.9638724     
  -1788238811.6974328        5943289.5603561401        1312154986.7761710     
  -1662594259.0634582        3255188.7909239531        1331464342.2650712     
  -3066354851.7217398        17225935.811884880        1403325321.2389321     
  -2864215408.0319881       -1119853.5082310438        1312430790.0746646     
  -2659384254.2554665       -10493275.872438192        1256478160.8653188     
  -2451861390.3921733       -10894331.280741930        1235467433.6108954     
  -2241646816.4421082       -2323019.7331404686        1249398608.3113947     
   669184.75095717411       -2178454.1333500887        1548059600.6138194     
   707368.73672366864       -1370810.7326636687        1535373629.4017525     
   677499.83643054415       -790010.28550931253        1542677414.5407083     
   579578.05007672508       -436052.79189129820        1569970956.0306845     
   413603.37766488822       -308938.25179862260        1617254253.8716826     
  -541436258.46692622        3327471.5908180177        1480794838.4162836     
  -490416897.80853575        5514046.6310465932        1462759828.6573098     
  -440182894.98581934        5082762.2190288007        1463633137.3017452     
  -390734249.99877977        2033618.3547538370        1483414764.3495891     
  -342070962.84741348       -3633384.9617638737        1522104709.8008454     
  -1095857406.4050651        5138685.8989077806        1408596418.9667010     
  -996946691.78151178        7777245.7664481997        1384375514.8862679     
  -899538639.94325042        5406929.6830142140        1377981491.2616320     
  -803633250.89028084       -1972262.3513927460        1389414348.0927927     
  -709230524.62260056       -14360330.336765140        1418674085.3797534     
  -1662594259.0634582        3255188.7909239531        1331464342.2650712     
  -1518882013.1822073        5418786.6735307574        1300220688.0886266     
  -1377389735.0358629        182492.10644602776        1285722476.4203665     
  -1238117424.6244271       -12453694.910330355        1287969707.2602909     
  -1101065081.9478979       -32489774.376799464        1306962380.6084030     
  -2241646816.4421082       -2323019.7331404686        1249398608.3113947     
  -2056222862.0106211       -1561330.6477013826        1210295348.2643847     
  -1873736180.2636576       -10590550.510677576        1186856092.7779489     
  -1694186771.2012196       -29410679.322069526        1179080841.8520863     
  -1517574634.8233037       -58021717.081866205        1186969595.4867959     
   413603.37766488822       -308938.25179862260        1617254253.8716826     
   288698.31856271031       -267094.08140691486        1615343660.8097444     
   167500.26394788118       -212893.22938793569        1637790532.7758274     
   50009.213830077089       -146335.69571359406        1684594869.7699320     
  -63774.831792463316       -67421.480388373515        1755756671.7920637     
  -342070962.84741348       -3633384.9617638737        1522104709.8008454     
  -279592763.85454917       -5009565.7889011055        1511958714.3564563     
  -216232713.22144240       -3446241.1485641152        1525938724.3080592     
  -151990810.94808522        1056588.9592747539        1564044739.6556594     
  -86867057.034491271        8498924.5345719159        1626276760.3992615     
  -709230524.62260056       -14360330.336765140        1418674085.3797534     
  -584810534.81212735       -17352930.131734341        1401317189.6279523     
  -458630548.72565955       -14478875.673388809        1407854839.6401188     
  -330690566.36319178       -5738166.9617110491        1438287035.4162579     
  -200990587.72473466        8869196.0032671690        1492613776.9563704     
  -1101065081.9478979       -32489774.376799464        1306962380.6084030     
  -915364614.55417323       -37297187.109904915        1283419086.6242328     
  -727026006.24870336       -33310796.803859621        1283538878.7720075     
  -536049257.03148663       -20530603.458658248        1307321757.0517282     
  -342434366.90252340        1043392.9256979674        1354767721.4633951     
  -1517574634.8233037       -58021717.081866205        1186969595.4867959     
  -1271255003.0806878       -64842336.723422766        1158264405.3453009     
  -1021419085.7905729       -59942004.539978087        1152990841.7037241     
  -768066882.95296121       -43320720.531546950        1171148904.5620682     
  -511198394.56785595       -14978484.698134363        1212738593.9203322     
  -63774.831792463316       -67421.480388373515        1755756671.7920637     
  -33175.100922604885        38339.287071552295        1625460662.2607119     
  -17140.779480811747        95548.689770566620        1491122383.2729254     
  -15671.867459717985        104206.72773565105        1352741834.8286946     
  -28768.364868153531        64313.400931474433        1210319016.9280331     
  -86867057.034491271        8498924.5345719159        1626276760.3992615     
  -85417389.733371854        21301443.105066836        1498427426.9497068     
  -68720513.207266703        84927992.425513819        1372781932.3637722     
  -36776427.456180215        199378572.49590069        1249340276.6414645     
   10414867.519892782        364653183.31624156        1128102459.7827692     
  -200990587.72473466        8869196.0032671690        1492613776.9563704     
  -180275829.08176985        39722279.508279160        1385016523.3287601     
  -129052086.57941030        172271975.87794018        1285869216.8848276     
  -47319360.217657357        406518285.11224556        1195171857.6245732     
   64922350.003488362        742461207.21118867        1112924445.5480025     
  -342434366.90252340        1043392.9256979674        1354767721.4633951     
  -284608493.14611870        55300848.496698737        1285227951.3978717     
  -181011860.89590612        262127499.04705900        1230384236.8360846     
  -31644470.151894748        621523344.57675231        1190236577.7780411     
   163493679.08592325        1133488385.0857911        1164784974.2237239     
  -511198394.56785595       -14978484.698134363        1212738593.9203322     
  -398415381.92641306        68037150.070346326        1199061711.1570392     
  -224599836.15675056        354494561.93288577        1206326992.2175429     
   10248242.741117507        844393750.88944697        1234534437.1018445     
   306128854.76719880        1537734716.9400523        1283684045.8099408     
  -3066354851.7217398        17225935.811884880        1403325321.2389321     
  -2864215408.0319881       -1119853.5082310438        1312430790.0746646     
  -2659384254.2554665       -10493275.872438192        1256478160.8653188     
  -2451861390.3921733       -10894331.280741930        1235467433.6108954     
  -2241646816.4421082       -2323019.7331404686        1249398608.3113947     
  -3963236676.8368540       -64002115.005201340        969727443.49917364     
  -3676018483.6793237       -45991988.846806526        930489195.99243903     
  -3389347108.8014474       -29804590.287250757        913364411.78018820     
  -3103222552.2032223       -15439919.326535940        918353090.86241901     
  -2817644813.8846474       -2897975.9646626711        945455233.23913443     
  -4697777598.8083496       -96527894.879202366        542184972.93656230     
  -4362133338.0700092       -53157657.808386564        550824725.99320114     
  -4030274423.9777465       -22405242.891158581        568749503.68388343     
  -3702200856.5315614       -4270650.1275246143        595959306.00860870     
  -3377912635.7314487        1246120.4825298786        632454132.96737909     
  -5269977617.6362219       -80351403.810116053        120697909.55109924     
  -4922559971.2040453       -22616860.392976999        173437380.07695150     
  -4582166199.7843628        11704766.315834284        222633436.57640544     
  -4248796303.3771839        22613476.316311359        268286079.04946330     
  -3922450281.9825039        10109269.608447790        310395307.49612463     
  -5679836733.3204756       -15472641.797944307       -294733746.65721214     
  -5357298383.0814209        45630403.399437189       -201672841.75631312     
  -5045022436.2212982        72525437.333737850       -124983789.54224823     
  -4743008892.7400999        65212460.004950047       -64666590.015019961     
  -4451257752.6378174        23691471.413094759       -20721243.174624708     
  -2241646816.4421082       -2323019.7331404686        1249398608.3113947     
  -2056222862.0106211       -1561330.6477013826        1210295348.2643847     
  -1873736180.2636576       -10590550.510677576        1186856092.7779489     
  -1694186771.2012196       -29410679.322069526        1179080841.8520863     
  -1517574634.8233037       -58021717.081866205        1186969595.4867959     
  -2817644813.8846474       -2897975.9646626711        945455233.23913443     
  -2592571616.9335017       -10290995.508717895        910303734.74342704     
  -2368127602.0295434       -19781288.543387890        891869504.84753454     
  -2144312769.1727703       -31368855.068675041        890152543.55145836     
  -1921127118.3631740       -45053695.084563375        905152850.85519814     
  -3377912635.7314487        1246120.4825298786        632454132.96737909     
  -3110180870.4342370       -13398809.943094492        603947168.43320453     
  -2840770196.5468760       -22447378.401539087        593210736.53808749     
  -2569680614.0693531       -25899584.892786741        600244837.28202641     
  -2296912123.0016770       -23755429.416848779        625049470.66502631     
  -3922450281.9825039        10109269.608447790        310395307.49612463     
  -3609050622.5128250       -10884773.950824976        291225649.33371460     
  -3291663963.8156509       -18588820.085119605        290879787.84960043     
  -2970290305.8909769       -13002868.794410825        309357723.04379052     
  -2644929648.7388048        5873079.9212912321        346659454.91627812     
  -4451257752.6378174        23691471.413094759       -20721243.174624708     
  -4089180873.1692610       -2748887.5319116116       -27860822.555041023     
  -3720808903.8358707       -8205613.5941326618       -15123341.217919683     
  -3346141844.6376424        7321293.2264392376        17491200.836750962     
  -2965179695.5745697        43831832.929819703        69982803.608956784     
  -1517574634.8233037       -58021717.081866205        1186969595.4867959     
  -1271255003.0806878       -64842336.723422766        1158264405.3453009     
  -1021419085.7905729       -59942004.539978087        1152990841.7037241     
  -768066882.95296121       -43320720.531546950        1171148904.5620682     
  -511198394.56785595       -14978484.698134363        1212738593.9203322     
  -1921127118.3631740       -45053695.084563375        905152850.85519814     
  -1623690612.5606573       -36856388.064253211        882929143.79782319     
  -1325884117.7626152       -27425784.392184973        873128807.21079135     
  -1027707633.9690466       -16761884.068365693        875751841.09410167     
  -729161161.17994475       -4864687.0927696228        890798245.44775581     
  -2296912123.0016770       -23755429.416848779        625049470.66502631     
  -1979810903.2237673       -9975843.7600308657        605636567.38114130     
  -1665485991.0022998       -5450616.6246812344        587638778.53802419     
  -1353937386.3372738       -10179748.010810316        571056104.13566875     
  -1045165089.2286923       -24163237.918407440        555888544.17408264     
  -2644929648.7388048        5873079.9212912321        346659454.91627812     
  -2339615875.0700130        15799296.189255118        326386676.09525543     
  -2040224705.5096350        5983498.7625156641        296520755.68542415     
  -1746756140.0576620       -23574312.358914852        257061693.68677536     
  -1459210178.7140982       -72874137.175036967        208009490.09931701     
  -2965179695.5745697        43831832.929819703        69982803.608956784     
  -2703105528.0994000        40469031.783588648        45179469.940164454     
  -2450100261.2846098        6876561.7694355249       -225261.34701524783     
  -2206163895.1301932       -56945577.112640381       -66231390.252587117     
  -1971296429.6361647       -150997384.86266464       -152838916.77654827     
  -511198394.56785595       -14978484.698134363        1212738593.9203322     
  -398415381.92641306        68037150.070346326        1199061711.1570392     
  -224599836.15675056        354494561.93288577        1206326992.2175429     
   10248242.741117507        844393750.88944697        1234534437.1018445     
   306128854.76719880        1537734716.9400523        1283684045.8099408     
  -729161161.17994475       -4864687.0927696228        890798245.44775581     
  -566686036.13499033        52183355.577606469        912426137.99329627     
  -347895900.07369143        296948101.63581687        957329089.81730127     
  -72790752.996026069        729429551.08189893        1025507100.9197721     
   258629405.09799123        1349627703.9158344        1116960171.3007081     
  -1045165089.2286923       -24163237.918407440        555888544.17408264     
  -826332436.19547272        8916837.3292859793        607317436.23129332     
  -555902294.25775647        213988542.25863126        684354283.02163482     
  -233874663.41554251        591051876.86963892        786999084.54510641     
   139750456.33117479        1140106841.1623275        915251840.80170929     
  -1459210178.7140982       -72874137.175036967        208009490.09931701     
  -1177354582.1078467       -61762404.674597442        283735605.87102455     
  -848619018.70896196        105615883.80129325        387402571.83053768     
  -473003488.51742125        429260728.25269705        519010387.97784483     
  -50507991.533249497        909172128.67953789        678559054.31295013     
  -1971296429.6361647       -150997384.86266464       -152838916.77654827     
  -1619752473.8721192       -159854370.43405044       -58319353.087502234     
  -1226046073.4272938       -28169873.736174285        66473956.244013362     
  -790177228.30167675        244056105.23100406        221541011.21799013     
  -312145938.49527550        656823566.46747470        406881811.83443469     
 </DataArray>
 <DataArray  type="Float64" Name="VM" NumberOfComponents="1" format="ascii">
   5764751826.7191105     
   5444233361.0702810     
   5122707037.1461029     
   4799240870.3178883     
   4473179280.9132462     
   5264358549.6985703     
   4942008138.4206362     
   4618470519.7972317     
   4293981852.7629752     
   3968990109.8155050     
   4747458711.9522600     
   4440683681.9194584     
   4138041139.9124155     
   3841140560.2222233     
   3552448621.3177509     
   4259827397.1105952     
   3980540507.3590560     
   3717765915.1489949     
   3474243340.2154789     
   3254600447.0414534     
   3882635277.3219795     
   3629590756.7822161     
   3413998245.8018255     
   3238269419.9323316     
   3107219750.5294895     
   4473179280.9132462     
   4096841506.7929616     
   3724509236.5293722     
   3356566507.5486469     
   2995145350.5422182     
   3968990109.8155050     
   3642919002.6632094     
   3324393921.1392035     
   3014748111.6046906     
   2717199648.6071901     
   3552448621.3177509     
   3275652682.0149755     
   3010817101.5943360     
   2760335229.0779643     
   2528497169.1302404     
   3254600447.0414534     
   3027463482.1507797     
   2817151663.8742294     
   2626791895.6757393     
   2461067803.2705441     
   3107219750.5294895     
   2929850904.0734305     
   2773391732.3135066     
   2640872369.5365615     
   2536283887.9370604     
   2995145350.5422182     
   2728447637.3283577     
   2455888619.5768933     
   2182353321.0214982     
   1918498996.5572689     
   2717199648.6071901     
   2415951165.3091240     
   2107439696.9387240     
   1791545429.5442939     
   1469065391.3646407     
   2528497169.1302404     
   2235843574.9951844     
   1949192992.4949548     
   1672431262.9710152     
   1412477508.6241055     
   2461067803.2705441     
   2216185748.2868304     
   2001582407.0101826     
   1827232051.7219944     
   1705571731.4120491     
   2536283887.9370604     
   2356900589.4883537     
   2229290071.5634370     
   2161407268.8207135     
   2160083248.8093061     
   1918498996.5572689     
   1549306018.4659498     
   1217672562.6469557     
   1011815481.2877333     
   1108717142.0531459     
   1469065391.3646407     
   1248625026.5871644     
   1127573814.7372217     
   1191256959.2675788     
   1501801931.9308813     
   1412477508.6241055     
   1340601444.0020642     
   1370831841.6977022     
   1549367981.3458200     
   1916393493.7669830     
   1705571731.4120491     
   1688603405.7489817     
   1749963763.3035760     
   1935405747.9299555     
   2298266778.1263342     
   2160083248.8093061     
   2122239089.5590832     
   2149822142.0824060     
   2297180777.6693792     
   2632734589.3618331     
   3882635277.3219795     
   3629590756.7822161     
   3413998245.8018255     
   3238269419.9323316     
   3107219750.5294895     
   3256955142.4740129     
   3096187390.8476863     
   2971381568.1238308     
   2884443516.9700518     
   2838317257.1628485     
   2802760542.5688324     
   2722861858.0533776     
   2673768979.3995681     
   2656376516.3387270     
   2671789936.9429417     
   2536393742.6309776     
   2525100631.5532222     
   2535121025.9340911     
   2566586418.7793984     
   2619631134.7259808     
   2449140082.7945547     
   2493564052.9867320     
   2547078141.0834022     
   2609666521.2855372     
   2681319121.7042375     
   3107219750.5294895     
   2929850904.0734305     
   2773391732.3135066     
   2640872369.5365615     
   2536283887.9370604     
   2838317257.1628485     
   2713568894.8594494     
   2615317662.1267619     
   2546116363.0743299     
   2508893646.0601897     
   2671789936.9429417     
   2595377822.3295984     
   2549448614.3358402     
   2535421598.9864388     
   2554719534.0799088     
   2619631134.7259808     
   2579567023.4545774     
   2572332550.4439435     
   2598311193.5776005     
   2657846367.0594563     
   2681319121.7042375     
   2659345764.4218025     
   2671995964.5097017     
   2719269605.4490595     
   2801166606.8419890     
   2536283887.9370604     
   2356900589.4883537     
   2229290071.5634370     
   2161407268.8207135     
   2160083248.8093061     
   2508893646.0601897     
   2396224419.8296828     
   2333487982.3907685     
   2324371263.3357744     
   2371331039.4045444     
   2554719534.0799088     
   2494070010.2181787     
   2479576487.0822425     
   2512448199.0790243     
   2593285825.7760916     
   2657846367.0594563     
   2633144714.8104806     
   2651513045.1485481     
   2713162522.6614518     
   2818160191.8032155     
   2801166606.8419890     
   2797857333.6305513     
   2836736434.1422210     
   2917803909.9635730     
   3041059761.9810314     
   2160083248.8093061     
   2122239089.5590832     
   2149822142.0824060     
   2297180777.6693792     
   2632734589.3618331     
   2371331039.4045444     
   2248341611.8986559     
   2165758678.3509407     
   2158038914.7834015     
   2279600193.7760296     
   2593285825.7760916     
   2407418915.1841187     
   2242507809.3083663     
   2114736289.8929505     
   2055051244.6034031     
   2818160191.8032155     
   2597129183.4337659     
   2381435979.1434999     
   2175087077.3489799     
   1986766401.0175533     
   3041059761.9810314     
   2815380453.4225025     
   2582699730.2732897     
   2343017590.1654844     
   2096334032.3113930     
   2449140082.7945547     
   2493564052.9867320     
   2547078141.0834022     
   2609666521.2855372     
   2681319121.7042375     
   2548457319.0790205     
   2534313759.5289655     
   2541702119.1790690     
   2570772688.9019895     
   2621683804.0196729     
   2823878473.2900105     
   2738468860.2955809     
   2684691034.4955807     
   2663386809.5251174     
   2675629410.5956736     
   3285684426.1414990     
   3116953772.2926579     
   2985702214.6375685     
   2893736947.1632266     
   2843946941.9964337     
   3919644819.7617755     
   3656220369.7554584     
   3432308432.2630734     
   3250257053.2879057     
   3114926821.5558033     
   2681319121.7042375     
   2659345764.4218025     
   2671995964.5097017     
   2719269605.4490595     
   2801166606.8419890     
   2621683804.0196729     
   2581131974.3496752     
   2573458770.2780895     
   2599044071.0652428     
   2658230823.7643919     
   2675629410.5956736     
   2598307793.5251827     
   2551580238.3212976     
   2536860659.9907231     
   2555569966.3890190     
   2843946941.9964337     
   2717900650.1397600     
   2618530262.8301315     
   2548385491.9275036     
   2510394099.9401026     
   3114926821.5558033     
   2935862555.0810113     
   2777955667.4325838     
   2644239307.4001040     
   2538707834.2397223     
   2801166606.8419890     
   2797857333.6305513     
   2836736434.1422210     
   2917803909.9635730     
   3041059761.9810314     
   2658230823.7643919     
   2633411102.1182914     
   2651695729.8679485     
   2713295184.4094043     
   2818276902.3150482     
   2555569966.3890190     
   2494639434.3273044     
   2479934860.4075193     
   2512667986.0854473     
   2593442917.3183866     
   2510394099.9401026     
   2397214339.2228298     
   2334068286.7770348     
   2324658131.0580740     
   2371456602.0186896     
   2538707834.2397223     
   2358514779.3872418     
   2230208001.1527686     
   2161781552.4935226     
   2160114781.1710033     
   3041059761.9810314     
   2815380453.4225025     
   2582699730.2732897     
   2343017590.1654844     
   2096334032.3113930     
   2818276902.3150482     
   2597195344.4283252     
   2381462212.4928374     
   2175083936.9804487     
   1986738049.7380581     
   2593442917.3183866     
   2407498808.0148416     
   2242530504.0212040     
   2114719775.9806426     
   2055009414.5477483     
   2371456602.0186896     
   2248384293.3401790     
   2165747080.5013924     
   2157996698.4482574     
   2279556979.8710213     
   2160114781.1710033     
   2122196475.1088121     
   2149745412.3286519     
   2297102111.3706150     
   2632704342.6811323     
   3919644819.7617755     
   3656220369.7554584     
   3432308432.2630734     
   3250257053.2879057     
   3114926821.5558033     
   4275371287.0103521     
   3992942547.2781415     
   3726962259.2325139     
   3480291983.7626929     
   3257701954.2471876     
   4744139443.0145464     
   4439524280.8979263     
   4138084417.2047668     
   3841354071.0601330     
   3551689640.7902222     
   5234441163.5785980     
   4920469176.3340511     
   4604206143.2819262     
   4285416398.9182181     
   3964140166.5594239     
   5695042281.2154026     
   5391585999.5680828     
   5086282200.4414215     
   4777262249.7477589     
   4463294951.2429752     
   3114926821.5558033     
   2935862555.0810113     
   2777955667.4325838     
   2644239307.4001040     
   2538707834.2397223     
   3257701954.2471876     
   3029985481.6674213     
   2819196457.2371120     
   2628480791.8265290     
   2462541454.5090652     
   3551689640.7902222     
   3275055480.3433204     
   3010383411.5714493     
   2760119051.7188215     
   2528609501.2358212     
   3964140166.5594239     
   3638752301.3322253     
   3320849619.9992204     
   3011856218.8720932     
   2715094760.0603423     
   4463294951.2429752     
   4088091944.6434088     
   3716805194.9470053     
   3349945485.7820439     
   2989794958.8645563     
   2538707834.2397223     
   2358514779.3872418     
   2230208001.1527686     
   2161781552.4935226     
   2160114781.1710033     
   2462541454.5090652     
   2217335754.0635557     
   2002353414.7062833     
   1827583510.2665322     
   1705496134.7194123     
   2528609501.2358212     
   2236154601.3156385     
   1949552095.2107832     
   1672657333.1641679     
   1412351080.1943045     
   2715094760.0603423     
   2414663772.0015059     
   2106782857.5547965     
   1791305760.9618483     
   1469037149.5354190     
   2989794958.8645563     
   2724689497.1020660     
   2453545800.5638981     
   2181268082.0751562     
   1918652762.0994296     
   2160114781.1710033     
   2122196475.1088121     
   2149745412.3286519     
   2297102111.3706150     
   2632704342.6811323     
   1705496134.7194123     
   1688488115.7278864     
   1749843912.4899778     
   1935318095.8448925     
   2298288661.3755178     
   1412351080.1943045     
   1340438913.9613273     
   1370692355.2116373     
   1549314175.7975929     
   1916533627.2197092     
   1469037149.5354190     
   1248511048.6547112     
   1127465679.9565864     
   1191282604.3401623     
   1502129370.4352741     
   1918652762.0994296     
   1549332251.3991399     
   1217662232.9060760     
   1011944796.1045370     
   1109295055.1462719     
 </DataArray>
 <DataArray  type="Float64" Name="strain" NumberOfComponents="3" format="ascii">
   9.5539170121792583E-002  -2.9815215560220598E-002  -1.1007329064492088E-002
   9.0270055308300623E-002  -2.8531009510429861E-002  -7.5086254941071351E-003
   8.5000940494808663E-002  -2.6924454832191802E-002  -4.5465467425089834E-003
   7.9731825681316648E-002  -2.4995551525506379E-002  -2.1210928096974668E-003
   7.4462710867824689E-002  -2.2744299590373773E-002  -2.3226369567264094E-004
   8.7674433731130652E-002  -2.6063097874284069E-002   6.8040276803474908E-003
   8.2119161417779030E-002  -2.4846109320084880E-002   8.6360161868702379E-003
   7.6563889104427352E-002  -2.3402047108188259E-002   1.0432314512460072E-002
   7.1008616791075688E-002  -2.1730911238594507E-002   1.2192922657117564E-002
   6.5453344477724024E-002  -1.9832701711303247E-002   1.3917840620842198E-002
   7.7617803814607228E-002  -2.2310980188347540E-002   2.4595804414970279E-002
   7.2277308639249915E-002  -2.1161209129739900E-002   2.4665802886880903E-002
   6.6936813463892575E-002  -1.9879639384184883E-002   2.5201045815712836E-002
   6.1596318288535262E-002  -1.8466270951682413E-002   2.6201533201465982E-002
   5.6255823113177936E-002  -1.6921103832232581E-002   2.7667265044140701E-002
   6.5369280372222338E-002  -1.8558862502411025E-002   4.2368001139376457E-002
   6.0744496972713377E-002  -1.7476308939394919E-002   4.0580734605924984E-002
   5.6119713573204361E-002  -1.6357231660181396E-002   3.9759647167248925E-002
   5.1494930173695379E-002  -1.5201630664770458E-002   3.9904738823348232E-002
   4.6870146774186383E-002  -1.4009505953161985E-002   4.1016009574222773E-002
   5.0928863403975982E-002  -1.4806744816474510E-002   6.0120617853566205E-002
   4.7520726418169318E-002  -1.3791408749049994E-002   5.6380811344002746E-002
   4.4112589432362681E-002  -1.2834823936177894E-002   5.4108118567068736E-002
   4.0704452446556016E-002  -1.1936990377858423E-002   5.3302539522763967E-002
   3.7296315460749380E-002  -1.1097908074091362E-002   5.3964074211088564E-002
   7.4462710867824689E-002  -2.2744299590373773E-002  -2.3226369567264094E-004
   6.8278074556201995E-002  -2.0487748036916137E-002  -7.1608409367590609E-004
   6.2093438244579302E-002  -1.8542945875254804E-002  -3.1867540644217596E-004
   5.5908801932956623E-002  -1.6909893105391028E-002   9.5996236602853557E-004
   4.9724165621333916E-002  -1.5588589727323798E-002   3.1198292237359926E-003
   6.5453344477724024E-002  -1.9832701711303247E-002   1.3917840620842198E-002
   6.0123731452355111E-002  -1.7918301527954178E-002   1.2966438580720996E-002
   5.4794118426986199E-002  -1.6198593690186697E-002   1.2843854027870555E-002
   4.9464505401617287E-002  -1.4673578198000851E-002   1.3550086962290618E-002
   4.4134892376248375E-002  -1.3343255051396663E-002   1.5085137383981206E-002
   5.6255823113177936E-002  -1.6921103832232581E-002   2.7667265044140701E-002
   5.1728821776096459E-002  -1.5348855018992261E-002   2.6365338408116834E-002
   4.7201820439014976E-002  -1.3854241505118249E-002   2.5839817661397389E-002
   4.2674819101933492E-002  -1.2437263290610673E-002   2.6090702803982204E-002
   3.8147817764851988E-002  -1.1097920375469417E-002   2.7117993835871212E-002
   4.6870146774186383E-002  -1.4009505953161985E-002   4.1016009574222773E-002
   4.3093345527425983E-002  -1.2779408510030323E-002   3.9480615388511643E-002
   3.9316544280665583E-002  -1.1509889320049860E-002   3.8669215494138383E-002
   3.5539743033905162E-002  -1.0200948383220439E-002   3.8581809891103123E-002
   3.1762941787144783E-002  -8.8525856995422258E-003   3.9218398579405706E-002
   3.7296315460749380E-002  -1.1097908074091362E-002   5.3964074211088564E-002
   3.4217302706343711E-002  -1.0209962001068440E-002   5.2312269521905291E-002
   3.1138289951938042E-002  -9.1655371349815343E-003   5.1332047526093647E-002
   2.8059277197532366E-002  -7.9646334758302507E-003   5.1023408223653414E-002
   2.4980264443126704E-002  -6.6072510236149795E-003   5.1386351614584880E-002
   4.9724165621333916E-002  -1.5588589727323798E-002   3.1198292237359926E-003
   4.5318352817998897E-002  -1.4198615629213651E-002   2.0039147886055098E-003
   4.0912540014663934E-002  -1.2359550699220567E-002   1.2857803295185377E-005
   3.6506727211328943E-002  -1.0071394937343797E-002  -2.8533417321945642E-003
   3.2100914407993952E-002  -7.3341483435840349E-003  -6.5946838178643219E-003
   4.4134892376248375E-002  -1.3343255051396663E-002   1.5085137383981206E-002
   3.9089668173675762E-002  -1.1964268646023457E-002   1.4177707580983634E-002
   3.4044443971103164E-002  -1.0293263377529865E-002   1.2866597529690521E-002
   2.8999219768530558E-002  -8.3302392459163530E-003   1.1151807230101646E-002
   2.3953995565957953E-002  -6.0751962511831348E-003   9.0333366822175631E-003
   3.8147817764851988E-002  -1.1097920375469417E-002   2.7117993835871212E-002
   3.2934644464925972E-002  -9.7299216628329854E-003   2.6261976696243111E-002
   2.7721471164999997E-002  -8.2269760558396077E-003   2.5473741610204048E-002
   2.2508297865074016E-002  -6.5890835544891307E-003   2.4753288577753704E-002
   1.7295124565148021E-002  -4.8162441587817906E-003   2.4100617598891788E-002
   3.1762941787144783E-002  -8.8525856995422258E-003   3.9218398579405706E-002
   2.6853281691749643E-002  -7.4955746796426526E-003   3.8256722134384503E-002
   2.1943621596354490E-002  -6.1606887341491279E-003   3.7834290044836197E-002
   1.7033961500959337E-002  -4.8479278630619085E-003   3.7951102310760938E-002
   1.2124301405564194E-002  -3.5572920663808905E-003   3.8607158932158575E-002
   2.4980264443126704E-002  -6.6072510236149795E-003   5.1386351614584880E-002
   2.0845579854146659E-002  -5.2612276964523474E-003   5.0161943895407235E-002
   1.6710895265166600E-002  -4.0944014124586620E-003   4.9948242833586703E-002
   1.2576210676186549E-002  -3.1067721716345788E-003   5.0745248429123369E-002
   8.4415260872064968E-003  -2.2983399739796573E-003   5.2552960682017424E-002
   3.2100914407993952E-002  -7.3341483435840349E-003  -6.5946838178643219E-003
   2.6196638294670227E-002  -5.4358700317029829E-003  -2.5121410065059857E-003
   2.0292362181346529E-002  -5.6646191154612890E-003   2.8841536715095151E-003
   1.4388086068022873E-002  -8.0203955948599109E-003   9.5942002161822637E-003
   8.4838099546991064E-003  -1.2503199469898085E-002   1.7617998627511788E-002
   2.3953995565957953E-002  -6.0751962511831348E-003   9.0333366822175631E-003
   1.9312598698185551E-002  -4.8573192696204637E-003   1.2306365571145339E-002
   1.4671201830413233E-002  -6.0057931775199802E-003   1.6791401084518986E-002
   1.0029804962640915E-002  -9.5206179748815595E-003   2.2488443222338061E-002
   5.3884080948685131E-003  -1.5401793661705687E-002   2.9397491984602508E-002
   1.7295124565148021E-002  -4.8162441587817906E-003   2.4100617598891788E-002
   1.3814861700715553E-002  -4.2787685075382775E-003   2.6324809071566868E-002
   1.0334598836283078E-002  -6.3469672395789767E-003   2.9659261926476055E-002
   6.8543359718506412E-003  -1.1020840354904256E-002   3.4103976163619265E-002
   3.3740731074181629E-003  -1.8300387853513289E-002   3.9658951782996610E-002
   1.2124301405564194E-002  -3.5572920663808905E-003   3.8607158932158575E-002
   9.7034273022601550E-003  -3.7002177454561469E-003   3.9543189494758560E-002
   7.2825531989560485E-003  -6.6881413016378205E-003   4.1487736197381019E-002
   4.8616790956519584E-003  -1.2521062734925984E-002   4.4440799040026194E-002
   2.4408049923479030E-003  -2.1198982045320780E-002   4.8402378022694120E-002
   8.4415260872064968E-003  -2.2983399739796573E-003   5.2552960682017424E-002
   6.9782955028193233E-003  -3.1216669833738220E-003   5.1961506840720040E-002
   5.5150649184321360E-003  -7.0293153636966366E-003   5.2276823897234009E-002
   4.0518343340449139E-003  -1.4021285114948122E-002   5.3498911851558945E-002
   2.5886037496577474E-003  -2.4097576237128271E-002   5.5627770703694956E-002
   5.0928863403975982E-002  -1.4806744816474510E-002   6.0120617853566205E-002
   4.7520726418169318E-002  -1.3791408749049994E-002   5.6380811344002746E-002
   4.4112589432362681E-002  -1.2834823936177894E-002   5.4108118567068736E-002
   4.0704452446556016E-002  -1.1936990377858423E-002   5.3302539522763967E-002
   3.7296315460749380E-002  -1.1097908074091362E-002   5.3964074211088564E-002
   3.6100100479111663E-002  -1.1200222942993276E-002   6.0741713841694578E-002
   3.4004010853914593E-002  -1.0404234228993989E-002   5.8206243916982980E-002
   3.1907921228717523E-002  -9.6610915719502338E-003   5.6827754980861123E-002
   2.9811831603520439E-002  -8.9707949718621331E-003   5.6606247033329116E-002
   2.7715741978323355E-002  -8.3333444287294889E-003   5.7541720074386821E-002
   2.2686539166872938E-002  -7.5937010695120433E-003   6.1140509877599322E-002
   2.1592364158245871E-002  -7.0170597089379838E-003   5.9815281735336387E-002
   2.0498189149618803E-002  -6.4873592077225803E-003   5.9336901837623725E-002
   1.9404014140991743E-002  -6.0045995658658136E-003   5.9705370184461301E-002
   1.8309839132364669E-002  -5.5687807833676578E-003   6.0920686775849033E-002
   1.0688179467259824E-002  -3.9871791960308101E-003   6.1317005961280424E-002
   1.0285786331163192E-002  -3.6298851888819789E-003   6.1207924799063090E-002
   9.8833931950665851E-003  -3.3136268434949094E-003   6.1635559137356535E-002
   9.4810000589699659E-003  -3.0384041598694811E-003   6.2599908976160579E-002
   9.0786069228733415E-003  -2.8042171380057920E-003   6.4100974315475304E-002
   1.0502138027228269E-004  -3.8065732254957685E-004   6.1271202092737759E-002
   8.4277372666557993E-005  -2.4271066882598780E-004   6.2384173108163049E-002
   6.3533365060826352E-005  -1.3989447926724546E-004   6.3723726880059464E-002
   4.2789357455092977E-005  -7.2208753873198930E-005   6.5289863408426907E-002
   2.2045349849370011E-005  -3.9653492643954014E-005   6.7082582693265502E-002
   3.7296315460749380E-002  -1.1097908074091362E-002   5.3964074211088564E-002
   3.4217302706343711E-002  -1.0209962001068440E-002   5.2312269521905291E-002
   3.1138289951938042E-002  -9.1655371349815343E-003   5.1332047526093647E-002
   2.8059277197532366E-002  -7.9646334758302507E-003   5.1023408223653414E-002
   2.4980264443126704E-002  -6.6072510236149795E-003   5.1386351614584880E-002
   2.7715741978323355E-002  -8.3333444287294889E-003   5.7541720074386821E-002
   2.5332641927519155E-002  -7.6640674231084061E-003   5.6225404919399230E-002
   2.2949541876714961E-002  -6.8782914355546496E-003   5.5629332478243004E-002
   2.0566441825910779E-002  -5.9760164660682038E-003   5.5753502750918268E-002
   1.8183341775106582E-002  -4.9572425146490740E-003   5.6597915737424842E-002
   1.8309839132364669E-002  -5.5687807833676578E-003   6.0920686775849033E-002
   1.6671311805621807E-002  -5.1181728451482333E-003   5.9899881343925578E-002
   1.5032784478878944E-002  -4.5910457361277614E-003   5.9647978646293509E-002
   1.3394257152136083E-002  -3.9873994563060728E-003   6.0164978682952563E-002
   1.1755729825393232E-002  -3.3072340056833072E-003   6.1450881453902914E-002
   9.0786069228733415E-003  -2.8042171380057920E-003   6.4100974315475304E-002
   8.2333123406516575E-003  -2.5722782671881717E-003   6.3335698795484507E-002
   7.3880177584299744E-003  -2.3038000367009582E-003   6.3387986030244883E-002
   6.5427231762082913E-003  -1.9987824465439838E-003   6.4257836019756334E-002
   5.6974285939866004E-003  -1.6572254967173877E-003   6.5945248764018805E-002
   2.2045349849370011E-005  -3.9653492643954014E-005   6.7082582693265502E-002
   1.8643532608712821E-005  -2.6383689228012819E-005   6.6532857274075943E-002
   1.5241715368055631E-005  -1.6554337273974595E-005   6.6849354630097363E-002
   1.1839898127401910E-005  -1.0165436781905263E-005   6.8032074761329664E-002
   8.4380808867412505E-006  -7.2169877516348180E-006   7.0081017667772916E-002
   2.4980264443126704E-002  -6.6072510236149795E-003   5.1386351614584880E-002
   2.0845579854146659E-002  -5.2612276964523474E-003   5.0161943895407235E-002
   1.6710895265166600E-002  -4.0944014124586620E-003   4.9948242833586703E-002
   1.2576210676186549E-002  -3.1067721716345788E-003   5.0745248429123369E-002
   8.4415260872064968E-003  -2.2983399739796573E-003   5.2552960682017424E-002
   1.8183341775106582E-002  -4.9572425146490740E-003   5.6597915737424842E-002
   1.5064961780215873E-002  -3.9473945372433261E-003   5.5591642686721870E-002
   1.1946581785325178E-002  -3.0718974897964851E-003   5.5607272166840485E-002
   8.8282017904344756E-003  -2.3307513723088182E-003   5.6644804177780388E-002
   5.7098217955437736E-003  -1.7239561847799956E-003   5.8704238719542140E-002
   1.1755729825393232E-002  -3.3072340056833072E-003   6.1450881453902914E-002
   9.6648502980561449E-003  -2.6335613780342909E-003   6.0707589184884947E-002
   7.5739707707190608E-003  -2.0493935671340793E-003   6.0997395320152685E-002
   5.4830912433819819E-003  -1.5547305729827782E-003   6.2320299859706246E-002
   3.3922117160448892E-003  -1.1495723955802784E-003   6.4676302803545388E-002
   5.6974285939866004E-003  -1.6572254967173877E-003   6.5945248764018805E-002
   4.6452454076674286E-003  -1.3197282188252071E-003   6.5509783389896104E-002
   3.5930622213482472E-003  -1.0268896444719545E-003   6.6118612293523407E-002
   2.5408790350290741E-003  -7.7870977365687797E-004   6.7771735474900632E-002
   1.4886958487098940E-003  -5.7518860638050562E-004   7.0469152934028056E-002
   8.4380808867412505E-006  -7.2169877516348180E-006   7.0081017667772916E-002
   6.1471090497464131E-006  -5.8950596162621327E-006   6.9998225301755590E-002
   3.8561372127376981E-006  -4.3857218095383343E-006   7.0970923086952520E-002
   1.5651653757359218E-006  -2.6889743310436198E-006   7.2999111023363719E-002
  -7.2580646126585435E-007  -8.0481718084390863E-007   7.6082789110989424E-002
   8.4415260872064968E-003  -2.2983399739796573E-003   5.2552960682017424E-002
   6.9782955028193233E-003  -3.1216669833738220E-003   5.1961506840720040E-002
   5.5150649184321360E-003  -7.0293153636966366E-003   5.2276823897234009E-002
   4.0518343340449139E-003  -1.4021285114948122E-002   5.3498911851558945E-002
   2.5886037496577474E-003  -2.4097576237128271E-002   5.5627770703694956E-002
   5.7098217955437736E-003  -1.7239561847799956E-003   5.8704238719542140E-002
   5.0181201205189707E-003  -2.3410490216246582E-003   5.5692763857101452E-002
   4.3264184454942026E-003  -5.2715669772573359E-003   5.3317575915574497E-002
   3.6347167704693824E-003  -1.0515510051677834E-002   5.1578674894961242E-002
   2.9430150954446177E-003  -1.8072878244886237E-002   5.0476060795261568E-002
   3.3922117160448892E-003  -1.1495723955802784E-003   6.4676302803545388E-002
   3.2015549734849685E-003  -1.5604310598756471E-003   6.0015703172102475E-002
   3.0108982309250305E-003  -3.5138185908181047E-003   5.5720906484675786E-002
   2.8202414883650873E-003  -7.0097349884076059E-003   5.1791912741265107E-002
   2.6295847458051719E-003  -1.2048180252644203E-002   4.8228721941870445E-002
   1.4886958487098940E-003  -5.7518860638050562E-004   7.0469152934028056E-002
   1.5286000617172855E-003  -7.7981309812667071E-004   6.4930324785723484E-002
   1.5685042747246849E-003  -1.7560702043788387E-003   5.9486815604537516E-002
   1.6084084877320726E-003  -3.5039599251372924E-003   5.4138625390470145E-002
   1.6483127007394897E-003  -6.0234822604021687E-003   4.8885754143521490E-002
  -7.2580646126585435E-007  -8.0481718084390863E-007   7.6082789110989424E-002
  -7.4461478406784298E-007   8.0486362247222942E-007   7.0436628697964188E-002
  -7.6342310686636217E-007   1.6781820602468356E-006   6.4615303275160102E-002
  -7.8223142967355497E-007   1.8151381328927740E-006   5.8618812842576765E-002
  -8.0103975245993109E-007   1.2157318398653416E-006   5.2447157400214772E-002
   1.0502138027228269E-004  -3.8065732254957685E-004   6.1271202092737759E-002
   8.4277372666557993E-005  -2.4271066882598780E-004   6.2384173108163049E-002
   6.3533365060826352E-005  -1.3989447926724546E-004   6.3723726880059464E-002
   4.2789357455092977E-005  -7.2208753873198930E-005   6.5289863408426907E-002
   2.2045349849370011E-005  -3.9653492643954014E-005   6.7082582693265502E-002
  -1.0507713158652156E-002   3.6192253052895196E-003   6.1733597315518904E-002
  -1.0140928618756494E-002   3.3935702021361952E-003   6.1519430561684810E-002
  -9.7741440788608417E-003   3.1755874755671348E-003   6.1853738146382321E-002
  -9.4073595389651855E-003   2.9652771255822379E-003   6.2736520069611473E-002
  -9.0405749990695276E-003   2.7626391521815979E-003   6.4167776331372287E-002
  -2.2594802214075969E-002   7.6191079331286021E-003   6.1810989361048597E-002
  -2.1518597544618375E-002   7.0298510730983851E-003   6.0312487678704035E-002
  -2.0442392875160798E-002   6.4910694304014076E-003   5.9684351916951733E-002
  -1.9366188205703211E-002   6.0027630050376616E-003   5.9926582075791580E-002
  -1.8289983536245624E-002   5.5649317970071221E-003   6.1039178155223708E-002
  -3.6156245785999172E-002   1.1618990560967678E-002   6.1503378229326909E-002
  -3.4048729404919112E-002   1.0666131944060599E-002   5.8763344459220976E-002
  -3.1941213023839052E-002   9.8065513852357063E-003   5.7215568191767804E-002
  -2.9833696642758995E-002   9.0402488844930993E-003   5.6860049426967409E-002
  -2.7726180261678921E-002   8.3672244418326880E-003   5.7696788164819754E-002
  -5.1192043874421757E-002   1.5618873188806781E-002   6.0810763920353728E-002
  -4.7731324199658649E-002   1.4302412815022758E-002   5.6872000903235465E-002
  -4.4270604524895590E-002   1.3122033340070033E-002   5.4447386970830486E-002
  -4.0809884850132511E-002   1.2077734763948501E-002   5.3536922123138805E-002
  -3.7349165175369431E-002   1.1169517086658198E-002   5.4140606360160437E-002
   2.2045349849370011E-005  -3.9653492643954014E-005   6.7082582693265502E-002
   1.8643532608712821E-005  -2.6383689228012819E-005   6.6532857274075943E-002
   1.5241715368055631E-005  -1.6554337273974595E-005   6.6849354630097363E-002
   1.1839898127401910E-005  -1.0165436781905263E-005   6.8032074761329664E-002
   8.4380808867412505E-006  -7.2169877516348180E-006   7.0081017667772916E-002
  -9.0405749990695276E-003   2.7626391521815979E-003   6.4167776331372287E-002
  -8.2011851966308294E-003   2.5439852662267892E-003   6.3386259241816761E-002
  -7.3617953941921329E-003   2.2856271785795766E-003   6.3424102616408962E-002
  -6.5224055917534321E-003   1.9875648892397962E-003   6.4281306455148859E-002
  -5.6830157893147382E-003   1.6497983982076692E-003   6.5957870758036635E-002
  -1.8289983536245624E-002   5.5649317970071221E-003   6.1039178155223708E-002
  -1.6654664425190771E-002   5.1143542216816953E-003   5.9989605645071609E-002
  -1.5019345314135912E-002   4.5878086944331556E-003   5.9712531288004057E-002
  -1.3384026203081050E-002   3.9852952152615254E-003   6.0207955084021020E-002
  -1.1748707092026184E-002   3.3068137841669176E-003   6.1475877033122642E-002
  -2.7726180261678921E-002   8.3672244418326880E-003   5.7696788164819754E-002
  -2.5341794153071109E-002   7.6847231771365494E-003   5.6342896483840492E-002
  -2.2957408044463279E-002   6.8899902102867484E-003   5.5714640644882553E-002
  -2.0573021935855466E-002   5.9830255412832963E-003   5.5812020647945937E-002
  -1.8188635827247637E-002   4.9638291701261661E-003   5.6635036493030796E-002
  -3.7349165175369431E-002   1.1169517086658198E-002   5.4140606360160437E-002
  -3.4262574380271846E-002   1.0255092132591417E-002   5.2446131758123335E-002
  -3.1175983585174240E-002   9.1921717261403274E-003   5.1430430687044448E-002
  -2.8089392790076644E-002   7.9807558673049388E-003   5.1093503146923736E-002
  -2.5002801994979063E-002   6.6208445560854146E-003   5.1435349137761155E-002
   8.4380808867412505E-006  -7.2169877516348180E-006   7.0081017667772916E-002
   6.1471090497464131E-006  -5.8950596162621327E-006   6.9998225301755590E-002
   3.8561372127376981E-006  -4.3857218095383343E-006   7.0970923086952520E-002
   1.5651653757359218E-006  -2.6889743310436198E-006   7.2999111023363719E-002
  -7.2580646126585435E-007  -8.0481718084390863E-007   7.6082789110989424E-002
  -5.6830157893147382E-003   1.6497983982076692E-003   6.5957870758036635E-002
  -4.6348315686313146E-003   1.3144710561243944E-003   6.5518210955446438E-002
  -3.5866473479478859E-003   1.0237262136311431E-003   6.6124011386682571E-002
  -2.5384631272644606E-003   7.7756387072833860E-004   6.7775272051745244E-002
  -1.4902789065810475E-003   5.7598402741532162E-004   7.0471992950634665E-002
  -1.1748707092026184E-002   3.3068137841669176E-003   6.1475877033122642E-002
  -9.6600775962101190E-003   2.6348371718650648E-003   6.0723744883877939E-002
  -7.5714481003940487E-003   2.0518381490718177E-003   6.1007043051071817E-002
  -5.4828186045779749E-003   1.5578167157874415E-003   6.2325771534704505E-002
  -3.3941891087619133E-003   1.1527728720114594E-003   6.4679930334776051E-002
  -1.8188635827247637E-002   4.9638291701261661E-003   5.6635036493030796E-002
  -1.5069590973686695E-002   3.9552032876057838E-003   5.5614827087050088E-002
  -1.1950546120125758E-002   3.0799500845125234E-003   5.5620018080120327E-002
  -8.8315012665648191E-003   2.3380695608464621E-003   5.6650609472241556E-002
  -5.7124564130038805E-003   1.7295617166075833E-003   5.8706601263413788E-002
  -2.5002801994979063E-002   6.6208445560854146E-003   5.1435349137761155E-002
  -2.0863371701061013E-002   5.2755694033463918E-003   5.0191457564963043E-002
  -1.6723941407142992E-002   4.1080620199532292E-003   4.9962936473828046E-002
  -1.2584511113224953E-002   3.1183224059056908E-003   5.0749785864356287E-002
  -8.4450808193069285E-003   2.3063505612037072E-003   5.2552005736547724E-002
  -7.2580646126585435E-007  -8.0481718084390863E-007   7.6082789110989424E-002
  -7.4461478406784298E-007   8.0486362247222942E-007   7.0436628697964188E-002
  -7.6342310686636217E-007   1.6781820602468356E-006   6.4615303275160102E-002
  -7.8223142967355497E-007   1.8151381328927740E-006   5.8618812842576765E-002
  -8.0103975245993109E-007   1.2157318398653416E-006   5.2447157400214772E-002
  -1.4902789065810475E-003   5.7598402741532162E-004   7.0471992950634665E-002
  -1.5301303777481984E-003   7.8211100041797321E-004   6.4931855167820629E-002
  -1.5699818489153475E-003   1.7590691064615638E-003   5.9487217069096793E-002
  -1.6098333200825071E-003   3.5068583455459129E-003   5.4138078654463462E-002
  -1.6496847912496615E-003   6.0254787176712288E-003   4.8884439923919998E-002
  -3.3941891087619133E-003   1.1527728720114594E-003   6.4679930334776051E-002
  -3.2032085489042267E-003   1.5634171372135020E-003   6.0017382677579612E-002
  -3.0122279890465392E-003   3.5164600308627211E-003   5.5720999398342526E-002
  -2.8212474291888505E-003   7.0119015529590458E-003   5.1790780497064842E-002
  -2.6302668693311375E-003   1.2049741703502370E-002   4.8226725973746776E-002
  -5.7124564130038805E-003   1.7295617166075833E-003   5.8706601263413788E-002
  -5.0199791282521389E-003   2.3447232740089058E-003   5.5693211227241107E-002
  -4.3275018435003972E-003   5.2738509552638473E-003   5.3316650262896996E-002
  -3.6350245587486738E-003   1.0516944760372012E-002   5.1576918370381787E-002
  -2.9425472739969009E-003   1.8074004689333567E-002   5.0474015549694703E-002
  -8.4450808193069285E-003   2.3063505612037072E-003   5.2552005736547724E-002
  -6.9804421157919488E-003   3.1260294108045039E-003   5.1959340816805033E-002
  -5.5158034122769380E-003   7.0312418796651815E-003   5.2274169662760189E-002
  -4.0511647087619427E-003   1.4021987967785195E-002   5.3496492274413263E-002
  -2.5865260052469474E-003   2.4098267675164875E-002   5.5626308651764100E-002
  -5.1192043874421757E-002   1.5618873188806781E-002   6.0810763920353728E-002
  -4.7731324199658649E-002   1.4302412815022758E-002   5.6872000903235465E-002
  -4.4270604524895590E-002   1.3122033340070033E-002   5.4447386970830486E-002
  -4.0809884850132511E-002   1.2077734763948501E-002   5.3536922123138805E-002
  -3.7349165175369431E-002   1.1169517086658198E-002   5.4140606360160437E-002
  -6.5733934038921554E-002   1.8749481467430912E-002   4.2021522551630858E-002
  -6.1037014783754701E-002   1.7613559270949847E-002   4.0321198493005694E-002
  -5.6340095528587875E-002   1.6449992372553061E-002   3.9579124510474822E-002
  -5.1643176273421028E-002   1.5258780772240512E-002   3.9795300604038158E-002
  -4.6946257018254139E-002   1.4039924470012191E-002   4.0969726773695828E-002
  -7.7813653839076485E-002   2.1880089746055043E-002   2.3494682160584368E-002
  -7.2436434012124878E-002   2.0924705726876935E-002   2.3869071459705384E-002
  -6.7059214185173313E-002   1.9777951405036090E-002   2.4645811826301614E-002
  -6.1681994358221734E-002   1.8439826780532399E-002   2.5824903260373046E-002
  -5.6304774531270127E-002   1.6910331853366073E-002   2.7406345761919762E-002
  -8.7431203274886446E-002   2.5010698024679173E-002   5.2302427472143004E-003
  -8.1929581884769204E-002   2.4235852182803941E-002   7.5156198033345650E-003
  -7.6427960494651878E-002   2.3105910437519049E-002   9.6474489183109025E-003
  -7.0926339104534622E-002   2.1620872788824443E-002   1.1625730092143410E-002
  -6.5424717714417310E-002   1.9780739236719982E-002   1.3450463324832067E-002
  -9.4586582346351533E-002   2.8141306303303304E-002  -1.2771795688479193E-002
  -8.9516458401687538E-002   2.7546998638731057E-002  -8.7391564761069018E-003
  -8.4446334457023653E-002   2.6433869470002119E-002  -5.4159642134974234E-003
  -7.9376210512359741E-002   2.4801918797116330E-002  -2.8022189006508651E-003
  -7.4306086567695773E-002   2.2651146620074003E-002  -8.9792053756707069E-004
  -3.7349165175369431E-002   1.1169517086658198E-002   5.4140606360160437E-002
  -3.4262574380271846E-002   1.0255092132591417E-002   5.2446131758123335E-002
  -3.1175983585174240E-002   9.1921717261403274E-003   5.1430430687044448E-002
  -2.8089392790076644E-002   7.9807558673049388E-003   5.1093503146923736E-002
  -2.5002801994979063E-002   6.6208445560854146E-003   5.1435349137761155E-002
  -4.6946257018254139E-002   1.4039924470012191E-002   4.0969726773695828E-002
  -4.3158071971348112E-002   1.2791341492855546E-002   3.9446495172215171E-002
  -3.9369886924442113E-002   1.1510949867757917E-002   3.8647678543393162E-002
  -3.5581701877536127E-002   1.0198749594719267E-002   3.8573276887229863E-002
  -3.1793516830630086E-002   8.8547406737398138E-003   3.9223290203725253E-002
  -5.6304774531270127E-002   1.6910331853366073E-002   2.7406345761919762E-002
  -5.1769353790855149E-002   1.5327590853119612E-002   2.6171043965438862E-002
  -4.7233933050440241E-002   1.3829728009375396E-002   2.5705798583317126E-002
  -4.2698512310025284E-002   1.2416743322133652E-002   2.6010609615554476E-002
  -3.8163091569610376E-002   1.1088636791394241E-002   2.7085477062151142E-002
  -6.5424717714417310E-002   1.9780739236719982E-002   1.3450463324832067E-002
  -6.0096419838792957E-002   1.7863840213383709E-002   1.2619778137794298E-002
  -5.4768121963168589E-002   1.6148506150992930E-002   1.2604790806816020E-002
  -4.9439824087544229E-002   1.4634737049548038E-002   1.3405501331897589E-002
  -4.4111526211919869E-002   1.3322532909048876E-002   1.5021909713038718E-002
  -7.4306086567695773E-002   2.2651146620074003E-002  -8.9792053756707069E-004
  -6.8139270115161465E-002   2.0400089573647778E-002  -1.2073023107184444E-003
  -6.1972453662627186E-002   1.8467284292610478E-002  -6.5534478610985297E-004
  -5.5805637210092907E-002   1.6852730776962203E-002   7.5795203625920841E-004
  -4.9638820757558599E-002   1.5556429026703178E-002   3.0325881563881274E-003
  -2.5002801994979063E-002   6.6208445560854146E-003   5.1435349137761155E-002
  -2.0863371701061013E-002   5.2755694033463918E-003   5.0191457564963043E-002
  -1.6723941407142992E-002   4.1080620199532292E-003   4.9962936473828046E-002
  -1.2584511113224953E-002   3.1183224059056908E-003   5.0749785864356287E-002
  -8.4450808193069285E-003   2.3063505612037072E-003   5.2552005736547724E-002
  -3.1793516830630086E-002   8.8547406737398138E-003   3.9223290203725253E-002
  -2.6877228269023022E-002   7.5041799283990657E-003   3.8260262897905670E-002
  -2.1960939707415993E-002   6.1723241822766589E-003   3.7835581645800961E-002
  -1.7044651145808949E-002   4.8591734353724721E-003   3.7949246447411072E-002
  -1.2128362584201899E-002   3.5647276876868972E-003   3.8601257302736086E-002
  -3.8163091569610376E-002   1.1088636791394241E-002   2.7085477062151142E-002
  -3.2946969168262633E-002   9.7327904534516563E-003   2.6244251253182790E-002
  -2.7730846766914920E-002   8.2365863446001442E-003   2.5464347069981047E-002
  -2.2514724365567181E-002   6.6000244648395309E-003   2.4745764512545648E-002
  -1.7298601964219500E-002   4.8231048141700039E-003   2.4088503580876913E-002
  -4.4111526211919869E-002   1.3322532909048876E-002   1.5021909713038718E-002
  -3.9072594398779824E-002   1.1961400978504316E-002   1.4143422630794402E-002
  -3.4033662585639828E-002   1.0300848506923435E-002   1.2849232746368379E-002
  -2.8994730772499793E-002   8.3408754943063955E-003   1.1139340059760265E-002
  -2.3955798959359783E-002   6.0814819406532078E-003   9.0137445709704035E-003
  -4.9638820757558599E-002   1.5556429026703178E-002   3.0325881563881274E-003
  -4.5254103960574610E-002   1.4190011503556810E-002   1.9577770307404596E-003
  -4.0869387163590676E-002   1.2365110669246976E-002  -9.7613250373274063E-006
  -3.6484670366606686E-002   1.0081726523773628E-002  -2.8700269109454418E-003
  -3.2099953569622752E-002   7.3398590671364117E-003  -6.6230197269837587E-003
  -8.4450808193069285E-003   2.3063505612037072E-003   5.2552005736547724E-002
  -6.9804421157919488E-003   3.1260294108045039E-003   5.1959340816805033E-002
  -5.5158034122769380E-003   7.0312418796651815E-003   5.2274169662760189E-002
  -4.0511647087619427E-003   1.4021987967785195E-002   5.3496492274413263E-002
  -2.5865260052469474E-003   2.4098267675164875E-002   5.5626308651764100E-002
  -1.2128362584201899E-002   3.5647276876868972E-003   3.8601257302736086E-002
  -9.7056840468045386E-003   3.7031527736350600E-003   3.9538465979709503E-002
  -7.2830055094072754E-003   6.6886145276320724E-003   4.1484260558749722E-002
  -4.8603269720099290E-003   1.2521112949678444E-002   4.4438641039856792E-002
  -2.4376484346126520E-003   2.1200648039773951E-002   4.8401607423030679E-002
  -1.7298601964219500E-002   4.8231048141700039E-003   2.4088503580876913E-002
  -1.3816791456570976E-002   4.2802761364654635E-003   2.6317088903356045E-002
  -1.0334980948922431E-002   6.3459871755993033E-003   2.9655352264270844E-002
  -6.8531704412739033E-003   1.1020237931571695E-002   3.4103293663621276E-002
  -3.3713599336253897E-003   1.8303028404382915E-002   3.9660913101407402E-002
  -2.3955798959359783E-002   6.0814819406532078E-003   9.0137445709704035E-003
  -1.9313764345091126E-002   4.8573994992959432E-003   1.2295209587744396E-002
  -1.4671729730822499E-002   6.0033598235663642E-003   1.6787444779323299E-002
  -1.0029695116553839E-002   9.5193629134653901E-003   2.2490450145706609E-002
  -5.3876605022851812E-003   1.5405408768991879E-002   2.9404225686894506E-002
  -3.2099953569622752E-002   7.3398590671364117E-003  -6.6230197269837587E-003
  -2.6196602712365069E-002   5.4345228621264230E-003  -2.5271719671250970E-003
  -2.0293251855107358E-002   5.6607324715335638E-003   2.8805381039072459E-003
  -1.4389900997849633E-002   8.0184878953584518E-003   9.6001104861129054E-003
  -8.4865501405919641E-003   1.2507789133600955E-002   1.7631545179492170E-002
 </DataArray>
 </PointData>
 </Piece>
 </UnstructuredGrid>
 </VTKFile>
