 <VTKFile type="UnstructuredGrid"  version="0.1"   >
 <UnstructuredGrid>
 <Piece  NumberOfPoints="          1600 "  NumberOfCells="         1024 ">
 <Points>
 <DataArray  type="Float64" NumberOfComponents="3"  format="ascii" >
   0.0000000000000000        0.0000000000000000        0.0000000000000000     
   3.1250000000000000E-002   0.0000000000000000        0.0000000000000000     
   6.2500000000000000E-002   0.0000000000000000        0.0000000000000000     
   9.3750000000000000E-002   0.0000000000000000        0.0000000000000000     
  0.12500000000000000        0.0000000000000000        0.0000000000000000     
   0.0000000000000000        3.1250000000000000E-002   0.0000000000000000     
   3.1250000000000000E-002   3.1250000000000000E-002   0.0000000000000000     
   6.2500000000000000E-002   3.1250000000000000E-002   0.0000000000000000     
   9.3750000000000000E-002   3.1250000000000000E-002   0.0000000000000000     
  0.12500000000000000        3.1250000000000000E-002   0.0000000000000000     
   0.0000000000000000        6.2500000000000000E-002   0.0000000000000000     
   3.1250000000000000E-002   6.2500000000000000E-002   0.0000000000000000     
   6.2500000000000000E-002   6.2500000000000000E-002   0.0000000000000000     
   9.3750000000000000E-002   6.2500000000000000E-002   0.0000000000000000     
  0.12500000000000000        6.2500000000000000E-002   0.0000000000000000     
   0.0000000000000000        9.3750000000000000E-002   0.0000000000000000     
   3.1250000000000000E-002   9.3750000000000000E-002   0.0000000000000000     
   6.2500000000000000E-002   9.3750000000000000E-002   0.0000000000000000     
   9.3750000000000000E-002   9.3750000000000000E-002   0.0000000000000000     
  0.12500000000000000        9.3750000000000000E-002   0.0000000000000000     
   0.0000000000000000       0.12500000000000000        0.0000000000000000     
   3.1250000000000000E-002  0.12500000000000000        0.0000000000000000     
   6.2500000000000000E-002  0.12500000000000000        0.0000000000000000     
   9.3750000000000000E-002  0.12500000000000000        0.0000000000000000     
  0.12500000000000000       0.12500000000000000        0.0000000000000000     
  0.12500000000000000        0.0000000000000000        0.0000000000000000     
  0.15625000000000000        0.0000000000000000        0.0000000000000000     
  0.18750000000000000        0.0000000000000000        0.0000000000000000     
  0.21875000000000000        0.0000000000000000        0.0000000000000000     
  0.25000000000000000        0.0000000000000000        0.0000000000000000     
  0.12500000000000000        3.1250000000000000E-002   0.0000000000000000     
  0.15625000000000000        3.1250000000000000E-002   0.0000000000000000     
  0.18750000000000000        3.1250000000000000E-002   0.0000000000000000     
  0.21875000000000000        3.1250000000000000E-002   0.0000000000000000     
  0.25000000000000000        3.1250000000000000E-002   0.0000000000000000     
  0.12500000000000000        6.2500000000000000E-002   0.0000000000000000     
  0.15625000000000000        6.2500000000000000E-002   0.0000000000000000     
  0.18750000000000000        6.2500000000000000E-002   0.0000000000000000     
  0.21875000000000000        6.2500000000000000E-002   0.0000000000000000     
  0.25000000000000000        6.2500000000000000E-002   0.0000000000000000     
  0.12500000000000000        9.3750000000000000E-002   0.0000000000000000     
  0.15625000000000000        9.3750000000000000E-002   0.0000000000000000     
  0.18750000000000000        9.3750000000000000E-002   0.0000000000000000     
  0.21875000000000000        9.3750000000000000E-002   0.0000000000000000     
  0.25000000000000000        9.3750000000000000E-002   0.0000000000000000     
  0.12500000000000000       0.12500000000000000        0.0000000000000000     
  0.15625000000000000       0.12500000000000000        0.0000000000000000     
  0.18750000000000000       0.12500000000000000        0.0000000000000000     
  0.21875000000000000       0.12500000000000000        0.0000000000000000     
  0.25000000000000000       0.12500000000000000        0.0000000000000000     
  0.25000000000000000        0.0000000000000000        0.0000000000000000     
  0.28125000000000000        0.0000000000000000        0.0000000000000000     
  0.31250000000000000        0.0000000000000000        0.0000000000000000     
  0.34375000000000000        0.0000000000000000        0.0000000000000000     
  0.37500000000000000        0.0000000000000000        0.0000000000000000     
  0.25000000000000000        3.1250000000000000E-002   0.0000000000000000     
  0.28125000000000000        3.1250000000000000E-002   0.0000000000000000     
  0.31250000000000000        3.1250000000000000E-002   0.0000000000000000     
  0.34375000000000000        3.1250000000000000E-002   0.0000000000000000     
  0.37500000000000000        3.1250000000000000E-002   0.0000000000000000     
  0.25000000000000000        6.2500000000000000E-002   0.0000000000000000     
  0.28125000000000000        6.2500000000000000E-002   0.0000000000000000     
  0.31250000000000000        6.2500000000000000E-002   0.0000000000000000     
  0.34375000000000000        6.2500000000000000E-002   0.0000000000000000     
  0.37500000000000000        6.2500000000000000E-002   0.0000000000000000     
  0.25000000000000000        9.3750000000000000E-002   0.0000000000000000     
  0.28125000000000000        9.3750000000000000E-002   0.0000000000000000     
  0.31250000000000000        9.3750000000000000E-002   0.0000000000000000     
  0.34375000000000000        9.3750000000000000E-002   0.0000000000000000     
  0.37500000000000000        9.3750000000000000E-002   0.0000000000000000     
  0.25000000000000000       0.12500000000000000        0.0000000000000000     
  0.28125000000000000       0.12500000000000000        0.0000000000000000     
  0.31250000000000000       0.12500000000000000        0.0000000000000000     
  0.34375000000000000       0.12500000000000000        0.0000000000000000     
  0.37500000000000000       0.12500000000000000        0.0000000000000000     
  0.37500000000000000        0.0000000000000000        0.0000000000000000     
  0.40625000000000000        0.0000000000000000        0.0000000000000000     
  0.43750000000000000        0.0000000000000000        0.0000000000000000     
  0.46875000000000000        0.0000000000000000        0.0000000000000000     
  0.50000000000000000        0.0000000000000000        0.0000000000000000     
  0.37500000000000000        3.1250000000000000E-002   0.0000000000000000     
  0.40625000000000000        3.1250000000000000E-002   0.0000000000000000     
  0.43750000000000000        3.1250000000000000E-002   0.0000000000000000     
  0.46875000000000000        3.1250000000000000E-002   0.0000000000000000     
  0.50000000000000000        3.1250000000000000E-002   0.0000000000000000     
  0.37500000000000000        6.2500000000000000E-002   0.0000000000000000     
  0.40625000000000000        6.2500000000000000E-002   0.0000000000000000     
  0.43750000000000000        6.2500000000000000E-002   0.0000000000000000     
  0.46875000000000000        6.2500000000000000E-002   0.0000000000000000     
  0.50000000000000000        6.2500000000000000E-002   0.0000000000000000     
  0.37500000000000000        9.3750000000000000E-002   0.0000000000000000     
  0.40625000000000000        9.3750000000000000E-002   0.0000000000000000     
  0.43750000000000000        9.3750000000000000E-002   0.0000000000000000     
  0.46875000000000000        9.3750000000000000E-002   0.0000000000000000     
  0.50000000000000000        9.3750000000000000E-002   0.0000000000000000     
  0.37500000000000000       0.12500000000000000        0.0000000000000000     
  0.40625000000000000       0.12500000000000000        0.0000000000000000     
  0.43750000000000000       0.12500000000000000        0.0000000000000000     
  0.46875000000000000       0.12500000000000000        0.0000000000000000     
  0.50000000000000000       0.12500000000000000        0.0000000000000000     
  0.50000000000000000        0.0000000000000000        0.0000000000000000     
  0.53125000000000000        0.0000000000000000        0.0000000000000000     
  0.56250000000000000        0.0000000000000000        0.0000000000000000     
  0.59375000000000000        0.0000000000000000        0.0000000000000000     
  0.62500000000000000        0.0000000000000000        0.0000000000000000     
  0.50000000000000000        3.1250000000000000E-002   0.0000000000000000     
  0.53125000000000000        3.1250000000000000E-002   0.0000000000000000     
  0.56250000000000000        3.1250000000000000E-002   0.0000000000000000     
  0.59375000000000000        3.1250000000000000E-002   0.0000000000000000     
  0.62500000000000000        3.1250000000000000E-002   0.0000000000000000     
  0.50000000000000000        6.2500000000000000E-002   0.0000000000000000     
  0.53125000000000000        6.2500000000000000E-002   0.0000000000000000     
  0.56250000000000000        6.2500000000000000E-002   0.0000000000000000     
  0.59375000000000000        6.2500000000000000E-002   0.0000000000000000     
  0.62500000000000000        6.2500000000000000E-002   0.0000000000000000     
  0.50000000000000000        9.3750000000000000E-002   0.0000000000000000     
  0.53125000000000000        9.3750000000000000E-002   0.0000000000000000     
  0.56250000000000000        9.3750000000000000E-002   0.0000000000000000     
  0.59375000000000000        9.3750000000000000E-002   0.0000000000000000     
  0.62500000000000000        9.3750000000000000E-002   0.0000000000000000     
  0.50000000000000000       0.12500000000000000        0.0000000000000000     
  0.53125000000000000       0.12500000000000000        0.0000000000000000     
  0.56250000000000000       0.12500000000000000        0.0000000000000000     
  0.59375000000000000       0.12500000000000000        0.0000000000000000     
  0.62500000000000000       0.12500000000000000        0.0000000000000000     
  0.62500000000000000        0.0000000000000000        0.0000000000000000     
  0.65625000000000000        0.0000000000000000        0.0000000000000000     
  0.68750000000000000        0.0000000000000000        0.0000000000000000     
  0.71875000000000000        0.0000000000000000        0.0000000000000000     
  0.75000000000000000        0.0000000000000000        0.0000000000000000     
  0.62500000000000000        3.1250000000000000E-002   0.0000000000000000     
  0.65625000000000000        3.1250000000000000E-002   0.0000000000000000     
  0.68750000000000000        3.1250000000000000E-002   0.0000000000000000     
  0.71875000000000000        3.1250000000000000E-002   0.0000000000000000     
  0.75000000000000000        3.1250000000000000E-002   0.0000000000000000     
  0.62500000000000000        6.2500000000000000E-002   0.0000000000000000     
  0.65625000000000000        6.2500000000000000E-002   0.0000000000000000     
  0.68750000000000000        6.2500000000000000E-002   0.0000000000000000     
  0.71875000000000000        6.2500000000000000E-002   0.0000000000000000     
  0.75000000000000000        6.2500000000000000E-002   0.0000000000000000     
  0.62500000000000000        9.3750000000000000E-002   0.0000000000000000     
  0.65625000000000000        9.3750000000000000E-002   0.0000000000000000     
  0.68750000000000000        9.3750000000000000E-002   0.0000000000000000     
  0.71875000000000000        9.3750000000000000E-002   0.0000000000000000     
  0.75000000000000000        9.3750000000000000E-002   0.0000000000000000     
  0.62500000000000000       0.12500000000000000        0.0000000000000000     
  0.65625000000000000       0.12500000000000000        0.0000000000000000     
  0.68750000000000000       0.12500000000000000        0.0000000000000000     
  0.71875000000000000       0.12500000000000000        0.0000000000000000     
  0.75000000000000000       0.12500000000000000        0.0000000000000000     
  0.75000000000000000        0.0000000000000000        0.0000000000000000     
  0.78125000000000000        0.0000000000000000        0.0000000000000000     
  0.81250000000000000        0.0000000000000000        0.0000000000000000     
  0.84375000000000000        0.0000000000000000        0.0000000000000000     
  0.87500000000000000        0.0000000000000000        0.0000000000000000     
  0.75000000000000000        3.1250000000000000E-002   0.0000000000000000     
  0.78125000000000000        3.1250000000000000E-002   0.0000000000000000     
  0.81250000000000000        3.1250000000000000E-002   0.0000000000000000     
  0.84375000000000000        3.1250000000000000E-002   0.0000000000000000     
  0.87500000000000000        3.1250000000000000E-002   0.0000000000000000     
  0.75000000000000000        6.2500000000000000E-002   0.0000000000000000     
  0.78125000000000000        6.2500000000000000E-002   0.0000000000000000     
  0.81250000000000000        6.2500000000000000E-002   0.0000000000000000     
  0.84375000000000000        6.2500000000000000E-002   0.0000000000000000     
  0.87500000000000000        6.2500000000000000E-002   0.0000000000000000     
  0.75000000000000000        9.3750000000000000E-002   0.0000000000000000     
  0.78125000000000000        9.3750000000000000E-002   0.0000000000000000     
  0.81250000000000000        9.3750000000000000E-002   0.0000000000000000     
  0.84375000000000000        9.3750000000000000E-002   0.0000000000000000     
  0.87500000000000000        9.3750000000000000E-002   0.0000000000000000     
  0.75000000000000000       0.12500000000000000        0.0000000000000000     
  0.78125000000000000       0.12500000000000000        0.0000000000000000     
  0.81250000000000000       0.12500000000000000        0.0000000000000000     
  0.84375000000000000       0.12500000000000000        0.0000000000000000     
  0.87500000000000000       0.12500000000000000        0.0000000000000000     
  0.87500000000000000        0.0000000000000000        0.0000000000000000     
  0.90625000000000000        0.0000000000000000        0.0000000000000000     
  0.93750000000000000        0.0000000000000000        0.0000000000000000     
  0.96875000000000000        0.0000000000000000        0.0000000000000000     
   1.0000000000000000        0.0000000000000000        0.0000000000000000     
  0.87500000000000000        3.1250000000000000E-002   0.0000000000000000     
  0.90625000000000000        3.1250000000000000E-002   0.0000000000000000     
  0.93750000000000000        3.1250000000000000E-002   0.0000000000000000     
  0.96875000000000000        3.1250000000000000E-002   0.0000000000000000     
   1.0000000000000000        3.1250000000000000E-002   0.0000000000000000     
  0.87500000000000000        6.2500000000000000E-002   0.0000000000000000     
  0.90625000000000000        6.2500000000000000E-002   0.0000000000000000     
  0.93750000000000000        6.2500000000000000E-002   0.0000000000000000     
  0.96875000000000000        6.2500000000000000E-002   0.0000000000000000     
   1.0000000000000000        6.2500000000000000E-002   0.0000000000000000     
  0.87500000000000000        9.3750000000000000E-002   0.0000000000000000     
  0.90625000000000000        9.3750000000000000E-002   0.0000000000000000     
  0.93750000000000000        9.3750000000000000E-002   0.0000000000000000     
  0.96875000000000000        9.3750000000000000E-002   0.0000000000000000     
   1.0000000000000000        9.3750000000000000E-002   0.0000000000000000     
  0.87500000000000000       0.12500000000000000        0.0000000000000000     
  0.90625000000000000       0.12500000000000000        0.0000000000000000     
  0.93750000000000000       0.12500000000000000        0.0000000000000000     
  0.96875000000000000       0.12500000000000000        0.0000000000000000     
   1.0000000000000000       0.12500000000000000        0.0000000000000000     
   0.0000000000000000       0.12500000000000000        0.0000000000000000     
   3.1250000000000000E-002  0.12500000000000000        0.0000000000000000     
   6.2500000000000000E-002  0.12500000000000000        0.0000000000000000     
   9.3750000000000000E-002  0.12500000000000000        0.0000000000000000     
  0.12500000000000000       0.12500000000000000        0.0000000000000000     
   0.0000000000000000       0.15625000000000000        0.0000000000000000     
   3.1250000000000000E-002  0.15625000000000000        0.0000000000000000     
   6.2500000000000000E-002  0.15625000000000000        0.0000000000000000     
   9.3750000000000000E-002  0.15625000000000000        0.0000000000000000     
  0.12500000000000000       0.15625000000000000        0.0000000000000000     
   0.0000000000000000       0.18750000000000000        0.0000000000000000     
   3.1250000000000000E-002  0.18750000000000000        0.0000000000000000     
   6.2500000000000000E-002  0.18750000000000000        0.0000000000000000     
   9.3750000000000000E-002  0.18750000000000000        0.0000000000000000     
  0.12500000000000000       0.18750000000000000        0.0000000000000000     
   0.0000000000000000       0.21875000000000000        0.0000000000000000     
   3.1250000000000000E-002  0.21875000000000000        0.0000000000000000     
   6.2500000000000000E-002  0.21875000000000000        0.0000000000000000     
   9.3750000000000000E-002  0.21875000000000000        0.0000000000000000     
  0.12500000000000000       0.21875000000000000        0.0000000000000000     
   0.0000000000000000       0.25000000000000000        0.0000000000000000     
   3.1250000000000000E-002  0.25000000000000000        0.0000000000000000     
   6.2500000000000000E-002  0.25000000000000000        0.0000000000000000     
   9.3750000000000000E-002  0.25000000000000000        0.0000000000000000     
  0.12500000000000000       0.25000000000000000        0.0000000000000000     
  0.12500000000000000       0.12500000000000000        0.0000000000000000     
  0.15625000000000000       0.12500000000000000        0.0000000000000000     
  0.18750000000000000       0.12500000000000000        0.0000000000000000     
  0.21875000000000000       0.12500000000000000        0.0000000000000000     
  0.25000000000000000       0.12500000000000000        0.0000000000000000     
  0.12500000000000000       0.15625000000000000        0.0000000000000000     
  0.15625000000000000       0.15625000000000000        0.0000000000000000     
  0.18750000000000000       0.15625000000000000        0.0000000000000000     
  0.21875000000000000       0.15625000000000000        0.0000000000000000     
  0.25000000000000000       0.15625000000000000        0.0000000000000000     
  0.12500000000000000       0.18750000000000000        0.0000000000000000     
  0.15625000000000000       0.18750000000000000        0.0000000000000000     
  0.18750000000000000       0.18750000000000000        0.0000000000000000     
  0.21875000000000000       0.18750000000000000        0.0000000000000000     
  0.25000000000000000       0.18750000000000000        0.0000000000000000     
  0.12500000000000000       0.21875000000000000        0.0000000000000000     
  0.15625000000000000       0.21875000000000000        0.0000000000000000     
  0.18750000000000000       0.21875000000000000        0.0000000000000000     
  0.21875000000000000       0.21875000000000000        0.0000000000000000     
  0.25000000000000000       0.21875000000000000        0.0000000000000000     
  0.12500000000000000       0.25000000000000000        0.0000000000000000     
  0.15625000000000000       0.25000000000000000        0.0000000000000000     
  0.18750000000000000       0.25000000000000000        0.0000000000000000     
  0.21875000000000000       0.25000000000000000        0.0000000000000000     
  0.25000000000000000       0.25000000000000000        0.0000000000000000     
  0.25000000000000000       0.12500000000000000        0.0000000000000000     
  0.28125000000000000       0.12500000000000000        0.0000000000000000     
  0.31250000000000000       0.12500000000000000        0.0000000000000000     
  0.34375000000000000       0.12500000000000000        0.0000000000000000     
  0.37500000000000000       0.12500000000000000        0.0000000000000000     
  0.25000000000000000       0.15625000000000000        0.0000000000000000     
  0.28125000000000000       0.15625000000000000        0.0000000000000000     
  0.31250000000000000       0.15625000000000000        0.0000000000000000     
  0.34375000000000000       0.15625000000000000        0.0000000000000000     
  0.37500000000000000       0.15625000000000000        0.0000000000000000     
  0.25000000000000000       0.18750000000000000        0.0000000000000000     
  0.28125000000000000       0.18750000000000000        0.0000000000000000     
  0.31250000000000000       0.18750000000000000        0.0000000000000000     
  0.34375000000000000       0.18750000000000000        0.0000000000000000     
  0.37500000000000000       0.18750000000000000        0.0000000000000000     
  0.25000000000000000       0.21875000000000000        0.0000000000000000     
  0.28125000000000000       0.21875000000000000        0.0000000000000000     
  0.31250000000000000       0.21875000000000000        0.0000000000000000     
  0.34375000000000000       0.21875000000000000        0.0000000000000000     
  0.37500000000000000       0.21875000000000000        0.0000000000000000     
  0.25000000000000000       0.25000000000000000        0.0000000000000000     
  0.28125000000000000       0.25000000000000000        0.0000000000000000     
  0.31250000000000000       0.25000000000000000        0.0000000000000000     
  0.34375000000000000       0.25000000000000000        0.0000000000000000     
  0.37500000000000000       0.25000000000000000        0.0000000000000000     
  0.37500000000000000       0.12500000000000000        0.0000000000000000     
  0.40625000000000000       0.12500000000000000        0.0000000000000000     
  0.43750000000000000       0.12500000000000000        0.0000000000000000     
  0.46875000000000000       0.12500000000000000        0.0000000000000000     
  0.50000000000000000       0.12500000000000000        0.0000000000000000     
  0.37500000000000000       0.15625000000000000        0.0000000000000000     
  0.40625000000000000       0.15625000000000000        0.0000000000000000     
  0.43750000000000000       0.15625000000000000        0.0000000000000000     
  0.46875000000000000       0.15625000000000000        0.0000000000000000     
  0.50000000000000000       0.15625000000000000        0.0000000000000000     
  0.37500000000000000       0.18750000000000000        0.0000000000000000     
  0.40625000000000000       0.18750000000000000        0.0000000000000000     
  0.43750000000000000       0.18750000000000000        0.0000000000000000     
  0.46875000000000000       0.18750000000000000        0.0000000000000000     
  0.50000000000000000       0.18750000000000000        0.0000000000000000     
  0.37500000000000000       0.21875000000000000        0.0000000000000000     
  0.40625000000000000       0.21875000000000000        0.0000000000000000     
  0.43750000000000000       0.21875000000000000        0.0000000000000000     
  0.46875000000000000       0.21875000000000000        0.0000000000000000     
  0.50000000000000000       0.21875000000000000        0.0000000000000000     
  0.37500000000000000       0.25000000000000000        0.0000000000000000     
  0.40625000000000000       0.25000000000000000        0.0000000000000000     
  0.43750000000000000       0.25000000000000000        0.0000000000000000     
  0.46875000000000000       0.25000000000000000        0.0000000000000000     
  0.50000000000000000       0.25000000000000000        0.0000000000000000     
  0.50000000000000000       0.12500000000000000        0.0000000000000000     
  0.53125000000000000       0.12500000000000000        0.0000000000000000     
  0.56250000000000000       0.12500000000000000        0.0000000000000000     
  0.59375000000000000       0.12500000000000000        0.0000000000000000     
  0.62500000000000000       0.12500000000000000        0.0000000000000000     
  0.50000000000000000       0.15625000000000000        0.0000000000000000     
  0.53125000000000000       0.15625000000000000        0.0000000000000000     
  0.56250000000000000       0.15625000000000000        0.0000000000000000     
  0.59375000000000000       0.15625000000000000        0.0000000000000000     
  0.62500000000000000       0.15625000000000000        0.0000000000000000     
  0.50000000000000000       0.18750000000000000        0.0000000000000000     
  0.53125000000000000       0.18750000000000000        0.0000000000000000     
  0.56250000000000000       0.18750000000000000        0.0000000000000000     
  0.59375000000000000       0.18750000000000000        0.0000000000000000     
  0.62500000000000000       0.18750000000000000        0.0000000000000000     
  0.50000000000000000       0.21875000000000000        0.0000000000000000     
  0.53125000000000000       0.21875000000000000        0.0000000000000000     
  0.56250000000000000       0.21875000000000000        0.0000000000000000     
  0.59375000000000000       0.21875000000000000        0.0000000000000000     
  0.62500000000000000       0.21875000000000000        0.0000000000000000     
  0.50000000000000000       0.25000000000000000        0.0000000000000000     
  0.53125000000000000       0.25000000000000000        0.0000000000000000     
  0.56250000000000000       0.25000000000000000        0.0000000000000000     
  0.59375000000000000       0.25000000000000000        0.0000000000000000     
  0.62500000000000000       0.25000000000000000        0.0000000000000000     
  0.62500000000000000       0.12500000000000000        0.0000000000000000     
  0.65625000000000000       0.12500000000000000        0.0000000000000000     
  0.68750000000000000       0.12500000000000000        0.0000000000000000     
  0.71875000000000000       0.12500000000000000        0.0000000000000000     
  0.75000000000000000       0.12500000000000000        0.0000000000000000     
  0.62500000000000000       0.15625000000000000        0.0000000000000000     
  0.65625000000000000       0.15625000000000000        0.0000000000000000     
  0.68750000000000000       0.15625000000000000        0.0000000000000000     
  0.71875000000000000       0.15625000000000000        0.0000000000000000     
  0.75000000000000000       0.15625000000000000        0.0000000000000000     
  0.62500000000000000       0.18750000000000000        0.0000000000000000     
  0.65625000000000000       0.18750000000000000        0.0000000000000000     
  0.68750000000000000       0.18750000000000000        0.0000000000000000     
  0.71875000000000000       0.18750000000000000        0.0000000000000000     
  0.75000000000000000       0.18750000000000000        0.0000000000000000     
  0.62500000000000000       0.21875000000000000        0.0000000000000000     
  0.65625000000000000       0.21875000000000000        0.0000000000000000     
  0.68750000000000000       0.21875000000000000        0.0000000000000000     
  0.71875000000000000       0.21875000000000000        0.0000000000000000     
  0.75000000000000000       0.21875000000000000        0.0000000000000000     
  0.62500000000000000       0.25000000000000000        0.0000000000000000     
  0.65625000000000000       0.25000000000000000        0.0000000000000000     
  0.68750000000000000       0.25000000000000000        0.0000000000000000     
  0.71875000000000000       0.25000000000000000        0.0000000000000000     
  0.75000000000000000       0.25000000000000000        0.0000000000000000     
  0.75000000000000000       0.12500000000000000        0.0000000000000000     
  0.78125000000000000       0.12500000000000000        0.0000000000000000     
  0.81250000000000000       0.12500000000000000        0.0000000000000000     
  0.84375000000000000       0.12500000000000000        0.0000000000000000     
  0.87500000000000000       0.12500000000000000        0.0000000000000000     
  0.75000000000000000       0.15625000000000000        0.0000000000000000     
  0.78125000000000000       0.15625000000000000        0.0000000000000000     
  0.81250000000000000       0.15625000000000000        0.0000000000000000     
  0.84375000000000000       0.15625000000000000        0.0000000000000000     
  0.87500000000000000       0.15625000000000000        0.0000000000000000     
  0.75000000000000000       0.18750000000000000        0.0000000000000000     
  0.78125000000000000       0.18750000000000000        0.0000000000000000     
  0.81250000000000000       0.18750000000000000        0.0000000000000000     
  0.84375000000000000       0.18750000000000000        0.0000000000000000     
  0.87500000000000000       0.18750000000000000        0.0000000000000000     
  0.75000000000000000       0.21875000000000000        0.0000000000000000     
  0.78125000000000000       0.21875000000000000        0.0000000000000000     
  0.81250000000000000       0.21875000000000000        0.0000000000000000     
  0.84375000000000000       0.21875000000000000        0.0000000000000000     
  0.87500000000000000       0.21875000000000000        0.0000000000000000     
  0.75000000000000000       0.25000000000000000        0.0000000000000000     
  0.78125000000000000       0.25000000000000000        0.0000000000000000     
  0.81250000000000000       0.25000000000000000        0.0000000000000000     
  0.84375000000000000       0.25000000000000000        0.0000000000000000     
  0.87500000000000000       0.25000000000000000        0.0000000000000000     
  0.87500000000000000       0.12500000000000000        0.0000000000000000     
  0.90625000000000000       0.12500000000000000        0.0000000000000000     
  0.93750000000000000       0.12500000000000000        0.0000000000000000     
  0.96875000000000000       0.12500000000000000        0.0000000000000000     
   1.0000000000000000       0.12500000000000000        0.0000000000000000     
  0.87500000000000000       0.15625000000000000        0.0000000000000000     
  0.90625000000000000       0.15625000000000000        0.0000000000000000     
  0.93750000000000000       0.15625000000000000        0.0000000000000000     
  0.96875000000000000       0.15625000000000000        0.0000000000000000     
   1.0000000000000000       0.15625000000000000        0.0000000000000000     
  0.87500000000000000       0.18750000000000000        0.0000000000000000     
  0.90625000000000000       0.18750000000000000        0.0000000000000000     
  0.93750000000000000       0.18750000000000000        0.0000000000000000     
  0.96875000000000000       0.18750000000000000        0.0000000000000000     
   1.0000000000000000       0.18750000000000000        0.0000000000000000     
  0.87500000000000000       0.21875000000000000        0.0000000000000000     
  0.90625000000000000       0.21875000000000000        0.0000000000000000     
  0.93750000000000000       0.21875000000000000        0.0000000000000000     
  0.96875000000000000       0.21875000000000000        0.0000000000000000     
   1.0000000000000000       0.21875000000000000        0.0000000000000000     
  0.87500000000000000       0.25000000000000000        0.0000000000000000     
  0.90625000000000000       0.25000000000000000        0.0000000000000000     
  0.93750000000000000       0.25000000000000000        0.0000000000000000     
  0.96875000000000000       0.25000000000000000        0.0000000000000000     
   1.0000000000000000       0.25000000000000000        0.0000000000000000     
   0.0000000000000000       0.25000000000000000        0.0000000000000000     
   3.1250000000000000E-002  0.25000000000000000        0.0000000000000000     
   6.2500000000000000E-002  0.25000000000000000        0.0000000000000000     
   9.3750000000000000E-002  0.25000000000000000        0.0000000000000000     
  0.12500000000000000       0.25000000000000000        0.0000000000000000     
   0.0000000000000000       0.28125000000000000        0.0000000000000000     
   3.1250000000000000E-002  0.28125000000000000        0.0000000000000000     
   6.2500000000000000E-002  0.28125000000000000        0.0000000000000000     
   9.3750000000000000E-002  0.28125000000000000        0.0000000000000000     
  0.12500000000000000       0.28125000000000000        0.0000000000000000     
   0.0000000000000000       0.31250000000000000        0.0000000000000000     
   3.1250000000000000E-002  0.31250000000000000        0.0000000000000000     
   6.2500000000000000E-002  0.31250000000000000        0.0000000000000000     
   9.3750000000000000E-002  0.31250000000000000        0.0000000000000000     
  0.12500000000000000       0.31250000000000000        0.0000000000000000     
   0.0000000000000000       0.34375000000000000        0.0000000000000000     
   3.1250000000000000E-002  0.34375000000000000        0.0000000000000000     
   6.2500000000000000E-002  0.34375000000000000        0.0000000000000000     
   9.3750000000000000E-002  0.34375000000000000        0.0000000000000000     
  0.12500000000000000       0.34375000000000000        0.0000000000000000     
   0.0000000000000000       0.37500000000000000        0.0000000000000000     
   3.1250000000000000E-002  0.37500000000000000        0.0000000000000000     
   6.2500000000000000E-002  0.37500000000000000        0.0000000000000000     
   9.3750000000000000E-002  0.37500000000000000        0.0000000000000000     
  0.12500000000000000       0.37500000000000000        0.0000000000000000     
  0.12500000000000000       0.25000000000000000        0.0000000000000000     
  0.15625000000000000       0.25000000000000000        0.0000000000000000     
  0.18750000000000000       0.25000000000000000        0.0000000000000000     
  0.21875000000000000       0.25000000000000000        0.0000000000000000     
  0.25000000000000000       0.25000000000000000        0.0000000000000000     
  0.12500000000000000       0.28125000000000000        0.0000000000000000     
  0.15625000000000000       0.28125000000000000        0.0000000000000000     
  0.18750000000000000       0.28125000000000000        0.0000000000000000     
  0.21875000000000000       0.28125000000000000        0.0000000000000000     
  0.25000000000000000       0.28125000000000000        0.0000000000000000     
  0.12500000000000000       0.31250000000000000        0.0000000000000000     
  0.15625000000000000       0.31250000000000000        0.0000000000000000     
  0.18750000000000000       0.31250000000000000        0.0000000000000000     
  0.21875000000000000       0.31250000000000000        0.0000000000000000     
  0.25000000000000000       0.31250000000000000        0.0000000000000000     
  0.12500000000000000       0.34375000000000000        0.0000000000000000     
  0.15625000000000000       0.34375000000000000        0.0000000000000000     
  0.18750000000000000       0.34375000000000000        0.0000000000000000     
  0.21875000000000000       0.34375000000000000        0.0000000000000000     
  0.25000000000000000       0.34375000000000000        0.0000000000000000     
  0.12500000000000000       0.37500000000000000        0.0000000000000000     
  0.15625000000000000       0.37500000000000000        0.0000000000000000     
  0.18750000000000000       0.37500000000000000        0.0000000000000000     
  0.21875000000000000       0.37500000000000000        0.0000000000000000     
  0.25000000000000000       0.37500000000000000        0.0000000000000000     
  0.25000000000000000       0.25000000000000000        0.0000000000000000     
  0.28125000000000000       0.25000000000000000        0.0000000000000000     
  0.31250000000000000       0.25000000000000000        0.0000000000000000     
  0.34375000000000000       0.25000000000000000        0.0000000000000000     
  0.37500000000000000       0.25000000000000000        0.0000000000000000     
  0.25000000000000000       0.28125000000000000        0.0000000000000000     
  0.28125000000000000       0.28125000000000000        0.0000000000000000     
  0.31250000000000000       0.28125000000000000        0.0000000000000000     
  0.34375000000000000       0.28125000000000000        0.0000000000000000     
  0.37500000000000000       0.28125000000000000        0.0000000000000000     
  0.25000000000000000       0.31250000000000000        0.0000000000000000     
  0.28125000000000000       0.31250000000000000        0.0000000000000000     
  0.31250000000000000       0.31250000000000000        0.0000000000000000     
  0.34375000000000000       0.31250000000000000        0.0000000000000000     
  0.37500000000000000       0.31250000000000000        0.0000000000000000     
  0.25000000000000000       0.34375000000000000        0.0000000000000000     
  0.28125000000000000       0.34375000000000000        0.0000000000000000     
  0.31250000000000000       0.34375000000000000        0.0000000000000000     
  0.34375000000000000       0.34375000000000000        0.0000000000000000     
  0.37500000000000000       0.34375000000000000        0.0000000000000000     
  0.25000000000000000       0.37500000000000000        0.0000000000000000     
  0.28125000000000000       0.37500000000000000        0.0000000000000000     
  0.31250000000000000       0.37500000000000000        0.0000000000000000     
  0.34375000000000000       0.37500000000000000        0.0000000000000000     
  0.37500000000000000       0.37500000000000000        0.0000000000000000     
  0.37500000000000000       0.25000000000000000        0.0000000000000000     
  0.40625000000000000       0.25000000000000000        0.0000000000000000     
  0.43750000000000000       0.25000000000000000        0.0000000000000000     
  0.46875000000000000       0.25000000000000000        0.0000000000000000     
  0.50000000000000000       0.25000000000000000        0.0000000000000000     
  0.37500000000000000       0.28125000000000000        0.0000000000000000     
  0.40625000000000000       0.28125000000000000        0.0000000000000000     
  0.43750000000000000       0.28125000000000000        0.0000000000000000     
  0.46875000000000000       0.28125000000000000        0.0000000000000000     
  0.50000000000000000       0.28125000000000000        0.0000000000000000     
  0.37500000000000000       0.31250000000000000        0.0000000000000000     
  0.40625000000000000       0.31250000000000000        0.0000000000000000     
  0.43750000000000000       0.31250000000000000        0.0000000000000000     
  0.46875000000000000       0.31250000000000000        0.0000000000000000     
  0.50000000000000000       0.31250000000000000        0.0000000000000000     
  0.37500000000000000       0.34375000000000000        0.0000000000000000     
  0.40625000000000000       0.34375000000000000        0.0000000000000000     
  0.43750000000000000       0.34375000000000000        0.0000000000000000     
  0.46875000000000000       0.34375000000000000        0.0000000000000000     
  0.50000000000000000       0.34375000000000000        0.0000000000000000     
  0.37500000000000000       0.37500000000000000        0.0000000000000000     
  0.40625000000000000       0.37500000000000000        0.0000000000000000     
  0.43750000000000000       0.37500000000000000        0.0000000000000000     
  0.46875000000000000       0.37500000000000000        0.0000000000000000     
  0.50000000000000000       0.37500000000000000        0.0000000000000000     
  0.50000000000000000       0.25000000000000000        0.0000000000000000     
  0.53125000000000000       0.25000000000000000        0.0000000000000000     
  0.56250000000000000       0.25000000000000000        0.0000000000000000     
  0.59375000000000000       0.25000000000000000        0.0000000000000000     
  0.62500000000000000       0.25000000000000000        0.0000000000000000     
  0.50000000000000000       0.28125000000000000        0.0000000000000000     
  0.53125000000000000       0.28125000000000000        0.0000000000000000     
  0.56250000000000000       0.28125000000000000        0.0000000000000000     
  0.59375000000000000       0.28125000000000000        0.0000000000000000     
  0.62500000000000000       0.28125000000000000        0.0000000000000000     
  0.50000000000000000       0.31250000000000000        0.0000000000000000     
  0.53125000000000000       0.31250000000000000        0.0000000000000000     
  0.56250000000000000       0.31250000000000000        0.0000000000000000     
  0.59375000000000000       0.31250000000000000        0.0000000000000000     
  0.62500000000000000       0.31250000000000000        0.0000000000000000     
  0.50000000000000000       0.34375000000000000        0.0000000000000000     
  0.53125000000000000       0.34375000000000000        0.0000000000000000     
  0.56250000000000000       0.34375000000000000        0.0000000000000000     
  0.59375000000000000       0.34375000000000000        0.0000000000000000     
  0.62500000000000000       0.34375000000000000        0.0000000000000000     
  0.50000000000000000       0.37500000000000000        0.0000000000000000     
  0.53125000000000000       0.37500000000000000        0.0000000000000000     
  0.56250000000000000       0.37500000000000000        0.0000000000000000     
  0.59375000000000000       0.37500000000000000        0.0000000000000000     
  0.62500000000000000       0.37500000000000000        0.0000000000000000     
  0.62500000000000000       0.25000000000000000        0.0000000000000000     
  0.65625000000000000       0.25000000000000000        0.0000000000000000     
  0.68750000000000000       0.25000000000000000        0.0000000000000000     
  0.71875000000000000       0.25000000000000000        0.0000000000000000     
  0.75000000000000000       0.25000000000000000        0.0000000000000000     
  0.62500000000000000       0.28125000000000000        0.0000000000000000     
  0.65625000000000000       0.28125000000000000        0.0000000000000000     
  0.68750000000000000       0.28125000000000000        0.0000000000000000     
  0.71875000000000000       0.28125000000000000        0.0000000000000000     
  0.75000000000000000       0.28125000000000000        0.0000000000000000     
  0.62500000000000000       0.31250000000000000        0.0000000000000000     
  0.65625000000000000       0.31250000000000000        0.0000000000000000     
  0.68750000000000000       0.31250000000000000        0.0000000000000000     
  0.71875000000000000       0.31250000000000000        0.0000000000000000     
  0.75000000000000000       0.31250000000000000        0.0000000000000000     
  0.62500000000000000       0.34375000000000000        0.0000000000000000     
  0.65625000000000000       0.34375000000000000        0.0000000000000000     
  0.68750000000000000       0.34375000000000000        0.0000000000000000     
  0.71875000000000000       0.34375000000000000        0.0000000000000000     
  0.75000000000000000       0.34375000000000000        0.0000000000000000     
  0.62500000000000000       0.37500000000000000        0.0000000000000000     
  0.65625000000000000       0.37500000000000000        0.0000000000000000     
  0.68750000000000000       0.37500000000000000        0.0000000000000000     
  0.71875000000000000       0.37500000000000000        0.0000000000000000     
  0.75000000000000000       0.37500000000000000        0.0000000000000000     
  0.75000000000000000       0.25000000000000000        0.0000000000000000     
  0.78125000000000000       0.25000000000000000        0.0000000000000000     
  0.81250000000000000       0.25000000000000000        0.0000000000000000     
  0.84375000000000000       0.25000000000000000        0.0000000000000000     
  0.87500000000000000       0.25000000000000000        0.0000000000000000     
  0.75000000000000000       0.28125000000000000        0.0000000000000000     
  0.78125000000000000       0.28125000000000000        0.0000000000000000     
  0.81250000000000000       0.28125000000000000        0.0000000000000000     
  0.84375000000000000       0.28125000000000000        0.0000000000000000     
  0.87500000000000000       0.28125000000000000        0.0000000000000000     
  0.75000000000000000       0.31250000000000000        0.0000000000000000     
  0.78125000000000000       0.31250000000000000        0.0000000000000000     
  0.81250000000000000       0.31250000000000000        0.0000000000000000     
  0.84375000000000000       0.31250000000000000        0.0000000000000000     
  0.87500000000000000       0.31250000000000000        0.0000000000000000     
  0.75000000000000000       0.34375000000000000        0.0000000000000000     
  0.78125000000000000       0.34375000000000000        0.0000000000000000     
  0.81250000000000000       0.34375000000000000        0.0000000000000000     
  0.84375000000000000       0.34375000000000000        0.0000000000000000     
  0.87500000000000000       0.34375000000000000        0.0000000000000000     
  0.75000000000000000       0.37500000000000000        0.0000000000000000     
  0.78125000000000000       0.37500000000000000        0.0000000000000000     
  0.81250000000000000       0.37500000000000000        0.0000000000000000     
  0.84375000000000000       0.37500000000000000        0.0000000000000000     
  0.87500000000000000       0.37500000000000000        0.0000000000000000     
  0.87500000000000000       0.25000000000000000        0.0000000000000000     
  0.90625000000000000       0.25000000000000000        0.0000000000000000     
  0.93750000000000000       0.25000000000000000        0.0000000000000000     
  0.96875000000000000       0.25000000000000000        0.0000000000000000     
   1.0000000000000000       0.25000000000000000        0.0000000000000000     
  0.87500000000000000       0.28125000000000000        0.0000000000000000     
  0.90625000000000000       0.28125000000000000        0.0000000000000000     
  0.93750000000000000       0.28125000000000000        0.0000000000000000     
  0.96875000000000000       0.28125000000000000        0.0000000000000000     
   1.0000000000000000       0.28125000000000000        0.0000000000000000     
  0.87500000000000000       0.31250000000000000        0.0000000000000000     
  0.90625000000000000       0.31250000000000000        0.0000000000000000     
  0.93750000000000000       0.31250000000000000        0.0000000000000000     
  0.96875000000000000       0.31250000000000000        0.0000000000000000     
   1.0000000000000000       0.31250000000000000        0.0000000000000000     
  0.87500000000000000       0.34375000000000000        0.0000000000000000     
  0.90625000000000000       0.34375000000000000        0.0000000000000000     
  0.93750000000000000       0.34375000000000000        0.0000000000000000     
  0.96875000000000000       0.34375000000000000        0.0000000000000000     
   1.0000000000000000       0.34375000000000000        0.0000000000000000     
  0.87500000000000000       0.37500000000000000        0.0000000000000000     
  0.90625000000000000       0.37500000000000000        0.0000000000000000     
  0.93750000000000000       0.37500000000000000        0.0000000000000000     
  0.96875000000000000       0.37500000000000000        0.0000000000000000     
   1.0000000000000000       0.37500000000000000        0.0000000000000000     
   0.0000000000000000       0.37500000000000000        0.0000000000000000     
   3.1250000000000000E-002  0.37500000000000000        0.0000000000000000     
   6.2500000000000000E-002  0.37500000000000000        0.0000000000000000     
   9.3750000000000000E-002  0.37500000000000000        0.0000000000000000     
  0.12500000000000000       0.37500000000000000        0.0000000000000000     
   0.0000000000000000       0.40625000000000000        0.0000000000000000     
   3.1250000000000000E-002  0.40625000000000000        0.0000000000000000     
   6.2500000000000000E-002  0.40625000000000000        0.0000000000000000     
   9.3750000000000000E-002  0.40625000000000000        0.0000000000000000     
  0.12500000000000000       0.40625000000000000        0.0000000000000000     
   0.0000000000000000       0.43750000000000000        0.0000000000000000     
   3.1250000000000000E-002  0.43750000000000000        0.0000000000000000     
   6.2500000000000000E-002  0.43750000000000000        0.0000000000000000     
   9.3750000000000000E-002  0.43750000000000000        0.0000000000000000     
  0.12500000000000000       0.43750000000000000        0.0000000000000000     
   0.0000000000000000       0.46875000000000000        0.0000000000000000     
   3.1250000000000000E-002  0.46875000000000000        0.0000000000000000     
   6.2500000000000000E-002  0.46875000000000000        0.0000000000000000     
   9.3750000000000000E-002  0.46875000000000000        0.0000000000000000     
  0.12500000000000000       0.46875000000000000        0.0000000000000000     
   0.0000000000000000       0.50000000000000000        0.0000000000000000     
   3.1250000000000000E-002  0.50000000000000000        0.0000000000000000     
   6.2500000000000000E-002  0.50000000000000000        0.0000000000000000     
   9.3750000000000000E-002  0.50000000000000000        0.0000000000000000     
  0.12500000000000000       0.50000000000000000        0.0000000000000000     
  0.12500000000000000       0.37500000000000000        0.0000000000000000     
  0.15625000000000000       0.37500000000000000        0.0000000000000000     
  0.18750000000000000       0.37500000000000000        0.0000000000000000     
  0.21875000000000000       0.37500000000000000        0.0000000000000000     
  0.25000000000000000       0.37500000000000000        0.0000000000000000     
  0.12500000000000000       0.40625000000000000        0.0000000000000000     
  0.15625000000000000       0.40625000000000000        0.0000000000000000     
  0.18750000000000000       0.40625000000000000        0.0000000000000000     
  0.21875000000000000       0.40625000000000000        0.0000000000000000     
  0.25000000000000000       0.40625000000000000        0.0000000000000000     
  0.12500000000000000       0.43750000000000000        0.0000000000000000     
  0.15625000000000000       0.43750000000000000        0.0000000000000000     
  0.18750000000000000       0.43750000000000000        0.0000000000000000     
  0.21875000000000000       0.43750000000000000        0.0000000000000000     
  0.25000000000000000       0.43750000000000000        0.0000000000000000     
  0.12500000000000000       0.46875000000000000        0.0000000000000000     
  0.15625000000000000       0.46875000000000000        0.0000000000000000     
  0.18750000000000000       0.46875000000000000        0.0000000000000000     
  0.21875000000000000       0.46875000000000000        0.0000000000000000     
  0.25000000000000000       0.46875000000000000        0.0000000000000000     
  0.12500000000000000       0.50000000000000000        0.0000000000000000     
  0.15625000000000000       0.50000000000000000        0.0000000000000000     
  0.18750000000000000       0.50000000000000000        0.0000000000000000     
  0.21875000000000000       0.50000000000000000        0.0000000000000000     
  0.25000000000000000       0.50000000000000000        0.0000000000000000     
  0.25000000000000000       0.37500000000000000        0.0000000000000000     
  0.28125000000000000       0.37500000000000000        0.0000000000000000     
  0.31250000000000000       0.37500000000000000        0.0000000000000000     
  0.34375000000000000       0.37500000000000000        0.0000000000000000     
  0.37500000000000000       0.37500000000000000        0.0000000000000000     
  0.25000000000000000       0.40625000000000000        0.0000000000000000     
  0.28125000000000000       0.40625000000000000        0.0000000000000000     
  0.31250000000000000       0.40625000000000000        0.0000000000000000     
  0.34375000000000000       0.40625000000000000        0.0000000000000000     
  0.37500000000000000       0.40625000000000000        0.0000000000000000     
  0.25000000000000000       0.43750000000000000        0.0000000000000000     
  0.28125000000000000       0.43750000000000000        0.0000000000000000     
  0.31250000000000000       0.43750000000000000        0.0000000000000000     
  0.34375000000000000       0.43750000000000000        0.0000000000000000     
  0.37500000000000000       0.43750000000000000        0.0000000000000000     
  0.25000000000000000       0.46875000000000000        0.0000000000000000     
  0.28125000000000000       0.46875000000000000        0.0000000000000000     
  0.31250000000000000       0.46875000000000000        0.0000000000000000     
  0.34375000000000000       0.46875000000000000        0.0000000000000000     
  0.37500000000000000       0.46875000000000000        0.0000000000000000     
  0.25000000000000000       0.50000000000000000        0.0000000000000000     
  0.28125000000000000       0.50000000000000000        0.0000000000000000     
  0.31250000000000000       0.50000000000000000        0.0000000000000000     
  0.34375000000000000       0.50000000000000000        0.0000000000000000     
  0.37500000000000000       0.50000000000000000        0.0000000000000000     
  0.37500000000000000       0.37500000000000000        0.0000000000000000     
  0.40625000000000000       0.37500000000000000        0.0000000000000000     
  0.43750000000000000       0.37500000000000000        0.0000000000000000     
  0.46875000000000000       0.37500000000000000        0.0000000000000000     
  0.50000000000000000       0.37500000000000000        0.0000000000000000     
  0.37500000000000000       0.40625000000000000        0.0000000000000000     
  0.40625000000000000       0.40625000000000000        0.0000000000000000     
  0.43750000000000000       0.40625000000000000        0.0000000000000000     
  0.46875000000000000       0.40625000000000000        0.0000000000000000     
  0.50000000000000000       0.40625000000000000        0.0000000000000000     
  0.37500000000000000       0.43750000000000000        0.0000000000000000     
  0.40625000000000000       0.43750000000000000        0.0000000000000000     
  0.43750000000000000       0.43750000000000000        0.0000000000000000     
  0.46875000000000000       0.43750000000000000        0.0000000000000000     
  0.50000000000000000       0.43750000000000000        0.0000000000000000     
  0.37500000000000000       0.46875000000000000        0.0000000000000000     
  0.40625000000000000       0.46875000000000000        0.0000000000000000     
  0.43750000000000000       0.46875000000000000        0.0000000000000000     
  0.46875000000000000       0.46875000000000000        0.0000000000000000     
  0.50000000000000000       0.46875000000000000        0.0000000000000000     
  0.37500000000000000       0.50000000000000000        0.0000000000000000     
  0.40625000000000000       0.50000000000000000        0.0000000000000000     
  0.43750000000000000       0.50000000000000000        0.0000000000000000     
  0.46875000000000000       0.50000000000000000        0.0000000000000000     
  0.50000000000000000       0.50000000000000000        0.0000000000000000     
  0.50000000000000000       0.37500000000000000        0.0000000000000000     
  0.53125000000000000       0.37500000000000000        0.0000000000000000     
  0.56250000000000000       0.37500000000000000        0.0000000000000000     
  0.59375000000000000       0.37500000000000000        0.0000000000000000     
  0.62500000000000000       0.37500000000000000        0.0000000000000000     
  0.50000000000000000       0.40625000000000000        0.0000000000000000     
  0.53125000000000000       0.40625000000000000        0.0000000000000000     
  0.56250000000000000       0.40625000000000000        0.0000000000000000     
  0.59375000000000000       0.40625000000000000        0.0000000000000000     
  0.62500000000000000       0.40625000000000000        0.0000000000000000     
  0.50000000000000000       0.43750000000000000        0.0000000000000000     
  0.53125000000000000       0.43750000000000000        0.0000000000000000     
  0.56250000000000000       0.43750000000000000        0.0000000000000000     
  0.59375000000000000       0.43750000000000000        0.0000000000000000     
  0.62500000000000000       0.43750000000000000        0.0000000000000000     
  0.50000000000000000       0.46875000000000000        0.0000000000000000     
  0.53125000000000000       0.46875000000000000        0.0000000000000000     
  0.56250000000000000       0.46875000000000000        0.0000000000000000     
  0.59375000000000000       0.46875000000000000        0.0000000000000000     
  0.62500000000000000       0.46875000000000000        0.0000000000000000     
  0.50000000000000000       0.50000000000000000        0.0000000000000000     
  0.53125000000000000       0.50000000000000000        0.0000000000000000     
  0.56250000000000000       0.50000000000000000        0.0000000000000000     
  0.59375000000000000       0.50000000000000000        0.0000000000000000     
  0.62500000000000000       0.50000000000000000        0.0000000000000000     
  0.62500000000000000       0.37500000000000000        0.0000000000000000     
  0.65625000000000000       0.37500000000000000        0.0000000000000000     
  0.68750000000000000       0.37500000000000000        0.0000000000000000     
  0.71875000000000000       0.37500000000000000        0.0000000000000000     
  0.75000000000000000       0.37500000000000000        0.0000000000000000     
  0.62500000000000000       0.40625000000000000        0.0000000000000000     
  0.65625000000000000       0.40625000000000000        0.0000000000000000     
  0.68750000000000000       0.40625000000000000        0.0000000000000000     
  0.71875000000000000       0.40625000000000000        0.0000000000000000     
  0.75000000000000000       0.40625000000000000        0.0000000000000000     
  0.62500000000000000       0.43750000000000000        0.0000000000000000     
  0.65625000000000000       0.43750000000000000        0.0000000000000000     
  0.68750000000000000       0.43750000000000000        0.0000000000000000     
  0.71875000000000000       0.43750000000000000        0.0000000000000000     
  0.75000000000000000       0.43750000000000000        0.0000000000000000     
  0.62500000000000000       0.46875000000000000        0.0000000000000000     
  0.65625000000000000       0.46875000000000000        0.0000000000000000     
  0.68750000000000000       0.46875000000000000        0.0000000000000000     
  0.71875000000000000       0.46875000000000000        0.0000000000000000     
  0.75000000000000000       0.46875000000000000        0.0000000000000000     
  0.62500000000000000       0.50000000000000000        0.0000000000000000     
  0.65625000000000000       0.50000000000000000        0.0000000000000000     
  0.68750000000000000       0.50000000000000000        0.0000000000000000     
  0.71875000000000000       0.50000000000000000        0.0000000000000000     
  0.75000000000000000       0.50000000000000000        0.0000000000000000     
  0.75000000000000000       0.37500000000000000        0.0000000000000000     
  0.78125000000000000       0.37500000000000000        0.0000000000000000     
  0.81250000000000000       0.37500000000000000        0.0000000000000000     
  0.84375000000000000       0.37500000000000000        0.0000000000000000     
  0.87500000000000000       0.37500000000000000        0.0000000000000000     
  0.75000000000000000       0.40625000000000000        0.0000000000000000     
  0.78125000000000000       0.40625000000000000        0.0000000000000000     
  0.81250000000000000       0.40625000000000000        0.0000000000000000     
  0.84375000000000000       0.40625000000000000        0.0000000000000000     
  0.87500000000000000       0.40625000000000000        0.0000000000000000     
  0.75000000000000000       0.43750000000000000        0.0000000000000000     
  0.78125000000000000       0.43750000000000000        0.0000000000000000     
  0.81250000000000000       0.43750000000000000        0.0000000000000000     
  0.84375000000000000       0.43750000000000000        0.0000000000000000     
  0.87500000000000000       0.43750000000000000        0.0000000000000000     
  0.75000000000000000       0.46875000000000000        0.0000000000000000     
  0.78125000000000000       0.46875000000000000        0.0000000000000000     
  0.81250000000000000       0.46875000000000000        0.0000000000000000     
  0.84375000000000000       0.46875000000000000        0.0000000000000000     
  0.87500000000000000       0.46875000000000000        0.0000000000000000     
  0.75000000000000000       0.50000000000000000        0.0000000000000000     
  0.78125000000000000       0.50000000000000000        0.0000000000000000     
  0.81250000000000000       0.50000000000000000        0.0000000000000000     
  0.84375000000000000       0.50000000000000000        0.0000000000000000     
  0.87500000000000000       0.50000000000000000        0.0000000000000000     
  0.87500000000000000       0.37500000000000000        0.0000000000000000     
  0.90625000000000000       0.37500000000000000        0.0000000000000000     
  0.93750000000000000       0.37500000000000000        0.0000000000000000     
  0.96875000000000000       0.37500000000000000        0.0000000000000000     
   1.0000000000000000       0.37500000000000000        0.0000000000000000     
  0.87500000000000000       0.40625000000000000        0.0000000000000000     
  0.90625000000000000       0.40625000000000000        0.0000000000000000     
  0.93750000000000000       0.40625000000000000        0.0000000000000000     
  0.96875000000000000       0.40625000000000000        0.0000000000000000     
   1.0000000000000000       0.40625000000000000        0.0000000000000000     
  0.87500000000000000       0.43750000000000000        0.0000000000000000     
  0.90625000000000000       0.43750000000000000        0.0000000000000000     
  0.93750000000000000       0.43750000000000000        0.0000000000000000     
  0.96875000000000000       0.43750000000000000        0.0000000000000000     
   1.0000000000000000       0.43750000000000000        0.0000000000000000     
  0.87500000000000000       0.46875000000000000        0.0000000000000000     
  0.90625000000000000       0.46875000000000000        0.0000000000000000     
  0.93750000000000000       0.46875000000000000        0.0000000000000000     
  0.96875000000000000       0.46875000000000000        0.0000000000000000     
   1.0000000000000000       0.46875000000000000        0.0000000000000000     
  0.87500000000000000       0.50000000000000000        0.0000000000000000     
  0.90625000000000000       0.50000000000000000        0.0000000000000000     
  0.93750000000000000       0.50000000000000000        0.0000000000000000     
  0.96875000000000000       0.50000000000000000        0.0000000000000000     
   1.0000000000000000       0.50000000000000000        0.0000000000000000     
   0.0000000000000000       0.50000000000000000        0.0000000000000000     
   3.1250000000000000E-002  0.50000000000000000        0.0000000000000000     
   6.2500000000000000E-002  0.50000000000000000        0.0000000000000000     
   9.3750000000000000E-002  0.50000000000000000        0.0000000000000000     
  0.12500000000000000       0.50000000000000000        0.0000000000000000     
   0.0000000000000000       0.53125000000000000        0.0000000000000000     
   3.1250000000000000E-002  0.53125000000000000        0.0000000000000000     
   6.2500000000000000E-002  0.53125000000000000        0.0000000000000000     
   9.3750000000000000E-002  0.53125000000000000        0.0000000000000000     
  0.12500000000000000       0.53125000000000000        0.0000000000000000     
   0.0000000000000000       0.56250000000000000        0.0000000000000000     
   3.1250000000000000E-002  0.56250000000000000        0.0000000000000000     
   6.2500000000000000E-002  0.56250000000000000        0.0000000000000000     
   9.3750000000000000E-002  0.56250000000000000        0.0000000000000000     
  0.12500000000000000       0.56250000000000000        0.0000000000000000     
   0.0000000000000000       0.59375000000000000        0.0000000000000000     
   3.1250000000000000E-002  0.59375000000000000        0.0000000000000000     
   6.2500000000000000E-002  0.59375000000000000        0.0000000000000000     
   9.3750000000000000E-002  0.59375000000000000        0.0000000000000000     
  0.12500000000000000       0.59375000000000000        0.0000000000000000     
   0.0000000000000000       0.62500000000000000        0.0000000000000000     
   3.1250000000000000E-002  0.62500000000000000        0.0000000000000000     
   6.2500000000000000E-002  0.62500000000000000        0.0000000000000000     
   9.3750000000000000E-002  0.62500000000000000        0.0000000000000000     
  0.12500000000000000       0.62500000000000000        0.0000000000000000     
  0.12500000000000000       0.50000000000000000        0.0000000000000000     
  0.15625000000000000       0.50000000000000000        0.0000000000000000     
  0.18750000000000000       0.50000000000000000        0.0000000000000000     
  0.21875000000000000       0.50000000000000000        0.0000000000000000     
  0.25000000000000000       0.50000000000000000        0.0000000000000000     
  0.12500000000000000       0.53125000000000000        0.0000000000000000     
  0.15625000000000000       0.53125000000000000        0.0000000000000000     
  0.18750000000000000       0.53125000000000000        0.0000000000000000     
  0.21875000000000000       0.53125000000000000        0.0000000000000000     
  0.25000000000000000       0.53125000000000000        0.0000000000000000     
  0.12500000000000000       0.56250000000000000        0.0000000000000000     
  0.15625000000000000       0.56250000000000000        0.0000000000000000     
  0.18750000000000000       0.56250000000000000        0.0000000000000000     
  0.21875000000000000       0.56250000000000000        0.0000000000000000     
  0.25000000000000000       0.56250000000000000        0.0000000000000000     
  0.12500000000000000       0.59375000000000000        0.0000000000000000     
  0.15625000000000000       0.59375000000000000        0.0000000000000000     
  0.18750000000000000       0.59375000000000000        0.0000000000000000     
  0.21875000000000000       0.59375000000000000        0.0000000000000000     
  0.25000000000000000       0.59375000000000000        0.0000000000000000     
  0.12500000000000000       0.62500000000000000        0.0000000000000000     
  0.15625000000000000       0.62500000000000000        0.0000000000000000     
  0.18750000000000000       0.62500000000000000        0.0000000000000000     
  0.21875000000000000       0.62500000000000000        0.0000000000000000     
  0.25000000000000000       0.62500000000000000        0.0000000000000000     
  0.25000000000000000       0.50000000000000000        0.0000000000000000     
  0.28125000000000000       0.50000000000000000        0.0000000000000000     
  0.31250000000000000       0.50000000000000000        0.0000000000000000     
  0.34375000000000000       0.50000000000000000        0.0000000000000000     
  0.37500000000000000       0.50000000000000000        0.0000000000000000     
  0.25000000000000000       0.53125000000000000        0.0000000000000000     
  0.28125000000000000       0.53125000000000000        0.0000000000000000     
  0.31250000000000000       0.53125000000000000        0.0000000000000000     
  0.34375000000000000       0.53125000000000000        0.0000000000000000     
  0.37500000000000000       0.53125000000000000        0.0000000000000000     
  0.25000000000000000       0.56250000000000000        0.0000000000000000     
  0.28125000000000000       0.56250000000000000        0.0000000000000000     
  0.31250000000000000       0.56250000000000000        0.0000000000000000     
  0.34375000000000000       0.56250000000000000        0.0000000000000000     
  0.37500000000000000       0.56250000000000000        0.0000000000000000     
  0.25000000000000000       0.59375000000000000        0.0000000000000000     
  0.28125000000000000       0.59375000000000000        0.0000000000000000     
  0.31250000000000000       0.59375000000000000        0.0000000000000000     
  0.34375000000000000       0.59375000000000000        0.0000000000000000     
  0.37500000000000000       0.59375000000000000        0.0000000000000000     
  0.25000000000000000       0.62500000000000000        0.0000000000000000     
  0.28125000000000000       0.62500000000000000        0.0000000000000000     
  0.31250000000000000       0.62500000000000000        0.0000000000000000     
  0.34375000000000000       0.62500000000000000        0.0000000000000000     
  0.37500000000000000       0.62500000000000000        0.0000000000000000     
  0.37500000000000000       0.50000000000000000        0.0000000000000000     
  0.40625000000000000       0.50000000000000000        0.0000000000000000     
  0.43750000000000000       0.50000000000000000        0.0000000000000000     
  0.46875000000000000       0.50000000000000000        0.0000000000000000     
  0.50000000000000000       0.50000000000000000        0.0000000000000000     
  0.37500000000000000       0.53125000000000000        0.0000000000000000     
  0.40625000000000000       0.53125000000000000        0.0000000000000000     
  0.43750000000000000       0.53125000000000000        0.0000000000000000     
  0.46875000000000000       0.53125000000000000        0.0000000000000000     
  0.50000000000000000       0.53125000000000000        0.0000000000000000     
  0.37500000000000000       0.56250000000000000        0.0000000000000000     
  0.40625000000000000       0.56250000000000000        0.0000000000000000     
  0.43750000000000000       0.56250000000000000        0.0000000000000000     
  0.46875000000000000       0.56250000000000000        0.0000000000000000     
  0.50000000000000000       0.56250000000000000        0.0000000000000000     
  0.37500000000000000       0.59375000000000000        0.0000000000000000     
  0.40625000000000000       0.59375000000000000        0.0000000000000000     
  0.43750000000000000       0.59375000000000000        0.0000000000000000     
  0.46875000000000000       0.59375000000000000        0.0000000000000000     
  0.50000000000000000       0.59375000000000000        0.0000000000000000     
  0.37500000000000000       0.62500000000000000        0.0000000000000000     
  0.40625000000000000       0.62500000000000000        0.0000000000000000     
  0.43750000000000000       0.62500000000000000        0.0000000000000000     
  0.46875000000000000       0.62500000000000000        0.0000000000000000     
  0.50000000000000000       0.62500000000000000        0.0000000000000000     
  0.50000000000000000       0.50000000000000000        0.0000000000000000     
  0.53125000000000000       0.50000000000000000        0.0000000000000000     
  0.56250000000000000       0.50000000000000000        0.0000000000000000     
  0.59375000000000000       0.50000000000000000        0.0000000000000000     
  0.62500000000000000       0.50000000000000000        0.0000000000000000     
  0.50000000000000000       0.53125000000000000        0.0000000000000000     
  0.53125000000000000       0.53125000000000000        0.0000000000000000     
  0.56250000000000000       0.53125000000000000        0.0000000000000000     
  0.59375000000000000       0.53125000000000000        0.0000000000000000     
  0.62500000000000000       0.53125000000000000        0.0000000000000000     
  0.50000000000000000       0.56250000000000000        0.0000000000000000     
  0.53125000000000000       0.56250000000000000        0.0000000000000000     
  0.56250000000000000       0.56250000000000000        0.0000000000000000     
  0.59375000000000000       0.56250000000000000        0.0000000000000000     
  0.62500000000000000       0.56250000000000000        0.0000000000000000     
  0.50000000000000000       0.59375000000000000        0.0000000000000000     
  0.53125000000000000       0.59375000000000000        0.0000000000000000     
  0.56250000000000000       0.59375000000000000        0.0000000000000000     
  0.59375000000000000       0.59375000000000000        0.0000000000000000     
  0.62500000000000000       0.59375000000000000        0.0000000000000000     
  0.50000000000000000       0.62500000000000000        0.0000000000000000     
  0.53125000000000000       0.62500000000000000        0.0000000000000000     
  0.56250000000000000       0.62500000000000000        0.0000000000000000     
  0.59375000000000000       0.62500000000000000        0.0000000000000000     
  0.62500000000000000       0.62500000000000000        0.0000000000000000     
  0.62500000000000000       0.50000000000000000        0.0000000000000000     
  0.65625000000000000       0.50000000000000000        0.0000000000000000     
  0.68750000000000000       0.50000000000000000        0.0000000000000000     
  0.71875000000000000       0.50000000000000000        0.0000000000000000     
  0.75000000000000000       0.50000000000000000        0.0000000000000000     
  0.62500000000000000       0.53125000000000000        0.0000000000000000     
  0.65625000000000000       0.53125000000000000        0.0000000000000000     
  0.68750000000000000       0.53125000000000000        0.0000000000000000     
  0.71875000000000000       0.53125000000000000        0.0000000000000000     
  0.75000000000000000       0.53125000000000000        0.0000000000000000     
  0.62500000000000000       0.56250000000000000        0.0000000000000000     
  0.65625000000000000       0.56250000000000000        0.0000000000000000     
  0.68750000000000000       0.56250000000000000        0.0000000000000000     
  0.71875000000000000       0.56250000000000000        0.0000000000000000     
  0.75000000000000000       0.56250000000000000        0.0000000000000000     
  0.62500000000000000       0.59375000000000000        0.0000000000000000     
  0.65625000000000000       0.59375000000000000        0.0000000000000000     
  0.68750000000000000       0.59375000000000000        0.0000000000000000     
  0.71875000000000000       0.59375000000000000        0.0000000000000000     
  0.75000000000000000       0.59375000000000000        0.0000000000000000     
  0.62500000000000000       0.62500000000000000        0.0000000000000000     
  0.65625000000000000       0.62500000000000000        0.0000000000000000     
  0.68750000000000000       0.62500000000000000        0.0000000000000000     
  0.71875000000000000       0.62500000000000000        0.0000000000000000     
  0.75000000000000000       0.62500000000000000        0.0000000000000000     
  0.75000000000000000       0.50000000000000000        0.0000000000000000     
  0.78125000000000000       0.50000000000000000        0.0000000000000000     
  0.81250000000000000       0.50000000000000000        0.0000000000000000     
  0.84375000000000000       0.50000000000000000        0.0000000000000000     
  0.87500000000000000       0.50000000000000000        0.0000000000000000     
  0.75000000000000000       0.53125000000000000        0.0000000000000000     
  0.78125000000000000       0.53125000000000000        0.0000000000000000     
  0.81250000000000000       0.53125000000000000        0.0000000000000000     
  0.84375000000000000       0.53125000000000000        0.0000000000000000     
  0.87500000000000000       0.53125000000000000        0.0000000000000000     
  0.75000000000000000       0.56250000000000000        0.0000000000000000     
  0.78125000000000000       0.56250000000000000        0.0000000000000000     
  0.81250000000000000       0.56250000000000000        0.0000000000000000     
  0.84375000000000000       0.56250000000000000        0.0000000000000000     
  0.87500000000000000       0.56250000000000000        0.0000000000000000     
  0.75000000000000000       0.59375000000000000        0.0000000000000000     
  0.78125000000000000       0.59375000000000000        0.0000000000000000     
  0.81250000000000000       0.59375000000000000        0.0000000000000000     
  0.84375000000000000       0.59375000000000000        0.0000000000000000     
  0.87500000000000000       0.59375000000000000        0.0000000000000000     
  0.75000000000000000       0.62500000000000000        0.0000000000000000     
  0.78125000000000000       0.62500000000000000        0.0000000000000000     
  0.81250000000000000       0.62500000000000000        0.0000000000000000     
  0.84375000000000000       0.62500000000000000        0.0000000000000000     
  0.87500000000000000       0.62500000000000000        0.0000000000000000     
  0.87500000000000000       0.50000000000000000        0.0000000000000000     
  0.90625000000000000       0.50000000000000000        0.0000000000000000     
  0.93750000000000000       0.50000000000000000        0.0000000000000000     
  0.96875000000000000       0.50000000000000000        0.0000000000000000     
   1.0000000000000000       0.50000000000000000        0.0000000000000000     
  0.87500000000000000       0.53125000000000000        0.0000000000000000     
  0.90625000000000000       0.53125000000000000        0.0000000000000000     
  0.93750000000000000       0.53125000000000000        0.0000000000000000     
  0.96875000000000000       0.53125000000000000        0.0000000000000000     
   1.0000000000000000       0.53125000000000000        0.0000000000000000     
  0.87500000000000000       0.56250000000000000        0.0000000000000000     
  0.90625000000000000       0.56250000000000000        0.0000000000000000     
  0.93750000000000000       0.56250000000000000        0.0000000000000000     
  0.96875000000000000       0.56250000000000000        0.0000000000000000     
   1.0000000000000000       0.56250000000000000        0.0000000000000000     
  0.87500000000000000       0.59375000000000000        0.0000000000000000     
  0.90625000000000000       0.59375000000000000        0.0000000000000000     
  0.93750000000000000       0.59375000000000000        0.0000000000000000     
  0.96875000000000000       0.59375000000000000        0.0000000000000000     
   1.0000000000000000       0.59375000000000000        0.0000000000000000     
  0.87500000000000000       0.62500000000000000        0.0000000000000000     
  0.90625000000000000       0.62500000000000000        0.0000000000000000     
  0.93750000000000000       0.62500000000000000        0.0000000000000000     
  0.96875000000000000       0.62500000000000000        0.0000000000000000     
   1.0000000000000000       0.62500000000000000        0.0000000000000000     
   0.0000000000000000       0.62500000000000000        0.0000000000000000     
   3.1250000000000000E-002  0.62500000000000000        0.0000000000000000     
   6.2500000000000000E-002  0.62500000000000000        0.0000000000000000     
   9.3750000000000000E-002  0.62500000000000000        0.0000000000000000     
  0.12500000000000000       0.62500000000000000        0.0000000000000000     
   0.0000000000000000       0.65625000000000000        0.0000000000000000     
   3.1250000000000000E-002  0.65625000000000000        0.0000000000000000     
   6.2500000000000000E-002  0.65625000000000000        0.0000000000000000     
   9.3750000000000000E-002  0.65625000000000000        0.0000000000000000     
  0.12500000000000000       0.65625000000000000        0.0000000000000000     
   0.0000000000000000       0.68750000000000000        0.0000000000000000     
   3.1250000000000000E-002  0.68750000000000000        0.0000000000000000     
   6.2500000000000000E-002  0.68750000000000000        0.0000000000000000     
   9.3750000000000000E-002  0.68750000000000000        0.0000000000000000     
  0.12500000000000000       0.68750000000000000        0.0000000000000000     
   0.0000000000000000       0.71875000000000000        0.0000000000000000     
   3.1250000000000000E-002  0.71875000000000000        0.0000000000000000     
   6.2500000000000000E-002  0.71875000000000000        0.0000000000000000     
   9.3750000000000000E-002  0.71875000000000000        0.0000000000000000     
  0.12500000000000000       0.71875000000000000        0.0000000000000000     
   0.0000000000000000       0.75000000000000000        0.0000000000000000     
   3.1250000000000000E-002  0.75000000000000000        0.0000000000000000     
   6.2500000000000000E-002  0.75000000000000000        0.0000000000000000     
   9.3750000000000000E-002  0.75000000000000000        0.0000000000000000     
  0.12500000000000000       0.75000000000000000        0.0000000000000000     
  0.12500000000000000       0.62500000000000000        0.0000000000000000     
  0.15625000000000000       0.62500000000000000        0.0000000000000000     
  0.18750000000000000       0.62500000000000000        0.0000000000000000     
  0.21875000000000000       0.62500000000000000        0.0000000000000000     
  0.25000000000000000       0.62500000000000000        0.0000000000000000     
  0.12500000000000000       0.65625000000000000        0.0000000000000000     
  0.15625000000000000       0.65625000000000000        0.0000000000000000     
  0.18750000000000000       0.65625000000000000        0.0000000000000000     
  0.21875000000000000       0.65625000000000000        0.0000000000000000     
  0.25000000000000000       0.65625000000000000        0.0000000000000000     
  0.12500000000000000       0.68750000000000000        0.0000000000000000     
  0.15625000000000000       0.68750000000000000        0.0000000000000000     
  0.18750000000000000       0.68750000000000000        0.0000000000000000     
  0.21875000000000000       0.68750000000000000        0.0000000000000000     
  0.25000000000000000       0.68750000000000000        0.0000000000000000     
  0.12500000000000000       0.71875000000000000        0.0000000000000000     
  0.15625000000000000       0.71875000000000000        0.0000000000000000     
  0.18750000000000000       0.71875000000000000        0.0000000000000000     
  0.21875000000000000       0.71875000000000000        0.0000000000000000     
  0.25000000000000000       0.71875000000000000        0.0000000000000000     
  0.12500000000000000       0.75000000000000000        0.0000000000000000     
  0.15625000000000000       0.75000000000000000        0.0000000000000000     
  0.18750000000000000       0.75000000000000000        0.0000000000000000     
  0.21875000000000000       0.75000000000000000        0.0000000000000000     
  0.25000000000000000       0.75000000000000000        0.0000000000000000     
  0.25000000000000000       0.62500000000000000        0.0000000000000000     
  0.28125000000000000       0.62500000000000000        0.0000000000000000     
  0.31250000000000000       0.62500000000000000        0.0000000000000000     
  0.34375000000000000       0.62500000000000000        0.0000000000000000     
  0.37500000000000000       0.62500000000000000        0.0000000000000000     
  0.25000000000000000       0.65625000000000000        0.0000000000000000     
  0.28125000000000000       0.65625000000000000        0.0000000000000000     
  0.31250000000000000       0.65625000000000000        0.0000000000000000     
  0.34375000000000000       0.65625000000000000        0.0000000000000000     
  0.37500000000000000       0.65625000000000000        0.0000000000000000     
  0.25000000000000000       0.68750000000000000        0.0000000000000000     
  0.28125000000000000       0.68750000000000000        0.0000000000000000     
  0.31250000000000000       0.68750000000000000        0.0000000000000000     
  0.34375000000000000       0.68750000000000000        0.0000000000000000     
  0.37500000000000000       0.68750000000000000        0.0000000000000000     
  0.25000000000000000       0.71875000000000000        0.0000000000000000     
  0.28125000000000000       0.71875000000000000        0.0000000000000000     
  0.31250000000000000       0.71875000000000000        0.0000000000000000     
  0.34375000000000000       0.71875000000000000        0.0000000000000000     
  0.37500000000000000       0.71875000000000000        0.0000000000000000     
  0.25000000000000000       0.75000000000000000        0.0000000000000000     
  0.28125000000000000       0.75000000000000000        0.0000000000000000     
  0.31250000000000000       0.75000000000000000        0.0000000000000000     
  0.34375000000000000       0.75000000000000000        0.0000000000000000     
  0.37500000000000000       0.75000000000000000        0.0000000000000000     
  0.37500000000000000       0.62500000000000000        0.0000000000000000     
  0.40625000000000000       0.62500000000000000        0.0000000000000000     
  0.43750000000000000       0.62500000000000000        0.0000000000000000     
  0.46875000000000000       0.62500000000000000        0.0000000000000000     
  0.50000000000000000       0.62500000000000000        0.0000000000000000     
  0.37500000000000000       0.65625000000000000        0.0000000000000000     
  0.40625000000000000       0.65625000000000000        0.0000000000000000     
  0.43750000000000000       0.65625000000000000        0.0000000000000000     
  0.46875000000000000       0.65625000000000000        0.0000000000000000     
  0.50000000000000000       0.65625000000000000        0.0000000000000000     
  0.37500000000000000       0.68750000000000000        0.0000000000000000     
  0.40625000000000000       0.68750000000000000        0.0000000000000000     
  0.43750000000000000       0.68750000000000000        0.0000000000000000     
  0.46875000000000000       0.68750000000000000        0.0000000000000000     
  0.50000000000000000       0.68750000000000000        0.0000000000000000     
  0.37500000000000000       0.71875000000000000        0.0000000000000000     
  0.40625000000000000       0.71875000000000000        0.0000000000000000     
  0.43750000000000000       0.71875000000000000        0.0000000000000000     
  0.46875000000000000       0.71875000000000000        0.0000000000000000     
  0.50000000000000000       0.71875000000000000        0.0000000000000000     
  0.37500000000000000       0.75000000000000000        0.0000000000000000     
  0.40625000000000000       0.75000000000000000        0.0000000000000000     
  0.43750000000000000       0.75000000000000000        0.0000000000000000     
  0.46875000000000000       0.75000000000000000        0.0000000000000000     
  0.50000000000000000       0.75000000000000000        0.0000000000000000     
  0.50000000000000000       0.62500000000000000        0.0000000000000000     
  0.53125000000000000       0.62500000000000000        0.0000000000000000     
  0.56250000000000000       0.62500000000000000        0.0000000000000000     
  0.59375000000000000       0.62500000000000000        0.0000000000000000     
  0.62500000000000000       0.62500000000000000        0.0000000000000000     
  0.50000000000000000       0.65625000000000000        0.0000000000000000     
  0.53125000000000000       0.65625000000000000        0.0000000000000000     
  0.56250000000000000       0.65625000000000000        0.0000000000000000     
  0.59375000000000000       0.65625000000000000        0.0000000000000000     
  0.62500000000000000       0.65625000000000000        0.0000000000000000     
  0.50000000000000000       0.68750000000000000        0.0000000000000000     
  0.53125000000000000       0.68750000000000000        0.0000000000000000     
  0.56250000000000000       0.68750000000000000        0.0000000000000000     
  0.59375000000000000       0.68750000000000000        0.0000000000000000     
  0.62500000000000000       0.68750000000000000        0.0000000000000000     
  0.50000000000000000       0.71875000000000000        0.0000000000000000     
  0.53125000000000000       0.71875000000000000        0.0000000000000000     
  0.56250000000000000       0.71875000000000000        0.0000000000000000     
  0.59375000000000000       0.71875000000000000        0.0000000000000000     
  0.62500000000000000       0.71875000000000000        0.0000000000000000     
  0.50000000000000000       0.75000000000000000        0.0000000000000000     
  0.53125000000000000       0.75000000000000000        0.0000000000000000     
  0.56250000000000000       0.75000000000000000        0.0000000000000000     
  0.59375000000000000       0.75000000000000000        0.0000000000000000     
  0.62500000000000000       0.75000000000000000        0.0000000000000000     
  0.62500000000000000       0.62500000000000000        0.0000000000000000     
  0.65625000000000000       0.62500000000000000        0.0000000000000000     
  0.68750000000000000       0.62500000000000000        0.0000000000000000     
  0.71875000000000000       0.62500000000000000        0.0000000000000000     
  0.75000000000000000       0.62500000000000000        0.0000000000000000     
  0.62500000000000000       0.65625000000000000        0.0000000000000000     
  0.65625000000000000       0.65625000000000000        0.0000000000000000     
  0.68750000000000000       0.65625000000000000        0.0000000000000000     
  0.71875000000000000       0.65625000000000000        0.0000000000000000     
  0.75000000000000000       0.65625000000000000        0.0000000000000000     
  0.62500000000000000       0.68750000000000000        0.0000000000000000     
  0.65625000000000000       0.68750000000000000        0.0000000000000000     
  0.68750000000000000       0.68750000000000000        0.0000000000000000     
  0.71875000000000000       0.68750000000000000        0.0000000000000000     
  0.75000000000000000       0.68750000000000000        0.0000000000000000     
  0.62500000000000000       0.71875000000000000        0.0000000000000000     
  0.65625000000000000       0.71875000000000000        0.0000000000000000     
  0.68750000000000000       0.71875000000000000        0.0000000000000000     
  0.71875000000000000       0.71875000000000000        0.0000000000000000     
  0.75000000000000000       0.71875000000000000        0.0000000000000000     
  0.62500000000000000       0.75000000000000000        0.0000000000000000     
  0.65625000000000000       0.75000000000000000        0.0000000000000000     
  0.68750000000000000       0.75000000000000000        0.0000000000000000     
  0.71875000000000000       0.75000000000000000        0.0000000000000000     
  0.75000000000000000       0.75000000000000000        0.0000000000000000     
  0.75000000000000000       0.62500000000000000        0.0000000000000000     
  0.78125000000000000       0.62500000000000000        0.0000000000000000     
  0.81250000000000000       0.62500000000000000        0.0000000000000000     
  0.84375000000000000       0.62500000000000000        0.0000000000000000     
  0.87500000000000000       0.62500000000000000        0.0000000000000000     
  0.75000000000000000       0.65625000000000000        0.0000000000000000     
  0.78125000000000000       0.65625000000000000        0.0000000000000000     
  0.81250000000000000       0.65625000000000000        0.0000000000000000     
  0.84375000000000000       0.65625000000000000        0.0000000000000000     
  0.87500000000000000       0.65625000000000000        0.0000000000000000     
  0.75000000000000000       0.68750000000000000        0.0000000000000000     
  0.78125000000000000       0.68750000000000000        0.0000000000000000     
  0.81250000000000000       0.68750000000000000        0.0000000000000000     
  0.84375000000000000       0.68750000000000000        0.0000000000000000     
  0.87500000000000000       0.68750000000000000        0.0000000000000000     
  0.75000000000000000       0.71875000000000000        0.0000000000000000     
  0.78125000000000000       0.71875000000000000        0.0000000000000000     
  0.81250000000000000       0.71875000000000000        0.0000000000000000     
  0.84375000000000000       0.71875000000000000        0.0000000000000000     
  0.87500000000000000       0.71875000000000000        0.0000000000000000     
  0.75000000000000000       0.75000000000000000        0.0000000000000000     
  0.78125000000000000       0.75000000000000000        0.0000000000000000     
  0.81250000000000000       0.75000000000000000        0.0000000000000000     
  0.84375000000000000       0.75000000000000000        0.0000000000000000     
  0.87500000000000000       0.75000000000000000        0.0000000000000000     
  0.87500000000000000       0.62500000000000000        0.0000000000000000     
  0.90625000000000000       0.62500000000000000        0.0000000000000000     
  0.93750000000000000       0.62500000000000000        0.0000000000000000     
  0.96875000000000000       0.62500000000000000        0.0000000000000000     
   1.0000000000000000       0.62500000000000000        0.0000000000000000     
  0.87500000000000000       0.65625000000000000        0.0000000000000000     
  0.90625000000000000       0.65625000000000000        0.0000000000000000     
  0.93750000000000000       0.65625000000000000        0.0000000000000000     
  0.96875000000000000       0.65625000000000000        0.0000000000000000     
   1.0000000000000000       0.65625000000000000        0.0000000000000000     
  0.87500000000000000       0.68750000000000000        0.0000000000000000     
  0.90625000000000000       0.68750000000000000        0.0000000000000000     
  0.93750000000000000       0.68750000000000000        0.0000000000000000     
  0.96875000000000000       0.68750000000000000        0.0000000000000000     
   1.0000000000000000       0.68750000000000000        0.0000000000000000     
  0.87500000000000000       0.71875000000000000        0.0000000000000000     
  0.90625000000000000       0.71875000000000000        0.0000000000000000     
  0.93750000000000000       0.71875000000000000        0.0000000000000000     
  0.96875000000000000       0.71875000000000000        0.0000000000000000     
   1.0000000000000000       0.71875000000000000        0.0000000000000000     
  0.87500000000000000       0.75000000000000000        0.0000000000000000     
  0.90625000000000000       0.75000000000000000        0.0000000000000000     
  0.93750000000000000       0.75000000000000000        0.0000000000000000     
  0.96875000000000000       0.75000000000000000        0.0000000000000000     
   1.0000000000000000       0.75000000000000000        0.0000000000000000     
   0.0000000000000000       0.75000000000000000        0.0000000000000000     
   3.1250000000000000E-002  0.75000000000000000        0.0000000000000000     
   6.2500000000000000E-002  0.75000000000000000        0.0000000000000000     
   9.3750000000000000E-002  0.75000000000000000        0.0000000000000000     
  0.12500000000000000       0.75000000000000000        0.0000000000000000     
   0.0000000000000000       0.78125000000000000        0.0000000000000000     
   3.1250000000000000E-002  0.78125000000000000        0.0000000000000000     
   6.2500000000000000E-002  0.78125000000000000        0.0000000000000000     
   9.3750000000000000E-002  0.78125000000000000        0.0000000000000000     
  0.12500000000000000       0.78125000000000000        0.0000000000000000     
   0.0000000000000000       0.81250000000000000        0.0000000000000000     
   3.1250000000000000E-002  0.81250000000000000        0.0000000000000000     
   6.2500000000000000E-002  0.81250000000000000        0.0000000000000000     
   9.3750000000000000E-002  0.81250000000000000        0.0000000000000000     
  0.12500000000000000       0.81250000000000000        0.0000000000000000     
   0.0000000000000000       0.84375000000000000        0.0000000000000000     
   3.1250000000000000E-002  0.84375000000000000        0.0000000000000000     
   6.2500000000000000E-002  0.84375000000000000        0.0000000000000000     
   9.3750000000000000E-002  0.84375000000000000        0.0000000000000000     
  0.12500000000000000       0.84375000000000000        0.0000000000000000     
   0.0000000000000000       0.87500000000000000        0.0000000000000000     
   3.1250000000000000E-002  0.87500000000000000        0.0000000000000000     
   6.2500000000000000E-002  0.87500000000000000        0.0000000000000000     
   9.3750000000000000E-002  0.87500000000000000        0.0000000000000000     
  0.12500000000000000       0.87500000000000000        0.0000000000000000     
  0.12500000000000000       0.75000000000000000        0.0000000000000000     
  0.15625000000000000       0.75000000000000000        0.0000000000000000     
  0.18750000000000000       0.75000000000000000        0.0000000000000000     
  0.21875000000000000       0.75000000000000000        0.0000000000000000     
  0.25000000000000000       0.75000000000000000        0.0000000000000000     
  0.12500000000000000       0.78125000000000000        0.0000000000000000     
  0.15625000000000000       0.78125000000000000        0.0000000000000000     
  0.18750000000000000       0.78125000000000000        0.0000000000000000     
  0.21875000000000000       0.78125000000000000        0.0000000000000000     
  0.25000000000000000       0.78125000000000000        0.0000000000000000     
  0.12500000000000000       0.81250000000000000        0.0000000000000000     
  0.15625000000000000       0.81250000000000000        0.0000000000000000     
  0.18750000000000000       0.81250000000000000        0.0000000000000000     
  0.21875000000000000       0.81250000000000000        0.0000000000000000     
  0.25000000000000000       0.81250000000000000        0.0000000000000000     
  0.12500000000000000       0.84375000000000000        0.0000000000000000     
  0.15625000000000000       0.84375000000000000        0.0000000000000000     
  0.18750000000000000       0.84375000000000000        0.0000000000000000     
  0.21875000000000000       0.84375000000000000        0.0000000000000000     
  0.25000000000000000       0.84375000000000000        0.0000000000000000     
  0.12500000000000000       0.87500000000000000        0.0000000000000000     
  0.15625000000000000       0.87500000000000000        0.0000000000000000     
  0.18750000000000000       0.87500000000000000        0.0000000000000000     
  0.21875000000000000       0.87500000000000000        0.0000000000000000     
  0.25000000000000000       0.87500000000000000        0.0000000000000000     
  0.25000000000000000       0.75000000000000000        0.0000000000000000     
  0.28125000000000000       0.75000000000000000        0.0000000000000000     
  0.31250000000000000       0.75000000000000000        0.0000000000000000     
  0.34375000000000000       0.75000000000000000        0.0000000000000000     
  0.37500000000000000       0.75000000000000000        0.0000000000000000     
  0.25000000000000000       0.78125000000000000        0.0000000000000000     
  0.28125000000000000       0.78125000000000000        0.0000000000000000     
  0.31250000000000000       0.78125000000000000        0.0000000000000000     
  0.34375000000000000       0.78125000000000000        0.0000000000000000     
  0.37500000000000000       0.78125000000000000        0.0000000000000000     
  0.25000000000000000       0.81250000000000000        0.0000000000000000     
  0.28125000000000000       0.81250000000000000        0.0000000000000000     
  0.31250000000000000       0.81250000000000000        0.0000000000000000     
  0.34375000000000000       0.81250000000000000        0.0000000000000000     
  0.37500000000000000       0.81250000000000000        0.0000000000000000     
  0.25000000000000000       0.84375000000000000        0.0000000000000000     
  0.28125000000000000       0.84375000000000000        0.0000000000000000     
  0.31250000000000000       0.84375000000000000        0.0000000000000000     
  0.34375000000000000       0.84375000000000000        0.0000000000000000     
  0.37500000000000000       0.84375000000000000        0.0000000000000000     
  0.25000000000000000       0.87500000000000000        0.0000000000000000     
  0.28125000000000000       0.87500000000000000        0.0000000000000000     
  0.31250000000000000       0.87500000000000000        0.0000000000000000     
  0.34375000000000000       0.87500000000000000        0.0000000000000000     
  0.37500000000000000       0.87500000000000000        0.0000000000000000     
  0.37500000000000000       0.75000000000000000        0.0000000000000000     
  0.40625000000000000       0.75000000000000000        0.0000000000000000     
  0.43750000000000000       0.75000000000000000        0.0000000000000000     
  0.46875000000000000       0.75000000000000000        0.0000000000000000     
  0.50000000000000000       0.75000000000000000        0.0000000000000000     
  0.37500000000000000       0.78125000000000000        0.0000000000000000     
  0.40625000000000000       0.78125000000000000        0.0000000000000000     
  0.43750000000000000       0.78125000000000000        0.0000000000000000     
  0.46875000000000000       0.78125000000000000        0.0000000000000000     
  0.50000000000000000       0.78125000000000000        0.0000000000000000     
  0.37500000000000000       0.81250000000000000        0.0000000000000000     
  0.40625000000000000       0.81250000000000000        0.0000000000000000     
  0.43750000000000000       0.81250000000000000        0.0000000000000000     
  0.46875000000000000       0.81250000000000000        0.0000000000000000     
  0.50000000000000000       0.81250000000000000        0.0000000000000000     
  0.37500000000000000       0.84375000000000000        0.0000000000000000     
  0.40625000000000000       0.84375000000000000        0.0000000000000000     
  0.43750000000000000       0.84375000000000000        0.0000000000000000     
  0.46875000000000000       0.84375000000000000        0.0000000000000000     
  0.50000000000000000       0.84375000000000000        0.0000000000000000     
  0.37500000000000000       0.87500000000000000        0.0000000000000000     
  0.40625000000000000       0.87500000000000000        0.0000000000000000     
  0.43750000000000000       0.87500000000000000        0.0000000000000000     
  0.46875000000000000       0.87500000000000000        0.0000000000000000     
  0.50000000000000000       0.87500000000000000        0.0000000000000000     
  0.50000000000000000       0.75000000000000000        0.0000000000000000     
  0.53125000000000000       0.75000000000000000        0.0000000000000000     
  0.56250000000000000       0.75000000000000000        0.0000000000000000     
  0.59375000000000000       0.75000000000000000        0.0000000000000000     
  0.62500000000000000       0.75000000000000000        0.0000000000000000     
  0.50000000000000000       0.78125000000000000        0.0000000000000000     
  0.53125000000000000       0.78125000000000000        0.0000000000000000     
  0.56250000000000000       0.78125000000000000        0.0000000000000000     
  0.59375000000000000       0.78125000000000000        0.0000000000000000     
  0.62500000000000000       0.78125000000000000        0.0000000000000000     
  0.50000000000000000       0.81250000000000000        0.0000000000000000     
  0.53125000000000000       0.81250000000000000        0.0000000000000000     
  0.56250000000000000       0.81250000000000000        0.0000000000000000     
  0.59375000000000000       0.81250000000000000        0.0000000000000000     
  0.62500000000000000       0.81250000000000000        0.0000000000000000     
  0.50000000000000000       0.84375000000000000        0.0000000000000000     
  0.53125000000000000       0.84375000000000000        0.0000000000000000     
  0.56250000000000000       0.84375000000000000        0.0000000000000000     
  0.59375000000000000       0.84375000000000000        0.0000000000000000     
  0.62500000000000000       0.84375000000000000        0.0000000000000000     
  0.50000000000000000       0.87500000000000000        0.0000000000000000     
  0.53125000000000000       0.87500000000000000        0.0000000000000000     
  0.56250000000000000       0.87500000000000000        0.0000000000000000     
  0.59375000000000000       0.87500000000000000        0.0000000000000000     
  0.62500000000000000       0.87500000000000000        0.0000000000000000     
  0.62500000000000000       0.75000000000000000        0.0000000000000000     
  0.65625000000000000       0.75000000000000000        0.0000000000000000     
  0.68750000000000000       0.75000000000000000        0.0000000000000000     
  0.71875000000000000       0.75000000000000000        0.0000000000000000     
  0.75000000000000000       0.75000000000000000        0.0000000000000000     
  0.62500000000000000       0.78125000000000000        0.0000000000000000     
  0.65625000000000000       0.78125000000000000        0.0000000000000000     
  0.68750000000000000       0.78125000000000000        0.0000000000000000     
  0.71875000000000000       0.78125000000000000        0.0000000000000000     
  0.75000000000000000       0.78125000000000000        0.0000000000000000     
  0.62500000000000000       0.81250000000000000        0.0000000000000000     
  0.65625000000000000       0.81250000000000000        0.0000000000000000     
  0.68750000000000000       0.81250000000000000        0.0000000000000000     
  0.71875000000000000       0.81250000000000000        0.0000000000000000     
  0.75000000000000000       0.81250000000000000        0.0000000000000000     
  0.62500000000000000       0.84375000000000000        0.0000000000000000     
  0.65625000000000000       0.84375000000000000        0.0000000000000000     
  0.68750000000000000       0.84375000000000000        0.0000000000000000     
  0.71875000000000000       0.84375000000000000        0.0000000000000000     
  0.75000000000000000       0.84375000000000000        0.0000000000000000     
  0.62500000000000000       0.87500000000000000        0.0000000000000000     
  0.65625000000000000       0.87500000000000000        0.0000000000000000     
  0.68750000000000000       0.87500000000000000        0.0000000000000000     
  0.71875000000000000       0.87500000000000000        0.0000000000000000     
  0.75000000000000000       0.87500000000000000        0.0000000000000000     
  0.75000000000000000       0.75000000000000000        0.0000000000000000     
  0.78125000000000000       0.75000000000000000        0.0000000000000000     
  0.81250000000000000       0.75000000000000000        0.0000000000000000     
  0.84375000000000000       0.75000000000000000        0.0000000000000000     
  0.87500000000000000       0.75000000000000000        0.0000000000000000     
  0.75000000000000000       0.78125000000000000        0.0000000000000000     
  0.78125000000000000       0.78125000000000000        0.0000000000000000     
  0.81250000000000000       0.78125000000000000        0.0000000000000000     
  0.84375000000000000       0.78125000000000000        0.0000000000000000     
  0.87500000000000000       0.78125000000000000        0.0000000000000000     
  0.75000000000000000       0.81250000000000000        0.0000000000000000     
  0.78125000000000000       0.81250000000000000        0.0000000000000000     
  0.81250000000000000       0.81250000000000000        0.0000000000000000     
  0.84375000000000000       0.81250000000000000        0.0000000000000000     
  0.87500000000000000       0.81250000000000000        0.0000000000000000     
  0.75000000000000000       0.84375000000000000        0.0000000000000000     
  0.78125000000000000       0.84375000000000000        0.0000000000000000     
  0.81250000000000000       0.84375000000000000        0.0000000000000000     
  0.84375000000000000       0.84375000000000000        0.0000000000000000     
  0.87500000000000000       0.84375000000000000        0.0000000000000000     
  0.75000000000000000       0.87500000000000000        0.0000000000000000     
  0.78125000000000000       0.87500000000000000        0.0000000000000000     
  0.81250000000000000       0.87500000000000000        0.0000000000000000     
  0.84375000000000000       0.87500000000000000        0.0000000000000000     
  0.87500000000000000       0.87500000000000000        0.0000000000000000     
  0.87500000000000000       0.75000000000000000        0.0000000000000000     
  0.90625000000000000       0.75000000000000000        0.0000000000000000     
  0.93750000000000000       0.75000000000000000        0.0000000000000000     
  0.96875000000000000       0.75000000000000000        0.0000000000000000     
   1.0000000000000000       0.75000000000000000        0.0000000000000000     
  0.87500000000000000       0.78125000000000000        0.0000000000000000     
  0.90625000000000000       0.78125000000000000        0.0000000000000000     
  0.93750000000000000       0.78125000000000000        0.0000000000000000     
  0.96875000000000000       0.78125000000000000        0.0000000000000000     
   1.0000000000000000       0.78125000000000000        0.0000000000000000     
  0.87500000000000000       0.81250000000000000        0.0000000000000000     
  0.90625000000000000       0.81250000000000000        0.0000000000000000     
  0.93750000000000000       0.81250000000000000        0.0000000000000000     
  0.96875000000000000       0.81250000000000000        0.0000000000000000     
   1.0000000000000000       0.81250000000000000        0.0000000000000000     
  0.87500000000000000       0.84375000000000000        0.0000000000000000     
  0.90625000000000000       0.84375000000000000        0.0000000000000000     
  0.93750000000000000       0.84375000000000000        0.0000000000000000     
  0.96875000000000000       0.84375000000000000        0.0000000000000000     
   1.0000000000000000       0.84375000000000000        0.0000000000000000     
  0.87500000000000000       0.87500000000000000        0.0000000000000000     
  0.90625000000000000       0.87500000000000000        0.0000000000000000     
  0.93750000000000000       0.87500000000000000        0.0000000000000000     
  0.96875000000000000       0.87500000000000000        0.0000000000000000     
   1.0000000000000000       0.87500000000000000        0.0000000000000000     
   0.0000000000000000       0.87500000000000000        0.0000000000000000     
   3.1250000000000000E-002  0.87500000000000000        0.0000000000000000     
   6.2500000000000000E-002  0.87500000000000000        0.0000000000000000     
   9.3750000000000000E-002  0.87500000000000000        0.0000000000000000     
  0.12500000000000000       0.87500000000000000        0.0000000000000000     
   0.0000000000000000       0.90625000000000000        0.0000000000000000     
   3.1250000000000000E-002  0.90625000000000000        0.0000000000000000     
   6.2500000000000000E-002  0.90625000000000000        0.0000000000000000     
   9.3750000000000000E-002  0.90625000000000000        0.0000000000000000     
  0.12500000000000000       0.90625000000000000        0.0000000000000000     
   0.0000000000000000       0.93750000000000000        0.0000000000000000     
   3.1250000000000000E-002  0.93750000000000000        0.0000000000000000     
   6.2500000000000000E-002  0.93750000000000000        0.0000000000000000     
   9.3750000000000000E-002  0.93750000000000000        0.0000000000000000     
  0.12500000000000000       0.93750000000000000        0.0000000000000000     
   0.0000000000000000       0.96875000000000000        0.0000000000000000     
   3.1250000000000000E-002  0.96875000000000000        0.0000000000000000     
   6.2500000000000000E-002  0.96875000000000000        0.0000000000000000     
   9.3750000000000000E-002  0.96875000000000000        0.0000000000000000     
  0.12500000000000000       0.96875000000000000        0.0000000000000000     
   0.0000000000000000        1.0000000000000000        0.0000000000000000     
   3.1250000000000000E-002   1.0000000000000000        0.0000000000000000     
   6.2500000000000000E-002   1.0000000000000000        0.0000000000000000     
   9.3750000000000000E-002   1.0000000000000000        0.0000000000000000     
  0.12500000000000000        1.0000000000000000        0.0000000000000000     
  0.12500000000000000       0.87500000000000000        0.0000000000000000     
  0.15625000000000000       0.87500000000000000        0.0000000000000000     
  0.18750000000000000       0.87500000000000000        0.0000000000000000     
  0.21875000000000000       0.87500000000000000        0.0000000000000000     
  0.25000000000000000       0.87500000000000000        0.0000000000000000     
  0.12500000000000000       0.90625000000000000        0.0000000000000000     
  0.15625000000000000       0.90625000000000000        0.0000000000000000     
  0.18750000000000000       0.90625000000000000        0.0000000000000000     
  0.21875000000000000       0.90625000000000000        0.0000000000000000     
  0.25000000000000000       0.90625000000000000        0.0000000000000000     
  0.12500000000000000       0.93750000000000000        0.0000000000000000     
  0.15625000000000000       0.93750000000000000        0.0000000000000000     
  0.18750000000000000       0.93750000000000000        0.0000000000000000     
  0.21875000000000000       0.93750000000000000        0.0000000000000000     
  0.25000000000000000       0.93750000000000000        0.0000000000000000     
  0.12500000000000000       0.96875000000000000        0.0000000000000000     
  0.15625000000000000       0.96875000000000000        0.0000000000000000     
  0.18750000000000000       0.96875000000000000        0.0000000000000000     
  0.21875000000000000       0.96875000000000000        0.0000000000000000     
  0.25000000000000000       0.96875000000000000        0.0000000000000000     
  0.12500000000000000        1.0000000000000000        0.0000000000000000     
  0.15625000000000000        1.0000000000000000        0.0000000000000000     
  0.18750000000000000        1.0000000000000000        0.0000000000000000     
  0.21875000000000000        1.0000000000000000        0.0000000000000000     
  0.25000000000000000        1.0000000000000000        0.0000000000000000     
  0.25000000000000000       0.87500000000000000        0.0000000000000000     
  0.28125000000000000       0.87500000000000000        0.0000000000000000     
  0.31250000000000000       0.87500000000000000        0.0000000000000000     
  0.34375000000000000       0.87500000000000000        0.0000000000000000     
  0.37500000000000000       0.87500000000000000        0.0000000000000000     
  0.25000000000000000       0.90625000000000000        0.0000000000000000     
  0.28125000000000000       0.90625000000000000        0.0000000000000000     
  0.31250000000000000       0.90625000000000000        0.0000000000000000     
  0.34375000000000000       0.90625000000000000        0.0000000000000000     
  0.37500000000000000       0.90625000000000000        0.0000000000000000     
  0.25000000000000000       0.93750000000000000        0.0000000000000000     
  0.28125000000000000       0.93750000000000000        0.0000000000000000     
  0.31250000000000000       0.93750000000000000        0.0000000000000000     
  0.34375000000000000       0.93750000000000000        0.0000000000000000     
  0.37500000000000000       0.93750000000000000        0.0000000000000000     
  0.25000000000000000       0.96875000000000000        0.0000000000000000     
  0.28125000000000000       0.96875000000000000        0.0000000000000000     
  0.31250000000000000       0.96875000000000000        0.0000000000000000     
  0.34375000000000000       0.96875000000000000        0.0000000000000000     
  0.37500000000000000       0.96875000000000000        0.0000000000000000     
  0.25000000000000000        1.0000000000000000        0.0000000000000000     
  0.28125000000000000        1.0000000000000000        0.0000000000000000     
  0.31250000000000000        1.0000000000000000        0.0000000000000000     
  0.34375000000000000        1.0000000000000000        0.0000000000000000     
  0.37500000000000000        1.0000000000000000        0.0000000000000000     
  0.37500000000000000       0.87500000000000000        0.0000000000000000     
  0.40625000000000000       0.87500000000000000        0.0000000000000000     
  0.43750000000000000       0.87500000000000000        0.0000000000000000     
  0.46875000000000000       0.87500000000000000        0.0000000000000000     
  0.50000000000000000       0.87500000000000000        0.0000000000000000     
  0.37500000000000000       0.90625000000000000        0.0000000000000000     
  0.40625000000000000       0.90625000000000000        0.0000000000000000     
  0.43750000000000000       0.90625000000000000        0.0000000000000000     
  0.46875000000000000       0.90625000000000000        0.0000000000000000     
  0.50000000000000000       0.90625000000000000        0.0000000000000000     
  0.37500000000000000       0.93750000000000000        0.0000000000000000     
  0.40625000000000000       0.93750000000000000        0.0000000000000000     
  0.43750000000000000       0.93750000000000000        0.0000000000000000     
  0.46875000000000000       0.93750000000000000        0.0000000000000000     
  0.50000000000000000       0.93750000000000000        0.0000000000000000     
  0.37500000000000000       0.96875000000000000        0.0000000000000000     
  0.40625000000000000       0.96875000000000000        0.0000000000000000     
  0.43750000000000000       0.96875000000000000        0.0000000000000000     
  0.46875000000000000       0.96875000000000000        0.0000000000000000     
  0.50000000000000000       0.96875000000000000        0.0000000000000000     
  0.37500000000000000        1.0000000000000000        0.0000000000000000     
  0.40625000000000000        1.0000000000000000        0.0000000000000000     
  0.43750000000000000        1.0000000000000000        0.0000000000000000     
  0.46875000000000000        1.0000000000000000        0.0000000000000000     
  0.50000000000000000        1.0000000000000000        0.0000000000000000     
  0.50000000000000000       0.87500000000000000        0.0000000000000000     
  0.53125000000000000       0.87500000000000000        0.0000000000000000     
  0.56250000000000000       0.87500000000000000        0.0000000000000000     
  0.59375000000000000       0.87500000000000000        0.0000000000000000     
  0.62500000000000000       0.87500000000000000        0.0000000000000000     
  0.50000000000000000       0.90625000000000000        0.0000000000000000     
  0.53125000000000000       0.90625000000000000        0.0000000000000000     
  0.56250000000000000       0.90625000000000000        0.0000000000000000     
  0.59375000000000000       0.90625000000000000        0.0000000000000000     
  0.62500000000000000       0.90625000000000000        0.0000000000000000     
  0.50000000000000000       0.93750000000000000        0.0000000000000000     
  0.53125000000000000       0.93750000000000000        0.0000000000000000     
  0.56250000000000000       0.93750000000000000        0.0000000000000000     
  0.59375000000000000       0.93750000000000000        0.0000000000000000     
  0.62500000000000000       0.93750000000000000        0.0000000000000000     
  0.50000000000000000       0.96875000000000000        0.0000000000000000     
  0.53125000000000000       0.96875000000000000        0.0000000000000000     
  0.56250000000000000       0.96875000000000000        0.0000000000000000     
  0.59375000000000000       0.96875000000000000        0.0000000000000000     
  0.62500000000000000       0.96875000000000000        0.0000000000000000     
  0.50000000000000000        1.0000000000000000        0.0000000000000000     
  0.53125000000000000        1.0000000000000000        0.0000000000000000     
  0.56250000000000000        1.0000000000000000        0.0000000000000000     
  0.59375000000000000        1.0000000000000000        0.0000000000000000     
  0.62500000000000000        1.0000000000000000        0.0000000000000000     
  0.62500000000000000       0.87500000000000000        0.0000000000000000     
  0.65625000000000000       0.87500000000000000        0.0000000000000000     
  0.68750000000000000       0.87500000000000000        0.0000000000000000     
  0.71875000000000000       0.87500000000000000        0.0000000000000000     
  0.75000000000000000       0.87500000000000000        0.0000000000000000     
  0.62500000000000000       0.90625000000000000        0.0000000000000000     
  0.65625000000000000       0.90625000000000000        0.0000000000000000     
  0.68750000000000000       0.90625000000000000        0.0000000000000000     
  0.71875000000000000       0.90625000000000000        0.0000000000000000     
  0.75000000000000000       0.90625000000000000        0.0000000000000000     
  0.62500000000000000       0.93750000000000000        0.0000000000000000     
  0.65625000000000000       0.93750000000000000        0.0000000000000000     
  0.68750000000000000       0.93750000000000000        0.0000000000000000     
  0.71875000000000000       0.93750000000000000        0.0000000000000000     
  0.75000000000000000       0.93750000000000000        0.0000000000000000     
  0.62500000000000000       0.96875000000000000        0.0000000000000000     
  0.65625000000000000       0.96875000000000000        0.0000000000000000     
  0.68750000000000000       0.96875000000000000        0.0000000000000000     
  0.71875000000000000       0.96875000000000000        0.0000000000000000     
  0.75000000000000000       0.96875000000000000        0.0000000000000000     
  0.62500000000000000        1.0000000000000000        0.0000000000000000     
  0.65625000000000000        1.0000000000000000        0.0000000000000000     
  0.68750000000000000        1.0000000000000000        0.0000000000000000     
  0.71875000000000000        1.0000000000000000        0.0000000000000000     
  0.75000000000000000        1.0000000000000000        0.0000000000000000     
  0.75000000000000000       0.87500000000000000        0.0000000000000000     
  0.78125000000000000       0.87500000000000000        0.0000000000000000     
  0.81250000000000000       0.87500000000000000        0.0000000000000000     
  0.84375000000000000       0.87500000000000000        0.0000000000000000     
  0.87500000000000000       0.87500000000000000        0.0000000000000000     
  0.75000000000000000       0.90625000000000000        0.0000000000000000     
  0.78125000000000000       0.90625000000000000        0.0000000000000000     
  0.81250000000000000       0.90625000000000000        0.0000000000000000     
  0.84375000000000000       0.90625000000000000        0.0000000000000000     
  0.87500000000000000       0.90625000000000000        0.0000000000000000     
  0.75000000000000000       0.93750000000000000        0.0000000000000000     
  0.78125000000000000       0.93750000000000000        0.0000000000000000     
  0.81250000000000000       0.93750000000000000        0.0000000000000000     
  0.84375000000000000       0.93750000000000000        0.0000000000000000     
  0.87500000000000000       0.93750000000000000        0.0000000000000000     
  0.75000000000000000       0.96875000000000000        0.0000000000000000     
  0.78125000000000000       0.96875000000000000        0.0000000000000000     
  0.81250000000000000       0.96875000000000000        0.0000000000000000     
  0.84375000000000000       0.96875000000000000        0.0000000000000000     
  0.87500000000000000       0.96875000000000000        0.0000000000000000     
  0.75000000000000000        1.0000000000000000        0.0000000000000000     
  0.78125000000000000        1.0000000000000000        0.0000000000000000     
  0.81250000000000000        1.0000000000000000        0.0000000000000000     
  0.84375000000000000        1.0000000000000000        0.0000000000000000     
  0.87500000000000000        1.0000000000000000        0.0000000000000000     
  0.87500000000000000       0.87500000000000000        0.0000000000000000     
  0.90625000000000000       0.87500000000000000        0.0000000000000000     
  0.93750000000000000       0.87500000000000000        0.0000000000000000     
  0.96875000000000000       0.87500000000000000        0.0000000000000000     
   1.0000000000000000       0.87500000000000000        0.0000000000000000     
  0.87500000000000000       0.90625000000000000        0.0000000000000000     
  0.90625000000000000       0.90625000000000000        0.0000000000000000     
  0.93750000000000000       0.90625000000000000        0.0000000000000000     
  0.96875000000000000       0.90625000000000000        0.0000000000000000     
   1.0000000000000000       0.90625000000000000        0.0000000000000000     
  0.87500000000000000       0.93750000000000000        0.0000000000000000     
  0.90625000000000000       0.93750000000000000        0.0000000000000000     
  0.93750000000000000       0.93750000000000000        0.0000000000000000     
  0.96875000000000000       0.93750000000000000        0.0000000000000000     
   1.0000000000000000       0.93750000000000000        0.0000000000000000     
  0.87500000000000000       0.96875000000000000        0.0000000000000000     
  0.90625000000000000       0.96875000000000000        0.0000000000000000     
  0.93750000000000000       0.96875000000000000        0.0000000000000000     
  0.96875000000000000       0.96875000000000000        0.0000000000000000     
   1.0000000000000000       0.96875000000000000        0.0000000000000000     
  0.87500000000000000        1.0000000000000000        0.0000000000000000     
  0.90625000000000000        1.0000000000000000        0.0000000000000000     
  0.93750000000000000        1.0000000000000000        0.0000000000000000     
  0.96875000000000000        1.0000000000000000        0.0000000000000000     
   1.0000000000000000        1.0000000000000000        0.0000000000000000     
 </DataArray>
 </Points>
 <Cells>
 <DataArray  type="Int32"  Name="connectivity"  format="ascii">
           0           1           6           5
           1           2           7           6
           2           3           8           7
           3           4           9           8
           5           6          11          10
           6           7          12          11
           7           8          13          12
           8           9          14          13
          10          11          16          15
          11          12          17          16
          12          13          18          17
          13          14          19          18
          15          16          21          20
          16          17          22          21
          17          18          23          22
          18          19          24          23
          25          26          31          30
          26          27          32          31
          27          28          33          32
          28          29          34          33
          30          31          36          35
          31          32          37          36
          32          33          38          37
          33          34          39          38
          35          36          41          40
          36          37          42          41
          37          38          43          42
          38          39          44          43
          40          41          46          45
          41          42          47          46
          42          43          48          47
          43          44          49          48
          50          51          56          55
          51          52          57          56
          52          53          58          57
          53          54          59          58
          55          56          61          60
          56          57          62          61
          57          58          63          62
          58          59          64          63
          60          61          66          65
          61          62          67          66
          62          63          68          67
          63          64          69          68
          65          66          71          70
          66          67          72          71
          67          68          73          72
          68          69          74          73
          75          76          81          80
          76          77          82          81
          77          78          83          82
          78          79          84          83
          80          81          86          85
          81          82          87          86
          82          83          88          87
          83          84          89          88
          85          86          91          90
          86          87          92          91
          87          88          93          92
          88          89          94          93
          90          91          96          95
          91          92          97          96
          92          93          98          97
          93          94          99          98
         100         101         106         105
         101         102         107         106
         102         103         108         107
         103         104         109         108
         105         106         111         110
         106         107         112         111
         107         108         113         112
         108         109         114         113
         110         111         116         115
         111         112         117         116
         112         113         118         117
         113         114         119         118
         115         116         121         120
         116         117         122         121
         117         118         123         122
         118         119         124         123
         125         126         131         130
         126         127         132         131
         127         128         133         132
         128         129         134         133
         130         131         136         135
         131         132         137         136
         132         133         138         137
         133         134         139         138
         135         136         141         140
         136         137         142         141
         137         138         143         142
         138         139         144         143
         140         141         146         145
         141         142         147         146
         142         143         148         147
         143         144         149         148
         150         151         156         155
         151         152         157         156
         152         153         158         157
         153         154         159         158
         155         156         161         160
         156         157         162         161
         157         158         163         162
         158         159         164         163
         160         161         166         165
         161         162         167         166
         162         163         168         167
         163         164         169         168
         165         166         171         170
         166         167         172         171
         167         168         173         172
         168         169         174         173
         175         176         181         180
         176         177         182         181
         177         178         183         182
         178         179         184         183
         180         181         186         185
         181         182         187         186
         182         183         188         187
         183         184         189         188
         185         186         191         190
         186         187         192         191
         187         188         193         192
         188         189         194         193
         190         191         196         195
         191         192         197         196
         192         193         198         197
         193         194         199         198
         200         201         206         205
         201         202         207         206
         202         203         208         207
         203         204         209         208
         205         206         211         210
         206         207         212         211
         207         208         213         212
         208         209         214         213
         210         211         216         215
         211         212         217         216
         212         213         218         217
         213         214         219         218
         215         216         221         220
         216         217         222         221
         217         218         223         222
         218         219         224         223
         225         226         231         230
         226         227         232         231
         227         228         233         232
         228         229         234         233
         230         231         236         235
         231         232         237         236
         232         233         238         237
         233         234         239         238
         235         236         241         240
         236         237         242         241
         237         238         243         242
         238         239         244         243
         240         241         246         245
         241         242         247         246
         242         243         248         247
         243         244         249         248
         250         251         256         255
         251         252         257         256
         252         253         258         257
         253         254         259         258
         255         256         261         260
         256         257         262         261
         257         258         263         262
         258         259         264         263
         260         261         266         265
         261         262         267         266
         262         263         268         267
         263         264         269         268
         265         266         271         270
         266         267         272         271
         267         268         273         272
         268         269         274         273
         275         276         281         280
         276         277         282         281
         277         278         283         282
         278         279         284         283
         280         281         286         285
         281         282         287         286
         282         283         288         287
         283         284         289         288
         285         286         291         290
         286         287         292         291
         287         288         293         292
         288         289         294         293
         290         291         296         295
         291         292         297         296
         292         293         298         297
         293         294         299         298
         300         301         306         305
         301         302         307         306
         302         303         308         307
         303         304         309         308
         305         306         311         310
         306         307         312         311
         307         308         313         312
         308         309         314         313
         310         311         316         315
         311         312         317         316
         312         313         318         317
         313         314         319         318
         315         316         321         320
         316         317         322         321
         317         318         323         322
         318         319         324         323
         325         326         331         330
         326         327         332         331
         327         328         333         332
         328         329         334         333
         330         331         336         335
         331         332         337         336
         332         333         338         337
         333         334         339         338
         335         336         341         340
         336         337         342         341
         337         338         343         342
         338         339         344         343
         340         341         346         345
         341         342         347         346
         342         343         348         347
         343         344         349         348
         350         351         356         355
         351         352         357         356
         352         353         358         357
         353         354         359         358
         355         356         361         360
         356         357         362         361
         357         358         363         362
         358         359         364         363
         360         361         366         365
         361         362         367         366
         362         363         368         367
         363         364         369         368
         365         366         371         370
         366         367         372         371
         367         368         373         372
         368         369         374         373
         375         376         381         380
         376         377         382         381
         377         378         383         382
         378         379         384         383
         380         381         386         385
         381         382         387         386
         382         383         388         387
         383         384         389         388
         385         386         391         390
         386         387         392         391
         387         388         393         392
         388         389         394         393
         390         391         396         395
         391         392         397         396
         392         393         398         397
         393         394         399         398
         400         401         406         405
         401         402         407         406
         402         403         408         407
         403         404         409         408
         405         406         411         410
         406         407         412         411
         407         408         413         412
         408         409         414         413
         410         411         416         415
         411         412         417         416
         412         413         418         417
         413         414         419         418
         415         416         421         420
         416         417         422         421
         417         418         423         422
         418         419         424         423
         425         426         431         430
         426         427         432         431
         427         428         433         432
         428         429         434         433
         430         431         436         435
         431         432         437         436
         432         433         438         437
         433         434         439         438
         435         436         441         440
         436         437         442         441
         437         438         443         442
         438         439         444         443
         440         441         446         445
         441         442         447         446
         442         443         448         447
         443         444         449         448
         450         451         456         455
         451         452         457         456
         452         453         458         457
         453         454         459         458
         455         456         461         460
         456         457         462         461
         457         458         463         462
         458         459         464         463
         460         461         466         465
         461         462         467         466
         462         463         468         467
         463         464         469         468
         465         466         471         470
         466         467         472         471
         467         468         473         472
         468         469         474         473
         475         476         481         480
         476         477         482         481
         477         478         483         482
         478         479         484         483
         480         481         486         485
         481         482         487         486
         482         483         488         487
         483         484         489         488
         485         486         491         490
         486         487         492         491
         487         488         493         492
         488         489         494         493
         490         491         496         495
         491         492         497         496
         492         493         498         497
         493         494         499         498
         500         501         506         505
         501         502         507         506
         502         503         508         507
         503         504         509         508
         505         506         511         510
         506         507         512         511
         507         508         513         512
         508         509         514         513
         510         511         516         515
         511         512         517         516
         512         513         518         517
         513         514         519         518
         515         516         521         520
         516         517         522         521
         517         518         523         522
         518         519         524         523
         525         526         531         530
         526         527         532         531
         527         528         533         532
         528         529         534         533
         530         531         536         535
         531         532         537         536
         532         533         538         537
         533         534         539         538
         535         536         541         540
         536         537         542         541
         537         538         543         542
         538         539         544         543
         540         541         546         545
         541         542         547         546
         542         543         548         547
         543         544         549         548
         550         551         556         555
         551         552         557         556
         552         553         558         557
         553         554         559         558
         555         556         561         560
         556         557         562         561
         557         558         563         562
         558         559         564         563
         560         561         566         565
         561         562         567         566
         562         563         568         567
         563         564         569         568
         565         566         571         570
         566         567         572         571
         567         568         573         572
         568         569         574         573
         575         576         581         580
         576         577         582         581
         577         578         583         582
         578         579         584         583
         580         581         586         585
         581         582         587         586
         582         583         588         587
         583         584         589         588
         585         586         591         590
         586         587         592         591
         587         588         593         592
         588         589         594         593
         590         591         596         595
         591         592         597         596
         592         593         598         597
         593         594         599         598
         600         601         606         605
         601         602         607         606
         602         603         608         607
         603         604         609         608
         605         606         611         610
         606         607         612         611
         607         608         613         612
         608         609         614         613
         610         611         616         615
         611         612         617         616
         612         613         618         617
         613         614         619         618
         615         616         621         620
         616         617         622         621
         617         618         623         622
         618         619         624         623
         625         626         631         630
         626         627         632         631
         627         628         633         632
         628         629         634         633
         630         631         636         635
         631         632         637         636
         632         633         638         637
         633         634         639         638
         635         636         641         640
         636         637         642         641
         637         638         643         642
         638         639         644         643
         640         641         646         645
         641         642         647         646
         642         643         648         647
         643         644         649         648
         650         651         656         655
         651         652         657         656
         652         653         658         657
         653         654         659         658
         655         656         661         660
         656         657         662         661
         657         658         663         662
         658         659         664         663
         660         661         666         665
         661         662         667         666
         662         663         668         667
         663         664         669         668
         665         666         671         670
         666         667         672         671
         667         668         673         672
         668         669         674         673
         675         676         681         680
         676         677         682         681
         677         678         683         682
         678         679         684         683
         680         681         686         685
         681         682         687         686
         682         683         688         687
         683         684         689         688
         685         686         691         690
         686         687         692         691
         687         688         693         692
         688         689         694         693
         690         691         696         695
         691         692         697         696
         692         693         698         697
         693         694         699         698
         700         701         706         705
         701         702         707         706
         702         703         708         707
         703         704         709         708
         705         706         711         710
         706         707         712         711
         707         708         713         712
         708         709         714         713
         710         711         716         715
         711         712         717         716
         712         713         718         717
         713         714         719         718
         715         716         721         720
         716         717         722         721
         717         718         723         722
         718         719         724         723
         725         726         731         730
         726         727         732         731
         727         728         733         732
         728         729         734         733
         730         731         736         735
         731         732         737         736
         732         733         738         737
         733         734         739         738
         735         736         741         740
         736         737         742         741
         737         738         743         742
         738         739         744         743
         740         741         746         745
         741         742         747         746
         742         743         748         747
         743         744         749         748
         750         751         756         755
         751         752         757         756
         752         753         758         757
         753         754         759         758
         755         756         761         760
         756         757         762         761
         757         758         763         762
         758         759         764         763
         760         761         766         765
         761         762         767         766
         762         763         768         767
         763         764         769         768
         765         766         771         770
         766         767         772         771
         767         768         773         772
         768         769         774         773
         775         776         781         780
         776         777         782         781
         777         778         783         782
         778         779         784         783
         780         781         786         785
         781         782         787         786
         782         783         788         787
         783         784         789         788
         785         786         791         790
         786         787         792         791
         787         788         793         792
         788         789         794         793
         790         791         796         795
         791         792         797         796
         792         793         798         797
         793         794         799         798
         800         801         806         805
         801         802         807         806
         802         803         808         807
         803         804         809         808
         805         806         811         810
         806         807         812         811
         807         808         813         812
         808         809         814         813
         810         811         816         815
         811         812         817         816
         812         813         818         817
         813         814         819         818
         815         816         821         820
         816         817         822         821
         817         818         823         822
         818         819         824         823
         825         826         831         830
         826         827         832         831
         827         828         833         832
         828         829         834         833
         830         831         836         835
         831         832         837         836
         832         833         838         837
         833         834         839         838
         835         836         841         840
         836         837         842         841
         837         838         843         842
         838         839         844         843
         840         841         846         845
         841         842         847         846
         842         843         848         847
         843         844         849         848
         850         851         856         855
         851         852         857         856
         852         853         858         857
         853         854         859         858
         855         856         861         860
         856         857         862         861
         857         858         863         862
         858         859         864         863
         860         861         866         865
         861         862         867         866
         862         863         868         867
         863         864         869         868
         865         866         871         870
         866         867         872         871
         867         868         873         872
         868         869         874         873
         875         876         881         880
         876         877         882         881
         877         878         883         882
         878         879         884         883
         880         881         886         885
         881         882         887         886
         882         883         888         887
         883         884         889         888
         885         886         891         890
         886         887         892         891
         887         888         893         892
         888         889         894         893
         890         891         896         895
         891         892         897         896
         892         893         898         897
         893         894         899         898
         900         901         906         905
         901         902         907         906
         902         903         908         907
         903         904         909         908
         905         906         911         910
         906         907         912         911
         907         908         913         912
         908         909         914         913
         910         911         916         915
         911         912         917         916
         912         913         918         917
         913         914         919         918
         915         916         921         920
         916         917         922         921
         917         918         923         922
         918         919         924         923
         925         926         931         930
         926         927         932         931
         927         928         933         932
         928         929         934         933
         930         931         936         935
         931         932         937         936
         932         933         938         937
         933         934         939         938
         935         936         941         940
         936         937         942         941
         937         938         943         942
         938         939         944         943
         940         941         946         945
         941         942         947         946
         942         943         948         947
         943         944         949         948
         950         951         956         955
         951         952         957         956
         952         953         958         957
         953         954         959         958
         955         956         961         960
         956         957         962         961
         957         958         963         962
         958         959         964         963
         960         961         966         965
         961         962         967         966
         962         963         968         967
         963         964         969         968
         965         966         971         970
         966         967         972         971
         967         968         973         972
         968         969         974         973
         975         976         981         980
         976         977         982         981
         977         978         983         982
         978         979         984         983
         980         981         986         985
         981         982         987         986
         982         983         988         987
         983         984         989         988
         985         986         991         990
         986         987         992         991
         987         988         993         992
         988         989         994         993
         990         991         996         995
         991         992         997         996
         992         993         998         997
         993         994         999         998
        1000        1001        1006        1005
        1001        1002        1007        1006
        1002        1003        1008        1007
        1003        1004        1009        1008
        1005        1006        1011        1010
        1006        1007        1012        1011
        1007        1008        1013        1012
        1008        1009        1014        1013
        1010        1011        1016        1015
        1011        1012        1017        1016
        1012        1013        1018        1017
        1013        1014        1019        1018
        1015        1016        1021        1020
        1016        1017        1022        1021
        1017        1018        1023        1022
        1018        1019        1024        1023
        1025        1026        1031        1030
        1026        1027        1032        1031
        1027        1028        1033        1032
        1028        1029        1034        1033
        1030        1031        1036        1035
        1031        1032        1037        1036
        1032        1033        1038        1037
        1033        1034        1039        1038
        1035        1036        1041        1040
        1036        1037        1042        1041
        1037        1038        1043        1042
        1038        1039        1044        1043
        1040        1041        1046        1045
        1041        1042        1047        1046
        1042        1043        1048        1047
        1043        1044        1049        1048
        1050        1051        1056        1055
        1051        1052        1057        1056
        1052        1053        1058        1057
        1053        1054        1059        1058
        1055        1056        1061        1060
        1056        1057        1062        1061
        1057        1058        1063        1062
        1058        1059        1064        1063
        1060        1061        1066        1065
        1061        1062        1067        1066
        1062        1063        1068        1067
        1063        1064        1069        1068
        1065        1066        1071        1070
        1066        1067        1072        1071
        1067        1068        1073        1072
        1068        1069        1074        1073
        1075        1076        1081        1080
        1076        1077        1082        1081
        1077        1078        1083        1082
        1078        1079        1084        1083
        1080        1081        1086        1085
        1081        1082        1087        1086
        1082        1083        1088        1087
        1083        1084        1089        1088
        1085        1086        1091        1090
        1086        1087        1092        1091
        1087        1088        1093        1092
        1088        1089        1094        1093
        1090        1091        1096        1095
        1091        1092        1097        1096
        1092        1093        1098        1097
        1093        1094        1099        1098
        1100        1101        1106        1105
        1101        1102        1107        1106
        1102        1103        1108        1107
        1103        1104        1109        1108
        1105        1106        1111        1110
        1106        1107        1112        1111
        1107        1108        1113        1112
        1108        1109        1114        1113
        1110        1111        1116        1115
        1111        1112        1117        1116
        1112        1113        1118        1117
        1113        1114        1119        1118
        1115        1116        1121        1120
        1116        1117        1122        1121
        1117        1118        1123        1122
        1118        1119        1124        1123
        1125        1126        1131        1130
        1126        1127        1132        1131
        1127        1128        1133        1132
        1128        1129        1134        1133
        1130        1131        1136        1135
        1131        1132        1137        1136
        1132        1133        1138        1137
        1133        1134        1139        1138
        1135        1136        1141        1140
        1136        1137        1142        1141
        1137        1138        1143        1142
        1138        1139        1144        1143
        1140        1141        1146        1145
        1141        1142        1147        1146
        1142        1143        1148        1147
        1143        1144        1149        1148
        1150        1151        1156        1155
        1151        1152        1157        1156
        1152        1153        1158        1157
        1153        1154        1159        1158
        1155        1156        1161        1160
        1156        1157        1162        1161
        1157        1158        1163        1162
        1158        1159        1164        1163
        1160        1161        1166        1165
        1161        1162        1167        1166
        1162        1163        1168        1167
        1163        1164        1169        1168
        1165        1166        1171        1170
        1166        1167        1172        1171
        1167        1168        1173        1172
        1168        1169        1174        1173
        1175        1176        1181        1180
        1176        1177        1182        1181
        1177        1178        1183        1182
        1178        1179        1184        1183
        1180        1181        1186        1185
        1181        1182        1187        1186
        1182        1183        1188        1187
        1183        1184        1189        1188
        1185        1186        1191        1190
        1186        1187        1192        1191
        1187        1188        1193        1192
        1188        1189        1194        1193
        1190        1191        1196        1195
        1191        1192        1197        1196
        1192        1193        1198        1197
        1193        1194        1199        1198
        1200        1201        1206        1205
        1201        1202        1207        1206
        1202        1203        1208        1207
        1203        1204        1209        1208
        1205        1206        1211        1210
        1206        1207        1212        1211
        1207        1208        1213        1212
        1208        1209        1214        1213
        1210        1211        1216        1215
        1211        1212        1217        1216
        1212        1213        1218        1217
        1213        1214        1219        1218
        1215        1216        1221        1220
        1216        1217        1222        1221
        1217        1218        1223        1222
        1218        1219        1224        1223
        1225        1226        1231        1230
        1226        1227        1232        1231
        1227        1228        1233        1232
        1228        1229        1234        1233
        1230        1231        1236        1235
        1231        1232        1237        1236
        1232        1233        1238        1237
        1233        1234        1239        1238
        1235        1236        1241        1240
        1236        1237        1242        1241
        1237        1238        1243        1242
        1238        1239        1244        1243
        1240        1241        1246        1245
        1241        1242        1247        1246
        1242        1243        1248        1247
        1243        1244        1249        1248
        1250        1251        1256        1255
        1251        1252        1257        1256
        1252        1253        1258        1257
        1253        1254        1259        1258
        1255        1256        1261        1260
        1256        1257        1262        1261
        1257        1258        1263        1262
        1258        1259        1264        1263
        1260        1261        1266        1265
        1261        1262        1267        1266
        1262        1263        1268        1267
        1263        1264        1269        1268
        1265        1266        1271        1270
        1266        1267        1272        1271
        1267        1268        1273        1272
        1268        1269        1274        1273
        1275        1276        1281        1280
        1276        1277        1282        1281
        1277        1278        1283        1282
        1278        1279        1284        1283
        1280        1281        1286        1285
        1281        1282        1287        1286
        1282        1283        1288        1287
        1283        1284        1289        1288
        1285        1286        1291        1290
        1286        1287        1292        1291
        1287        1288        1293        1292
        1288        1289        1294        1293
        1290        1291        1296        1295
        1291        1292        1297        1296
        1292        1293        1298        1297
        1293        1294        1299        1298
        1300        1301        1306        1305
        1301        1302        1307        1306
        1302        1303        1308        1307
        1303        1304        1309        1308
        1305        1306        1311        1310
        1306        1307        1312        1311
        1307        1308        1313        1312
        1308        1309        1314        1313
        1310        1311        1316        1315
        1311        1312        1317        1316
        1312        1313        1318        1317
        1313        1314        1319        1318
        1315        1316        1321        1320
        1316        1317        1322        1321
        1317        1318        1323        1322
        1318        1319        1324        1323
        1325        1326        1331        1330
        1326        1327        1332        1331
        1327        1328        1333        1332
        1328        1329        1334        1333
        1330        1331        1336        1335
        1331        1332        1337        1336
        1332        1333        1338        1337
        1333        1334        1339        1338
        1335        1336        1341        1340
        1336        1337        1342        1341
        1337        1338        1343        1342
        1338        1339        1344        1343
        1340        1341        1346        1345
        1341        1342        1347        1346
        1342        1343        1348        1347
        1343        1344        1349        1348
        1350        1351        1356        1355
        1351        1352        1357        1356
        1352        1353        1358        1357
        1353        1354        1359        1358
        1355        1356        1361        1360
        1356        1357        1362        1361
        1357        1358        1363        1362
        1358        1359        1364        1363
        1360        1361        1366        1365
        1361        1362        1367        1366
        1362        1363        1368        1367
        1363        1364        1369        1368
        1365        1366        1371        1370
        1366        1367        1372        1371
        1367        1368        1373        1372
        1368        1369        1374        1373
        1375        1376        1381        1380
        1376        1377        1382        1381
        1377        1378        1383        1382
        1378        1379        1384        1383
        1380        1381        1386        1385
        1381        1382        1387        1386
        1382        1383        1388        1387
        1383        1384        1389        1388
        1385        1386        1391        1390
        1386        1387        1392        1391
        1387        1388        1393        1392
        1388        1389        1394        1393
        1390        1391        1396        1395
        1391        1392        1397        1396
        1392        1393        1398        1397
        1393        1394        1399        1398
        1400        1401        1406        1405
        1401        1402        1407        1406
        1402        1403        1408        1407
        1403        1404        1409        1408
        1405        1406        1411        1410
        1406        1407        1412        1411
        1407        1408        1413        1412
        1408        1409        1414        1413
        1410        1411        1416        1415
        1411        1412        1417        1416
        1412        1413        1418        1417
        1413        1414        1419        1418
        1415        1416        1421        1420
        1416        1417        1422        1421
        1417        1418        1423        1422
        1418        1419        1424        1423
        1425        1426        1431        1430
        1426        1427        1432        1431
        1427        1428        1433        1432
        1428        1429        1434        1433
        1430        1431        1436        1435
        1431        1432        1437        1436
        1432        1433        1438        1437
        1433        1434        1439        1438
        1435        1436        1441        1440
        1436        1437        1442        1441
        1437        1438        1443        1442
        1438        1439        1444        1443
        1440        1441        1446        1445
        1441        1442        1447        1446
        1442        1443        1448        1447
        1443        1444        1449        1448
        1450        1451        1456        1455
        1451        1452        1457        1456
        1452        1453        1458        1457
        1453        1454        1459        1458
        1455        1456        1461        1460
        1456        1457        1462        1461
        1457        1458        1463        1462
        1458        1459        1464        1463
        1460        1461        1466        1465
        1461        1462        1467        1466
        1462        1463        1468        1467
        1463        1464        1469        1468
        1465        1466        1471        1470
        1466        1467        1472        1471
        1467        1468        1473        1472
        1468        1469        1474        1473
        1475        1476        1481        1480
        1476        1477        1482        1481
        1477        1478        1483        1482
        1478        1479        1484        1483
        1480        1481        1486        1485
        1481        1482        1487        1486
        1482        1483        1488        1487
        1483        1484        1489        1488
        1485        1486        1491        1490
        1486        1487        1492        1491
        1487        1488        1493        1492
        1488        1489        1494        1493
        1490        1491        1496        1495
        1491        1492        1497        1496
        1492        1493        1498        1497
        1493        1494        1499        1498
        1500        1501        1506        1505
        1501        1502        1507        1506
        1502        1503        1508        1507
        1503        1504        1509        1508
        1505        1506        1511        1510
        1506        1507        1512        1511
        1507        1508        1513        1512
        1508        1509        1514        1513
        1510        1511        1516        1515
        1511        1512        1517        1516
        1512        1513        1518        1517
        1513        1514        1519        1518
        1515        1516        1521        1520
        1516        1517        1522        1521
        1517        1518        1523        1522
        1518        1519        1524        1523
        1525        1526        1531        1530
        1526        1527        1532        1531
        1527        1528        1533        1532
        1528        1529        1534        1533
        1530        1531        1536        1535
        1531        1532        1537        1536
        1532        1533        1538        1537
        1533        1534        1539        1538
        1535        1536        1541        1540
        1536        1537        1542        1541
        1537        1538        1543        1542
        1538        1539        1544        1543
        1540        1541        1546        1545
        1541        1542        1547        1546
        1542        1543        1548        1547
        1543        1544        1549        1548
        1550        1551        1556        1555
        1551        1552        1557        1556
        1552        1553        1558        1557
        1553        1554        1559        1558
        1555        1556        1561        1560
        1556        1557        1562        1561
        1557        1558        1563        1562
        1558        1559        1564        1563
        1560        1561        1566        1565
        1561        1562        1567        1566
        1562        1563        1568        1567
        1563        1564        1569        1568
        1565        1566        1571        1570
        1566        1567        1572        1571
        1567        1568        1573        1572
        1568        1569        1574        1573
        1575        1576        1581        1580
        1576        1577        1582        1581
        1577        1578        1583        1582
        1578        1579        1584        1583
        1580        1581        1586        1585
        1581        1582        1587        1586
        1582        1583        1588        1587
        1583        1584        1589        1588
        1585        1586        1591        1590
        1586        1587        1592        1591
        1587        1588        1593        1592
        1588        1589        1594        1593
        1590        1591        1596        1595
        1591        1592        1597        1596
        1592        1593        1598        1597
        1593        1594        1599        1598
 </DataArray>
 <DataArray  type="Int32"  Name="offsets"  format="ascii"> 
           4
           8
          12
          16
          20
          24
          28
          32
          36
          40
          44
          48
          52
          56
          60
          64
          68
          72
          76
          80
          84
          88
          92
          96
         100
         104
         108
         112
         116
         120
         124
         128
         132
         136
         140
         144
         148
         152
         156
         160
         164
         168
         172
         176
         180
         184
         188
         192
         196
         200
         204
         208
         212
         216
         220
         224
         228
         232
         236
         240
         244
         248
         252
         256
         260
         264
         268
         272
         276
         280
         284
         288
         292
         296
         300
         304
         308
         312
         316
         320
         324
         328
         332
         336
         340
         344
         348
         352
         356
         360
         364
         368
         372
         376
         380
         384
         388
         392
         396
         400
         404
         408
         412
         416
         420
         424
         428
         432
         436
         440
         444
         448
         452
         456
         460
         464
         468
         472
         476
         480
         484
         488
         492
         496
         500
         504
         508
         512
         516
         520
         524
         528
         532
         536
         540
         544
         548
         552
         556
         560
         564
         568
         572
         576
         580
         584
         588
         592
         596
         600
         604
         608
         612
         616
         620
         624
         628
         632
         636
         640
         644
         648
         652
         656
         660
         664
         668
         672
         676
         680
         684
         688
         692
         696
         700
         704
         708
         712
         716
         720
         724
         728
         732
         736
         740
         744
         748
         752
         756
         760
         764
         768
         772
         776
         780
         784
         788
         792
         796
         800
         804
         808
         812
         816
         820
         824
         828
         832
         836
         840
         844
         848
         852
         856
         860
         864
         868
         872
         876
         880
         884
         888
         892
         896
         900
         904
         908
         912
         916
         920
         924
         928
         932
         936
         940
         944
         948
         952
         956
         960
         964
         968
         972
         976
         980
         984
         988
         992
         996
        1000
        1004
        1008
        1012
        1016
        1020
        1024
        1028
        1032
        1036
        1040
        1044
        1048
        1052
        1056
        1060
        1064
        1068
        1072
        1076
        1080
        1084
        1088
        1092
        1096
        1100
        1104
        1108
        1112
        1116
        1120
        1124
        1128
        1132
        1136
        1140
        1144
        1148
        1152
        1156
        1160
        1164
        1168
        1172
        1176
        1180
        1184
        1188
        1192
        1196
        1200
        1204
        1208
        1212
        1216
        1220
        1224
        1228
        1232
        1236
        1240
        1244
        1248
        1252
        1256
        1260
        1264
        1268
        1272
        1276
        1280
        1284
        1288
        1292
        1296
        1300
        1304
        1308
        1312
        1316
        1320
        1324
        1328
        1332
        1336
        1340
        1344
        1348
        1352
        1356
        1360
        1364
        1368
        1372
        1376
        1380
        1384
        1388
        1392
        1396
        1400
        1404
        1408
        1412
        1416
        1420
        1424
        1428
        1432
        1436
        1440
        1444
        1448
        1452
        1456
        1460
        1464
        1468
        1472
        1476
        1480
        1484
        1488
        1492
        1496
        1500
        1504
        1508
        1512
        1516
        1520
        1524
        1528
        1532
        1536
        1540
        1544
        1548
        1552
        1556
        1560
        1564
        1568
        1572
        1576
        1580
        1584
        1588
        1592
        1596
        1600
        1604
        1608
        1612
        1616
        1620
        1624
        1628
        1632
        1636
        1640
        1644
        1648
        1652
        1656
        1660
        1664
        1668
        1672
        1676
        1680
        1684
        1688
        1692
        1696
        1700
        1704
        1708
        1712
        1716
        1720
        1724
        1728
        1732
        1736
        1740
        1744
        1748
        1752
        1756
        1760
        1764
        1768
        1772
        1776
        1780
        1784
        1788
        1792
        1796
        1800
        1804
        1808
        1812
        1816
        1820
        1824
        1828
        1832
        1836
        1840
        1844
        1848
        1852
        1856
        1860
        1864
        1868
        1872
        1876
        1880
        1884
        1888
        1892
        1896
        1900
        1904
        1908
        1912
        1916
        1920
        1924
        1928
        1932
        1936
        1940
        1944
        1948
        1952
        1956
        1960
        1964
        1968
        1972
        1976
        1980
        1984
        1988
        1992
        1996
        2000
        2004
        2008
        2012
        2016
        2020
        2024
        2028
        2032
        2036
        2040
        2044
        2048
        2052
        2056
        2060
        2064
        2068
        2072
        2076
        2080
        2084
        2088
        2092
        2096
        2100
        2104
        2108
        2112
        2116
        2120
        2124
        2128
        2132
        2136
        2140
        2144
        2148
        2152
        2156
        2160
        2164
        2168
        2172
        2176
        2180
        2184
        2188
        2192
        2196
        2200
        2204
        2208
        2212
        2216
        2220
        2224
        2228
        2232
        2236
        2240
        2244
        2248
        2252
        2256
        2260
        2264
        2268
        2272
        2276
        2280
        2284
        2288
        2292
        2296
        2300
        2304
        2308
        2312
        2316
        2320
        2324
        2328
        2332
        2336
        2340
        2344
        2348
        2352
        2356
        2360
        2364
        2368
        2372
        2376
        2380
        2384
        2388
        2392
        2396
        2400
        2404
        2408
        2412
        2416
        2420
        2424
        2428
        2432
        2436
        2440
        2444
        2448
        2452
        2456
        2460
        2464
        2468
        2472
        2476
        2480
        2484
        2488
        2492
        2496
        2500
        2504
        2508
        2512
        2516
        2520
        2524
        2528
        2532
        2536
        2540
        2544
        2548
        2552
        2556
        2560
        2564
        2568
        2572
        2576
        2580
        2584
        2588
        2592
        2596
        2600
        2604
        2608
        2612
        2616
        2620
        2624
        2628
        2632
        2636
        2640
        2644
        2648
        2652
        2656
        2660
        2664
        2668
        2672
        2676
        2680
        2684
        2688
        2692
        2696
        2700
        2704
        2708
        2712
        2716
        2720
        2724
        2728
        2732
        2736
        2740
        2744
        2748
        2752
        2756
        2760
        2764
        2768
        2772
        2776
        2780
        2784
        2788
        2792
        2796
        2800
        2804
        2808
        2812
        2816
        2820
        2824
        2828
        2832
        2836
        2840
        2844
        2848
        2852
        2856
        2860
        2864
        2868
        2872
        2876
        2880
        2884
        2888
        2892
        2896
        2900
        2904
        2908
        2912
        2916
        2920
        2924
        2928
        2932
        2936
        2940
        2944
        2948
        2952
        2956
        2960
        2964
        2968
        2972
        2976
        2980
        2984
        2988
        2992
        2996
        3000
        3004
        3008
        3012
        3016
        3020
        3024
        3028
        3032
        3036
        3040
        3044
        3048
        3052
        3056
        3060
        3064
        3068
        3072
        3076
        3080
        3084
        3088
        3092
        3096
        3100
        3104
        3108
        3112
        3116
        3120
        3124
        3128
        3132
        3136
        3140
        3144
        3148
        3152
        3156
        3160
        3164
        3168
        3172
        3176
        3180
        3184
        3188
        3192
        3196
        3200
        3204
        3208
        3212
        3216
        3220
        3224
        3228
        3232
        3236
        3240
        3244
        3248
        3252
        3256
        3260
        3264
        3268
        3272
        3276
        3280
        3284
        3288
        3292
        3296
        3300
        3304
        3308
        3312
        3316
        3320
        3324
        3328
        3332
        3336
        3340
        3344
        3348
        3352
        3356
        3360
        3364
        3368
        3372
        3376
        3380
        3384
        3388
        3392
        3396
        3400
        3404
        3408
        3412
        3416
        3420
        3424
        3428
        3432
        3436
        3440
        3444
        3448
        3452
        3456
        3460
        3464
        3468
        3472
        3476
        3480
        3484
        3488
        3492
        3496
        3500
        3504
        3508
        3512
        3516
        3520
        3524
        3528
        3532
        3536
        3540
        3544
        3548
        3552
        3556
        3560
        3564
        3568
        3572
        3576
        3580
        3584
        3588
        3592
        3596
        3600
        3604
        3608
        3612
        3616
        3620
        3624
        3628
        3632
        3636
        3640
        3644
        3648
        3652
        3656
        3660
        3664
        3668
        3672
        3676
        3680
        3684
        3688
        3692
        3696
        3700
        3704
        3708
        3712
        3716
        3720
        3724
        3728
        3732
        3736
        3740
        3744
        3748
        3752
        3756
        3760
        3764
        3768
        3772
        3776
        3780
        3784
        3788
        3792
        3796
        3800
        3804
        3808
        3812
        3816
        3820
        3824
        3828
        3832
        3836
        3840
        3844
        3848
        3852
        3856
        3860
        3864
        3868
        3872
        3876
        3880
        3884
        3888
        3892
        3896
        3900
        3904
        3908
        3912
        3916
        3920
        3924
        3928
        3932
        3936
        3940
        3944
        3948
        3952
        3956
        3960
        3964
        3968
        3972
        3976
        3980
        3984
        3988
        3992
        3996
        4000
        4004
        4008
        4012
        4016
        4020
        4024
        4028
        4032
        4036
        4040
        4044
        4048
        4052
        4056
        4060
        4064
        4068
        4072
        4076
        4080
        4084
        4088
        4092
        4096
 </DataArray>
 <DataArray  type="UInt8"  Name="types"  format="ascii">
 9
 9
 9
 9
 9
 9
 9
 9
 9
 9
 9
 9
 9
 9
 9
 9
 9
 9
 9
 9
 9
 9
 9
 9
 9
 9
 9
 9
 9
 9
 9
 9
 9
 9
 9
 9
 9
 9
 9
 9
 9
 9
 9
 9
 9
 9
 9
 9
 9
 9
 9
 9
 9
 9
 9
 9
 9
 9
 9
 9
 9
 9
 9
 9
 9
 9
 9
 9
 9
 9
 9
 9
 9
 9
 9
 9
 9
 9
 9
 9
 9
 9
 9
 9
 9
 9
 9
 9
 9
 9
 9
 9
 9
 9
 9
 9
 9
 9
 9
 9
 9
 9
 9
 9
 9
 9
 9
 9
 9
 9
 9
 9
 9
 9
 9
 9
 9
 9
 9
 9
 9
 9
 9
 9
 9
 9
 9
 9
 9
 9
 9
 9
 9
 9
 9
 9
 9
 9
 9
 9
 9
 9
 9
 9
 9
 9
 9
 9
 9
 9
 9
 9
 9
 9
 9
 9
 9
 9
 9
 9
 9
 9
 9
 9
 9
 9
 9
 9
 9
 9
 9
 9
 9
 9
 9
 9
 9
 9
 9
 9
 9
 9
 9
 9
 9
 9
 9
 9
 9
 9
 9
 9
 9
 9
 9
 9
 9
 9
 9
 9
 9
 9
 9
 9
 9
 9
 9
 9
 9
 9
 9
 9
 9
 9
 9
 9
 9
 9
 9
 9
 9
 9
 9
 9
 9
 9
 9
 9
 9
 9
 9
 9
 9
 9
 9
 9
 9
 9
 9
 9
 9
 9
 9
 9
 9
 9
 9
 9
 9
 9
 9
 9
 9
 9
 9
 9
 9
 9
 9
 9
 9
 9
 9
 9
 9
 9
 9
 9
 9
 9
 9
 9
 9
 9
 9
 9
 9
 9
 9
 9
 9
 9
 9
 9
 9
 9
 9
 9
 9
 9
 9
 9
 9
 9
 9
 9
 9
 9
 9
 9
 9
 9
 9
 9
 9
 9
 9
 9
 9
 9
 9
 9
 9
 9
 9
 9
 9
 9
 9
 9
 9
 9
 9
 9
 9
 9
 9
 9
 9
 9
 9
 9
 9
 9
 9
 9
 9
 9
 9
 9
 9
 9
 9
 9
 9
 9
 9
 9
 9
 9
 9
 9
 9
 9
 9
 9
 9
 9
 9
 9
 9
 9
 9
 9
 9
 9
 9
 9
 9
 9
 9
 9
 9
 9
 9
 9
 9
 9
 9
 9
 9
 9
 9
 9
 9
 9
 9
 9
 9
 9
 9
 9
 9
 9
 9
 9
 9
 9
 9
 9
 9
 9
 9
 9
 9
 9
 9
 9
 9
 9
 9
 9
 9
 9
 9
 9
 9
 9
 9
 9
 9
 9
 9
 9
 9
 9
 9
 9
 9
 9
 9
 9
 9
 9
 9
 9
 9
 9
 9
 9
 9
 9
 9
 9
 9
 9
 9
 9
 9
 9
 9
 9
 9
 9
 9
 9
 9
 9
 9
 9
 9
 9
 9
 9
 9
 9
 9
 9
 9
 9
 9
 9
 9
 9
 9
 9
 9
 9
 9
 9
 9
 9
 9
 9
 9
 9
 9
 9
 9
 9
 9
 9
 9
 9
 9
 9
 9
 9
 9
 9
 9
 9
 9
 9
 9
 9
 9
 9
 9
 9
 9
 9
 9
 9
 9
 9
 9
 9
 9
 9
 9
 9
 9
 9
 9
 9
 9
 9
 9
 9
 9
 9
 9
 9
 9
 9
 9
 9
 9
 9
 9
 9
 9
 9
 9
 9
 9
 9
 9
 9
 9
 9
 9
 9
 9
 9
 9
 9
 9
 9
 9
 9
 9
 9
 9
 9
 9
 9
 9
 9
 9
 9
 9
 9
 9
 9
 9
 9
 9
 9
 9
 9
 9
 9
 9
 9
 9
 9
 9
 9
 9
 9
 9
 9
 9
 9
 9
 9
 9
 9
 9
 9
 9
 9
 9
 9
 9
 9
 9
 9
 9
 9
 9
 9
 9
 9
 9
 9
 9
 9
 9
 9
 9
 9
 9
 9
 9
 9
 9
 9
 9
 9
 9
 9
 9
 9
 9
 9
 9
 9
 9
 9
 9
 9
 9
 9
 9
 9
 9
 9
 9
 9
 9
 9
 9
 9
 9
 9
 9
 9
 9
 9
 9
 9
 9
 9
 9
 9
 9
 9
 9
 9
 9
 9
 9
 9
 9
 9
 9
 9
 9
 9
 9
 9
 9
 9
 9
 9
 9
 9
 9
 9
 9
 9
 9
 9
 9
 9
 9
 9
 9
 9
 9
 9
 9
 9
 9
 9
 9
 9
 9
 9
 9
 9
 9
 9
 9
 9
 9
 9
 9
 9
 9
 9
 9
 9
 9
 9
 9
 9
 9
 9
 9
 9
 9
 9
 9
 9
 9
 9
 9
 9
 9
 9
 9
 9
 9
 9
 9
 9
 9
 9
 9
 9
 9
 9
 9
 9
 9
 9
 9
 9
 9
 9
 9
 9
 9
 9
 9
 9
 9
 9
 9
 9
 9
 9
 9
 9
 9
 9
 9
 9
 9
 9
 9
 9
 9
 9
 9
 9
 9
 9
 9
 9
 9
 9
 9
 9
 9
 9
 9
 9
 9
 9
 9
 9
 9
 9
 9
 9
 9
 9
 9
 9
 9
 9
 9
 9
 9
 9
 9
 9
 9
 9
 9
 9
 9
 9
 9
 9
 9
 9
 9
 9
 9
 9
 9
 9
 9
 9
 9
 9
 9
 9
 9
 9
 9
 9
 9
 9
 9
 9
 9
 9
 9
 9
 9
 9
 9
 9
 9
 9
 9
 9
 9
 9
 9
 9
 9
 9
 9
 9
 9
 9
 9
 9
 9
 9
 9
 9
 9
 9
 9
 9
 9
 9
 9
 9
 9
 9
 9
 9
 9
 9
 9
 9
 9
 9
 9
 9
 9
 9
 9
 9
 9
 9
 9
 9
 9
 9
 9
 9
 9
 9
 9
 9
 9
 9
 9
 9
 9
 9
 9
 9
 9
 9
 9
 9
 9
 9
 9
 9
 9
 9
 9
 9
 9
 9
 9
 9
 9
 9
 9
 9
 9
 9
 9
 9
 9
 9
 9
 9
 9
 9
 9
 9
 9
 9
 9
 9
 9
 9
 9
 9
 9
 9
 9
 9
 9
 9
 9
 9
 9
 9
 9
 9
 9
 9
 9
 9
 9
 9
 9
 9
 9
 9
 9
 9
 9
 9
 9
 9
 9
 9
 9
 9
 9
 9
 9
 9
 9
 9
 9
 9
 9
 9
 9
 9
 9
 9
 9
 9
 9
 9
 9
 9
 9
 9
 9
 9
 9
 9
 9
 9
 </DataArray>
 </Cells> 
 <PointData>
 <DataArray  type="Float64" Name="disp" NumberOfComponents="3" format="ascii">
   0.0000000000000000        0.0000000000000000        0.0000000000000000     
   6.0959044708813574E-003   3.7907283986624652E-003   0.0000000000000000     
   1.1665889270000529E-002   7.3243017525464844E-003   0.0000000000000000     
   1.6709954397357514E-002   1.0600720061652059E-002   0.0000000000000000     
   2.1228099852952306E-002   1.3619983325979187E-002   0.0000000000000000     
   0.0000000000000000        0.0000000000000000        0.0000000000000000     
   4.8910892744082916E-003   3.0223643500874829E-003   0.0000000000000000     
   9.5735005703409884E-003   6.0609204477092334E-003   0.0000000000000000     
   1.4047233887798091E-002   9.1156682928652533E-003   0.0000000000000000     
   1.8312289226779601E-002   1.2186607885555541E-002   0.0000000000000000     
   0.0000000000000000        0.0000000000000000        0.0000000000000000     
   3.9535063256657312E-003   2.4252822121987230E-003   0.0000000000000000     
   7.9104888192504975E-003   5.0632299925688533E-003   0.0000000000000000     
   1.1870947480754295E-002   7.9138433411103902E-003   0.0000000000000000     
   1.5834882310177129E-002   1.0977122257823334E-002   0.0000000000000000     
   0.0000000000000000        0.0000000000000000        0.0000000000000000     
   3.2831556246536771E-003   1.9994819849961853E-003   0.0000000000000000     
   6.6768540167290516E-003   4.3312303871253415E-003   0.0000000000000000     
   1.0181095176226123E-002   6.9952452063874702E-003   0.0000000000000000     
   1.3795879103144885E-002   9.9915264427825681E-003   0.0000000000000000     
   0.0000000000000000        0.0000000000000000        0.0000000000000000     
   2.8800371713721285E-003   1.7449636684798700E-003   0.0000000000000000     
   5.8725961627766523E-003   3.8649216313787005E-003   0.0000000000000000     
   8.9776769742135696E-003   6.3598738886964917E-003   0.0000000000000000     
   1.2195279605682882E-002   9.2298204404332417E-003   0.0000000000000000     
   2.1228099852952306E-002   1.3619983325979187E-002   0.0000000000000000     
   2.5433068527961702E-002   1.6612899537223537E-002   0.0000000000000000     
   2.9537603313562474E-002   1.9810276687080779E-002   0.0000000000000000     
   3.3541704209754629E-002   2.3212114775550904E-002   0.0000000000000000     
   3.7445371216538167E-002   2.6818413802633927E-002   0.0000000000000000     
   1.8312289226779601E-002   1.2186607885555541E-002   0.0000000000000000     
   2.2406783330829402E-002   1.5342177538992004E-002   0.0000000000000000     
   2.6368832943491377E-002   1.8650815566386557E-002   0.0000000000000000     
   3.0198438064765538E-002   2.2112521967739197E-002   0.0000000000000000     
   3.3895598694651870E-002   2.5727296743049924E-002   0.0000000000000000     
   1.5834882310177129E-002   1.0977122257823334E-002   0.0000000000000000     
   1.9730448920446016E-002   1.4211890166746000E-002   0.0000000000000000     
   2.3485802924487986E-002   1.7576970491916706E-002   0.0000000000000000     
   2.7100944322303033E-002   2.1072363233335452E-002   0.0000000000000000     
   3.0575873113891164E-002   2.4698068391002245E-002   0.0000000000000000     
   1.3795879103144885E-002   9.9915264427825681E-003   0.0000000000000000     
   1.7404065296811551E-002   1.3222037420485527E-002   0.0000000000000000     
   2.0888513256552294E-002   1.6588741463671227E-002   0.0000000000000000     
   2.4249222982367126E-002   2.0091638572339681E-002   0.0000000000000000     
   2.7486194474256046E-002   2.3730728746490883E-002   0.0000000000000000     
   1.2195279605682882E-002   9.2298204404332417E-003   0.0000000000000000     
   1.5427632459925993E-002   1.2372619300210577E-002   0.0000000000000000     
   1.8576963939684301E-002   1.5686128481650120E-002   0.0000000000000000     
   2.1643274044957812E-002   1.9170347984751875E-002   0.0000000000000000     
   2.4626562775746520E-002   2.2825277809515834E-002   0.0000000000000000     
   3.7445371216538167E-002   2.6818413802633927E-002   0.0000000000000000     
   4.1253194885749911E-002   3.0624046007980077E-002   0.0000000000000000     
   4.4969765769226677E-002   3.4623883631239603E-002   0.0000000000000000     
   4.8595083866968480E-002   3.8817926672412503E-002   0.0000000000000000     
   5.2129149178975299E-002   4.3206175131498784E-002   0.0000000000000000     
   3.3895598694651870E-002   2.5727296743049924E-002   0.0000000000000000     
   3.7483710858264643E-002   2.9523752137012440E-002   0.0000000000000000     
   4.0986170580718115E-002   3.3530500394320435E-002   0.0000000000000000     
   4.4402977862012277E-002   3.7747541514973913E-002   0.0000000000000000     
   4.7734132702147138E-002   4.2174875498972871E-002   0.0000000000000000     
   3.0575873113891164E-002   2.4698068391002245E-002   0.0000000000000000     
   3.3940227062572700E-002   2.8498609583635735E-002   0.0000000000000000     
   3.7223643931667966E-002   3.2518510429954600E-002   0.0000000000000000     
   4.0426123721176946E-002   3.6757770929958827E-002   0.0000000000000000     
   4.3547666431099676E-002   4.1216391083648433E-002   0.0000000000000000     
   2.7486194474256046E-002   2.3730728746490883E-002   0.0000000000000000     
   3.0622743498674075E-002   2.7548618347849975E-002   0.0000000000000000     
   3.3682185822076223E-002   3.1587913738142105E-002   0.0000000000000000     
   3.6664521444462514E-002   3.5848614917367273E-002   0.0000000000000000     
   3.9569750365832913E-002   4.0330721885525486E-002   0.0000000000000000     
   2.4626562775746520E-002   2.2825277809515834E-002   0.0000000000000000     
   2.7531260166568775E-002   2.6673778429655150E-002   0.0000000000000000     
   3.0361796251942907E-002   3.0738710318882943E-002   0.0000000000000000     
   3.3118171031868933E-002   3.5020073477199237E-002   0.0000000000000000     
   3.5800384506346851E-002   3.9517867904604015E-002   0.0000000000000000     
   5.2129149178975299E-002   4.3206175131498784E-002   0.0000000000000000     
   5.5568297478947398E-002   4.7793756944530981E-002   0.0000000000000000     
   5.8908864540585019E-002   5.2585800047541660E-002   0.0000000000000000     
   6.2150850363888163E-002   5.7582304440530821E-002   0.0000000000000000     
   6.5294254948856822E-002   6.2783270123498464E-002   0.0000000000000000     
   4.7734132702147138E-002   4.2174875498972871E-002   0.0000000000000000     
   5.0974230263552252E-002   4.6806120774330280E-002   0.0000000000000000     
   5.4117865708657155E-002   5.1634895769059101E-002   0.0000000000000000     
   5.7165039037461854E-002   5.6661200483159341E-002   0.0000000000000000     
   6.0115750249966363E-002   6.1885034916630999E-002   0.0000000000000000     
   4.3547666431099676E-002   4.1216391083648433E-002   0.0000000000000000     
   4.6582696264674331E-002   4.5881653844849102E-002   0.0000000000000000     
   4.9525637425139102E-002   5.0740842167386502E-002   0.0000000000000000     
   5.2376489912494009E-002   5.5793956051260647E-002   0.0000000000000000     
   5.5135253726739032E-002   6.1040995496471538E-002   0.0000000000000000     
   3.9569750365832913E-002   4.0330721885525486E-002   0.0000000000000000     
   4.2393695482313636E-002   4.5020356156087439E-002   0.0000000000000000     
   4.5132179690030867E-002   4.9903639242523869E-002   0.0000000000000000     
   4.7785202988984608E-002   5.4980571144834733E-002   0.0000000000000000     
   5.0352765379174866E-002   6.0251151863020075E-002   0.0000000000000000     
   3.5800384506346851E-002   3.9517867904604015E-002   0.0000000000000000     
   3.8407227916470173E-002   4.4222227708045313E-002   0.0000000000000000     
   4.0937492503332451E-002   4.9123286994471188E-002   0.0000000000000000     
   4.3391178266933665E-002   5.4221045763881627E-002   0.0000000000000000     
   4.5768285207273829E-002   5.9515504016276623E-002   0.0000000000000000     
   6.5294254948856822E-002   6.2783270123498464E-002   0.0000000000000000     
   6.8346679305910166E-002   6.8174850532905076E-002   0.0000000000000000     
   7.1315724445467354E-002   7.3743199105211141E-002   0.0000000000000000     
   7.4201390367528389E-002   7.9488315840416685E-002   0.0000000000000000     
   7.7003677072093268E-002   8.5410200738521680E-002   0.0000000000000000     
   6.0115750249966363E-002   6.1885034916630999E-002   0.0000000000000000     
   6.2978736165193824E-002   6.7297703880126403E-002   0.0000000000000000     
   6.5762733602167459E-002   7.2890512184297901E-002   0.0000000000000000     
   6.8467742560887251E-002   7.8663459829145452E-002   0.0000000000000000     
   7.1093763041353217E-002   8.4616546814669097E-002   0.0000000000000000     
   5.5135253726739032E-002   6.1040995496471538E-002   0.0000000000000000     
   5.7810592615133251E-002   6.6476069223151399E-002   0.0000000000000000     
   6.0411170324935690E-002   7.2093285951432454E-002   0.0000000000000000     
   6.2936986856146349E-002   7.7892645681314696E-002   0.0000000000000000     
   6.5388042208765249E-002   8.3874148412798138E-002   0.0000000000000000     
   5.0352765379174866E-002   6.0251151863020075E-002   0.0000000000000000     
   5.2842248655728404E-002   6.5709946561980037E-002   0.0000000000000000     
   5.5261034613771992E-002   7.1351520406614813E-002   0.0000000000000000     
   5.7609123253305645E-002   7.7175873396924416E-002   0.0000000000000000     
   5.9886514574329350E-002   8.3183005532908805E-002   0.0000000000000000     
   4.5768285207273829E-002   5.9515504016276623E-002   0.0000000000000000     
   4.8073704286979289E-002   6.4999335896612359E-002   0.0000000000000000     
   5.0312326468676401E-002   7.0665215549845020E-002   0.0000000000000000     
   5.2484151752365149E-002   7.6513142975974585E-002   0.0000000000000000     
   5.4589180138045548E-002   8.2543118175001068E-002   0.0000000000000000     
   7.7003677072093268E-002   8.5410200738521680E-002   0.0000000000000000     
   7.9705006175691595E-002   9.1500712883244600E-002   0.0000000000000000     
   8.2287799294852970E-002   9.7751711358303961E-002   0.0000000000000000     
   8.4752056429577394E-002  0.10416319616369975        0.0000000000000000     
   8.7097777579864866E-002  0.11073516729943195        0.0000000000000000     
   7.1093763041353217E-002   8.4616546814669097E-002   0.0000000000000000     
   7.3624799495179957E-002   9.0738898132054269E-002   0.0000000000000000     
   7.6044856373982089E-002   9.7019638772486427E-002   0.0000000000000000     
   7.8353933677759627E-002  0.10345876873596556        0.0000000000000000     
   8.0552031406512570E-002  0.11005628802249164        0.0000000000000000     
   6.5388042208765249E-002   8.3874148412798138E-002   0.0000000000000000     
   6.7750048118726564E-002   9.0025251128827588E-002   0.0000000000000000     
   7.0008716321964523E-002   9.6333410812347864E-002   0.0000000000000000     
   7.2164046818479100E-002  0.10279862746335897        0.0000000000000000     
   7.4216039608270279E-002  0.10942090108186087        0.0000000000000000     
   5.9886514574329350E-002   8.3183005532908805E-002   0.0000000000000000     
   6.2080752046331455E-002   8.9359771873564572E-002   0.0000000000000000     
   6.4179379138800258E-002   9.5693027477888312E-002   0.0000000000000000     
   6.6182395851735784E-002  0.10218277234588001        0.0000000000000000     
   6.8089802185137993E-002  0.10882900647753965        0.0000000000000000     
   5.4589180138045548E-002   8.2543118175001068E-002   0.0000000000000000     
   5.6616911277994605E-002   8.8742460366265194E-002   0.0000000000000000     
   5.8556844824489314E-002   9.5098488769107731E-002   0.0000000000000000     
   6.0408980777529701E-002  0.10161120338352865        0.0000000000000000     
   6.2173319137115726E-002  0.10828060420952797        0.0000000000000000     
   8.7097777579864866E-002  0.11073516729943195        0.0000000000000000     
   8.9355007888298921E-002  0.11745319431174484        0.0000000000000000     
   9.1553792497463135E-002  0.12430284674688269        0.0000000000000000     
   9.3694131407357481E-002  0.13128412460484551        0.0000000000000000     
   9.5776024617981986E-002  0.13839702788563329        0.0000000000000000     
   8.0552031406512570E-002  0.11005628802249164        0.0000000000000000     
   8.2665642623048763E-002  0.11679949868612202        0.0000000000000000     
   8.4721260390176009E-002  0.12367570278091401        0.0000000000000000     
   8.6718884707894336E-002  0.13068490030686761        0.0000000000000000     
   8.8658515576203772E-002  0.13782709126398279        0.0000000000000000     
   7.4216039608270279E-002  0.10942090108186087        0.0000000000000000     
   7.6188294219796823E-002  0.11618864495836302        0.0000000000000000     
   7.8104410181517481E-002  0.12309027238337486        0.0000000000000000     
   7.9964387493432251E-002  0.13012578335689631        0.0000000000000000     
   8.1768226155541107E-002  0.13729517787892745        0.0000000000000000     
   6.8089802185137993E-002  0.10882900647753965        0.0000000000000000     
   6.9922962678543171E-002  0.11562063312846786        0.0000000000000000     
   7.1703241871487577E-002  0.12254655555426516        0.0000000000000000     
   7.3430639763971156E-002  0.12960677375493160        0.0000000000000000     
   7.5105156355993949E-002  0.13680128773046718        0.0000000000000000     
   6.2173319137115726E-002  0.10828060420952797        0.0000000000000000     
   6.3869647999287793E-002  0.11509546319643647        0.0000000000000000     
   6.5517755460086244E-002  0.12204455229358498        0.0000000000000000     
   6.7117641519511079E-002  0.12912787150097352        0.0000000000000000     
   6.8669306177562325E-002  0.13634542081860204        0.0000000000000000     
   9.5776024617981986E-002  0.13839702788563329        0.0000000000000000     
   9.7752983464548387E-002  0.14563128803643305        0.0000000000000000     
   9.9578519282268504E-002  0.15297663650443177        0.0000000000000000     
  0.10125263207114230       0.16043307328962944        0.0000000000000000     
  0.10277532183116979       0.16800059839202605        0.0000000000000000     
   8.8658515576203772E-002  0.13782709126398279        0.0000000000000000     
   9.0498489950515085E-002  0.14509057725876995        0.0000000000000000     
   9.2197144786239138E-002  0.15246365989773936        0.0000000000000000     
   9.3754480083375891E-002  0.15994633918089110        0.0000000000000000     
   9.5170495841925384E-002  0.16753861510822515        0.0000000000000000     
   8.1768226155541107E-002  0.13729517787892745        0.0000000000000000     
   8.3477982103778547E-002  0.14458591354569039        0.0000000000000000     
   8.5055711274079071E-002  0.15198544795340743        0.0000000000000000     
   8.6501413666442692E-002  0.15949378110207851        0.0000000000000000     
   8.7815089280869410E-002  0.16711091299170364        0.0000000000000000     
   7.5105156355993949E-002  0.13680128773046718        0.0000000000000000     
   7.6691459924338748E-002  0.14411729689719444        0.0000000000000000     
   7.8154218745788331E-002  0.15154200067143592        0.0000000000000000     
   7.9493432820342727E-002  0.15907539905319160        0.0000000000000000     
   8.0709102148001879E-002  0.16671749204246156        0.0000000000000000     
   6.8669306177562325E-002  0.13634542081860204        0.0000000000000000     
   7.0138923412195686E-002  0.14368472731328200        0.0000000000000000     
   7.1492667201366891E-002  0.15113331805182478        0.0000000000000000     
   7.2730537545075913E-002  0.15869119303423043        0.0000000000000000     
   7.3852534443322793E-002  0.16635835226049889        0.0000000000000000     
   0.0000000000000000        0.0000000000000000        0.0000000000000000     
   2.8800371713721285E-003   1.7449636684798700E-003   0.0000000000000000     
   5.8725961627766523E-003   3.8649216313787005E-003   0.0000000000000000     
   8.9776769742135696E-003   6.3598738886964917E-003   0.0000000000000000     
   1.2195279605682882E-002   9.2298204404332417E-003   0.0000000000000000     
   0.0000000000000000        0.0000000000000000        0.0000000000000000     
   2.6103067936326134E-003   1.5890500506441131E-003   0.0000000000000000     
   5.2897258138166169E-003   3.5569688446176260E-003   0.0000000000000000     
   8.0382570605520096E-003   5.9037563819205382E-003   0.0000000000000000     
   1.0855900533838794E-002   8.6294126625528506E-003   0.0000000000000000     
   0.0000000000000000        0.0000000000000000        0.0000000000000000     
   2.3401203192466593E-003   1.4590639194832508E-003   0.0000000000000000     
   4.7202535262722634E-003   3.3000371461308162E-003   0.0000000000000000     
   7.1403996210768119E-003   5.5229196799426962E-003   0.0000000000000000     
   9.6005586036603061E-003   8.1277115209188924E-003   0.0000000000000000     
   0.0000000000000000        0.0000000000000000        0.0000000000000000     
   2.0694777482142667E-003   1.3550052749972837E-003   0.0000000000000000     
   4.1641793001435928E-003   3.0941265359182711E-003   0.0000000000000000     
   6.2841046557879764E-003   5.2173637827629630E-003   0.0000000000000000     
   8.4292538151474212E-003   7.7247170155313582E-003   0.0000000000000000     
   0.0000000000000000        0.0000000000000000        0.0000000000000000     
   1.7983790805354348E-003   1.2768741171862109E-003   0.0000000000000000     
   3.6215031354306019E-003   2.9392370139799907E-003   0.0000000000000000     
   5.4693721646855015E-003   4.9870886903813395E-003   0.0000000000000000     
   7.3419861683001334E-003   7.4204291463902559E-003   0.0000000000000000     
   1.2195279605682882E-002   9.2298204404332417E-003   0.0000000000000000     
   1.5427632459925993E-002   1.2372619300210577E-002   0.0000000000000000     
   1.8576963939684301E-002   1.5686128481650120E-002   0.0000000000000000     
   2.1643274044957812E-002   1.9170347984751875E-002   0.0000000000000000     
   2.4626562775746520E-002   2.2825277809515834E-002   0.0000000000000000     
   1.0855900533838794E-002   8.6294126625528506E-003   0.0000000000000000     
   1.3689290532373095E-002   1.1651604924045897E-002   0.0000000000000000     
   1.6485061354851033E-002   1.4888000403931007E-002   0.0000000000000000     
   1.9243213001272613E-002   1.8338599102208180E-002   0.0000000000000000     
   2.1963745471637826E-002   2.2003401018877419E-002   0.0000000000000000     
   9.6005586036603061E-003   8.1277115209188924E-003   0.0000000000000000     
   1.2077179636736587E-002   1.1046963410116220E-002   0.0000000000000000     
   1.4546711883019496E-002   1.4213226088591506E-002   0.0000000000000000     
   1.7009155342509037E-002   1.7626499556344745E-002   0.0000000000000000     
   1.9464510015205203E-002   2.1286783813375940E-002   0.0000000000000000     
   8.4292538151474212E-003   7.7247170155313582E-003   0.0000000000000000     
   1.0591299773016479E-002   1.0558694758421548E-002   0.0000000000000000     
   1.2761915524189702E-002   1.3661805535631616E-002   0.0000000000000000     
   1.4941101068667100E-002   1.7034049347161569E-002   0.0000000000000000     
   1.7128856406448664E-002   2.0675426193011402E-002   0.0000000000000000     
   7.3419861683001334E-003   7.4204291463902559E-003   0.0000000000000000     
   9.2316509412127615E-003   1.0186798968961878E-002   0.0000000000000000     
   1.1130672278361646E-002   1.3233738745051342E-002   0.0000000000000000     
   1.3039050179746792E-002   1.6561248474658646E-002   0.0000000000000000     
   1.4956784645368194E-002   2.0169328157783797E-002   0.0000000000000000     
   2.4626562775746520E-002   2.2825277809515834E-002   0.0000000000000000     
   2.7531260166568775E-002   2.6673778429655150E-002   0.0000000000000000     
   3.0361796251942907E-002   3.0738710318882943E-002   0.0000000000000000     
   3.3118171031868933E-002   3.5020073477199237E-002   0.0000000000000000     
   3.5800384506346851E-002   3.9517867904604015E-002   0.0000000000000000     
   2.1963745471637826E-002   2.2003401018877419E-002   0.0000000000000000     
   2.4630362954436647E-002   2.5880562515977763E-002   0.0000000000000000     
   2.7226769638159055E-002   2.9968239955548277E-002   0.0000000000000000     
   2.9752965522805024E-002   3.4266433337588928E-002   0.0000000000000000     
   3.2208950608374580E-002   3.8775142662099742E-002   0.0000000000000000     
   1.9464510015205203E-002   2.1286783813375940E-002   0.0000000000000000     
   2.1884637750457573E-002   2.5175443293744350E-002   0.0000000000000000     
   2.4241400397615694E-002   2.9273842431509229E-002   0.0000000000000000     
   2.6534797956679585E-002   3.3581981226670575E-002   0.0000000000000000     
   2.8764830427649230E-002   3.8099859679228389E-002   0.0000000000000000     
   1.7128856406448664E-002   2.0675426193011402E-002   0.0000000000000000     
   1.9294084554631531E-002   2.4558420762954888E-002   0.0000000000000000     
   2.1405688530312841E-002   2.8655517746765811E-002   0.0000000000000000     
   2.3463668333492595E-002   3.2966717144444171E-002   0.0000000000000000     
   2.5468023964170795E-002   3.7492018955989963E-002   0.0000000000000000     
   1.4956784645368194E-002   2.0169328157783797E-002   0.0000000000000000     
   1.6858703366958532E-002   2.4029494923609385E-002   0.0000000000000000     
   1.8719634036250491E-002   2.8113265901318026E-002   0.0000000000000000     
   2.0539576653244070E-002   3.2420641090909717E-002   0.0000000000000000     
   2.2318531217939270E-002   3.6951620492384457E-002   0.0000000000000000     
   3.5800384506346851E-002   3.9517867904604015E-002   0.0000000000000000     
   3.8407227916470173E-002   4.4222227708045313E-002   0.0000000000000000     
   4.0937492503332451E-002   4.9123286994471188E-002   0.0000000000000000     
   4.3391178266933665E-002   5.4221045763881627E-002   0.0000000000000000     
   4.5768285207273829E-002   5.9515504016276623E-002   0.0000000000000000     
   3.2208950608374580E-002   3.8775142662099742E-002   0.0000000000000000     
   3.4596205550211076E-002   4.3489508791139379E-002   0.0000000000000000     
   3.6916211003657856E-002   4.8404672586766534E-002   0.0000000000000000     
   3.9168966968714927E-002   5.3520634048981178E-002   0.0000000000000000     
   4.1354473445382310E-002   5.8837393177783331E-002   0.0000000000000000     
   2.8764830427649230E-002   3.8099859679228389E-002   0.0000000000000000     
   3.0933540366603465E-002   4.2824439695786309E-002   0.0000000000000000     
   3.3042970329621120E-002   4.7752683182947939E-002   0.0000000000000000     
   3.5093120316702184E-002   5.2884590140713304E-002   0.0000000000000000     
   3.7083990327846657E-002   5.8220160569082378E-002   0.0000000000000000     
   2.5468023964170795E-002   3.7492018955989963E-002   0.0000000000000000     
   2.7419232365647365E-002   4.2227020421986082E-002   0.0000000000000000     
   2.9317770481222232E-002   4.7167318783015430E-002   0.0000000000000000     
   3.1163638310895404E-002   5.2312914039077993E-002   0.0000000000000000     
   3.2956835854666876E-002   5.7663806190173778E-002   0.0000000000000000     
   2.2318531217939270E-002   3.6951620492384457E-002   0.0000000000000000     
   2.4053281547342754E-002   4.1697250969738711E-002   0.0000000000000000     
   2.5740611458461200E-002   4.6648579386968980E-002   0.0000000000000000     
   2.7380520951294604E-002   5.1805605744075237E-002   0.0000000000000000     
   2.8973010025842967E-002   5.7168330041057508E-002   0.0000000000000000     
   4.5768285207273829E-002   5.9515504016276623E-002   0.0000000000000000     
   4.8073704286979289E-002   6.4999335896612359E-002   0.0000000000000000     
   5.0312326468676401E-002   7.0665215549845020E-002   0.0000000000000000     
   5.2484151752365149E-002   7.6513142975974585E-002   0.0000000000000000     
   5.4589180138045548E-002   8.2543118175001068E-002   0.0000000000000000     
   4.1354473445382310E-002   5.8837393177783331E-002   0.0000000000000000     
   4.3475048620192462E-002   6.4345053598262161E-002   0.0000000000000000     
   4.5533010679677889E-002   7.0033718935506820E-002   0.0000000000000000     
   4.7528359623838591E-002   7.5903389189517334E-002   0.0000000000000000     
   4.9461095452674561E-002   8.1954064360293663E-002   0.0000000000000000     
   3.7083990327846657E-002   5.8220160569082378E-002   0.0000000000000000     
   3.9016370766674441E-002   6.3747916038143282E-002   0.0000000000000000     
   4.0891052036805445E-002   6.9456378117984066E-002   0.0000000000000000     
   4.2708034138239669E-002   7.5345546808604752E-002   0.0000000000000000     
   4.4467317070977112E-002   8.1415422110005298E-002   0.0000000000000000     
   3.2956835854666876E-002   5.7663806190173778E-002   0.0000000000000000     
   3.4697670726425239E-002   6.3207923216255721E-002   0.0000000000000000     
   3.6386450540059082E-002   6.8933193097276746E-002   0.0000000000000000     
   3.8023175295568409E-002   7.4839615833236853E-002   0.0000000000000000     
   3.9607844992953223E-002   8.0927191424136000E-002   0.0000000000000000     
   2.8973010025842967E-002   5.7168330041057508E-002   0.0000000000000000     
   3.0518948499444844E-002   6.2725075132599478E-002   0.0000000000000000     
   3.2019206189438786E-002   6.8464163873384831E-002   0.0000000000000000     
   3.3473783095824793E-002   7.4385596263413595E-002   0.0000000000000000     
   3.4882679218602872E-002   8.0489372302685727E-002   0.0000000000000000     
   5.4589180138045548E-002   8.2543118175001068E-002   0.0000000000000000     
   5.6616911277994605E-002   8.8742460366265194E-002   0.0000000000000000     
   5.8556844824489314E-002   9.5098488769107731E-002   0.0000000000000000     
   6.0408980777529701E-002  0.10161120338352865        0.0000000000000000     
   6.2173319137115726E-002  0.10828060420952797        0.0000000000000000     
   4.9461095452674561E-002   8.1954064360293663E-002   0.0000000000000000     
   5.1322485881983237E-002   8.8173824420127001E-002   0.0000000000000000     
   5.3103798627562045E-002   9.4550749341308485E-002   0.0000000000000000     
   5.4805033689411010E-002  0.10108483912383810        0.0000000000000000     
   5.6426191067530114E-002  0.10777609376771588        0.0000000000000000     
   4.4467317070977112E-002   8.1415422110005298E-002   0.0000000000000000     
   4.6161435926564569E-002   8.7654371848347470E-002   0.0000000000000000     
   4.7782925796548838E-002   9.4050763849792898E-002   0.0000000000000000     
   4.9331786680929905E-002  0.10060459811434157        0.0000000000000000     
   5.0808018579707799E-002  0.10731587464199349        0.0000000000000000     
   3.9607844992953223E-002   8.0927191424136000E-002   0.0000000000000000     
   4.1133761411738599E-002   8.7184102650926590E-002   0.0000000000000000     
   4.2594226331449665E-002   9.3598532294560916E-002   0.0000000000000000     
   4.3989239752086386E-002  0.10017048035503898        0.0000000000000000     
   4.5318801673648802E-002  0.10689994683236081        0.0000000000000000     
   3.4882679218602872E-002   8.0489372302685727E-002   0.0000000000000000     
   3.6239462337505343E-002   8.6763016827864373E-002   0.0000000000000000     
   3.7537700232264541E-002   9.3194054675612578E-002   0.0000000000000000     
   3.8777392902880459E-002   9.9782485845930385E-002   0.0000000000000000     
   3.9958540349353103E-002  0.10652831033881779        0.0000000000000000     
   6.2173319137115726E-002  0.10828060420952797        0.0000000000000000     
   6.3869647999287793E-002  0.11509546319643647        0.0000000000000000     
   6.5517755460086244E-002  0.12204455229358498        0.0000000000000000     
   6.7117641519511079E-002  0.12912787150097352        0.0000000000000000     
   6.8669306177562325E-002  0.13634542081860204        0.0000000000000000     
   5.6426191067530114E-002  0.10777609376771588        0.0000000000000000     
   5.7985663829610429E-002  0.11461296337090308        0.0000000000000000     
   5.9501845043343007E-002  0.12158389803136098        0.0000000000000000     
   6.0974734708727892E-002  0.12868889774908962        0.0000000000000000     
   6.2404332825765046E-002  0.13592796252408895        0.0000000000000000     
   5.0808018579707799E-002  0.10731587464199349        0.0000000000000000     
   5.2228323817090826E-002  0.11417296186050187        0.0000000000000000     
   5.3609404717287361E-002  0.12116422819761989        0.0000000000000000     
   5.4951261280297377E-002  0.12828967365334751        0.0000000000000000     
   5.6253893506120894E-002  0.13554929822768480        0.0000000000000000     
   4.5318801673648802E-002  0.10689994683236081        0.0000000000000000     
   4.6597627961729046E-002  0.11377545866523286        0.0000000000000000     
   4.7840434481919297E-002  0.12078554279236167        0.0000000000000000     
   4.9047221234219576E-002  0.12793019921374726        0.0000000000000000     
   5.0217988218629862E-002  0.13520942792938959        0.0000000000000000     
   3.9958540349353103E-002  0.10652831033881779        0.0000000000000000     
   4.1093576263525028E-002  0.11342045378509602        0.0000000000000000     
   4.2194934337238817E-002  0.12044784181558635        0.0000000000000000     
   4.3262614570494455E-002  0.12761047443028881        0.0000000000000000     
   4.4296616963291957E-002  0.13490835162920337        0.0000000000000000     
   6.8669306177562325E-002  0.13634542081860204        0.0000000000000000     
   7.0138923412195686E-002  0.14368472731328200        0.0000000000000000     
   7.1492667201366891E-002  0.15113331805182478        0.0000000000000000     
   7.2730537545075913E-002  0.15869119303423043        0.0000000000000000     
   7.3852534443322793E-002  0.16635835226049889        0.0000000000000000     
   6.2404332825765046E-002  0.13592796252408895        0.0000000000000000     
   6.3758055383783138E-002  0.14328908199357920        0.0000000000000000     
   6.5003318372110791E-002  0.15076024579478053        0.0000000000000000     
   6.6140121790748047E-002  0.15834145392769305        0.0000000000000000     
   6.7168465639694849E-002  0.16603270639231668        0.0000000000000000     
   5.6253893506120894E-002  0.13554929822768480        0.0000000000000000     
   5.7486538655534825E-002  0.14293123813771205        0.0000000000000000     
   5.8618433989316113E-002  0.15042362960050965        0.0000000000000000     
   5.9649579507464759E-002  0.15802647261607766        0.0000000000000000     
   6.0579975209980770E-002  0.16573976718441599        0.0000000000000000     
   5.0217988218629862E-002  0.13520942792938959        0.0000000000000000     
   5.1324373227450752E-002  0.14261119574568060        0.0000000000000000     
   5.2338014052982822E-002  0.15012346946901214        0.0000000000000000     
   5.3258910695226085E-002  0.15774624909938423        0.0000000000000000     
   5.4087063154180534E-002  0.16547953463679682        0.0000000000000000     
   4.4296616963291957E-002  0.13490835162920337        0.0000000000000000     
   4.5271559099530914E-002  0.14232895481748484        0.0000000000000000     
   4.6162058563110932E-002  0.14985976540028795        0.0000000000000000     
   4.6968115354032017E-002  0.15750078337761272        0.0000000000000000     
   4.7689729472294162E-002  0.16525200874945917        0.0000000000000000     
   0.0000000000000000        0.0000000000000000        0.0000000000000000     
   1.7983790805354348E-003   1.2768741171862109E-003   0.0000000000000000     
   3.6215031354306019E-003   2.9392370139799907E-003   0.0000000000000000     
   5.4693721646855015E-003   4.9870886903813395E-003   0.0000000000000000     
   7.3419861683001334E-003   7.4204291463902559E-003   0.0000000000000000     
   0.0000000000000000        0.0000000000000000        0.0000000000000000     
   1.5350949482720528E-003   1.2175581249882165E-003   0.0000000000000000     
   3.0995716735672915E-003   2.8208645772759265E-003   0.0000000000000000     
   4.6934301758857159E-003   4.8099193568631295E-003   0.0000000000000000     
   6.3166704552273254E-003   7.1847224637498252E-003   0.0000000000000000     
   0.0000000000000000        0.0000000000000000        0.0000000000000000     
   1.2878959834860086E-003   1.1699449773414840E-003   0.0000000000000000     
   2.6057315559876570E-003   2.7245052227660299E-003   0.0000000000000000     
   3.9535067175049451E-003   4.6636807362736383E-003   0.0000000000000000     
   5.3312214680378729E-003   6.9874715178643090E-003   0.0000000000000000     
   0.0000000000000000        0.0000000000000000        0.0000000000000000     
   1.0567821861773028E-003   1.1340346742460129E-003   0.0000000000000000     
   2.1399827826916996E-003   2.6501589504503015E-003   0.0000000000000000     
   3.2496017895431903E-003   4.5483728286128660E-003   0.0000000000000000     
   4.3856392067317743E-003   6.8286763087337067E-003   0.0000000000000000     
   0.0000000000000000        0.0000000000000000        0.0000000000000000     
   8.4175355634593481E-004   1.1098272157018035E-003   0.0000000000000000     
   1.7023253536794184E-003   2.5978257603287412E-003   0.0000000000000000     
   2.5817153920004508E-003   4.4639956338808125E-003   0.0000000000000000     
   3.4799236713090320E-003   6.7083368363580172E-003   0.0000000000000000     
   7.3419861683001334E-003   7.4204291463902559E-003   0.0000000000000000     
   9.2316509412127615E-003   1.0186798968961878E-002   0.0000000000000000     
   1.1130672278361646E-002   1.3233738745051342E-002   0.0000000000000000     
   1.3039050179746792E-002   1.6561248474658646E-002   0.0000000000000000     
   1.4956784645368194E-002   2.0169328157783797E-002   0.0000000000000000     
   6.3166704552273254E-003   7.1847224637498252E-003   0.0000000000000000     
   7.9565654072200603E-003   9.8956838346134848E-003   0.0000000000000000     
   9.6003879274918578E-003   1.2893213406131577E-002   0.0000000000000000     
   1.1248138016042715E-002   1.6177311178304097E-002   0.0000000000000000     
   1.2899815672872640E-002   1.9747977151131055E-002   0.0000000000000000     
   5.3312214680378729E-003   6.9874715178643090E-003   0.0000000000000000     
   6.7243754369329944E-003   9.6497571482526343E-003   0.0000000000000000     
   8.1184682535368636E-003   1.2604417208153213E-002   0.0000000000000000     
   9.5134999178494804E-003   1.5851451697566039E-002   0.0000000000000000     
   1.0909470429870840E-002   1.9390860616491118E-002   0.0000000000000000     
   4.3856392067317743E-003   6.8286763087337067E-003   0.0000000000000000     
   5.5350810303515623E-003   9.4490189098793316E-003   0.0000000000000000     
   6.6849132564966631E-003   1.2367350151116249E-002   0.0000000000000000     
   7.8351358851670768E-003   1.5583670032444463E-002   0.0000000000000000     
   8.9857489163628016E-003   1.9097978553863967E-002   0.0000000000000000     
   3.4799236713090320E-003   6.7083368363580172E-003   0.0000000000000000     
   4.3886821874757672E-003   9.2934691194935717E-003   0.0000000000000000     
   5.2997229363712589E-003   1.2182012235020689E-002   0.0000000000000000     
   6.2130459179955107E-003   1.5373966182939373E-002   0.0000000000000000     
   7.1286511323485190E-003   1.8869330963249616E-002   0.0000000000000000     
   1.4956784645368194E-002   2.0169328157783797E-002   0.0000000000000000     
   1.6858703366958532E-002   2.4029494923609385E-002   0.0000000000000000     
   1.8719634036250491E-002   2.8113265901318026E-002   0.0000000000000000     
   2.0539576653244070E-002   3.2420641090909717E-002   0.0000000000000000     
   2.2318531217939270E-002   3.6951620492384457E-002   0.0000000000000000     
   1.2899815672872640E-002   1.9747977151131055E-002   0.0000000000000000     
   1.4539192389226060E-002   2.3579138321041040E-002   0.0000000000000000     
   1.6150039656347422E-002   2.7644721684462661E-002   0.0000000000000000     
   1.7732357474236713E-002   3.1944727241395895E-002   0.0000000000000000     
   1.9286145842893950E-002   3.6479154991840762E-002   0.0000000000000000     
   1.0909470429870840E-002   1.9390860616491118E-002   0.0000000000000000     
   1.2296249823221601E-002   2.3197823500583060E-002   0.0000000000000000     
   1.3663708131522402E-002   2.7247519885496486E-002   0.0000000000000000     
   1.5011845354773248E-002   3.1539949771231396E-002   0.0000000000000000     
   1.6340661492974137E-002   3.6075113157787796E-002   0.0000000000000000     
   8.9857489163628016E-003   1.9097978553863967E-002   0.0000000000000000     
   1.0129875668945153E-002   2.2885550462235428E-002   0.0000000000000000     
   1.1260639461775442E-002   2.6921660504419513E-002   0.0000000000000000     
   1.2378040294853664E-002   3.1206308680416218E-002   0.0000000000000000     
   1.3482078168179824E-002   3.5739494990225537E-002   0.0000000000000000     
   7.1286511323485190E-003   1.8869330963249616E-002   0.0000000000000000     
   8.0400699263967167E-003   2.2642319205998161E-002   0.0000000000000000     
   8.9408336471065320E-003   2.6667143541231741E-002   0.0000000000000000     
   9.8309422944779668E-003   3.0943803968950353E-002   0.0000000000000000     
   1.0710395868511021E-002   3.5472300489154000E-002   0.0000000000000000     
   2.2318531217939270E-002   3.6951620492384457E-002   0.0000000000000000     
   2.4053281547342754E-002   4.1697250969738711E-002   0.0000000000000000     
   2.5740611458461200E-002   4.6648579386968980E-002   0.0000000000000000     
   2.7380520951294604E-002   5.1805605744075237E-002   0.0000000000000000     
   2.8973010025842967E-002   5.7168330041057508E-002   0.0000000000000000     
   1.9286145842893950E-002   3.6479154991840762E-002   0.0000000000000000     
   2.0804437100535280E-002   4.1233725053858368E-002   0.0000000000000000     
   2.2280263585376880E-002   4.6194157545509811E-002   0.0000000000000000     
   2.3713625297418741E-002   5.1360452466795076E-002   0.0000000000000000     
   2.5104522236660862E-002   5.6732609817714184E-002   0.0000000000000000     
   1.6340661492974137E-002   3.6075113157787796E-002   0.0000000000000000     
   1.7641448214070592E-002   4.0835036389159189E-002   0.0000000000000000     
   1.8905497186008140E-002   4.5801745809339087E-002   0.0000000000000000     
   2.0132808408786777E-002   5.0975241418327502E-002   0.0000000000000000     
   2.1323381882406508E-002   5.6355523216124415E-002   0.0000000000000000     
   1.3482078168179824E-002   3.5739494990225537E-002   0.0000000000000000     
   1.4564314887948678E-002   4.0501184975641182E-002   0.0000000000000000     
   1.5616312260354972E-002   4.5471344178456843E-002   0.0000000000000000     
   1.6638070285398713E-002   5.0649972598672495E-002   0.0000000000000000     
   1.7629588963079895E-002   5.6037070236288185E-002   0.0000000000000000     
   1.0710395868511021E-002   3.5472300489154000E-002   0.0000000000000000     
   1.1573037122169541E-002   4.0232170813304338E-002   0.0000000000000000     
   1.2412708808417385E-002   4.5202952652863039E-002   0.0000000000000000     
   1.3229410927254546E-002   5.0384646007830096E-002   0.0000000000000000     
   1.4023143478681027E-002   5.5777250878205509E-002   0.0000000000000000     
   2.8973010025842967E-002   5.7168330041057508E-002   0.0000000000000000     
   3.0518948499444844E-002   6.2725075132599478E-002   0.0000000000000000     
   3.2019206189438786E-002   6.8464163873384831E-002   0.0000000000000000     
   3.3473783095824793E-002   7.4385596263413595E-002   0.0000000000000000     
   3.4882679218602872E-002   8.0489372302685727E-002   0.0000000000000000     
   2.5104522236660862E-002   5.6732609817714184E-002   0.0000000000000000     
   2.6454616428992016E-002   6.2299565109315780E-002   0.0000000000000000     
   2.7765569900300987E-002   6.8050253852648512E-002   0.0000000000000000     
   2.9037382650587758E-002   7.3984676047712389E-002   0.0000000000000000     
   3.0270054679852328E-002   8.0102831694507409E-002   0.0000000000000000     
   2.1323381882406508E-002   5.6355523216124415E-002   0.0000000000000000     
   2.2479086858325552E-002   6.1931586468545886E-002   0.0000000000000000     
   2.3601792588002116E-002   6.7692426441407966E-002   0.0000000000000000     
   2.4691499071436220E-002   7.3638043134710646E-002   0.0000000000000000     
   2.5748206308627841E-002   7.9768436548453961E-002   0.0000000000000000     
   1.7629588963079895E-002   5.6037070236288185E-002   0.0000000000000000     
   1.8592359787445417E-002   6.1621139210289784E-002   0.0000000000000000     
   1.9527874252542179E-002   6.7390681639663177E-002   0.0000000000000000     
   2.0436132358370176E-002   7.3345697524408379E-002   0.0000000000000000     
   2.1317134104929417E-002   7.9486186864525382E-002   0.0000000000000000     
   1.4023143478681027E-002   5.5777250878205509E-002   0.0000000000000000     
   1.4794435216351634E-002   6.1368223334547473E-002   0.0000000000000000     
   1.5543814893921173E-002   6.7145019447414134E-002   0.0000000000000000     
   1.6271282511389644E-002   7.3107639216805548E-002   0.0000000000000000     
   1.6976838068757046E-002   7.9256082642721673E-002   0.0000000000000000     
   3.4882679218602872E-002   8.0489372302685727E-002   0.0000000000000000     
   3.6239462337505343E-002   8.6763016827864373E-002   0.0000000000000000     
   3.7537700232264541E-002   9.3194054675612578E-002   0.0000000000000000     
   3.8777392902880459E-002   9.9782485845930385E-002   0.0000000000000000     
   3.9958540349353103E-002  0.10652831033881779        0.0000000000000000     
   3.0270054679852328E-002   8.0102831694507409E-002   0.0000000000000000     
   3.1457272877789239E-002   8.6391482551889109E-002   0.0000000000000000     
   3.2592724134093004E-002   9.2837390378712997E-002   0.0000000000000000     
   3.3676408448763635E-002   9.9440555174979128E-002   0.0000000000000000     
   3.4708325821801118E-002  0.10620097694068745        0.0000000000000000     
   2.5748206308627841E-002   7.9768436548453961E-002   0.0000000000000000     
   2.6765927206514727E-002   8.6069867995729077E-002   0.0000000000000000     
   2.7738674672034593E-002   9.2528598789627284E-002   0.0000000000000000     
   2.8666448705187440E-002   9.9144628930148512E-002   0.0000000000000000     
   2.9549249305973271E-002  0.10591795841729278        0.0000000000000000     
   2.1317134104929417E-002   7.9486186864525382E-002   0.0000000000000000     
   2.2165425323681810E-002   8.5798173159384344E-002   0.0000000000000000     
   2.2975551846089307E-002   9.2267679908355382E-002   0.0000000000000000     
   2.3747513672151874E-002   9.8894707111438537E-002   0.0000000000000000     
   2.4481310801869542E-002  0.10567925476863378        0.0000000000000000     
   1.6976838068757046E-002   7.9256082642721673E-002   0.0000000000000000     
   1.7655767229290506E-002   8.5576398042854843E-002   0.0000000000000000     
   1.8303355656257136E-002   9.2054633734897334E-002   0.0000000000000000     
   1.8919603349656949E-002   9.8690789718849245E-002   0.0000000000000000     
   1.9504510309489940E-002  0.10548486599471046        0.0000000000000000     
   3.9958540349353103E-002  0.10652831033881779        0.0000000000000000     
   4.1093576263525028E-002  0.11342045378509602        0.0000000000000000     
   4.2194934337238817E-002  0.12044784181558635        0.0000000000000000     
   4.3262614570494455E-002  0.12761047443028881        0.0000000000000000     
   4.4296616963291957E-002  0.13490835162920337        0.0000000000000000     
   3.4708325821801118E-002  0.10620097694068745        0.0000000000000000     
   3.5698792176529846E-002  0.11310800504577363        0.0000000000000000     
   3.6658123436274191E-002  0.12015098886017329        0.0000000000000000     
   3.7586319601034139E-002  0.12732992838388643        0.0000000000000000     
   3.8483380670809718E-002  0.13464482361691307        0.0000000000000000     
   2.9549249305973271E-002  0.10591795841729278        0.0000000000000000     
   3.0395899154794535E-002  0.11283817027294796        0.0000000000000000     
   3.1215220932053696E-002  0.11989484751900183        0.0000000000000000     
   3.2007214637750747E-002  0.12708799015545438        0.0000000000000000     
   3.2771880271885684E-002  0.13441759818230570        0.0000000000000000     
   2.4481310801869542E-002  0.10567925476863378        0.0000000000000000     
   2.5184897198319088E-002  0.11261094946661898        0.0000000000000000     
   2.5866226824577326E-002  0.11967941779207195        0.0000000000000000     
   2.6525299680644241E-002  0.12688465974499269        0.0000000000000000     
   2.7162115766519845E-002  0.13422667532538121        0.0000000000000000     
   1.9504510309489940E-002  0.10548486599471046        0.0000000000000000     
   2.0065786307103511E-002  0.11242634262678672        0.0000000000000000     
   2.0611141113845082E-002  0.11950469967938367        0.0000000000000000     
   2.1140574729714649E-002  0.12671993715250127        0.0000000000000000     
   2.1654087154712211E-002  0.13407205504613962        0.0000000000000000     
   4.4296616963291957E-002  0.13490835162920337        0.0000000000000000     
   4.5271559099530914E-002  0.14232895481748484        0.0000000000000000     
   4.6162058563110932E-002  0.14985976540028795        0.0000000000000000     
   4.6968115354032017E-002  0.15750078337761272        0.0000000000000000     
   4.7689729472294162E-002  0.16525200874945917        0.0000000000000000     
   3.8483380670809718E-002  0.13464482361691307        0.0000000000000000     
   3.9326954136253034E-002  0.14208263245836453        0.0000000000000000     
   4.0094687488016242E-002  0.14963031280735212        0.0000000000000000     
   4.0786580726099322E-002  0.15728786466387584        0.0000000000000000     
   4.1402633850502288E-002  0.16505528802793570        0.0000000000000000     
   3.2771880271885684E-002  0.13441759818230570        0.0000000000000000     
   3.3489416202094835E-002  0.14187034577355950        0.0000000000000000     
   3.4140020796014532E-002  0.14943290710321969        0.0000000000000000     
   3.4723694053644762E-002  0.15710528217128622        0.0000000000000000     
   3.5240435974985544E-002  0.16488747097775910        0.0000000000000000     
   2.7162115766519845E-002  0.13422667532538121        0.0000000000000000     
   2.7758945297056307E-002  0.14169209476306976        0.0000000000000000     
   2.8298058487105818E-002  0.14926754828789060        0.0000000000000000     
   2.8779455336668359E-002  0.15695303589984380        0.0000000000000000     
   2.9203135845743945E-002  0.16474855759892934        0.0000000000000000     
   2.1654087154712211E-002  0.13407205504613962        0.0000000000000000     
   2.2135541421137460E-002  0.14154787942689528        0.0000000000000000     
   2.2568800561290087E-002  0.14913423636136500        0.0000000000000000     
   2.2953864575170096E-002  0.15683112584954867        0.0000000000000000     
   2.3290733462777480E-002  0.16463854789144644        0.0000000000000000     
   0.0000000000000000        0.0000000000000000        0.0000000000000000     
   8.4175355634593481E-004   1.1098272157018035E-003   0.0000000000000000     
   1.7023253536794184E-003   2.5978257603287412E-003   0.0000000000000000     
   2.5817153920004508E-003   4.4639956338808125E-003   0.0000000000000000     
   3.4799236713090320E-003   6.7083368363580172E-003   0.0000000000000000     
   0.0000000000000000        0.0000000000000000        0.0000000000000000     
   6.3390442449150881E-004   1.0937656839735716E-003   0.0000000000000000     
   1.2782212013936480E-003   2.5616649424441348E-003   0.0000000000000000     
   1.9329503307064179E-003   4.4036977754116895E-003   0.0000000000000000     
   2.5980918124298177E-003   6.6198641828762363E-003   0.0000000000000000     
   0.0000000000000000        0.0000000000000000        0.0000000000000000     
   4.2432912111362877E-004   1.0822931613260333E-003   0.0000000000000000     
   8.5313225827722289E-004   2.5358357868392706E-003   0.0000000000000000     
   1.2864094114907825E-003   4.3606278765397121E-003   0.0000000000000000     
   1.7241605807543077E-003   6.5566694304273572E-003   0.0000000000000000     
   0.0000000000000000        0.0000000000000000        0.0000000000000000     
   2.1302764621229458E-004   1.0754096477591883E-003   0.0000000000000000     
   4.2705852433014280E-004   2.5203382935141475E-003   0.0000000000000000     
   6.4209263435354466E-004   4.3347859372648767E-003   0.0000000000000000     
   8.5812997628250016E-004   6.5187525790113762E-003   0.0000000000000000     
   0.0000000000000000        0.0000000000000000        0.0000000000000000     
  -2.1249356983200907E-013   1.0731151432730375E-003   0.0000000000000000     
  -4.4759210443903741E-013   2.5151724624687660E-003   0.0000000000000000     
  -7.0529573934635659E-013   4.3261719575871859E-003   0.0000000000000000     
  -9.8560423060847779E-013   6.5061136286282979E-003   0.0000000000000000     
   3.4799236713090320E-003   6.7083368363580172E-003   0.0000000000000000     
   4.3886821874757672E-003   9.2934691194935717E-003   0.0000000000000000     
   5.2997229363712589E-003   1.2182012235020689E-002   0.0000000000000000     
   6.2130459179955107E-003   1.5373966182939373E-002   0.0000000000000000     
   7.1286511323485190E-003   1.8869330963249616E-002   0.0000000000000000     
   2.5980918124298177E-003   6.6198641828762363E-003   0.0000000000000000     
   3.2706762549104141E-003   9.1771329989185566E-003   0.0000000000000000     
   3.9477342664947703E-003   1.2042473057619432E-002   0.0000000000000000     
   4.6292658471828868E-003   1.5215884358978859E-002   0.0000000000000000     
   5.3152709969747636E-003   1.8697366902996844E-002   0.0000000000000000     
   1.7241605807543077E-003   6.5566694304273572E-003   0.0000000000000000     
   2.1665605792603134E-003   9.0940357699774831E-003   0.0000000000000000     
   2.6137842202013143E-003   1.1942802216665374E-002   0.0000000000000000     
   3.0658315035773120E-003   1.5102968770491020E-002   0.0000000000000000     
   3.5227024293883052E-003   1.8574535431454427E-002   0.0000000000000000     
   8.5812997628250016E-004   6.5187525790113762E-003   0.0000000000000000     
   1.0763351605254648E-003   9.0441774326703531E-003   0.0000000000000000     
   1.2978727974908935E-003   1.1882999712158513E-002   0.0000000000000000     
   1.5227428871787865E-003   1.5035219417475851E-002   0.0000000000000000     
   1.7509454295891441E-003   1.8500836548622373E-002   0.0000000000000000     
  -9.8560423060847779E-013   6.5061136286282979E-003   0.0000000000000000     
  -1.2941322004907801E-012   9.0275579869971648E-003   0.0000000000000000     
  -1.6364943119162242E-012   1.1863065544098852E-002   0.0000000000000000     
  -2.0126901413683364E-012   1.5012636299933355E-002   0.0000000000000000     
  -2.4227203359802885E-012   1.8476270254500680E-002   0.0000000000000000     
   7.1286511323485190E-003   1.8869330963249616E-002   0.0000000000000000     
   8.0400699263967167E-003   2.2642319205998161E-002   0.0000000000000000     
   8.9408336471065320E-003   2.6667143541231741E-002   0.0000000000000000     
   9.8309422944779668E-003   3.0943803968950353E-002   0.0000000000000000     
   1.0710395868511021E-002   3.5472300489154000E-002   0.0000000000000000     
   5.3152709969747636E-003   1.8697366902996844E-002   0.0000000000000000     
   5.9989244033047152E-003   2.2459697636496041E-002   0.0000000000000000     
   6.6734007536070538E-003   2.6475653506299119E-002   0.0000000000000000     
   7.3387000478817794E-003   3.0745234512406079E-002   0.0000000000000000     
   7.9948222861288935E-003   3.5268440654816914E-002   0.0000000000000000     
   3.5227024293883052E-003   1.8574535431454427E-002   0.0000000000000000     
   3.9785309073975678E-003   2.2329253658353868E-002   0.0000000000000000     
   4.4274508473683754E-003   2.6338874909987618E-002   0.0000000000000000     
   4.8694622493007248E-003   3.0603399186355681E-002   0.0000000000000000     
   5.3045651131946175E-003   3.5122826487458042E-002   0.0000000000000000     
   1.7509454295891441E-003   1.8500836548622373E-002   0.0000000000000000     
   1.9788894386752768E-003   2.2250987271571647E-002   0.0000000000000000     
   2.2029839283904964E-003   2.6256807752297232E-002   0.0000000000000000     
   2.4232288987348018E-003   3.0518297990799144E-002   0.0000000000000000     
   2.6396243497081944E-003   3.5035457987077370E-002   0.0000000000000000     
  -2.4227203359802885E-012   1.8476270254500680E-002   0.0000000000000000     
  -2.8621590232418004E-012   2.2224898476149370E-002   0.0000000000000000     
  -3.3265822008913398E-012   2.6229452033227969E-002   0.0000000000000000     
  -3.8159879783513685E-012   3.0489930925736472E-002   0.0000000000000000     
  -4.3303776363357027E-012   3.5006335153674892E-002   0.0000000000000000     
   1.0710395868511021E-002   3.5472300489154000E-002   0.0000000000000000     
   1.1573037122169541E-002   4.0232170813304338E-002   0.0000000000000000     
   1.2412708808417385E-002   4.5202952652863039E-002   0.0000000000000000     
   1.3229410927254546E-002   5.0384646007830096E-002   0.0000000000000000     
   1.4023143478681027E-002   5.5777250878205509E-002   0.0000000000000000     
   7.9948222861288935E-003   3.5268440654816914E-002   0.0000000000000000     
   8.6384598125206838E-003   4.0025149718649157E-002   0.0000000000000000     
   9.2663049712294401E-003   4.4995239489020317E-002   0.0000000000000000     
   9.8783577622551608E-003   5.0178709965930379E-002   0.0000000000000000     
   1.0474618185597848E-002   5.5575561149379366E-002   0.0000000000000000     
   5.3045651131946175E-003   3.5122826487458042E-002   0.0000000000000000     
   5.7314278547895975E-003   3.9877277508176094E-002   0.0000000000000000     
   6.1487188898252040E-003   4.4846872943391222E-002   0.0000000000000000     
   6.5564382183014398E-003   5.0031612793103426E-002   0.0000000000000000     
   6.9545858402183022E-003   5.5431497057312713E-002   0.0000000000000000     
   2.6396243497081944E-003   3.5035457987077370E-002   0.0000000000000000     
   2.8519412489762834E-003   3.9788554181885170E-002   0.0000000000000000     
   3.0599505642046787E-003   4.4757853015975797E-002   0.0000000000000000     
   3.2636522953933796E-003   4.9943354489349258E-002   0.0000000000000000     
   3.4630464425423882E-003   5.5345058602005559E-002   0.0000000000000000     
  -4.3303776363357027E-012   3.5006335153674892E-002   0.0000000000000000     
  -4.9192586852944697E-012   3.9758979739776358E-002   0.0000000000000000     
  -5.6321384730474711E-012   4.4728179706774014E-002   0.0000000000000000     
  -6.4690154410540837E-012   4.9913935054667867E-002   0.0000000000000000     
  -7.4298917712711798E-012   5.5316245783457910E-002   0.0000000000000000     
   1.4023143478681027E-002   5.5777250878205509E-002   0.0000000000000000     
   1.4794435216351634E-002   6.1368223334547473E-002   0.0000000000000000     
   1.5543814893921173E-002   6.7145019447414134E-002   0.0000000000000000     
   1.6271282511389644E-002   7.3107639216805548E-002   0.0000000000000000     
   1.6976838068757046E-002   7.9256082642721673E-002   0.0000000000000000     
   1.0474618185597848E-002   5.5575561149379366E-002   0.0000000000000000     
   1.1054640523898493E-002   6.1172091923104487E-002   0.0000000000000000     
   1.1617979059798091E-002   6.6954601170842953E-002   0.0000000000000000     
   1.2164633793296638E-002   7.2923088892594787E-002   0.0000000000000000     
   1.2694604724394140E-002   7.9077555088359966E-002   0.0000000000000000     
   6.9545858402183022E-003   5.5431497057312713E-002   0.0000000000000000     
   7.3423030889402975E-003   6.1031998057746367E-002   0.0000000000000000     
   7.7187312978319279E-003   6.6818588116131700E-002   0.0000000000000000     
   8.0838704668931925E-003   7.2791267232468704E-002   0.0000000000000000     
   8.4377205961240972E-003   7.8950035406757380E-002   0.0000000000000000     
   3.4630464425423882E-003   5.5345058602005559E-002   0.0000000000000000     
   3.6574229114770427E-003   6.0947941738473121E-002   0.0000000000000000     
   3.8460716080226829E-003   6.6736980283280373E-002   0.0000000000000000     
   4.0289925321793070E-003   7.2712174236427313E-002   0.0000000000000000     
   4.2061856839469168E-003   7.8873523597913928E-002   0.0000000000000000     
  -7.4298917712711798E-012   5.5316245783457910E-002   0.0000000000000000     
  -8.4912674764778262E-012   6.0919922965284742E-002   0.0000000000000000     
  -9.6296432741845017E-012   6.6709777672288972E-002   0.0000000000000000     
  -1.0845020804246992E-011   7.2685809904470600E-002   0.0000000000000000     
  -1.2137397640762937E-011   7.8848019661829583E-002   0.0000000000000000     
   1.6976838068757046E-002   7.9256082642721673E-002   0.0000000000000000     
   1.7655767229290506E-002   8.5576398042854843E-002   0.0000000000000000     
   1.8303355656257136E-002   9.2054633734897334E-002   0.0000000000000000     
   1.8919603349656949E-002   9.8690789718849245E-002   0.0000000000000000     
   1.9504510309489940E-002  0.10548486599471046        0.0000000000000000     
   1.2694604724394140E-002   7.9077555088359966E-002   0.0000000000000000     
   1.3204104626495001E-002   8.5404184693350330E-002   0.0000000000000000     
   1.3689346273003635E-002   9.1889162642777703E-002   0.0000000000000000     
   1.4150329663920038E-002   9.8532488936642085E-002   0.0000000000000000     
   1.4587054799244215E-002  0.10533416357494349        0.0000000000000000     
   8.4377205961240972E-003   7.8950035406757380E-002   0.0000000000000000     
   8.7775892184495125E-003   8.5281175158080508E-002   0.0000000000000000     
   9.1007838667943250E-003   9.1770969005520911E-002   0.0000000000000000     
   9.4073045411585295E-003   9.8419416949078603E-002   0.0000000000000000     
   9.6971512415421259E-003  0.10522651898875353        0.0000000000000000     
   4.2061856839469168E-003   7.8873523597913928E-002   0.0000000000000000     
   4.3762210051540408E-003   8.5207369437045433E-002   0.0000000000000000     
   4.5376684376292088E-003   9.1700052823127029E-002   0.0000000000000000     
   4.6905279813724190E-003   9.8351573756158772E-002   0.0000000000000000     
   4.8347996363836731E-003  0.10516193223614061        0.0000000000000000     
  -1.2137397640762937E-011   7.8848019661829583E-002   0.0000000000000000     
  -1.3391414930077894E-011   8.5182767530245063E-002   0.0000000000000000     
  -1.4491712246444272E-011   9.1676414095596057E-002   0.0000000000000000     
  -1.5438288600527587E-011   9.8328959357882634E-002   0.0000000000000000     
  -1.6231144032985423E-011  0.10514040331710470        0.0000000000000000     
   1.9504510309489940E-002  0.10548486599471046        0.0000000000000000     
   2.0065786307103511E-002  0.11242634262678672        0.0000000000000000     
   2.0611141113845082E-002  0.11950469967938367        0.0000000000000000     
   2.1140574729714649E-002  0.12671993715250127        0.0000000000000000     
   2.1654087154712211E-002  0.13407205504613962        0.0000000000000000     
   1.4587054799244215E-002  0.10533416357494349        0.0000000000000000     
   1.5006800642920849E-002  0.11228345525182558        0.0000000000000000     
   1.5416846158894632E-002  0.11936963266143207        0.0000000000000000     
   1.5817191347165561E-002  0.12659269580376292        0.0000000000000000     
   1.6207836207733636E-002  0.13395264467881812        0.0000000000000000     
   9.6971512415421259E-003  0.10522651898875353        0.0000000000000000     
   9.9761743675441505E-003  0.11218139284011000        0.0000000000000000     
   1.0250224318763634E-002  0.11927315621871222        0.0000000000000000     
   1.0519301095200577E-002  0.12650180912456019        0.0000000000000000     
   1.0783404696854976E-002  0.13386735155765400        0.0000000000000000     
   4.8347996363836731E-003  0.10516193223614061        0.0000000000000000     
   4.9739074809734152E-003  0.11212015539163993        0.0000000000000000     
   5.1112755934520906E-003  0.11921527035122412        0.0000000000000000     
   5.2469039738196974E-003  0.12644727711489318        0.0000000000000000     
   5.3807926220762392E-003  0.13381617568264711        0.0000000000000000     
  -1.6231144032985423E-011  0.10514040331710470        0.0000000000000000     
  -1.6791356716519545E-011  0.11209974290641540        0.0000000000000000     
  -1.7039999402820860E-011  0.11919597505896778        0.0000000000000000     
  -1.6977075290285776E-011  0.12642909977476186        0.0000000000000000     
  -1.6602582156299839E-011  0.13379911705379760        0.0000000000000000     
   2.1654087154712211E-002  0.13407205504613962        0.0000000000000000     
   2.2135541421137460E-002  0.14154787942689528        0.0000000000000000     
   2.2568800561290087E-002  0.14913423636136500        0.0000000000000000     
   2.2953864575170096E-002  0.15683112584954867        0.0000000000000000     
   2.3290733462777480E-002  0.16463854789144644        0.0000000000000000     
   1.6207836207733636E-002  0.13395264467881812        0.0000000000000000     
   1.6574667310346080E-002  0.14143658161445311        0.0000000000000000     
   1.6903571224750114E-002  0.14903160893852316        0.0000000000000000     
   1.7194547950945743E-002  0.15673772665102834        0.0000000000000000     
   1.7447597488932966E-002  0.16455493475196861        0.0000000000000000     
   1.0783404696854976E-002  0.13386735155765400        0.0000000000000000     
   1.1031785700689967E-002  0.14135708317516021        0.0000000000000000     
   1.1253694683668667E-002  0.14895830363424567        0.0000000000000000     
   1.1449131645791083E-002  0.15667101293491031        0.0000000000000000     
   1.1618096587057213E-002  0.16449521107715420        0.0000000000000000     
   5.3807926220762392E-003  0.13381617568264711        0.0000000000000000     
   5.5068965921691174E-003  0.14130938410901667        0.0000000000000000     
   5.6191709380457415E-003  0.14891432044853251        0.0000000000000000     
   5.7176156597061097E-003  0.15663098470119466        0.0000000000000000     
   5.8022307571502221E-003  0.16445937686700310        0.0000000000000000     
  -1.6602582156299839E-011  0.13379911705379760        0.0000000000000000     
  -1.5216464373246641E-011  0.14129348441602238        0.0000000000000000     
  -1.2118661976701084E-011  0.14889965938138361        0.0000000000000000     
  -7.3091768098068610E-012  0.15661764194988131        0.0000000000000000     
  -7.8800854730332048E-013  0.16444743212151541        0.0000000000000000     
   0.0000000000000000        0.0000000000000000        0.0000000000000000     
  -2.1249356983200907E-013   1.0731151432730375E-003   0.0000000000000000     
  -4.4759210443903741E-013   2.5151724624687660E-003   0.0000000000000000     
  -7.0529573934635659E-013   4.3261719575871859E-003   0.0000000000000000     
  -9.8560423060847779E-013   6.5061136286282979E-003   0.0000000000000000     
   0.0000000000000000        0.0000000000000000        0.0000000000000000     
  -2.1302764662933592E-004   1.0754096478623933E-003   0.0000000000000000     
  -4.2705852520948844E-004   2.5203382936954000E-003   0.0000000000000000     
  -6.4209263574045749E-004   4.3347859374990201E-003   0.0000000000000000     
  -8.5812997822224334E-004   6.5187525792732544E-003   0.0000000000000000     
   0.0000000000000000        0.0000000000000000        0.0000000000000000     
  -4.2432912150683236E-004   1.0822931615220696E-003   0.0000000000000000     
  -8.5313225910905251E-004   2.5358357871863232E-003   0.0000000000000000     
  -1.2864094128066602E-003   4.3606278769927594E-003   0.0000000000000000     
  -1.7241605825996553E-003   6.5566694309413791E-003   0.0000000000000000     
   0.0000000000000000        0.0000000000000000        0.0000000000000000     
  -6.3390442484498311E-004   1.0937656842520669E-003   0.0000000000000000     
  -1.2782212021462840E-003   2.5616649429415351E-003   0.0000000000000000     
  -1.9329503319039031E-003   4.4036977760684055E-003   0.0000000000000000     
  -2.5980918141178398E-003   6.6198641836326764E-003   0.0000000000000000     
   0.0000000000000000        0.0000000000000000        0.0000000000000000     
  -8.4175355664378791E-004   1.1098272160523844E-003   0.0000000000000000     
  -1.7023253543211833E-003   2.5978257609610362E-003   0.0000000000000000     
  -2.5817153930321858E-003   4.4639956347259559E-003   0.0000000000000000     
  -3.4799236727767967E-003   6.7083368373471418E-003   0.0000000000000000     
  -9.8560423060847779E-013   6.5061136286282979E-003   0.0000000000000000     
  -1.2941322004907801E-012   9.0275579869971648E-003   0.0000000000000000     
  -1.6364943119162242E-012   1.1863065544098852E-002   0.0000000000000000     
  -2.0126901413683364E-012   1.5012636299933355E-002   0.0000000000000000     
  -2.4227203359802885E-012   1.8476270254500680E-002   0.0000000000000000     
  -8.5812997822224334E-004   6.5187525792732544E-003   0.0000000000000000     
  -1.0763351630729457E-003   9.0441774329538226E-003   0.0000000000000000     
  -1.2978728007106641E-003   1.1882999712476441E-002   0.0000000000000000     
  -1.5227428911353984E-003   1.5035219417841115E-002   0.0000000000000000     
  -1.7509454343471499E-003   1.8500836549047842E-002   0.0000000000000000     
  -1.7241605825996553E-003   6.5566694309413791E-003   0.0000000000000000     
  -2.1665605816854438E-003   9.0940357705362254E-003   0.0000000000000000     
  -2.6137842232614324E-003   1.1942802217281334E-002   0.0000000000000000     
  -3.0658315073276198E-003   1.5102968771176711E-002   0.0000000000000000     
  -3.5227024338840072E-003   1.8574535432222351E-002   0.0000000000000000     
  -2.5980918141178398E-003   6.6198641836326764E-003   0.0000000000000000     
  -3.2706762571316273E-003   9.1771329997443769E-003   0.0000000000000000     
  -3.9477342692887983E-003   1.2042473058513532E-002   0.0000000000000000     
  -4.6292658505893529E-003   1.5215884359940144E-002   0.0000000000000000     
  -5.3152710010332931E-003   1.8697366904024210E-002   0.0000000000000000     
  -3.4799236727767967E-003   6.7083368373471418E-003   0.0000000000000000     
  -4.3886821894114966E-003   9.2934691205782752E-003   0.0000000000000000     
  -5.2997229387927646E-003   1.2182012236173032E-002   0.0000000000000000     
  -6.2130459209206006E-003   1.5373966184131413E-002   0.0000000000000000     
  -7.1286511357950052E-003   1.8869330964453420E-002   0.0000000000000000     
  -2.4227203359802885E-012   1.8476270254500680E-002   0.0000000000000000     
  -2.8621590232418004E-012   2.2224898476149370E-002   0.0000000000000000     
  -3.3265822008913398E-012   2.6229452033227969E-002   0.0000000000000000     
  -3.8159879783513685E-012   3.0489930925736472E-002   0.0000000000000000     
  -4.3303776363357027E-012   3.5006335153674892E-002   0.0000000000000000     
  -1.7509454343471499E-003   1.8500836549047842E-002   0.0000000000000000     
  -1.9788894442901435E-003   2.2250987272029090E-002   0.0000000000000000     
  -2.2029839349086053E-003   2.6256807752717326E-002   0.0000000000000000     
  -2.4232289062025370E-003   3.0518297991112560E-002   0.0000000000000000     
  -2.6396243581719371E-003   3.5035457987214781E-002   0.0000000000000000     
  -3.5227024338840072E-003   1.8574535432222351E-002   0.0000000000000000     
  -3.9785309126840794E-003   2.2329253659152858E-002   0.0000000000000000     
  -4.4274508534813224E-003   2.6338874910702834E-002   0.0000000000000000     
  -4.8694622562757365E-003   3.0603399186872281E-002   0.0000000000000000     
  -5.3045651210673200E-003   3.5122826487661185E-002   0.0000000000000000     
  -5.3152710010332931E-003   1.8697366904024210E-002   0.0000000000000000     
  -5.9989244080439676E-003   2.2459697637520683E-002   0.0000000000000000     
  -6.6734007590447328E-003   2.6475653507184487E-002   0.0000000000000000     
  -7.3387000540355851E-003   3.0745234513015637E-002   0.0000000000000000     
  -7.9948222930165281E-003   3.5268440655014131E-002   0.0000000000000000     
  -7.1286511357950052E-003   1.8869330964453420E-002   0.0000000000000000     
  -8.0400699303698076E-003   2.2642319207132545E-002   0.0000000000000000     
  -8.9408336515988344E-003   2.6667143542162278E-002   0.0000000000000000     
  -9.8309422994820872E-003   3.0943803969542626E-002   0.0000000000000000     
  -1.0710395874019563E-002   3.5472300489273578E-002   0.0000000000000000     
  -4.3303776363357027E-012   3.5006335153674892E-002   0.0000000000000000     
  -4.9192586852944697E-012   3.9758979739776358E-002   0.0000000000000000     
  -5.6321384730474711E-012   4.4728179706774014E-002   0.0000000000000000     
  -6.4690154410540837E-012   4.9913935054667867E-002   0.0000000000000000     
  -7.4298917712711798E-012   5.5316245783457910E-002   0.0000000000000000     
  -2.6396243581719371E-003   3.5035457987214781E-002   0.0000000000000000     
  -2.8519412585716422E-003   3.9788554181834537E-002   0.0000000000000000     
  -3.0599505751564889E-003   4.4757853015782390E-002   0.0000000000000000     
  -3.2636523079264787E-003   4.9943354489058331E-002   0.0000000000000000     
  -3.4630464568816107E-003   5.5345058601662361E-002   0.0000000000000000     
  -5.3045651210673200E-003   3.5122826487661185E-002   0.0000000000000000     
  -5.7314278636554795E-003   3.9877277508044574E-002   0.0000000000000000     
  -6.1487188998396204E-003   4.4846872942997426E-002   0.0000000000000000     
  -6.5564382296197385E-003   5.0031612792519740E-002   0.0000000000000000     
  -6.9545858529958390E-003   5.5431497056611510E-002   0.0000000000000000     
  -7.9948222930165281E-003   3.5268440655014131E-002   0.0000000000000000     
  -8.6384598201707710E-003   4.0025149718406441E-002   0.0000000000000000     
  -9.2663049796815281E-003   4.4995239488419103E-002   0.0000000000000000     
  -9.8783577715487979E-003   5.0178709965052075E-002   0.0000000000000000     
  -1.0474618195772577E-002   5.5575561148305384E-002   0.0000000000000000     
  -1.0710395874019563E-002   3.5472300489273578E-002   0.0000000000000000     
  -1.1573037128117518E-002   4.0232170812920173E-002   0.0000000000000000     
  -1.2412708814682214E-002   4.5202952652047435E-002   0.0000000000000000     
  -1.3229410933713649E-002   5.0384646006655369E-002   0.0000000000000000     
  -1.4023143485211824E-002   5.5777250876743956E-002   0.0000000000000000     
  -7.4298917712711798E-012   5.5316245783457910E-002   0.0000000000000000     
  -8.4912674764778262E-012   6.0919922965284742E-002   0.0000000000000000     
  -9.6296432741845017E-012   6.6709777672288972E-002   0.0000000000000000     
  -1.0845020804246992E-011   7.2685809904470600E-002   0.0000000000000000     
  -1.2137397640762937E-011   7.8848019661829583E-002   0.0000000000000000     
  -3.4630464568816107E-003   5.5345058601662361E-002   0.0000000000000000     
  -3.6574229278078514E-003   6.0947941738144912E-002   0.0000000000000000     
  -3.8460716264911688E-003   6.6736980283056441E-002   0.0000000000000000     
  -4.0289925529315629E-003   7.2712174236396906E-002   0.0000000000000000     
  -4.2061857071290327E-003   7.8873523598166337E-002   0.0000000000000000     
  -6.9545858529958390E-003   5.5431497056611510E-002   0.0000000000000000     
  -7.3423031033159258E-003   6.1031998057017318E-002   0.0000000000000000     
  -7.7187313139280124E-003   6.6818588115481692E-002   0.0000000000000000     
  -8.0838704848320946E-003   7.2791267232004617E-002   0.0000000000000000     
  -8.4377206160281739E-003   7.8950035406586128E-002   0.0000000000000000     
  -1.0474618195772577E-002   5.5575561148305384E-002   0.0000000000000000     
  -1.1054640535015495E-002   6.1172091921901955E-002   0.0000000000000000     
  -1.1617979071940175E-002   6.6954601169564740E-002   0.0000000000000000     
  -1.2164633806546617E-002   7.2923088891293744E-002   0.0000000000000000     
  -1.2694604738834820E-002   7.9077555087088955E-002   0.0000000000000000     
  -1.4023143485211824E-002   5.5777250876743956E-002   0.0000000000000000     
  -1.4794435222906554E-002   6.1368223332798830E-002   0.0000000000000000     
  -1.5543814900527657E-002   6.7145019445305584E-002   0.0000000000000000     
  -1.6271282518075129E-002   7.3107639214264261E-002   0.0000000000000000     
  -1.6976838075548971E-002   7.9256082639674819E-002   0.0000000000000000     
  -1.2137397640762937E-011   7.8848019661829583E-002   0.0000000000000000     
  -1.3391414930077894E-011   8.5182767530245063E-002   0.0000000000000000     
  -1.4491712246444272E-011   9.1676414095596057E-002   0.0000000000000000     
  -1.5438288600527587E-011   9.8328959357882634E-002   0.0000000000000000     
  -1.6231144032985423E-011  0.10514040331710470        0.0000000000000000     
  -4.2061857071290327E-003   7.8873523598166337E-002   0.0000000000000000     
  -4.3762210307000072E-003   8.5207369437248742E-002   0.0000000000000000     
  -4.5376684652609130E-003   9.1700052822528147E-002   0.0000000000000000     
  -4.6905280108117484E-003   9.8351573754004509E-002   0.0000000000000000     
  -4.8347996673525169E-003  0.10516193223167784        0.0000000000000000     
  -8.4377206160281739E-003   7.8950035406586128E-002   0.0000000000000000     
  -8.7775892402848863E-003   8.5281175157625844E-002   0.0000000000000000     
  -9.1007838903708650E-003   9.1770969003523425E-002   0.0000000000000000     
  -9.4073045662861152E-003   9.8419416944278831E-002   0.0000000000000000     
  -9.6971512680306318E-003  0.10522651897989212        0.0000000000000000     
  -1.2694604738834820E-002   7.9077555087088955E-002   0.0000000000000000     
  -1.3204104642146051E-002   8.5404184691376339E-002   0.0000000000000000     
  -1.3689346289821573E-002   9.1889162638581906E-002   0.0000000000000000     
  -1.4150329681861386E-002   9.8532488928705614E-002   0.0000000000000000     
  -1.4587054818265497E-002  0.10533416356174745        0.0000000000000000     
  -1.6976838075548971E-002   7.9256082639674819E-002   0.0000000000000000     
  -1.7655767236283502E-002   8.5576398038500270E-002   0.0000000000000000     
  -1.8303355663613029E-002   9.2054633727703589E-002   0.0000000000000000     
  -1.8919603357537566E-002   9.8690789707284801E-002   0.0000000000000000     
  -1.9504510318057101E-002  0.10548486597724391        0.0000000000000000     
  -1.6231144032985423E-011  0.10514040331710470        0.0000000000000000     
  -1.6791356716519545E-011  0.11209974290641540        0.0000000000000000     
  -1.7039999402820860E-011  0.11919597505896778        0.0000000000000000     
  -1.6977075290285776E-011  0.12642909977476186        0.0000000000000000     
  -1.6602582156299839E-011  0.13379911705379760        0.0000000000000000     
  -4.8347996673525169E-003  0.10516193223167784        0.0000000000000000     
  -4.9739075130124811E-003  0.11212015538474084        0.0000000000000000     
  -5.1112756259209056E-003  0.11921527034238602        0.0000000000000000     
  -5.2469040060777955E-003  0.12644727710461345        0.0000000000000000     
  -5.3807926534831440E-003  0.13381617567142312        0.0000000000000000     
  -9.6971512680306318E-003  0.10522651897989212        0.0000000000000000     
  -9.9761743949522783E-003  0.11218139282692058        0.0000000000000000     
  -1.0250224346398905E-002  0.11927315620192165        0.0000000000000000     
  -1.0519301122370513E-002  0.12650180910489528        0.0000000000000000     
  -1.0783404722867105E-002  0.13386735153584151        0.0000000000000000     
  -1.4587054818265497E-002  0.10533416356174745        0.0000000000000000     
  -1.5006800662610745E-002  0.11228345523295473        0.0000000000000000     
  -1.5416846178473990E-002  0.11936963263757470        0.0000000000000000     
  -1.5817191365855229E-002  0.12659269577560742        0.0000000000000000     
  -1.6207836224754472E-002  0.13395264464705275        0.0000000000000000     
  -1.9504510318057101E-002  0.10548486597724391        0.0000000000000000     
  -2.0065786315987887E-002  0.11242634260284323        0.0000000000000000     
  -2.0611141122146168E-002  0.11950469964934515        0.0000000000000000     
  -2.1140574736531952E-002  0.12671993711674970        0.0000000000000000     
  -2.1654087159145231E-002  0.13407205500505684        0.0000000000000000     
  -1.6602582156299839E-011  0.13379911705379760        0.0000000000000000     
  -1.5216464373246641E-011  0.14129348441602238        0.0000000000000000     
  -1.2118661976701084E-011  0.14889965938138361        0.0000000000000000     
  -7.3091768098068610E-012  0.15661764194988131        0.0000000000000000     
  -7.8800854730332048E-013  0.16444743212151541        0.0000000000000000     
  -5.3807926534831440E-003  0.13381617567142312        0.0000000000000000     
  -5.5068966207055484E-003  0.14130938409652191        0.0000000000000000     
  -5.6191709603136027E-003  0.14891432043361671        0.0000000000000000     
  -5.7176156723073033E-003  0.15663098468270753        0.0000000000000000     
  -5.8022307566866519E-003  0.16445937684379436        0.0000000000000000     
  -1.0783404722867105E-002  0.13386735153584151        0.0000000000000000     
  -1.1031785723536905E-002  0.14135708315085974        0.0000000000000000     
  -1.1253694700028134E-002  0.14895830360604945        0.0000000000000000     
  -1.1449131652340796E-002  0.15667101290141061        0.0000000000000000     
  -1.1618096580474883E-002  0.16449521103694328        0.0000000000000000     
  -1.6207836224754472E-002  0.13395264464705275        0.0000000000000000     
  -1.6574667323710528E-002  0.14143658157903588        0.0000000000000000     
  -1.6903571231262259E-002  0.14903160889868183        0.0000000000000000     
  -1.7194547947409648E-002  0.15673772660599053        0.0000000000000000     
  -1.7447597472152701E-002  0.16455493470096214        0.0000000000000000     
  -2.1654087159145231E-002  0.13407205500505684        0.0000000000000000     
  -2.2135541421226430E-002  0.14154787938105026        0.0000000000000000     
  -2.2568800554015979E-002  0.14913423631151379        0.0000000000000000     
  -2.2953864557513869E-002  0.15683112579644734        0.0000000000000000     
  -2.3290733431720112E-002  0.16463854783585094        0.0000000000000000     
   0.0000000000000000        0.0000000000000000        0.0000000000000000     
  -8.4175355664378791E-004   1.1098272160523844E-003   0.0000000000000000     
  -1.7023253543211833E-003   2.5978257609610362E-003   0.0000000000000000     
  -2.5817153930321858E-003   4.4639956347259559E-003   0.0000000000000000     
  -3.4799236727767967E-003   6.7083368373471418E-003   0.0000000000000000     
   0.0000000000000000        0.0000000000000000        0.0000000000000000     
  -1.0567821864096571E-003   1.1340346746582038E-003   0.0000000000000000     
  -2.1399827832013392E-003   2.6501589511995997E-003   0.0000000000000000     
  -3.2496017903750462E-003   4.5483728296241872E-003   0.0000000000000000     
  -4.3856392079307787E-003   6.8286763099319652E-003   0.0000000000000000     
   0.0000000000000000        0.0000000000000000        0.0000000000000000     
  -1.2878959836490006E-003   1.1699449778047064E-003   0.0000000000000000     
  -2.6057315563543398E-003   2.7245052236119973E-003   0.0000000000000000     
  -3.9535067181160188E-003   4.6636807374218726E-003   0.0000000000000000     
  -5.3312214689340354E-003   6.9874715192343321E-003   0.0000000000000000     
   0.0000000000000000        0.0000000000000000        0.0000000000000000     
  -1.5350949483618191E-003   1.2175581254918921E-003   0.0000000000000000     
  -3.0995716737801863E-003   2.8208645781982299E-003   0.0000000000000000     
  -4.6934301762551027E-003   4.8099193581190138E-003   0.0000000000000000     
  -6.3166704557865673E-003   7.1847224652542433E-003   0.0000000000000000     
   0.0000000000000000        0.0000000000000000        0.0000000000000000     
  -1.7983790805481117E-003   1.2768741177197609E-003   0.0000000000000000     
  -3.6215031354788776E-003   2.9392370149582980E-003   0.0000000000000000     
  -5.4693721647922989E-003   4.9870886917156108E-003   0.0000000000000000     
  -7.3419861684883743E-003   7.4204291479916988E-003   0.0000000000000000     
  -3.4799236727767967E-003   6.7083368373471418E-003   0.0000000000000000     
  -4.3886821894114966E-003   9.2934691205782752E-003   0.0000000000000000     
  -5.2997229387927646E-003   1.2182012236173032E-002   0.0000000000000000     
  -6.2130459209206006E-003   1.5373966184131413E-002   0.0000000000000000     
  -7.1286511357950052E-003   1.8869330964453420E-002   0.0000000000000000     
  -4.3856392079307787E-003   6.8286763099319652E-003   0.0000000000000000     
  -5.5350810319387753E-003   9.4490189111974057E-003   0.0000000000000000     
  -6.6849132584692814E-003   1.2367350152494985E-002   0.0000000000000000     
  -7.8351358875222970E-003   1.5583670033824696E-002   0.0000000000000000     
  -8.9857489190978170E-003   1.9097978555186544E-002   0.0000000000000000     
  -5.3312214689340354E-003   6.9874715192343321E-003   0.0000000000000000     
  -6.7243754381271972E-003   9.6497571497612608E-003   0.0000000000000000     
  -8.1184682550143120E-003   1.2604417209714535E-002   0.0000000000000000     
  -9.5134999195953789E-003   1.5851451699094167E-002   0.0000000000000000     
  -1.0909470431870398E-002   1.9390860617900147E-002   0.0000000000000000     
  -6.3166704557865673E-003   7.1847224652542433E-003   0.0000000000000000     
  -7.9565654079767588E-003   9.8956838362698318E-003   0.0000000000000000     
  -9.6003879284278521E-003   1.2893213407831693E-002   0.0000000000000000     
  -1.1248138017139850E-002   1.6177311179939827E-002   0.0000000000000000     
  -1.2899815674112750E-002   1.9747977152594232E-002   0.0000000000000000     
  -7.3419861684883743E-003   7.4204291479916988E-003   0.0000000000000000     
  -9.2316509414874584E-003   1.0186798970723124E-002   0.0000000000000000     
  -1.1130672278709902E-002   1.3233738746846448E-002   0.0000000000000000     
  -1.3039050180155708E-002   1.6561248476361673E-002   0.0000000000000000     
  -1.4956784645824872E-002   2.0169328159268796E-002   0.0000000000000000     
  -7.1286511357950052E-003   1.8869330964453420E-002   0.0000000000000000     
  -8.0400699303698076E-003   2.2642319207132545E-002   0.0000000000000000     
  -8.9408336515988344E-003   2.6667143542162278E-002   0.0000000000000000     
  -9.8309422994820872E-003   3.0943803969542626E-002   0.0000000000000000     
  -1.0710395874019563E-002   3.5472300489273578E-002   0.0000000000000000     
  -8.9857489190978170E-003   1.9097978555186544E-002   0.0000000000000000     
  -1.0129875672045475E-002   2.2885550463409329E-002   0.0000000000000000     
  -1.1260639465214899E-002   2.6921660505321843E-002   0.0000000000000000     
  -1.2378040298606089E-002   3.1206308680924104E-002   0.0000000000000000     
  -1.3482078172219046E-002   3.5739494990216093E-002   0.0000000000000000     
  -1.0909470431870398E-002   1.9390860617900147E-002   0.0000000000000000     
  -1.2296249825454847E-002   2.3197823501771891E-002   0.0000000000000000     
  -1.3663708133964199E-002   2.7247519886348819E-002   0.0000000000000000     
  -1.5011845357398456E-002   3.1539949771630930E-002   0.0000000000000000     
  -1.6340661495757615E-002   3.6075113157618202E-002   0.0000000000000000     
  -1.2899815674112750E-002   1.9747977152594232E-002   0.0000000000000000     
  -1.4539192390597921E-002   2.3579138322220250E-002   0.0000000000000000     
  -1.6150039657846730E-002   2.7644721685243196E-002   0.0000000000000000     
  -1.7732357475859183E-002   3.1944727241663098E-002   0.0000000000000000     
  -1.9286145844635269E-002   3.6479154991479933E-002   0.0000000000000000     
  -1.4956784645824872E-002   2.0169328159268796E-002   0.0000000000000000     
  -1.6858703367474703E-002   2.4029494924754379E-002   0.0000000000000000     
  -1.8719634036862498E-002   2.8113265902004980E-002   0.0000000000000000     
  -2.0539576653988270E-002   3.2420641091020601E-002   0.0000000000000000     
  -2.2318531218852009E-002   3.6951620491801250E-002   0.0000000000000000     
  -1.0710395874019563E-002   3.5472300489273578E-002   0.0000000000000000     
  -1.1573037128117518E-002   4.0232170812920173E-002   0.0000000000000000     
  -1.2412708814682214E-002   4.5202952652047435E-002   0.0000000000000000     
  -1.3229410933713649E-002   5.0384646006655369E-002   0.0000000000000000     
  -1.4023143485211824E-002   5.5777250876743956E-002   0.0000000000000000     
  -1.3482078172219046E-002   3.5739494990216093E-002   0.0000000000000000     
  -1.4564314892123698E-002   4.0501184975072407E-002   0.0000000000000000     
  -1.5616312264389972E-002   4.5471344177367611E-002   0.0000000000000000     
  -1.6638070289017863E-002   5.0649972597101710E-002   0.0000000000000000     
  -1.7629588966007380E-002   5.6037070234274705E-002   0.0000000000000000     
  -1.6340661495757615E-002   3.6075113157618202E-002   0.0000000000000000     
  -1.7641448216817290E-002   4.0835036388349795E-002   0.0000000000000000     
  -1.8905497188353080E-002   4.5801745807864822E-002   0.0000000000000000     
  -2.0132808410364994E-002   5.0975241416163247E-002   0.0000000000000000     
  -2.1323381882853022E-002   5.6355523213245107E-002   0.0000000000000000     
  -1.9286145844635269E-002   3.6479154991479933E-002   0.0000000000000000     
  -2.0804437102198297E-002   4.1233725052752364E-002   0.0000000000000000     
  -2.2280263586571553E-002   4.6194157543539040E-002   0.0000000000000000     
  -2.3713625297755041E-002   5.1360452463839981E-002   0.0000000000000000     
  -2.5104522235748768E-002   5.6732609813655174E-002   0.0000000000000000     
  -2.2318531218852009E-002   3.6951620491801250E-002   0.0000000000000000     
  -2.4053281548266716E-002   4.1697250968280086E-002   0.0000000000000000     
  -2.5740611459045382E-002   4.6648579384390300E-002   0.0000000000000000     
  -2.7380520951188016E-002   5.1805605740131905E-002   0.0000000000000000     
  -2.8973010024694615E-002   5.7168330035504866E-002   0.0000000000000000     
  -1.4023143485211824E-002   5.5777250876743956E-002   0.0000000000000000     
  -1.4794435222906554E-002   6.1368223332798830E-002   0.0000000000000000     
  -1.5543814900527657E-002   6.7145019445305584E-002   0.0000000000000000     
  -1.6271282518075129E-002   7.3107639214264261E-002   0.0000000000000000     
  -1.6976838075548971E-002   7.9256082639674819E-002   0.0000000000000000     
  -1.7629588966007380E-002   5.6037070234274705E-002   0.0000000000000000     
  -1.8592359789517426E-002   6.1621139207749830E-002   0.0000000000000000     
  -1.9527874253706931E-002   6.7390681636390296E-002   0.0000000000000000     
  -2.0436132358575883E-002   7.3345697520196110E-002   0.0000000000000000     
  -2.1317134104124294E-002   7.9486186859167279E-002   0.0000000000000000     
  -2.1323381882853022E-002   5.6355523213245107E-002   0.0000000000000000     
  -2.2479086857376429E-002   6.1931586464796837E-002   0.0000000000000000     
  -2.3601792585494472E-002   6.7692426436504888E-002   0.0000000000000000     
  -2.4691499067207141E-002   7.3638043128369232E-002   0.0000000000000000     
  -2.5748206302514443E-002   7.9768436540389911E-002   0.0000000000000000     
  -2.5104522235748768E-002   5.6732609813655174E-002   0.0000000000000000     
  -2.6454616426483567E-002   6.2299565103939872E-002   0.0000000000000000     
  -2.7765569895890279E-002   6.8050253845649361E-002   0.0000000000000000     
  -2.9037382643968889E-002   7.3984676038783642E-002   0.0000000000000000     
  -3.0270054670719429E-002   8.0102831683342701E-002   0.0000000000000000     
  -2.8973010024694615E-002   5.7168330035504866E-002   0.0000000000000000     
  -3.0518948496838838E-002   6.2725075125178914E-002   0.0000000000000000     
  -3.2019206184894344E-002   6.8464163863823715E-002   0.0000000000000000     
  -3.3473783088861148E-002   7.4385596251439298E-002   0.0000000000000000     
  -3.4882679208739241E-002   8.0489372288025648E-002   0.0000000000000000     
  -1.6976838075548971E-002   7.9256082639674819E-002   0.0000000000000000     
  -1.7655767236283502E-002   8.5576398038500270E-002   0.0000000000000000     
  -1.8303355663613029E-002   9.2054633727703589E-002   0.0000000000000000     
  -1.8919603357537566E-002   9.8690789707284801E-002   0.0000000000000000     
  -1.9504510318057101E-002  0.10548486597724391        0.0000000000000000     
  -2.1317134104124294E-002   7.9486186859167279E-002   0.0000000000000000     
  -2.2165425322022304E-002   8.5798173152079799E-002   0.0000000000000000     
  -2.2975551843940064E-002   9.2267679897709731E-002   0.0000000000000000     
  -2.3747513669877582E-002   9.8894707096057008E-002   0.0000000000000000     
  -2.4481310799834861E-002  0.10567925474712167        0.0000000000000000     
  -2.5748206302514443E-002   7.9768436540389911E-002   0.0000000000000000     
  -2.6765927198687513E-002   8.6069867985197224E-002   0.0000000000000000     
  -2.7738674662997495E-002   9.2528598775421481E-002   0.0000000000000000     
  -2.8666448695444383E-002   9.9144628911062765E-002   0.0000000000000000     
  -2.9549249296028177E-002  0.10591795839212097        0.0000000000000000     
  -3.0270054670719429E-002   8.0102831683342701E-002   0.0000000000000000     
  -3.1457272866279140E-002   8.6391482537852504E-002   0.0000000000000000     
  -3.2592724120785323E-002   9.2837390360838962E-002   0.0000000000000000     
  -3.3676408434237963E-002   9.9440555152302074E-002   0.0000000000000000     
  -3.4708325806637061E-002  0.10620097691224188        0.0000000000000000     
  -3.4882679208739241E-002   8.0489372288025648E-002   0.0000000000000000     
  -3.6239462324797175E-002   8.6763016810045612E-002   0.0000000000000000     
  -3.7537700217303543E-002   9.3194054653962050E-002   0.0000000000000000     
  -3.8777392886258311E-002   9.9782485819774946E-002   0.0000000000000000     
  -3.9958540331661505E-002  0.10652831030748432        0.0000000000000000     
  -1.9504510318057101E-002  0.10548486597724391        0.0000000000000000     
  -2.0065786315987887E-002  0.11242634260284323        0.0000000000000000     
  -2.0611141122146168E-002  0.11950469964934515        0.0000000000000000     
  -2.1140574736531952E-002  0.12671993711674970        0.0000000000000000     
  -2.1654087159145231E-002  0.13407205500505684        0.0000000000000000     
  -2.4481310799834861E-002  0.10567925474712167        0.0000000000000000     
  -2.5184897196219070E-002  0.11261094943824565        0.0000000000000000     
  -2.5866226821437407E-002  0.11967941775677100        0.0000000000000000     
  -2.6525299675489861E-002  0.12688465970269763        0.0000000000000000     
  -2.7162115758376442E-002  0.13422667527602558        0.0000000000000000     
  -2.9549249296028177E-002  0.10591795839212097        0.0000000000000000     
  -3.0395899144439679E-002  0.11283817024082163        0.0000000000000000     
  -3.1215220920369675E-002  0.11989484747939015        0.0000000000000000     
  -3.2007214623818170E-002  0.12708799010782657        0.0000000000000000     
  -3.2771880254785155E-002  0.13441759812613077        0.0000000000000000     
  -3.4708325806637061E-002  0.10620097691224188        0.0000000000000000     
  -3.5698792160649702E-002  0.11310800501057114        0.0000000000000000     
  -3.6658123418942971E-002  0.12015098881720265        0.0000000000000000     
  -3.7586319581516855E-002  0.12732992833213641        0.0000000000000000     
  -3.8483380648371368E-002  0.13464482355537247        0.0000000000000000     
  -3.9958540331661505E-002  0.10652831030748432        0.0000000000000000     
  -4.1093576244849155E-002  0.11342045374749418        0.0000000000000000     
  -4.2194934317157297E-002  0.12044784177020851        0.0000000000000000     
  -4.3262614548585938E-002  0.12761047437562731        0.0000000000000000     
  -4.4296616939135072E-002  0.13490835156375061        0.0000000000000000     
  -2.1654087159145231E-002  0.13407205500505684        0.0000000000000000     
  -2.2135541421226430E-002  0.14154787938105026        0.0000000000000000     
  -2.2568800554015979E-002  0.14913423631151379        0.0000000000000000     
  -2.2953864557513869E-002  0.15683112579644734        0.0000000000000000     
  -2.3290733431720112E-002  0.16463854783585094        0.0000000000000000     
  -2.7162115758376442E-002  0.13422667527602558        0.0000000000000000     
  -2.7758945283983417E-002  0.14169209470797114        0.0000000000000000     
  -2.8298058466197065E-002  0.14926754822975075        0.0000000000000000     
  -2.8779455305017378E-002  0.15695303584136439        0.0000000000000000     
  -2.9203135800444362E-002  0.16474855754281192        0.0000000000000000     
  -3.2771880254785155E-002  0.13441759812613077        0.0000000000000000     
  -3.3489416179880306E-002  0.14187034571086671        0.0000000000000000     
  -3.4140020765713285E-002  0.14943290703859807        0.0000000000000000     
  -3.4723694012284083E-002  0.15710528210932492        0.0000000000000000     
  -3.5240435919592715E-002  0.16488747092304726        0.0000000000000000     
  -3.8483380648371368E-002  0.13464482355537247        0.0000000000000000     
  -3.9326954108917095E-002  0.14208263238973687        0.0000000000000000     
  -4.0094687452564635E-002  0.14963031273805574        0.0000000000000000     
  -4.0786580679313990E-002  0.15728786460032912        0.0000000000000000     
  -4.1402633789165165E-002  0.16505528797655697        0.0000000000000000     
  -4.4296616939135072E-002  0.13490835156375061        0.0000000000000000     
  -4.5271559071093780E-002  0.14232895474458168        0.0000000000000000     
  -4.6162058526751128E-002  0.14985976532812376        0.0000000000000000     
  -4.6968115306107096E-002  0.15750078331437689        0.0000000000000000     
  -4.7689729409161712E-002  0.16525200870334106        0.0000000000000000     
   0.0000000000000000        0.0000000000000000        0.0000000000000000     
  -1.7983790805481117E-003   1.2768741177197609E-003   0.0000000000000000     
  -3.6215031354788776E-003   2.9392370149582980E-003   0.0000000000000000     
  -5.4693721647922989E-003   4.9870886917156108E-003   0.0000000000000000     
  -7.3419861684883743E-003   7.4204291479916988E-003   0.0000000000000000     
   0.0000000000000000        0.0000000000000000        0.0000000000000000     
  -2.0694777481467257E-003   1.3550052755459726E-003   0.0000000000000000     
  -4.1641793000195791E-003   3.0941265369255023E-003   0.0000000000000000     
  -6.2841046556185616E-003   5.2173637841385892E-003   0.0000000000000000     
  -8.4292538149436710E-003   7.7247170171852323E-003   0.0000000000000000     
   0.0000000000000000        0.0000000000000000        0.0000000000000000     
  -2.3401203190965077E-003   1.4590639200281876E-003   0.0000000000000000     
  -4.7202535259714554E-003   3.3000371471331460E-003   0.0000000000000000     
  -7.1403996206248427E-003   5.5229196813148772E-003   0.0000000000000000     
  -9.6005586030566692E-003   8.1277115225733779E-003   0.0000000000000000     
   0.0000000000000000        0.0000000000000000        0.0000000000000000     
  -2.6103067933974577E-003   1.5890500511664047E-003   0.0000000000000000     
  -5.2897258133345051E-003   3.5569688455812298E-003   0.0000000000000000     
  -8.0382570598111405E-003   5.9037563832444748E-003   0.0000000000000000     
  -1.0855900532827365E-002   8.6294126641561393E-003   0.0000000000000000     
   0.0000000000000000        0.0000000000000000        0.0000000000000000     
  -2.8800371710495766E-003   1.7449636689606254E-003   0.0000000000000000     
  -5.8725961621087291E-003   3.8649216322697525E-003   0.0000000000000000     
  -8.9776769731774592E-003   6.3598738899273820E-003   0.0000000000000000     
  -1.2195279604255765E-002   9.2298204419335138E-003   0.0000000000000000     
  -7.3419861684883743E-003   7.4204291479916988E-003   0.0000000000000000     
  -9.2316509414874584E-003   1.0186798970723124E-002   0.0000000000000000     
  -1.1130672278709902E-002   1.3233738746846448E-002   0.0000000000000000     
  -1.3039050180155708E-002   1.6561248476361673E-002   0.0000000000000000     
  -1.4956784645824872E-002   2.0169328159268796E-002   0.0000000000000000     
  -8.4292538149436710E-003   7.7247170171852323E-003   0.0000000000000000     
  -1.0591299772780919E-002   1.0558694760239925E-002   0.0000000000000000     
  -1.2761915523916317E-002   1.3661805537477163E-002   0.0000000000000000     
  -1.4941101068349862E-002   1.7034049348896945E-002   0.0000000000000000     
  -1.7128856406081562E-002   2.0675426194499268E-002   0.0000000000000000     
  -9.6005586030566692E-003   8.1277115225733779E-003   0.0000000000000000     
  -1.2077179635978763E-002   1.1046963411939026E-002   0.0000000000000000     
  -1.4546711882102948E-002   1.4213226090442191E-002   0.0000000000000000     
  -1.7009155341429234E-002   1.7626499558082872E-002   0.0000000000000000     
  -1.9464510013957610E-002   2.1286783814861071E-002   0.0000000000000000     
  -1.0855900532827365E-002   8.6294126641561393E-003   0.0000000000000000     
  -1.3689290531080983E-002   1.1651604925820425E-002   0.0000000000000000     
  -1.6485061353269801E-002   1.4888000405741533E-002   0.0000000000000000     
  -1.9243212999393813E-002   1.8338599103919460E-002   0.0000000000000000     
  -2.1963745469453025E-002   2.2003401020354210E-002   0.0000000000000000     
  -1.2195279604255765E-002   9.2298204419335138E-003   0.0000000000000000     
  -1.5427632458087589E-002   1.2372619301884123E-002   0.0000000000000000     
  -1.8576963937416865E-002   1.5686128483375188E-002   0.0000000000000000     
  -2.1643274042243608E-002   1.9170347986406707E-002   0.0000000000000000     
  -2.4626562772567803E-002   2.2825277810978681E-002   0.0000000000000000     
  -1.4956784645824872E-002   2.0169328159268796E-002   0.0000000000000000     
  -1.6858703367474703E-002   2.4029494924754379E-002   0.0000000000000000     
  -1.8719634036862498E-002   2.8113265902004980E-002   0.0000000000000000     
  -2.0539576653988270E-002   3.2420641091020601E-002   0.0000000000000000     
  -2.2318531218852009E-002   3.6951620491801250E-002   0.0000000000000000     
  -1.7128856406081562E-002   2.0675426194499268E-002   0.0000000000000000     
  -1.9294084554249614E-002   2.4558420764062588E-002   0.0000000000000000     
  -2.1405688529992251E-002   2.8655517747365362E-002   0.0000000000000000     
  -2.3463668333309456E-002   3.2966717144407583E-002   0.0000000000000000     
  -2.5468023964201229E-002   3.7492018955189263E-002   0.0000000000000000     
  -1.9464510013957610E-002   2.1286783814861071E-002   0.0000000000000000     
  -2.1884637749087100E-002   2.5175443294833164E-002   0.0000000000000000     
  -2.4241400396216715E-002   2.9273842432055525E-002   0.0000000000000000     
  -2.6534797955346461E-002   3.3581981226528161E-002   0.0000000000000000     
  -2.8764830426476332E-002   3.8099859678251059E-002   0.0000000000000000     
  -2.1963745469453025E-002   2.2003401020354210E-002   0.0000000000000000     
  -2.4630362951987155E-002   2.5880562517066111E-002   0.0000000000000000     
  -2.7226769635535907E-002   2.9968239956075483E-002   0.0000000000000000     
  -2.9752965520099303E-002   3.4266433337382329E-002   0.0000000000000000     
  -3.2208950605677321E-002   3.8775142660986660E-002   0.0000000000000000     
  -2.4626562772567803E-002   2.2825277810978681E-002   0.0000000000000000     
  -2.7531260162949770E-002   2.6673778430761422E-002   0.0000000000000000     
  -3.0361796247949827E-002   3.0738710319425225E-002   0.0000000000000000     
  -3.3118171027567964E-002   3.5020073476970108E-002   0.0000000000000000     
  -3.5800384501804200E-002   3.9517867903396044E-002   0.0000000000000000     
  -2.2318531218852009E-002   3.6951620491801250E-002   0.0000000000000000     
  -2.4053281548266716E-002   4.1697250968280086E-002   0.0000000000000000     
  -2.5740611459045382E-002   4.6648579384390300E-002   0.0000000000000000     
  -2.7380520951188016E-002   5.1805605740131905E-002   0.0000000000000000     
  -2.8973010024694615E-002   5.7168330035504866E-002   0.0000000000000000     
  -2.5468023964201229E-002   3.7492018955189263E-002   0.0000000000000000     
  -2.7419232365787652E-002   4.2227020420169362E-002   0.0000000000000000     
  -2.9317770481188776E-002   4.7167318779806858E-002   0.0000000000000000     
  -3.1163638310404612E-002   5.2312914034101751E-002   0.0000000000000000     
  -3.2956835853435153E-002   5.7663806183054049E-002   0.0000000000000000     
  -2.8764830426476332E-002   3.8099859678251059E-002   0.0000000000000000     
  -3.0933540365526202E-002   4.2824439693656548E-002   0.0000000000000000     
  -3.3042970328415931E-002   4.7752683179176962E-002   0.0000000000000000     
  -3.5093120315145526E-002   5.2884590134812275E-002   0.0000000000000000     
  -3.7083990325714994E-002   5.8220160560562506E-002   0.0000000000000000     
  -3.2208950605677321E-002   3.8775142660986660E-002   0.0000000000000000     
  -3.4596205547482384E-002   4.3489508788741672E-002   0.0000000000000000     
  -3.6916211000726853E-002   4.8404672582500613E-002   0.0000000000000000     
  -3.9168966965410786E-002   5.3520634042263475E-002   0.0000000000000000     
  -4.1354473441534124E-002   5.8837393168030258E-002   0.0000000000000000     
  -3.5800384501804200E-002   3.9517867903396044E-002   0.0000000000000000     
  -3.8407227911656176E-002   4.4222227705424728E-002   0.0000000000000000     
  -4.0937492498121557E-002   4.9123286989777824E-002   0.0000000000000000     
  -4.3391178261200355E-002   5.4221045756455359E-002   0.0000000000000000     
  -4.5768285200892572E-002   5.9515504005457305E-002   0.0000000000000000     
  -2.8973010024694615E-002   5.7168330035504866E-002   0.0000000000000000     
  -3.0518948496838838E-002   6.2725075125178914E-002   0.0000000000000000     
  -3.2019206184894344E-002   6.8464163863823715E-002   0.0000000000000000     
  -3.3473783088861148E-002   7.4385596251439298E-002   0.0000000000000000     
  -3.4882679208739241E-002   8.0489372288025648E-002   0.0000000000000000     
  -3.2956835853435153E-002   5.7663806183054049E-002   0.0000000000000000     
  -3.4697670723994996E-002   6.3207923206693717E-002   0.0000000000000000     
  -3.6386450535798733E-002   6.8933193085050734E-002   0.0000000000000000     
  -3.8023175288846370E-002   7.4839615818125135E-002   0.0000000000000000     
  -3.9607844983137894E-002   8.0927191405916865E-002   0.0000000000000000     
  -3.7083990325714994E-002   5.8220160560562506E-002   0.0000000000000000     
  -3.9016370763504810E-002   6.3747916026664020E-002   0.0000000000000000     
  -4.0891052031895483E-002   6.9456378103353172E-002   0.0000000000000000     
  -4.2708034130887008E-002   7.5345546790630005E-002   0.0000000000000000     
  -4.4467317060479385E-002   8.1415422088494463E-002   0.0000000000000000     
  -4.1354473441534124E-002   5.8837393168030258E-002   0.0000000000000000     
  -4.3475048615368279E-002   6.4345053585089837E-002   0.0000000000000000     
  -4.5533010673184590E-002   7.0033718918731031E-002   0.0000000000000000     
  -4.7528359614983078E-002   7.5903389168953908E-002   0.0000000000000000     
  -4.9461095440763714E-002   8.1954064335758414E-002   0.0000000000000000     
  -4.5768285200892572E-002   5.9515504005457305E-002   0.0000000000000000     
  -4.8073704279585405E-002   6.4999335881971140E-002   0.0000000000000000     
  -5.0312326459666060E-002   7.0665215531184308E-002   0.0000000000000000     
  -5.2484151741134556E-002   7.6513142953096858E-002   0.0000000000000000     
  -5.4589180123990895E-002   8.2543118147708733E-002   0.0000000000000000     
  -3.4882679208739241E-002   8.0489372288025648E-002   0.0000000000000000     
  -3.6239462324797175E-002   8.6763016810045612E-002   0.0000000000000000     
  -3.7537700217303543E-002   9.3194054653962050E-002   0.0000000000000000     
  -3.8777392886258311E-002   9.9782485819774946E-002   0.0000000000000000     
  -3.9958540331661505E-002  0.10652831030748432        0.0000000000000000     
  -3.9607844983137894E-002   8.0927191405916865E-002   0.0000000000000000     
  -4.1133761398785440E-002   8.7184102629307689E-002   0.0000000000000000     
  -4.2594226315901151E-002   9.3598532269179302E-002   0.0000000000000000     
  -4.3989239734485028E-002  0.10017048032553172        0.0000000000000000     
  -4.5318801654537055E-002  0.10689994679836493        0.0000000000000000     
  -4.4467317060479385E-002   8.1415422088494463E-002   0.0000000000000000     
  -4.6161435912787728E-002   8.7654371823169777E-002   0.0000000000000000     
  -4.7782925779927148E-002   9.4050763820879207E-002   0.0000000000000000     
  -4.9331786661897664E-002  0.10060459808162270        0.0000000000000000     
  -5.0808018558699250E-002  0.10731587460540026        0.0000000000000000     
  -4.9461095440763714E-002   8.1954064335758414E-002   0.0000000000000000     
  -5.1322485866804032E-002   8.8173824391631891E-002   0.0000000000000000     
  -5.3103798609381539E-002   9.4550749309061710E-002   0.0000000000000000     
  -5.4805033668496234E-002  0.10108483908804787        0.0000000000000000     
  -5.6426191044148102E-002  0.10777609372859034        0.0000000000000000     
  -5.4589180123990895E-002   8.2543118147708733E-002   0.0000000000000000     
  -5.6616911260834374E-002   8.8742460334694045E-002   0.0000000000000000     
  -5.8556844804264319E-002   9.5098488733726880E-002   0.0000000000000000     
  -6.0408980754280729E-002  0.10161120334480725        0.0000000000000000     
  -6.2173319110883592E-002  0.10828060416793514        0.0000000000000000     
  -3.9958540331661505E-002  0.10652831030748432        0.0000000000000000     
  -4.1093576244849155E-002  0.11342045374749418        0.0000000000000000     
  -4.2194934317157297E-002  0.12044784177020851        0.0000000000000000     
  -4.3262614548585938E-002  0.12761047437562731        0.0000000000000000     
  -4.4296616939135072E-002  0.13490835156375061        0.0000000000000000     
  -4.5318801654537055E-002  0.10689994679836493        0.0000000000000000     
  -4.6597627941345657E-002  0.11377545862562062        0.0000000000000000     
  -4.7840434460199255E-002  0.12078554274524050        0.0000000000000000     
  -4.9047221211097836E-002  0.12793019915722453        0.0000000000000000     
  -5.0217988194041399E-002  0.13520942786157278        0.0000000000000000     
  -5.0808018558699250E-002  0.10731587460540026        0.0000000000000000     
  -5.2228323794446863E-002  0.11417296181898037        0.0000000000000000     
  -5.3609404693255439E-002  0.12116422814913146        0.0000000000000000     
  -5.4951261255124957E-002  0.12828967359585350        0.0000000000000000     
  -5.6253893480055453E-002  0.13554929815914651        0.0000000000000000     
  -5.6426191044148102E-002  0.10777609372859034        0.0000000000000000     
  -5.7985663804152758E-002  0.11461296332757338        0.0000000000000000     
  -5.9501845016325820E-002  0.12158389798188132        0.0000000000000000     
  -6.0974734680667324E-002  0.12868889769151415        0.0000000000000000     
  -6.2404332797177213E-002  0.13592796245647182        0.0000000000000000     
  -6.2173319110883592E-002  0.10828060416793514        0.0000000000000000     
  -6.3869647970463364E-002  0.11509546315139971        0.0000000000000000     
  -6.5517755429410462E-002  0.12204455224349017        0.0000000000000000     
  -6.7117641487724908E-002  0.12912787144420651        0.0000000000000000     
  -6.8669306145406700E-002  0.13634542075354869        0.0000000000000000     
  -4.4296616939135072E-002  0.13490835156375061        0.0000000000000000     
  -4.5271559071093780E-002  0.14232895474458168        0.0000000000000000     
  -4.6162058526751128E-002  0.14985976532812376        0.0000000000000000     
  -4.6968115306107096E-002  0.15750078331437689        0.0000000000000000     
  -4.7689729409161712E-002  0.16525200870334106        0.0000000000000000     
  -5.0217988194041399E-002  0.13520942786157278        0.0000000000000000     
  -5.1324373199435669E-002  0.14261119566999197        0.0000000000000000     
  -5.2338014017686361E-002  0.15012346939418889        0.0000000000000000     
  -5.3258910648793463E-002  0.15774624903416357        0.0000000000000000     
  -5.4087063092756980E-002  0.16547953458991596        0.0000000000000000     
  -5.6253893480055453E-002  0.13554929815914651        0.0000000000000000     
  -5.7486538626968051E-002  0.14293123806055863        0.0000000000000000     
  -5.8618433954783944E-002  0.15042362952163796        0.0000000000000000     
  -5.9649579463503126E-002  0.15802647254238450        0.0000000000000000     
  -6.0579975153125583E-002  0.16573976712279817        0.0000000000000000     
  -6.2404332797177213E-002  0.13592796245647182        0.0000000000000000     
  -6.3758055353690932E-002  0.14328908191628167        0.0000000000000000     
  -6.5003318338043889E-002  0.15076024571047095        0.0000000000000000     
  -6.6140121750236092E-002  0.15834145383903958        0.0000000000000000     
  -6.7168465590267512E-002  0.16603270630198774        0.0000000000000000     
  -6.8669306145406700E-002  0.13634542075354869        0.0000000000000000     
  -7.0138923379604298E-002  0.14368472723716100        0.0000000000000000     
  -7.1492667167466190E-002  0.15113331796068782        0.0000000000000000     
  -7.2730537508992346E-002  0.15869119292412898        0.0000000000000000     
  -7.3852534404182796E-002  0.16635835212748462        0.0000000000000000     
   0.0000000000000000        0.0000000000000000        0.0000000000000000     
  -2.8800371710495766E-003   1.7449636689606254E-003   0.0000000000000000     
  -5.8725961621087291E-003   3.8649216322697525E-003   0.0000000000000000     
  -8.9776769731774592E-003   6.3598738899273820E-003   0.0000000000000000     
  -1.2195279604255765E-002   9.2298204419335138E-003   0.0000000000000000     
   0.0000000000000000        0.0000000000000000        0.0000000000000000     
  -3.2831556242622637E-003   1.9994819854192354E-003   0.0000000000000000     
  -6.6768540159098111E-003   4.3312303879152730E-003   0.0000000000000000     
  -1.0181095174942641E-002   6.9952452074881141E-003   0.0000000000000000     
  -1.3795879101360755E-002   9.9915264441377567E-003   0.0000000000000000     
   0.0000000000000000        0.0000000000000000        0.0000000000000000     
  -3.9535063252449177E-003   2.4252822125506207E-003   0.0000000000000000     
  -7.9104888183534287E-003   5.0632299932343479E-003   0.0000000000000000     
  -1.1870947479325530E-002   7.9138433420511845E-003   0.0000000000000000     
  -1.5834882308161224E-002   1.0977122259001127E-002   0.0000000000000000     
   0.0000000000000000        0.0000000000000000        0.0000000000000000     
  -4.8910892739975403E-003   3.0223643503547821E-003   0.0000000000000000     
  -9.5735005694395827E-003   6.0609204482269799E-003   0.0000000000000000     
  -1.4047233886326128E-002   9.1156682936165950E-003   0.0000000000000000     
  -1.8312289224657174E-002   1.2186607886523624E-002   0.0000000000000000     
   0.0000000000000000        0.0000000000000000        0.0000000000000000     
  -6.0959044705201307E-003   3.7907283988317187E-003   0.0000000000000000     
  -1.1665889269168277E-002   7.3243017528931663E-003   0.0000000000000000     
  -1.6709954395944433E-002   1.0600720062184342E-002   0.0000000000000000     
  -2.1228099850848604E-002   1.3619983326705248E-002   0.0000000000000000     
  -1.2195279604255765E-002   9.2298204419335138E-003   0.0000000000000000     
  -1.5427632458087589E-002   1.2372619301884123E-002   0.0000000000000000     
  -1.8576963937416865E-002   1.5686128483375188E-002   0.0000000000000000     
  -2.1643274042243608E-002   1.9170347986406707E-002   0.0000000000000000     
  -2.4626562772567803E-002   2.2825277810978681E-002   0.0000000000000000     
  -1.3795879101360755E-002   9.9915264441377567E-003   0.0000000000000000     
  -1.7404065294492010E-002   1.3222037422013451E-002   0.0000000000000000     
  -2.0888513253664285E-002   1.6588741465264446E-002   0.0000000000000000     
  -2.4249222978877567E-002   2.0091638573890735E-002   0.0000000000000000     
  -2.7486194470131856E-002   2.3730728747892327E-002   0.0000000000000000     
  -1.5834882308161224E-002   1.0977122259001127E-002   0.0000000000000000     
  -1.9730448917787708E-002   1.4211890168091740E-002   0.0000000000000000     
  -2.3485802921132181E-002   1.7576970493330586E-002   0.0000000000000000     
  -2.7100944318194643E-002   2.1072363234717662E-002   0.0000000000000000     
  -3.0575873108975093E-002   2.4698068392252973E-002   0.0000000000000000     
  -1.8312289224657174E-002   1.2186607886523624E-002   0.0000000000000000     
  -2.2406783327974671E-002   1.5342177540118993E-002   0.0000000000000000     
  -2.6368832939820560E-002   1.8650815567573614E-002   0.0000000000000000     
  -3.0198438060194843E-002   2.2112521968887491E-002   0.0000000000000000     
  -3.3895598689097514E-002   2.5727296744060626E-002   0.0000000000000000     
  -2.1228099850848604E-002   1.3619983326705248E-002   0.0000000000000000     
  -2.5433068525052900E-002   1.6612899538095201E-002   0.0000000000000000     
  -2.9537603309729415E-002   1.9810276687993528E-002   0.0000000000000000     
  -3.3541704204878162E-002   2.3212114776400221E-002   0.0000000000000000     
  -3.7445371210499130E-002   2.6818413803315285E-002   0.0000000000000000     
  -2.4626562772567803E-002   2.2825277810978681E-002   0.0000000000000000     
  -2.7531260162949770E-002   2.6673778430761422E-002   0.0000000000000000     
  -3.0361796247949827E-002   3.0738710319425225E-002   0.0000000000000000     
  -3.3118171027567964E-002   3.5020073476970108E-002   0.0000000000000000     
  -3.5800384501804200E-002   3.9517867903396044E-002   0.0000000000000000     
  -2.7486194470131856E-002   2.3730728747892327E-002   0.0000000000000000     
  -3.0622743493909921E-002   2.7548618348927193E-002   0.0000000000000000     
  -3.3682185816694549E-002   3.1587913738653321E-002   0.0000000000000000     
  -3.6664521438485725E-002   3.5848614917070698E-002   0.0000000000000000     
  -3.9569750359283458E-002   4.0330721884179334E-002   0.0000000000000000     
  -3.0575873108975093E-002   2.4698068392252973E-002   0.0000000000000000     
  -3.3940227056802587E-002   2.8498609584571528E-002   0.0000000000000000     
  -3.7223643925006170E-002   3.2518510430308317E-002   0.0000000000000000     
  -4.0426123713585844E-002   3.6757770929463349E-002   0.0000000000000000     
  -4.3547666422541619E-002   4.1216391082036639E-002   0.0000000000000000     
  -3.3895598689097514E-002   2.5727296744060626E-002   0.0000000000000000     
  -3.7483710851627751E-002   2.9523752137694408E-002   0.0000000000000000     
  -4.0986170572884686E-002   3.3530500394390220E-002   0.0000000000000000     
  -4.4402977852868321E-002   3.7747541514148081E-002   0.0000000000000000     
  -4.7734132691578668E-002   4.2174875496967974E-002   0.0000000000000000     
  -3.7445371210499130E-002   2.6818413803315285E-002   0.0000000000000000     
  -4.1253194878385413E-002   3.0624046008295849E-002   0.0000000000000000     
  -4.4969765760330085E-002   3.4623883630899042E-002   0.0000000000000000     
  -4.8595083856333154E-002   3.8817926671124874E-002   0.0000000000000000     
  -5.2129149166394620E-002   4.3206175128973325E-002   0.0000000000000000     
  -3.5800384501804200E-002   3.9517867903396044E-002   0.0000000000000000     
  -3.8407227911656176E-002   4.4222227705424728E-002   0.0000000000000000     
  -4.0937492498121557E-002   4.9123286989777824E-002   0.0000000000000000     
  -4.3391178261200355E-002   5.4221045756455359E-002   0.0000000000000000     
  -4.5768285200892572E-002   5.9515504005457305E-002   0.0000000000000000     
  -3.9569750359283458E-002   4.0330721884179334E-002   0.0000000000000000     
  -4.2393695475148971E-002   4.5020356153208811E-002   0.0000000000000000     
  -4.5132179682143496E-002   4.9903639237388712E-002   0.0000000000000000     
  -4.7785202980267033E-002   5.4980571136719059E-002   0.0000000000000000     
  -5.0352765369519575E-002   6.0251151851199822E-002   0.0000000000000000     
  -4.3547666422541619E-002   4.1216391082036639E-002   0.0000000000000000     
  -4.6582696255062159E-002   4.5881653841597030E-002   0.0000000000000000     
  -4.9525637414336146E-002   5.0740842161713387E-002   0.0000000000000000     
  -5.2376489900363567E-002   5.5793956042385719E-002   0.0000000000000000     
  -5.5135253713144435E-002   6.1040995483614004E-002   0.0000000000000000     
  -4.7734132691578668E-002   4.2174875496967974E-002   0.0000000000000000     
  -5.0974230251395733E-002   4.6806120770589398E-002   0.0000000000000000     
  -5.4117865694699487E-002   5.1634895762751862E-002   0.0000000000000000     
  -5.7165039021489977E-002   5.6661200473455346E-002   0.0000000000000000     
  -6.0115750231767157E-002   6.1885034902699851E-002   0.0000000000000000     
  -5.2129149166394620E-002   4.3206175128973325E-002   0.0000000000000000     
  -5.5568297464149687E-002   4.7793756940185901E-002   0.0000000000000000     
  -5.8908864523233559E-002   5.2585800040504102E-002   0.0000000000000000     
  -6.2150850343646237E-002   5.7582304429927927E-002   0.0000000000000000     
  -6.5294254925387721E-002   6.2783270108457370E-002   0.0000000000000000     
  -4.5768285200892572E-002   5.9515504005457305E-002   0.0000000000000000     
  -4.8073704279585405E-002   6.4999335881971140E-002   0.0000000000000000     
  -5.0312326459666060E-002   7.0665215531184308E-002   0.0000000000000000     
  -5.2484151741134556E-002   7.6513142953096858E-002   0.0000000000000000     
  -5.4589180123990895E-002   8.2543118147708733E-002   0.0000000000000000     
  -5.0352765369519575E-002   6.0251151851199822E-002   0.0000000000000000     
  -5.2842248644866849E-002   6.5709946545991035E-002   0.0000000000000000     
  -5.5261034601274538E-002   7.1351520386252712E-002   0.0000000000000000     
  -5.7609123238742656E-002   7.7175873371984824E-002   0.0000000000000000     
  -5.9886514557271203E-002   8.3183005503187413E-002   0.0000000000000000     
  -5.5135253713144435E-002   6.1040995483614004E-002   0.0000000000000000     
  -5.7810592599923286E-002   6.6476069205832614E-002   0.0000000000000000     
  -6.0411170307944656E-002   7.2093285929475892E-002   0.0000000000000000     
  -6.2936986837208525E-002   7.7892645654543832E-002   0.0000000000000000     
  -6.5388042187714920E-002   8.3874148381036462E-002   0.0000000000000000     
  -6.0115750231767157E-002   6.1885034902699851E-002   0.0000000000000000     
  -6.2978736144754757E-002   6.7297703861495875E-002   0.0000000000000000     
  -6.5762733579676408E-002   7.2890512160853904E-002   0.0000000000000000     
  -6.8467742536532206E-002   7.8663459800773869E-002   0.0000000000000000     
  -7.1093763015322067E-002   8.4616546781255866E-002   0.0000000000000000     
  -6.5294254925387721E-002   6.2783270108457370E-002   0.0000000000000000     
  -6.8346679279361194E-002   6.8174850512980834E-002   0.0000000000000000     
  -7.1315724416469842E-002   7.3743199080386679E-002   0.0000000000000000     
  -7.4201390336713649E-002   7.9488315810674962E-002   0.0000000000000000     
  -7.7003677040092644E-002   8.5410200703845640E-002   0.0000000000000000     
  -5.4589180123990895E-002   8.2543118147708733E-002   0.0000000000000000     
  -5.6616911260834374E-002   8.8742460334694045E-002   0.0000000000000000     
  -5.8556844804264319E-002   9.5098488733726880E-002   0.0000000000000000     
  -6.0408980754280729E-002  0.10161120334480725        0.0000000000000000     
  -6.2173319110883592E-002  0.10828060416793514        0.0000000000000000     
  -5.9886514557271203E-002   8.3183005503187413E-002   0.0000000000000000     
  -6.2080752026501464E-002   8.9359771839305047E-002   0.0000000000000000     
  -6.4179379116074742E-002   9.5693027439782335E-002   0.0000000000000000     
  -6.6182395825990989E-002  0.10218277230461925        0.0000000000000000     
  -6.8089802156250281E-002  0.10882900643381584        0.0000000000000000     
  -6.5388042187714920E-002   8.3874148381036462E-002   0.0000000000000000     
  -6.7750048095428020E-002   9.0025251092413730E-002   0.0000000000000000     
  -7.0008716296312029E-002   9.6333410772135669E-002   0.0000000000000000     
  -7.2164046790366906E-002  0.10279862742020229        0.0000000000000000     
  -7.4216039577592707E-002  0.10942090103661359        0.0000000000000000     
  -7.1093763015322067E-002   8.4616546781255866E-002   0.0000000000000000     
  -7.3624799467614063E-002   9.0738898094020123E-002   0.0000000000000000     
  -7.6044856344976222E-002   9.7019638730786964E-002   0.0000000000000000     
  -7.8353933647408475E-002  0.10345876869155639        0.0000000000000000     
  -8.0552031374910904E-002  0.11005628797632838        0.0000000000000000     
  -7.7003677040092644E-002   8.5410200703845640E-002   0.0000000000000000     
  -7.9705006143059587E-002   9.1500712844124227E-002   0.0000000000000000     
  -8.2287799262067265E-002   9.7751711315736178E-002   0.0000000000000000     
  -8.4752056397115680E-002  0.10416319611868152        0.0000000000000000     
  -8.7097777548204830E-002  0.11073516725296025        0.0000000000000000     
  -6.2173319110883592E-002  0.10828060416793514        0.0000000000000000     
  -6.3869647970463364E-002  0.11509546315139971        0.0000000000000000     
  -6.5517755429410462E-002  0.12204455224349017        0.0000000000000000     
  -6.7117641487724908E-002  0.12912787144420651        0.0000000000000000     
  -6.8669306145406700E-002  0.13634542075354869        0.0000000000000000     
  -6.8089802156250281E-002  0.10882900643381584        0.0000000000000000     
  -6.9922962646881984E-002  0.11562063308202601        0.0000000000000000     
  -7.1703241837915557E-002  0.12254655550390371        0.0000000000000000     
  -7.3430639729350961E-002  0.12960677369944895        0.0000000000000000     
  -7.5105156321188263E-002  0.13680128766866176        0.0000000000000000     
  -7.4216039577592707E-002  0.10942090103661359        0.0000000000000000     
  -7.6188294186911990E-002  0.11618864491101893        0.0000000000000000     
  -7.8104410147247325E-002  0.12309027233306773        0.0000000000000000     
  -7.9964387458598712E-002  0.13012578330275998        0.0000000000000000     
  -8.1768226120966181E-002  0.13729517782009573        0.0000000000000000     
  -8.0552031374910904E-002  0.11005628797632838        0.0000000000000000     
  -8.2665642590553381E-002  0.11679949863837849        0.0000000000000000     
  -8.4721260357405806E-002  0.12367570273098220        0.0000000000000000     
  -8.6718884675468191E-002  0.13068490025413951        0.0000000000000000     
  -8.8658515544740524E-002  0.13782709120785053        0.0000000000000000     
  -8.7097777548204830E-002  0.11073516725296025        0.0000000000000000     
  -8.9355007857806132E-002  0.11745319426410468        0.0000000000000000     
  -9.1553792468390960E-002  0.12430284669764716        0.0000000000000000     
  -9.3694131379959328E-002  0.13128412455358765        0.0000000000000000     
  -9.5776024592511250E-002  0.13839702783192620        0.0000000000000000     
  -6.8669306145406700E-002  0.13634542075354869        0.0000000000000000     
  -7.0138923379604298E-002  0.14368472723716100        0.0000000000000000     
  -7.1492667167466190E-002  0.15113331796068782        0.0000000000000000     
  -7.2730537508992346E-002  0.15869119292412898        0.0000000000000000     
  -7.3852534404182796E-002  0.16635835212748462        0.0000000000000000     
  -7.5105156321188263E-002  0.13680128766866176        0.0000000000000000     
  -7.6691459890847871E-002  0.14411729682354840        0.0000000000000000     
  -7.8154218715750318E-002  0.15154200057611505        0.0000000000000000     
  -7.9493432795895561E-002  0.15907539892636186        0.0000000000000000     
  -8.0709102131283655E-002  0.16671749187428866        0.0000000000000000     
  -8.1768226120966181E-002  0.13729517782009573        0.0000000000000000     
  -8.3477982073561316E-002  0.14458591347579530        0.0000000000000000     
  -8.5055711255595717E-002  0.15198544786057921        0.0000000000000000     
  -8.6501413667069399E-002  0.15949378097444739        0.0000000000000000     
  -8.7815089307982333E-002  0.16711091281739981        0.0000000000000000     
  -8.8658515544740524E-002  0.13782709120785053        0.0000000000000000     
  -9.0498489927744660E-002  0.14509057719390184        0.0000000000000000     
  -9.2197144787002430E-002  0.15246365981408019        0.0000000000000000     
  -9.3754480122513834E-002  0.15994633906838560        0.0000000000000000     
  -9.5170495934278856E-002  0.16753861495681810        0.0000000000000000     
  -9.5776024592511250E-002  0.13839702783192620        0.0000000000000000     
  -9.7752983453397890E-002  0.14563128797786795        0.0000000000000000     
  -9.9578519309970415E-002  0.15297663643661805        0.0000000000000000     
 -0.10125263216222886       0.16043307320817654        0.0000000000000000     
 -0.10277532201017320       0.16800059829254341        0.0000000000000000     
 </DataArray>
 <DataArray  type="Float64" Name="stress" NumberOfComponents="3" format="ascii">
   13416504910.971325        4024951473.2913976        2894256680.1612463     
   11766315183.454601        1890204947.5136418        1715977518.2288663     
   10313473992.437531        413286876.73474360        810770700.96054208     
   9057981337.9201183       -405802739.04529476        178636228.35627326     
   7999837219.9023666       -567063899.82647419       -180425899.58393991     
   10539804688.132408        3161941406.4397221        2225921336.3596425     
   9667375874.5338364        1589384423.3549585        1446839003.9976397     
   8943637540.6380768        512462372.61289787        863225904.74870348     
   8368589686.4451275       -68824745.786462784        475082038.61283308     
   7942232311.9549885       -154476931.84312201        282407405.59002846     
   8337796729.7537727        2501339018.9261317        1712454962.2988453     
   8021405654.2133884        1424454625.7763708        1275801726.5775654     
   7805047001.5789680        681011642.31315422        957014612.41836083     
   7688720771.8505096        271010068.53648090        756093619.82123375     
   7672426965.0280151        194449904.44635105        673038748.78618383     
   6810481035.8354187        2043144310.7506254        1353857557.9788554     
   6828404522.4932518        1395415554.7778766        1202865685.9686420     
   6897702375.2601995        918934685.83551311        1092136823.9695158     
   7018374594.1362629        613701703.92353630        1021670971.9814771     
   7190421179.1214428        479716609.04194570        991468130.00452435     
   5957857606.3773489        1787357281.9132047        1150129123.3996727     
   6088372479.3734293        1502267210.3594761        1228030882.1708710     
   6221603661.6817760        1226231503.1799757        1268592539.4021673     
   6357551153.3023920        959250160.37470424        1271814095.0935614     
   6496214954.2352781        701323181.94366169        1237695549.2450533     
   7999837219.9023666       -567063899.82647419       -180425899.58393991     
   7917299207.6050177       -199413715.26914406       -78361041.198248744     
   7793168382.0755186        29593758.514355659       -8885853.3720070701     
   7627444743.3138714        119958521.52402925        27999663.894781671     
   7420128291.3200760        71680573.759874821        32295510.602122042     
   7942232311.9549885       -154476931.84312201        282407405.59002846     
   7739331065.2151384        16830323.906105518        281201750.14720029     
   7512963033.3752050        109914962.65505552        265308568.49453747     
   7263128216.4351892        124776984.40372229        234727860.63203770     
   6989826614.3950844        61416389.152109623        189459626.55970725     
   7672426965.0280151        194449904.44635105        673038748.78618383     
   7400311467.7017117        184758926.54429245        589709612.33557630     
   7122855213.4073868        157265425.41549969        509595094.02475184     
   6840058202.1450434        111969401.05997753        432695193.85370988     
   6551920433.9146814        48870853.477719784        359009911.82244635     
   7190421179.1214428        479716609.04194570        991468130.00452435     
   6900240415.0647316        304372092.64541292        847162545.36688101     
   6622844922.1720657        171645146.79569697        723973723.21863580     
   6358234700.4434433        81535771.492794752        621901663.55978918     
   6106409749.8788643        34043966.736706734        540946366.39033830     
   6496214954.2352781        701323181.94366169        1237695549.2450533     
   6239117907.3042030        375669822.20946956        1053560549.2411158     
   6012932159.6692381        153054126.79564047        908444456.07619071     
   5817657711.3303804        33476095.702172756        802347269.75028062     
   5653294562.2876339        16935728.929070473        735268990.26338494     
   7420128291.3200760        71680573.759874821        32295510.602122042     
   7217588924.6565037       -19432819.748218060        14954415.449292418     
   7027454302.2077160       -69197065.873694420        2075722.3225375670     
   6849724423.9737110       -77612164.616558075       -6340568.7781292209     
   6684399289.9544868       -44678115.976827145       -10294457.852711309     
   6989826614.3950844        61416389.152109623        189459626.55970725     
   6807498154.2993593        1830478.9192380905        181010151.91137326     
   6633130595.1952171       -31219094.675039768        176369553.37948000     
   6466723937.0826502       -37732331.630729437        175537830.96403396     
   6308278179.9616575       -17709231.947832346        178514984.66502464     
   6551920433.9146814        48870853.477719784        359009911.82244635     
   6387935663.5021276        20252261.454672575        354267573.91819841     
   6227467950.8579426        3357195.3261859417        352680586.22075588     
   6070517295.9821281       -1814344.9077301025        354248948.73011887     
   5917083698.8746843        4737640.7529180050        358972661.44628197     
   6106409749.8788643        34043966.736706734        540946366.39033830     
   5958901452.2647953        35832527.858071566        534726681.46977156     
   5810466369.1958895        34531804.129977942        531008820.84636956     
   5661104500.6721468        30141795.552428961        529792784.52013367     
   5510815846.6935701        22662502.125423193        531078572.49106330     
   5653294562.2876339        16935728.929070473        735268990.26338494     
   5520395520.5873690        48571278.129445076        722387474.56608903     
   5382125850.2090569        62304731.736334562        711354257.25632179     
   5238485551.1527033        58136089.749748707        702169338.33407974     
   5089474623.4183073        36065352.169685602        694832717.79936326     
   6684399289.9544868       -44678115.976827145       -10294457.852711309     
   6507094034.9258261       -4775707.3983509541       -4077316.1592530315     
   6324348252.9845123        16991611.471270323        2872350.9172797669     
   6136161944.1305428        20623840.632045031        10554543.376888689     
   5942535108.3639164        6120980.0839650631        18969261.219575334     
   6308278179.9616575       -17709231.947832346        178514984.66502464     
   6129338454.4409142        3182560.6376693249        175170112.91562536     
   5947064344.4709206        12959738.392322540        174222496.01839414     
   5761455850.0516720        11622301.316130877        175672133.97331926     
   5572512971.1831722       -829750.59089684486        179519026.78041142     
   5917083698.8746843        4737640.7529180050        358972661.44628197     
   5741265872.7735310        8045728.3189394474        348522942.46133775     
   5564219804.6865311        7259675.9321317673        342135207.79763538     
   5385945494.6136818        2379483.5924911499        339809457.45518440     
   5206442942.5549765       -6594848.6999907494        341545691.43398052     
   5510815846.6935701        22662502.125423193        531078572.49106330     
   5342876289.9236784        9813795.6454749107        515981172.47786713     
   5175814633.6313457       -108575.90929627419        506610486.25500458     
   5009630877.8165598       -7104612.5388967991        502966513.82247418     
   4844325022.4793301       -11174314.243323326        505049255.18028069     
   5089474623.4183073        36065352.169685602        694832717.79936326     
   4934169705.8913565        8486762.6172685623        677544802.96522236     
   4781848831.3053627       -9145017.1319644451        667648331.39050066     
   4632511999.6603231       -16829987.078014612        665143303.07519817     
   4486159210.9562387       -14568147.220883846        670029718.01931512     
   5942535108.3639164        6120980.0839650631        18969261.219575334     
   5779545923.0265284       -3549312.3986079693        8951302.0151131228     
   5619123378.6260281       -4664135.0915527344        2236081.7884545461     
   5461267475.1624146        2776512.0051233768       -1176399.4604080825     
   5305978212.6356840        18772628.891412973       -1286141.7314696384     
   5572512971.1831722       -829750.59089684486        179519026.78041142     
   5419620880.1142941       -4943793.3292486668        173313443.77475429     
   5268429836.8982744       -3387676.5580601692        170289905.90303224     
   5118939841.5351057        3838599.7226231098        170448413.16523254     
   4971150894.0247974        16735035.512839556        173788965.56136030     
   5206442942.5549765       -6594848.6999907494        341545691.43398052     
   5063303106.2006884       -5256093.5602996349        338142626.02910125     
   4920998724.6152287       -1132489.1911723614        337800911.91427064     
   4779529797.7985973        5775964.4073698521        340520549.08950669     
   4638896325.7507915        15469267.235343933        346301537.55478883     
   4844325022.4793301       -11174314.243323326        505049255.18028069     
   4710592601.2857170       -4486213.0917637348        503438848.77813900     
   4576830041.7768984        2101427.0091316700        504769099.82218128     
   4443037343.9528828        8588606.0593547821        509040008.31240761     
   4309214507.8136644        14975324.058911562        516251574.24882120     
   4486159210.9562387       -14568147.220883846        670029718.01931512     
   4361489365.3693733       -2634151.9236350060        669202112.02188063     
   4235923788.3832841        6314072.0428545475        671194469.62675929     
   4109462479.9979596        12276524.678570986        676006790.83395028     
   3982105440.2134104        15253205.983538151        683639075.64345217     
   5305978212.6356840        18772628.891412973       -1286141.7314696384     
   5077010687.6375170        14177845.960680008       -8993739.8028009459     
   4846473826.4878092        4351942.5248200893       -11152774.205517387     
   4614367629.1865473       -10705081.416218519       -7763244.9396087136     
   4380692095.7337465       -30993225.862400532        1174847.9949097019     
   4971150894.0247974        16735035.512839556        173788965.56136030     
   4756172103.3534241        10408346.765688896        165464824.93008214     
   4540107975.8693733        463868.64294719696        162752356.06996900     
   4322958511.5726585       -13098398.855349541        165651558.98102149     
   4104723710.4632616       -30278455.729238987        174162433.66323516     
   4638896325.7507915        15469267.235343933        346301537.55478883     
   4438086578.2706242        7464765.3310689926        337925520.25891912     
   4236675493.3166590       -2544194.8191959858        335224282.83675677     
   4034663070.8888960       -14557613.215455532        338197825.28831220     
   3832049310.9873328       -28575489.857707262        346846147.61357498     
   4309214507.8136644        14975324.058911562        516251574.24882120     
   4122754112.3891263        5347101.6568543911        508388346.18370688     
   3936176378.8296638       -4672247.8616237640        506263006.09485078     
   3749481307.1352763       -15082724.496505260        509875553.98225832     
   3562668897.3059654       -25884328.247815371        519225989.84592730     
   3982105440.2134104        15253205.983538151        683639075.64345217     
   3810174705.7089219        4055355.7430117130        676853302.70445263     
   3638610632.4083810       -5920290.4843459129        675868525.84426022     
   3467413220.3117933       -14673732.698534727        680684745.06287515     
   3296582469.4191537       -22204970.899553537        691301960.36029148     
   4380692095.7337465       -30993225.862400532        1174847.9949097019     
   4273524366.9789362       -14166513.051341057       -8517395.0945974030     
   4167373787.0226188        6050695.7546694279       -18393533.576182693     
   4062240355.8647647        29658400.555570364       -28453567.449851289     
   3958124073.5053854        56656601.351386547       -38697496.715592943     
   4104723710.4632616       -30278455.729238987        174162433.66323516     
   3998098473.1241150       -14537837.309290171        167151171.66287622     
   3892187895.3423319        3584979.6351890564        160991743.31075019     
   3786991977.1178908        24089995.104146957        155684148.60684848     
   3682510718.4508052        46977209.097623110        151228387.55117646     
   3832049310.9873328       -28575489.857707262        346846147.61357498     
   3728925790.8933105       -13033198.080020428        342162962.58771265     
   3626214441.1155181        3882994.7517631054        339367340.25040072     
   3523915261.6539478        22173088.637629271        338459280.60161656     
   3422028252.5086050        41837083.577583790        339438783.64137638     
   3562668897.3059654       -25884328.247815371        519225989.84592730     
   3466006320.2865109       -9652595.3635530472        516517977.67993194     
   3369453424.3421664        6944741.1043829918        516733257.24277693     
   3273010209.4729199        23907681.155986547        519871828.53447491     
   3176676675.6787729        41236224.791256428        525933691.55501276     
   3296582469.4191537       -22204970.899553537        691301960.36029148     
   3209340061.3037300       -4396029.1598898172        690216216.93950605     
   3121904845.0222788        12770218.693031192        693089494.28787208     
   3034276820.5748019        29293772.659195423        699921792.40539646     
   2946455987.9613085        45174632.738632679        710713111.29207683     
   3958124073.5053854        56656601.351386547       -38697496.715592943     
   3657762544.1550169        24558888.133176565       -60319043.654729538     
   3356237268.2588320       -11417980.237721920       -74180205.316301748     
   3053548245.8168974       -51274003.761145234       -80280981.700328171     
   2749695476.8291554       -95009182.437238574       -78621372.806786388     
   3682510718.4508052        46977209.097623110        151228387.55117646     
   3402215591.5385346        17105166.348623514        133501762.33355053     
   3121195851.4850211       -15182253.537847877        122936829.75941928     
   2839451498.2902460       -49885050.561809897        119533589.82873850     
   2556982531.9542532       -87003224.723242760        123292042.54152036     
   3422028252.5086050        41837083.577583790        339438783.64137638     
   3160088977.6513343        13677546.182908297        326119402.45057386     
   2897864223.0573454       -15433590.334147573        319363021.26915884     
   2635353988.7266693       -45496325.973515630        319169640.09711707     
   2372558274.6592712       -76510660.735257387        325539258.93445283     
   3176676675.6787729        41236224.791256428        525933691.55501276     
   2931382702.4933877        14276027.635955811        517533876.69632542     
   2686242382.9758282       -12171990.626592517        515098369.21292001     
   2441255717.1261110       -38107829.996334076        518627169.10481614     
   2196422704.9442263       -63531490.473297596        528120276.37200528     
   2946455987.9613085        45174632.738632679        710713111.29207683     
   2716096766.0646968        18900610.707766771        707745185.07079518     
   2486330331.2404618       -5397454.4151921272        710142873.59071982     
   2257156683.4885960       -27719562.630227923        717906176.85183764     
   2028575822.8091123       -48065713.937358737        731035094.85416937     
   5957857606.3773489        1787357281.9132047        1150129123.3996727     
   6088372479.3734293        1502267210.3594761        1228030882.1708710     
   6221603661.6817760        1226231503.1799757        1268592539.4021673     
   6357551153.3023920        959250160.37470424        1271814095.0935614     
   6496214954.2352781        701323181.94366169        1237695549.2450533     
   5434550886.0277834        1630365265.8083351        1033562347.5540282     
   5489887531.3768415        1372502500.3762980        1113988427.9971037     
   5547412664.2760782        1121934693.4448543        1167641979.6081364     
   5607126284.7254915        878661845.01400411        1194523002.3871269     
   5669028392.7250834        642683955.08374739        1194631496.3340738     
   4895185319.4349432        1468555595.8304832        936449919.43465388     
   4905536802.0165777        1246978055.9840171        1018784529.4938347     
   4917548950.3863001        1030936068.7645092        1084914183.4288321     
   4931221764.5441093        820429634.17195976        1134838881.2396455     
   4946555244.4900064        615458752.20636868        1168558622.9262753     
   4339760906.5988293        1301928271.9796486        858791839.04154932     
   4335320291.2926388        1125693877.1826334        942419186.66106331     
   4332012520.0124445        953235629.13894105        1020409150.8642527     
   4329837592.7582455        784553527.84857094        1092761731.6511178     
   4328795509.5300455        619647573.31152546        1159476929.0216572     
   3768277647.5194411        1130483294.2558322        800588106.37471509     
   3779237999.2050219        1008649963.9721464        884892399.49878967     
   3790803373.1545086        888833374.56814837        974126881.91439879     
   3802973769.3679018        771033526.04383826        1068291553.6215425     
   3815749187.8452020        655250418.39921606        1167386414.6202209     
   6496214954.2352781        701323181.94366169        1237695549.2450533     
   6239117907.3042030        375669822.20946956        1053560549.2411158     
   6012932159.6692381        153054126.79564047        908444456.07619071     
   5817657711.3303804        33476095.702172756        802347269.75028062     
   5653294562.2876339        16935728.929070473        735268990.26338494     
   5669028392.7250834        642683955.08374739        1194631496.3340738     
   5518907133.8731575        383042485.67136359        1073772892.8696926     
   5392933715.3215971        203893817.26020622        980950937.16830087     
   5291108137.0704060        105237949.85027766        916165629.22989833     
   5213430399.1195822        87074883.441574097        879416969.05448401     
   4946555244.4900064        615458752.20636868        1168558622.9262753     
   4872031890.6428699        412415808.19348550        1103085713.8397534     
   4814892918.1003599        267320801.86269379        1054667193.4401963     
   4775138326.8624773        180173733.21399426        1023303061.7276032     
   4752768116.9292250        150974602.24738789        1008993318.7019750     
   4328795509.5300455        619647573.31152546        1159476929.0216572     
   4298492177.6133432        463789789.77583551        1141499012.1512976     
   4278809768.0055270        343335080.60310233        1129593224.8918781     
   4269748280.7065969        258283445.79332638        1123759567.2433980     
   4271307715.7165575        208634885.34650755        1123998039.2058570     
   3815749187.8452020        655250418.39921606        1167386414.6202209     
   3798287994.7845774        537164430.41841388        1189012787.8043256     
   3784684265.0370975        431936653.48143160        1205729031.5233452     
   3774937998.6027646        339567087.58827257        1217535145.7772806     
   3769049195.4815788        260055732.73893440        1224431130.5661311     
   5653294562.2876339        16935728.929070473        735268990.26338494     
   5520395520.5873690        48571278.129445076        722387474.56608903     
   5382125850.2090569        62304731.736334562        711354257.25632179     
   5238485551.1527033        58136089.749748707        702169338.33407974     
   5089474623.4183073        36065352.169685602        694832717.79936326     
   5213430399.1195822        87074883.441574097        879416969.05448401     
   5078002945.8440313        84999153.278841496        855956869.12971747     
   4940457707.7692442        75864140.452003002        836483064.84330332     
   4800794684.8952246        59669844.961052418        820995556.19524503     
   4659013877.2219763        36416266.805995703        809494343.18553770     
   4752768116.9292250        150974602.24738789        1008993318.7019750     
   4620920815.6521778        117020161.79368925        978749619.07501471     
   4490208573.4547081        86849251.605251312        954630212.33723700     
   4360631390.3368187        60461871.682077408        936635098.48863864     
   4232189266.2985082        37858022.024165630        924764277.52922392     
   4271307715.7165575        208634885.34650755        1123998039.2058570     
   4149149130.0118079        144634303.67397952        1090765724.4019854     
   4031378447.2654490        95260065.196084023        1065795699.7381216     
   3917995667.4774795        60512169.912820578        1049087965.2142667     
   3809000790.6479015        40390617.824194193        1040642520.8304195     
   3769049195.4815788        260055732.73893440        1224431130.5661311     
   3662687888.9229221        167841578.91971493        1192005185.1106248     
   3563967329.2014661        101096581.22449934        1169979527.0459557     
   3472887516.3172116        59820739.653288126        1158354156.3721235     
   3389448450.2701569        44014054.206080675        1157129073.0891259     
   5089474623.4183073        36065352.169685602        694832717.79936326     
   4934169705.8913565        8486762.6172685623        677544802.96522236     
   4781848831.3053627       -9145017.1319644451        667648331.39050066     
   4632511999.6603231       -16829987.078014612        665143303.07519817     
   4486159210.9562387       -14568147.220883846        670029718.01931512     
   4659013877.2219763        36416266.805995703        809494343.18553770     
   4523524210.9245558        15180771.508712769        796003338.38772392     
   4390238531.9175959        1291900.5129628181        788899600.29432595     
   4259156840.2010932       -5250346.1812629700        788183128.90535104     
   4130279135.7750511       -4445968.5739490986        793853924.22078955     
   4232189266.2985082        37858022.024165630        924764277.52922392     
   4113645775.3591866        22104898.220586777        914160117.84215581     
   3996526216.0598288        11098213.216892004        908939048.30450821     
   3880830588.4004340        4837967.0130681992        909101068.91627705     
   3766558892.3810039        3324159.6091268063        914646179.67746353     
   3809000790.6479015        40390617.824194193        1040642520.8304195     
   3704534399.1952491        29259142.752892017        1032015141.3285196     
   3600711883.7320633        20273920.979816914        1027766675.4210410     
   3497533244.2583466        13434952.504970074        1027897123.1079769     
   3394998480.7740984        8742237.3283491135        1032406484.3893318     
   3389448450.2701569        44014054.206080675        1157129073.0891259     
   3296190082.4327407        36643505.105621338        1149568408.8468201     
   3202795534.9342990        28819023.801746964        1145382481.6439304     
   3109264807.7748246        20540610.294435024        1144571291.4804568     
   3015597900.9543266        11808264.583705306        1147134838.3563993     
   4486159210.9562387       -14568147.220883846        670029718.01931512     
   4361489365.3693733       -2634151.9236350060        669202112.02188063     
   4235923788.3832841        6314072.0428545475        671194469.62675929     
   4109462479.9979596        12276524.678570986        676006790.83395028     
   3982105440.2134104        15253205.983538151        683639075.64345217     
   4130279135.7750511       -4445968.5739490986        793853924.22078955     
   4012073434.8183117        2258966.3151743412        789781749.20073164     
   3893443278.1586027        7549048.8610711098        789068735.77263546     
   3774388665.7959251        11424279.063733578        791714883.93650687     
   3654909597.7302718        13884656.923157215        797720193.69233918     
   3766558892.3810039        3324159.6091268063        914646179.67746353     
   3656357901.7391062        5262203.7955448627        907879257.28041351     
   3546203731.0904989        7356314.6262607574        905010694.46498179     
   3436096380.4351797        9606492.1012723446        906040491.23116565     
   3326035849.7731509        12012736.220583439        910968647.57896388     
   3394998480.7740984        8742237.3283491135        1032406484.3893318     
   3294342766.1317616        6375560.5174729824        1023494636.2609309     
   3194205147.1789732        5735869.3384239674        1019020345.7037948     
   3094585623.9157333        6823163.7912043333        1018983612.7179285     
   2995484196.3420401        9637443.8758084774        1023384437.3033286     
   3015597900.9543266        11808264.583705306        1147134838.3563993     
   2926028027.9962730        5599036.4809583426        1136627886.1422806     
   2837447526.4240241        2687712.9975601435        1131097689.4890780     
   2749856396.2375832        3074294.1335283518        1130544248.3967946     
   2663254637.4369483        6758779.8888459206        1134967562.8654311     
   3982105440.2134104        15253205.983538151        683639075.64345217     
   3810174705.7089219        4055355.7430117130        676853302.70445263     
   3638610632.4083810       -5920290.4843459129        675868525.84426022     
   3467413220.3117933       -14673732.698534727        680684745.06287515     
   3296582469.4191537       -22204970.899553537        691301960.36029148     
   3654909597.7302718        13884656.923157215        797720193.69233918     
   3498489620.5842700        4981908.9742505550        790600478.61591971     
   3342308921.2834988       -3123246.1572175026        789081480.28453934     
   3186367499.8279643       -10430808.471227527        793163198.69819367     
   3030665356.2176619       -16940777.967790961        802845633.85689163     
   3326035849.7731509        12012736.220583439        910968647.57896388     
   3184554403.3177290        5233422.5629194975        903366376.44661903     
   3043184851.3488226       -1172909.4730273485        901164542.72555017     
   2901927193.8664360       -7206259.8872333765        904363146.41575444     
   2760781430.8705683       -12866628.679717302        912962187.51722920     
   2995484196.3420401        9637443.8758084774        1023384437.3033286     
   2868369053.9092894        4809896.5090104342        1015150996.1965605     
   2741238422.6043444       -69280.431771039963        1012117713.1672977     
   2614092302.4271994       -5000086.9465568066        1014284588.2155441     
   2486930693.3778567       -9982523.0353264809        1021651621.3412921     
   2663254637.4369483        6758779.8888459206        1134967562.8654311     
   2549933572.3589697        3711330.8125541210        1125954337.8657370     
   2436469635.0500712        187640.96653652191        1121940991.6097796     
   2322862825.5102639       -3812289.6491789818        1122927524.0975635     
   2209113143.7395415       -8288461.0346136093        1128913935.3290839     
   3296582469.4191537       -22204970.899553537        691301960.36029148     
   3209340061.3037300       -4396029.1598898172        690216216.93950605     
   3121904845.0222788        12770218.693031192        693089494.28787208     
   3034276820.5748019        29293772.659195423        699921792.40539646     
   2946455987.9613085        45174632.738632679        710713111.29207683     
   3030665356.2176619       -16940777.967790961        802845633.85689163     
   2952689485.7485967        205563.22736918926        799931106.99624085     
   2874697477.2690330        17298111.054211736        800338573.06620836     
   2796689330.7789774        34336865.512741208        804068032.06679535     
   2718665046.2784324        51321826.602977276        811119483.99800396     
   2760781430.8705683       -12866628.679717302        912962187.51722920     
   2690252018.5091853        3071088.1093366146        908424992.39815950     
   2619883138.2928357        19543912.048507094        906572762.37117982     
   2549674790.2215209        36551843.137797475        907405497.43628097     
   2479626974.2952504        54094881.377213717        910923197.59346855     
   2486930693.3778567       -9982523.0353264809        1021651621.3412921     
   2422027659.5854883        4200545.4860190153        1015697873.1452562     
   2357461828.0936875        19507621.675923944        1011792062.2027779     
   2293233198.9024487        35938705.534368992        1009934188.5138496     
   2229341772.0117745        53493797.061363578        1010124252.0784657     
   2209113143.7395415       -8288461.0346136093        1128913935.3290839     
   2148016408.9775162        3593935.3574239016        1121749749.2375464     
   2087433546.6715837        17189239.936442018        1115996472.5610151     
   2027364556.8217483        32497452.702447534        1111654105.2995031     
   1967809439.4280059        49518573.655432343        1108722647.4530087     
   2946455987.9613085        45174632.738632679        710713111.29207683     
   2716096766.0646968        18900610.707766771        707745185.07079518     
   2486330331.2404618       -5397454.4151921272        710142873.59071982     
   2257156683.4885960       -27719562.630227923        717906176.85183764     
   2028575822.8091123       -48065713.937358737        731035094.85416937     
   2718665046.2784324        51321826.602977276        811119483.99800396     
   2503320046.0744810        27646405.275198460        804885605.18058836     
   2288344479.8984094        5202430.7070120573        804235835.83868432     
   2073738347.7502127       -16010097.101585031        809170175.97229910     
   1859501649.6298969       -35991178.150609970        819688625.58141959     
   2479626974.2952504        54094881.377213717        910923197.59346855     
   2279920466.4534316        33205341.953386664        901162787.62799704     
   2080360039.5949838        12802739.140807390        897204981.87235200     
   1880945693.7199187       -7112927.0605183840        899049780.32653785     
   1681677428.8282151       -26541656.650594473        906697182.99053419     
   2229341772.0117745        53493797.061363578        1010124252.0784657     
   2045898027.2015438        35577420.742323637        996576732.41303158     
   1862377010.3301840        17403470.886188865        989050311.69173074     
   1678778721.3976965       -1028052.5070353746        987544989.91456759     
   1495103160.4040918       -19717149.437314808        992060767.08154118     
   1967809439.4280059        49518573.655432343        1108722647.4530087     
   1801252728.3188171        34762641.642005324        1091127439.5356824     
   1634395392.1040061        19004625.943150282        1079771825.2968080     
   1467237430.7835658        2244526.5588884354        1074655804.7363806     
   1299778844.3575089       -15517656.510773003        1075779377.8544047     
   3768277647.5194411        1130483294.2558322        800588106.37471509     
   3779237999.2050219        1008649963.9721464        884892399.49878967     
   3790803373.1545086        888833374.56814837        974126881.91439879     
   3802973769.3679018        771033526.04383826        1068291553.6215425     
   3815749187.8452020        655250418.39921606        1167386414.6202209     
   3207885488.7253661        962365646.61760986        756689694.52687025     
   3236036499.2849655        868158975.53455174        853063931.16055405     
   3263911057.8455992        773030797.78827763        951356179.35949576     
   3291509164.4072700        676981113.37878847        1051566439.1236956     
   3318830818.9699750        580009922.30608320        1153694710.4531536     
   2685734376.7451892        805720313.02355683        721947576.59073436     
   2722469824.1037321        736558434.51860392        829363370.09401107     
   2758047345.2004385        663536801.80753171        935684997.43626940     
   2792466940.0353088        586655414.89033985        1040912458.6175090     
   2825728608.6083431        505914273.76702851        1145045753.6377299     
   2201824311.5789132        660547293.47367394        696361752.56630778     
   2238537973.6613226        613848340.92430341        813790716.29916096     
   2273212235.2190247        560351386.62590981        927113336.14471924     
   2305847096.2520199        500056430.57849300        1036329612.1029818     
   2336442556.7603087        432963472.78205359        1141439544.1739502     
   1756155293.2265363        526846587.96796089        679932222.45358992     
   1784240947.9577367        500028694.75164998        806345969.77600372     
   1809405727.9013591        463474552.24341226        925641195.48484528     
   1831649633.0574031        417184160.44324768        1037817899.5801159     
   1850972663.4258697        361157519.35115629        1142876082.0618143     
   3815749187.8452020        655250418.39921606        1167386414.6202209     
   3798287994.7845774        537164430.41841388        1189012787.8043256     
   3784684265.0370975        431936653.48143160        1205729031.5233452     
   3774937998.6027646        339567087.58827257        1217535145.7772806     
   3769049195.4815788        260055732.73893440        1224431130.5661311     
   3318830818.9699750        580009922.30608320        1153694710.4531536     
   3294176625.2853718        472692839.70473814        1181987238.6838088     
   3273258353.6737237        377828830.67991173        1207171686.9658453     
   3256076004.1350312        295417895.23160505        1229248055.2992625     
   3242629576.6692944        225460033.35981584        1248216343.6840603     
   2825728608.6083431        505914273.76702851        1145045753.6377299     
   2799030127.2039499        410910710.41639829        1179862638.8013811     
   2775946026.6323199        327955083.17498267        1213373493.5328772     
   2756476306.8934555        257047392.04278457        1245578317.8322198     
   2740620967.9873562        198187637.01980090        1276477111.6994092     
   2336442556.7603087        432963472.78205359        1141439544.1739502     
   2312848500.5403104        351818042.55339307        1182638988.1570396     
   2292747283.9128871        282315410.96664566        1224334451.2244408     
   2276138906.8780370        224455578.02181107        1266525933.3761542     
   2263023369.4357600        178238543.71888971        1309213434.6121783     
   1850972663.4258697        361157519.35115629        1142876082.0618143     
   1835631745.2944551        295414836.11572295        1190316286.7507868     
   1823662125.5154235        240909814.05489790        1240054560.0405371     
   1815063804.0887752        197642453.16868526        1292090901.9310629     
   1809836781.0145097        165612753.45708090        1346425312.4223671     
   3769049195.4815788        260055732.73893440        1224431130.5661311     
   3662687888.9229221        167841578.91971493        1192005185.1106248     
   3563967329.2014661        101096581.22449934        1169979527.0459557     
   3472887516.3172116        59820739.653288126        1158354156.3721235     
   3389448450.2701569        44014054.206080675        1157129073.0891259     
   3242629576.6692944        225460033.35981584        1248216343.6840603     
   3165597422.3123155        151274660.58842051        1231122826.9272623     
   3094619372.5864010        97269636.587240219        1222029421.1544995     
   3029695427.4915528        63444961.356279969        1220936126.3657680     
   2970825587.0277691        49800634.895537376        1227842942.5610697     
   2740620967.9873562        198187637.01980090        1276477111.6994092     
   2686060318.9554744        139973751.23325324        1272864941.0674942     
   2635967132.3485227        96651406.863139033        1274852705.0128105     
   2590341408.1664996        68220603.909455180        1282440403.5353572     
   2549183146.4094062        54681342.372202992        1295628036.6351345     
   2263023369.4357600        178238543.71888971        1309213434.6121783     
   2224076578.8523970        133938850.85421622        1317231527.5313215     
   2188010608.4878287        99241892.052191854        1328449378.6208923     
   2154825458.3420520        74147667.312808633        1342866987.8808913     
   2124521128.4150717        58656176.636075616        1360484355.3113182     
   1809836781.0145097        165612753.45708090        1346425312.4223671     
   1779646202.0030854        133169959.45130861        1364222586.3187432     
   1750749801.0043204        105041092.15440059        1382819441.9787440     
   1723147578.0182133        81226151.566350460        1402215879.4023702     
   1696839533.0447631        61725137.687158644        1422411898.5896220     
   3389448450.2701569        44014054.206080675        1157129073.0891259     
   3296190082.4327407        36643505.105621338        1149568408.8468201     
   3202795534.9342990        28819023.801746964        1145382481.6439304     
   3109264807.7748246        20540610.294435024        1144571291.4804568     
   3015597900.9543266        11808264.583705306        1147134838.3563993     
   2970825587.0277691        49800634.895537376        1227842942.5610697     
   2885753003.9304490        37999903.822785974        1219631712.1465383     
   2801024833.6820989        27347215.579932809        1215364851.8708851     
   2716641076.2827182        17842570.166976452        1215042361.7341120     
   2632601731.7323050        9485967.5839152336        1218664241.7362196     
   2549183146.4094062        54681342.372202992        1295628036.6351345     
   2473923871.1935081        38938686.269551396        1287326931.3100393     
   2399489601.3365736        25946048.030119300        1283539829.2232864     
   2325880336.8386083        15703427.653911710        1284266730.3748772     
   2253096077.6996098        8210825.1409249306        1289507634.7648127     
   2124521128.4150717        58656176.636075616        1360484355.3113182     
   2060702684.2219164        39459852.445921183        1352654066.3373220     
   1998189837.8977280        24615521.152313709        1349907413.7011342     
   1936982589.4425006        14123182.755247712        1352244397.4027517     
   1877080938.8562369        7982837.2547307014        1359665017.4421775     
   1696839533.0447631        61725137.687158644        1422411898.5896220     
   1646089443.0156796        39563402.351901114        1415613117.2283888     
   1597125543.3655543        23355634.946502984        1414467605.3044281     
   1549947834.0943933        13101835.470986307        1418975362.8177366     
   1504556315.2021899        8802003.9253323078        1429136389.7683165     
   3015597900.9543266        11808264.583705306        1147134838.3563993     
   2926028027.9962730        5599036.4809583426        1136627886.1422806     
   2837447526.4240241        2687712.9975601435        1131097689.4890780     
   2749856396.2375832        3074294.1335283518        1130544248.3967946     
   2663254637.4369483        6758779.8888459206        1134967562.8654311     
   2632601731.7323050        9485967.5839152336        1218664241.7362196     
   2556132991.0407534        5090779.8207861185        1210258114.6394012     
   2480434277.2775459        3262348.4854762554        1206534401.3390589     
   2405505590.4426913        4000673.5780045986        1207493101.8351936     
   2331346930.5361853        7305755.0983633995        1213134216.1278083     
   2253096077.6996098        8210825.1409249306        1289507634.7648127     
   2188887492.8047233        5377384.7764576674        1282946430.9182603     
   2125229590.3807268        4379552.6482865810        1280773299.1037426     
   2062122370.4276245        5217328.7564315796        1282988239.3212624     
   1999565832.9454126        7890713.1008745432        1289591251.5708201     
   1877080938.8562369        7982837.2547307014        1359665017.4421775     
   1824291533.2881870        6458851.3479754925        1354692834.9788585     
   1771833465.7335706        6039325.4860007763        1353814382.7831337     
   1719706736.1923888        6724259.6688077450        1357029660.8550031     
   1667911344.6646369        8513653.8963862658        1364338669.1944711     
   1504556315.2021899        8802003.9253323078        1429136389.7683165     
   1462345112.4911442        8335179.5353463888        1425497326.8211949     
   1420245903.3360710        8241666.9986049533        1425657652.3772290     
   1378258687.7369781        8521466.3151304722        1429617366.4364140     
   1336383465.6938591        9174577.4849009514        1437376468.9987531     
   2663254637.4369483        6758779.8888459206        1134967562.8654311     
   2549933572.3589697        3711330.8125541210        1125954337.8657370     
   2436469635.0500712        187640.96653652191        1121940991.6097796     
   2322862825.5102639       -3812289.6491789818        1122927524.0975635     
   2209113143.7395415       -8288461.0346136093        1128913935.3290839     
   2331346930.5361853        7305755.0983633995        1213134216.1278083     
   2230918475.1825185        3852663.7049000263        1204070235.0332224     
   2130460277.9908240        300432.85134387016        1200017377.0560265     
   2029972338.9611132       -3350937.4622677565        1200975642.1962135     
   1929454658.0933743       -7101447.2359784842        1206945030.4537930     
   1999565832.9454126        7890713.1008745432        1289591251.5708201     
   1912062114.0979166        4041617.4247955084        1280608499.8397143     
   1824641783.8052862        470483.59827041626        1276648115.5996475     
   1737304842.0675218       -2822688.3786987066        1277710098.8506181     
   1650051288.8846202       -5837898.5061259270        1283794449.5926242     
   1667911344.6646369        8513653.8963862658        1364338669.1944711     
   1593364489.1051669        4278191.9722526670        1355569132.2852147     
   1519014152.4934523        697793.20730829239        1351833207.2406468     
   1444860334.8294883       -2227542.3984674215        1353130894.0607636     
   1370903036.1132817       -4497814.8450520039        1359462192.7455719     
   1336383465.6938591        9174577.4849009514        1437376468.9987531     
   1274825600.2042675        4562387.3472632766        1428952132.3697212     
   1213577384.0553224        982361.67845064402        1425572651.9790251     
   1152638817.2470231       -1565499.5215471983        1427238027.8266666     
   1092009899.7793641       -3081196.2527385950        1433948259.9126439     
   2209113143.7395415       -8288461.0346136093        1128913935.3290839     
   2148016408.9775162        3593935.3574239016        1121749749.2375464     
   2087433546.6715837        17189239.936442018        1115996472.5610151     
   2027364556.8217483        32497452.702447534        1111654105.2995031     
   1967809439.4280059        49518573.655432343        1108722647.4530087     
   1929454658.0933743       -7101447.2359784842        1206945030.4537930     
   1872646218.0170331        2801693.7429611683        1200862083.9712007     
   1816224142.9755795        13992718.171512842        1197123667.5425324     
   1760188432.9690044        26471626.049662232        1195729781.1677830     
   1704539087.9973044        40238417.377403200        1196680424.8469498     
   1650051288.8846202       -5837898.5061259270        1283794449.5926242     
   1600198631.0337024        2886233.3216515779        1278643984.0609000     
   1550604830.7964501        12473223.861641824        1276771669.2219980     
   1501269888.1728654        22923073.113851607        1278177505.0759249     
   1452193803.1629405        34235781.078278720        1282861491.6226764     
   1370903036.1132817       -4497814.8450520039        1359462192.7455719     
   1330673648.0275156        3847554.0934797525        1355095449.5066292     
   1290575610.1341972        12630757.006839156        1354940477.5994151     
   1250608922.4333258        21851793.895017505        1358997277.0239372     
   1210773584.9249046        31510664.758037567        1367265847.7801864     
   1092009899.7793641       -3081196.2527385950        1433948259.9126439     
   1064071268.9984769        5685656.0584589243        1430216480.3083985     
   1036136480.9888171        14465317.607089281        1431630092.6747868     
   1008205535.7503972        23257788.393181205        1438189097.0118153     
   980278433.28321195        32063068.416722715        1449893493.3194792     
   1967809439.4280059        49518573.655432343        1108722647.4530087     
   1801252728.3188171        34762641.642005324        1091127439.5356824     
   1634395392.1040061        19004625.943150282        1079771825.2968080     
   1467237430.7835658        2244526.5588884354        1074655804.7363806     
   1299778844.3575089       -15517656.510773003        1075779377.8544047     
   1704539087.9973044        40238417.377403200        1196680424.8469498     
   1554697955.8986473        26144704.601289868        1182774015.8780165     
   1404732238.1283214        11635706.252962530        1175333331.1070497     
   1254641934.6863360       -3288577.6675537229        1174358370.5340362     
   1104427045.5727048       -18628147.160262346        1179849134.1589885     
   1452193803.1629405        34235781.078278720        1282861491.6226764     
   1319714337.2734070        20998113.699045062        1272849260.9417608     
   1187286325.1461821        7931958.8608282804        1269528884.9783247     
   1054909766.7812665       -4962683.4363597035        1272900363.7323554     
   922584662.17865133       -17685813.192526698        1282963697.2038646     
   1210773584.9249046        31510664.758037567        1367265847.7801864     
   1096301872.4431188        19322868.935289919        1361353174.7269161     
   982057653.15759695        7893383.7667620778        1362358486.9106309     
   868040927.06834316       -2777790.7475225925        1370281784.3313346     
   754251694.17537534       -12690654.607554317        1385123066.9890254     
   980278433.28321195        32063068.416722715        1449893493.3194792     
   884460561.40777040        21118970.310026795        1448285757.2334797     
   789046222.16255641        11519980.970756650        1453822136.9039798     
   694035415.54758501        3266100.3989668190        1466502632.3309827     
   599428141.56285524       -3642671.4053618908        1486327243.5144701     
   1756155293.2265363        526846587.96796089        679932222.45358992     
   1784240947.9577367        500028694.75164998        806345969.77600372     
   1809405727.9013591        463474552.24341226        925641195.48484528     
   1831649633.0574031        417184160.44324768        1037817899.5801159     
   1850972663.4258697        361157519.35115629        1142876082.0618143     
   1326484216.1642764        397945264.84928292        669562262.19697905     
   1339739061.1842642        375489026.15453982        791719571.89359820     
   1350803250.1113682        345730600.48351866        908580552.38249481     
   1359676782.9455893        308669987.83621985        1020145203.6636678     
   1366359659.6869266        264307188.21264279        1126413525.7371180     
   890567974.86835217        267170392.46050563        662155147.74087226     
   894198274.19383693        250637687.49234340        780907941.62217450     
   896368136.12113333        229236857.86355209        896186598.70160222     
   897077560.65024066        202967903.57413149        1007991118.9791554     
   896326547.78115952        171830824.62408212        1116321502.4548340     
   448406569.33876276        134521970.80162883        657710879.08527017     
   447618586.98645526        125474678.76506051        773911078.96173239     
   446100385.93065363        113993324.38351183        888459334.44216859     
   443851966.17135799        100077907.65698317        1001355645.5265789     
   440873327.70856798        83728428.585473865        1112600012.2149630     
 -0.42449114278587163      -0.12734734283576149        656229456.23017228     
 -0.43788102722518563       -2.7308689879032427E-002   770728983.91227138     
 -0.46007047187502909        4.3398529390134027E-002   885398759.60419369     
 -0.49105945100049342        8.4774010441984793E-002   1000238783.3059379     
 -0.53084752138926183        9.6818666865779085E-002   1115249055.0175049     
   1850972663.4258697        361157519.35115629        1142876082.0618143     
   1835631745.2944551        295414836.11572295        1190316286.7507868     
   1823662125.5154235        240909814.05489790        1240054560.0405371     
   1815063804.0887752        197642453.16868526        1292090901.9310629     
   1809836781.0145097        165612753.45708090        1346425312.4223671     
   1366359659.6869266        264307188.21264279        1126413525.7371180     
   1360681265.1007915        216748363.99479231        1181718375.3333194     
   1357531344.2804859        177617785.66304013        1237961591.5902863     
   1356909897.2260098        146915453.21738625        1295143174.5080173     
   1358816923.9373624        124641366.65782803        1353263124.0865135     
   896326547.78115952        171830824.62408212        1116321502.4548340     
   896425814.05455410        141290400.61809069        1178507701.6072857     
   898210729.50722432        116368807.20968431        1240272565.4804895     
   901681294.13917041        97066044.398864448        1301616094.0744450     
   906837507.95039165        83382112.185628861        1362538287.3891540     
   440873327.70856798        83728428.585473865        1112600012.2149630     
   442865392.15574253        69040945.985616654        1180684265.5726852     
   445700281.19563866        57162878.694831908        1246987481.7111473     
   449377994.82825667        48094226.713119805        1311509660.6303487     
   453898533.05359668        41834990.040481195        1374250802.3302898     
 -0.53084752138926183        9.6818666865779085E-002   1115249055.0175049     
 -0.59564346930049150        9.7369725606542279E-002   1188248067.2295179     
 -0.65427122997098530       0.11848149521926485        1258106340.2822583     
 -0.70673053926050011       0.16015533322038111        1324823874.1757262     
 -0.75302191222463910       0.22238774466631672        1388400668.9099216     
   1809836781.0145097        165612753.45708090        1346425312.4223671     
   1779646202.0030854        133169959.45130861        1364222586.3187432     
   1750749801.0043204        105041092.15440059        1382819441.9787440     
   1723147578.0182133        81226151.566350460        1402215879.4023702     
   1696839533.0447631        61725137.687158644        1422411898.5896220     
   1358816923.9373624        124641366.65782803        1353263124.0865135     
   1333672185.3246627        99558729.858881772        1372337569.5888474     
   1309498080.2150288        77711538.070155561        1392795351.2019243     
   1286294608.6084614        59099791.291649997        1414636468.9257431     
   1264061770.5049603        43723489.523365676        1437860922.7603033     
   906837507.95039165        83382112.185628861        1362538287.3891540     
   888406479.29960513        66159993.462460935        1382512435.9029241     
   870622539.64229357        51094838.050878346        1404453674.8745527     
   853485688.97845650        38186645.950875342        1428362004.3040409     
   836995927.30809414        27435417.162456572        1454237424.1913846     
   453898533.05359668        41834990.040481195        1374250802.3302898     
   443849083.92791384        32973750.262052223        1394747185.2609725     
   434123179.28611445        25190992.096567944        1417794412.9966292     
   424720819.12819761        18486715.544024915        1443392485.5372610     
   415642003.45416367        12860920.604425922        1471541402.8828666     
 -0.75302191222463910       0.22238774466631672        1388400668.9099216     
 -0.79041113169239030       0.25765254742009480        1409041817.6629920     
 -0.85350836974952005       0.20722430182063845        1432817565.5681536     
 -0.94231516191224873        7.1097629272027452E-002   1459727912.6254065     
  -1.0568296695643200      -0.15072194865810282        1489772858.8347502     
   1696839533.0447631        61725137.687158644        1422411898.5896220     
   1646089443.0156796        39563402.351901114        1415613117.2283888     
   1597125543.3655543        23355634.946502984        1414467605.3044281     
   1549947834.0943933        13101835.470986307        1418975362.8177366     
   1504556315.2021899        8802003.9253323078        1429136389.7683165     
   1264061770.5049603        43723489.523365676        1437860922.7603033     
   1229026489.9116359        28010374.050372303        1434531532.3655798     
   1195330852.1068289        16762734.539103508        1436149044.4390306     
   1162974857.0905399        9980570.9895601869        1442713458.9806592     
   1131958504.8627677        7663883.4017416835        1454224775.9904625     
   836995927.30809414        27435417.162456572        1454237424.1913846     
   815657264.81025636        17565464.149645835        1453856452.5743203     
   795211697.51049280        10672495.130415827        1457716016.4563358     
   775659225.40880406        6756510.1047684252        1465816115.8374310     
   756999848.50519121        5817509.0727072954        1478156750.7176058     
   415642003.45416367        12860920.604425922        1471541402.8828666     
   405981767.71153963        8228672.6497166306        1473587877.8546128     
   396768079.57654655        5084916.7204450071        1479168521.3563409     
   388000939.04918635        3429652.8166150302        1488283333.3880532     
   379680346.12945712        3262880.9382235408        1500932313.9497511     
  -1.0568296695643200      -0.15072194865810282        1489772858.8347502     
  -1.3845139320726014      -0.44941401790486524        1493725808.2064548     
  -1.6950081677064082      -0.69080495673595932        1500506559.1390471     
  -1.9883162538586523      -0.87490925104555428        1510115111.6325274     
  -2.2644317739587625       -1.0017049918480354        1522551465.6868982     
   1504556315.2021899        8802003.9253323078        1429136389.7683165     
   1462345112.4911442        8335179.5353463888        1425497326.8211949     
   1420245903.3360710        8241666.9986049533        1425657652.3772290     
   1378258687.7369781        8521466.3151304722        1429617366.4364140     
   1336383465.6938591        9174577.4849009514        1437376468.9987531     
   1131958504.8627677        7663883.4017416835        1454224775.9904625     
   1099773142.3225453        7155676.9677099586        1449935222.4192944     
   1067671774.9592034        6927454.4566114545        1449568014.7942328     
   1035654402.7727433        6979215.8684529066        1453123153.1152790     
   1003721025.7631605        7310961.2032197714        1460600637.3824308     
   756999848.50519121        5817509.0727072954        1478156750.7176058     
   735191633.11565638        5373312.6885872483        1473184041.7467809     
   713439414.52390778        5115772.2970880270        1472256636.1650167     
   691743192.72994316        5044887.8982023895        1475374533.9723094     
   670102967.73376238        5160659.4919269681        1482537735.1686590     
   379680346.12945712        3262880.9382235408        1500932313.9497511     
   368600584.87047446        2988086.6979754120        1495243784.8036587     
   357548822.03018284        2806620.5200298727        1493723516.4895771     
   346525057.60858107        2718482.4043849558        1496371509.0075080     
   335529291.60566533        2723672.3510253280        1503187762.3574493     
  -2.2644317739587625       -1.0017049918480354        1522551465.6868982     
  -2.4129979150331349       -1.0041210537041110        1516114451.5899251     
  -2.5219673190461265      -0.87454833896694306        1513968655.7679152     
  -2.5913447555341502      -0.61300222567420326        1516114078.2208688     
  -2.6211311967048689      -0.21948612799044676        1522550718.9487896     
   1336383465.6938591        9174577.4849009514        1437376468.9987531     
   1274825600.2042675        4562387.3472632766        1428952132.3697212     
   1213577384.0553224        982361.67845064402        1425572651.9790251     
   1152638817.2470231       -1565499.5215471983        1427238027.8266666     
   1092009899.7793641       -3081196.2527385950        1433948259.9126439     
   1003721025.7631605        7310961.2032197714        1460600637.3824308     
   955964500.93418610        3375380.8969043493        1452343216.0898743     
   908440213.04134142        213923.71101778746        1449501213.7214599     
   861148162.08463168       -2173410.3544163108        1452074630.2771819     
   814088348.06404674       -3786621.2994372249        1460063465.7570541     
   670102967.73376238        5160659.4919269681        1482537735.1686590     
   637206534.09627438        2219314.1761837602        1474356914.7406478     
   604464924.99040484       -205949.36749848723        1471962075.9225810     
   571878140.41615140       -2115131.1391288340        1475353218.7144592     
   539446180.37351167       -3508231.1387112737        1484530343.1162856     
   335529291.60566533        2723672.3510253280        1503187762.3574493     
   318551699.69053680        1094187.1851233393        1494993228.3220451     
   301651519.90251589       -277257.55709046125        1492955238.5823901     
   284828752.24158859       -1390661.8756576926        1497073793.1384878     
   268083396.70776477       -2246025.7705437988        1507348891.9903398     
  -2.6211311967048689      -0.21948612799044676        1522550718.9487896     
  -2.2830295804038094       -7.6292383582804546E-002   1514252156.8340619     
  -2.2223396886470059      -0.85780404071131755        1512480701.7008898     
  -2.4390588564416880       -2.5640123895391049        1517236353.5492752     
  -2.9331935232339030       -5.1949397622480573        1528519112.3792174     
   1092009899.7793641       -3081196.2527385950        1433948259.9126439     
   1064071268.9984769        5685656.0584589243        1430216480.3083985     
   1036136480.9888171        14465317.607089281        1431630092.6747868     
   1008205535.7503972        23257788.393181205        1438189097.0118153     
   980278433.28321195        32063068.416722715        1449893493.3194792     
   814088348.06404674       -3786621.2994372249        1460063465.7570541     
   797861721.65000224        4206721.2853413522        1456931869.6354015     
   781637977.36433673        12209670.964716047        1457842617.9160154     
   765417115.20704639        20222227.738676548        1462795710.5988951     
   749199135.17813838        28244391.607239127        1471791147.6840339     
   539446180.37351167       -3508231.1387112737        1484530343.1162856     
   531779993.84524959        2766132.3753419816        1481997809.7272303     
   524115728.80250794        9046900.8411312699        1482404573.1720688     
   516453385.24528515        15334074.258648634        1485750633.4507923     
   508792963.17358434        21627652.627906442        1492035990.5634120     
   268083396.70776477       -2246025.7705437988        1507348891.9903398     
   265826085.58421618        1363889.3284543008        1505414300.5838819     
   263569735.30333447        4977007.2363449633        1505315958.4429381     
   261314345.86511195        8593327.9530972242        1507053865.5675125     
   259059917.26955411        12212851.478733391        1510628021.9576051     
  -2.9331935232339030       -5.1949397622480573        1528519112.3792174     
  -3.1330925491375590       -7.8553060347639105        1527181342.2053547     
  -3.1331818549896493       -9.8496392132184898        1526576773.7286334     
  -2.9334723752669425       -11.177977133646467        1526705406.9490588     
  -2.5339512539528202       -11.840275554880336        1527567241.8666232     
   980278433.28321195        32063068.416722715        1449893493.3194792     
   884460561.40777040        21118970.310026795        1448285757.2334797     
   789046222.16255641        11519980.970756650        1453822136.9039798     
   694035415.54758501        3266100.3989668190        1466502632.3309827     
   599428141.56285524       -3642671.4053618908        1486327243.5144701     
   749199135.17813838        28244391.607239127        1471791147.6840339     
   673578347.07266450        18909102.456138521        1467769306.8027861     
   598260208.31353760        10582644.459529281        1471768304.8444858     
   523244718.90075576        3265017.6173995733        1483788141.8091497     
   448531878.83431250       -3043778.0702620149        1503828817.6967642     
   508792963.17358434        21627652.627906442        1492035990.5634120     
   455874182.17081970        14652649.432256848        1485482347.7223666     
   403157167.23050284        8350199.7781000435        1487826266.9707303     
   350641918.35263622        2720303.6654418856        1499067748.3085077     
   298328435.53721464       -2237038.9057287276        1519206791.7356880     
   259059917.26955411        12212851.478733391        1510628021.9576051     
   231348066.70222676        8349611.2383465916        1501424879.9922233     
   203737098.91344911        4822646.9264570177        1501996023.2827077     
   176227013.90322921        1631958.5430929586        1512341451.8290553     
   148817811.67156127       -1222453.9117620513        1532461165.6312697     
  -2.5339512539528202       -11.840275554880336        1527567241.8666232     
  0.66688509110561789       -12.125594964920015        1515596903.6123590     
   3.3623834485915980       -14.095372945755766        1514277573.7804139     
   5.5525376421270316       -17.749632166982735        1523609252.3707907     
   7.2373504625197977       -23.088362632018598        1543591939.3834929     
 -0.42449114278587163      -0.12734734283576149        656229456.23017228     
 -0.43788102722518563       -2.7308689879032427E-002   770728983.91227138     
 -0.46007047187502909        4.3398529390134027E-002   885398759.60419369     
 -0.49105945100049342        8.4774010441984793E-002   1000238783.3059379     
 -0.53084752138926183        9.6818666865779085E-002   1115249055.0175049     
  -448406570.17092419       -134521971.05127725        657710879.17077148     
  -447618587.85207421       -125474678.83655114        773911079.04039180     
  -446100386.84397846       -113993324.32433891        888459334.51390779     
  -443851967.14663678       -100077907.51464030        1001355645.5913192     
  -440873328.76004928       -83728428.407455713        1112600012.2726264     
  -890567975.65005076       -267170392.69501522        662155147.90226066     
  -894198275.01589489       -250637687.57068193        780907941.77378809     
  -896368136.99444795       -229236857.82204473        896186598.84328377     
  -897077561.58570969       -202967903.44910353        1007991119.1107490     
  -896326548.78968036       -171830824.45185870        1116321502.5761826     
  -1326484216.8618705       -397945265.05856115        669562262.42463958     
  -1339739061.9293430       -375489026.22970074        791719572.11246026     
  -1350803250.9114788       -345730600.44971883        908580552.59232283     
  -1359676783.8082783       -308669987.71861553        1020145203.8642269     
  -1366359660.6197412       -264307188.03639084        1126413525.9281733     
  -1756155293.8063841       -526846588.14191520        679932222.73790824     
  -1784240948.5924182       -500028694.81360787        806345970.05640829     
  -1809405728.5950708       -463474552.20736146        925641195.76102340     
  -1831649633.8143420       -417184160.32317597        1037817899.8517531     
  -1850972664.2502310       -361157519.16105145        1142876082.3285980     
 -0.53084752138926183        9.6818666865779085E-002   1115249055.0175049     
 -0.59564346930049150        9.7369725606542279E-002   1188248067.2295179     
 -0.65427122997098530       0.11848149521926485        1258106340.2822583     
 -0.70673053926050011       0.16015533322038111        1324823874.1757262     
 -0.75302191222463910       0.22238774466631672        1388400668.9099216     
  -440873328.76004928       -83728428.407455713        1112600012.2726264     
  -442865393.32926857       -69040945.801282451        1180684265.6536155     
  -445700282.48725212       -57162878.490990102        1246987481.8199468     
  -449377996.23400033       -48094226.476579696        1311509660.7716200     
  -453898534.56951243       -41834989.758049279        1374250802.5086346     
  -896326548.78968036       -171830824.45185870        1116321502.5761826     
  -896425815.16442418       -141290400.43039414        1178507701.7653935     
  -898210730.72286463       -116368807.02125248        1240272565.6845603     
  -901681295.46500194       -97066044.224432588        1301616094.3336847     
  -906837509.39083576       -83382112.039935917        1362538287.7127652     
  -1366359660.6197412       -264307188.03639084        1126413525.9281733     
  -1360681266.1011105       -216748363.78996530        1181718375.5648508     
  -1357531345.3611083       -177617785.47230309        1237961591.8760996     
  -1356909898.3997359       -146915453.08340579        1295143174.8619201     
  -1358816925.2169926       -124641366.62327272        1353263124.5223107     
  -1850972664.2502310       -361157519.16105145        1142876082.3285980     
  -1835631746.1393266       -295414835.87999576        1190316287.0519881     
  -1823662126.4019833       -240909813.84414399        1240054560.3945639     
  -1815063805.0382018       -197642453.05349904        1292090902.3563259     
  -1809836782.0479820       -165612753.50805891        1346425312.9372737     
 -0.75302191222463910       0.22238774466631672        1388400668.9099216     
 -0.79041113169239030       0.25765254742009480        1409041817.6629920     
 -0.85350836974952005       0.20722430182063845        1432817565.5681536     
 -0.94231516191224873        7.1097629272027452E-002   1459727912.6254065     
  -1.0568296695643200      -0.15072194865810282        1489772858.8347502     
  -453898534.56951243       -41834989.758049279        1374250802.5086346     
  -443849085.53185970       -32973749.976206303        1394747185.4206400     
  -434123181.01443475       -25190991.928457022        1417794413.1429155     
  -424720821.01723701       -18486715.614797682        1443392485.6754591     
  -415642005.54026687       -12860921.035230175        1471541403.0182738     
  -906837509.39083576       -83382112.039935917        1362538287.7127652     
  -888406480.82620394       -66159993.375937194        1382512436.2067664     
  -870622541.27631819       -51094838.094427079        1404453675.1692162     
  -853485690.74117827       -38186646.195402086        1428362004.6001139     
  -836995929.22078407       -27435417.678864062        1454237424.4994593     
  -1358816925.2169926       -124641366.62327272        1353263124.5223107     
  -1333672186.6734421       -99558729.941534579        1372337570.0213711     
  -1309498081.6391573       -77711538.290681362        1392795351.6470563     
  -1286294610.1141369       -59099791.670709312        1414636469.3993690     
  -1264061772.0983827       -43723490.081623137        1437860923.2783074     
  -1809836782.0479820       -165612753.50805891        1346425312.9372737     
  -1779646203.0735753       -133169959.67300075        1364222586.8644531     
  -1750749802.1029541       -105041092.51722622        1382819442.5764365     
  -1723147579.1361146       -81226152.040722549        1402215880.0732253     
  -1696839534.1730590       -61725138.243502319        1422411899.3548186     
  -1.0568296695643200      -0.15072194865810282        1489772858.8347502     
  -1.3845139320726014      -0.44941401790486524        1493725808.2064548     
  -1.6950081677064082      -0.69080495673595932        1500506559.1390471     
  -1.9883162538586523      -0.87490925104555428        1510115111.6325274     
  -2.2644317739587625       -1.0017049918480354        1522551465.6868982     
  -415642005.54026687       -12860921.035230175        1471541403.0182738     
  -405981770.37793946       -8228673.5758963078        1473587878.0915902     
  -396768082.80033416       -5084918.0656360388        1479168521.7290986     
  -388000942.80744851       -3429654.5044405609        1488283333.9307976     
  -379680350.39928550       -3262882.8923206776        1500932314.6966877     
  -836995929.22078407       -27435417.678864062        1454237424.4994593     
  -815657267.13043714       -17565465.030100048        1453856453.0721586     
  -795211700.22672164       -10672496.336775571        1457716017.2123532     
  -775659228.50963891       -6756511.5988942981        1465816116.9200420     
  -756999851.97918940       -5817510.8164547384        1478156752.1952236     
  -1264061772.0983827       -43723490.081623137        1437860923.2783074     
  -1229026491.6420071       -28010374.812025547        1434531533.1481612     
  -1195330853.9741750       -16762735.504238188        1436149045.5888128     
  -1162974859.0948851       -9980572.1582598090        1442713460.6002598     
  -1131958507.0041416       -7663884.7741008401        1454224778.1825047     
  -1696839534.1730590       -61725138.243502319        1422411899.3548186     
  -1646089443.9126501       -39563402.921673834        1415613118.3195968     
  -1597125544.0426936       -23355635.568022847        1414467606.8584747     
  -1549947834.5631907       -13101836.182550371        1418975364.9714525     
  -1504556315.4741445       -8802004.7652636766        1429136392.6585288     
  -2.2644317739587625       -1.0017049918480354        1522551465.6868982     
  -2.4129979150331349       -1.0041210537041110        1516114451.5899251     
  -2.5219673190461265      -0.87454833896694306        1513968655.7679152     
  -2.5913447555341502      -0.61300222567420326        1516114078.2208688     
  -2.6211311967048689      -0.21948612799044676        1522550718.9487896     
  -379680350.39928550       -3262882.8923206776        1500932314.6966877     
  -368600589.45735592       -2988088.7739329189        1495243785.8102424     
  -357548826.90028596       -2806622.6050767452        1493723517.7674906     
  -346525062.72806990       -2718484.3857333958        1496371510.5684345     
  -335529296.94071549       -2723674.1159297228        1503187764.2130692     
  -756999851.97918940       -5817510.8164547384        1478156752.1952236     
  -735191636.89325082       -5373314.6612146199        1473184043.6907783     
  -713439418.61662281       -5115774.5370060205        1472256638.5987561     
  -691743197.14930165       -5044890.4438233078        1475374536.9191594     
  -670102972.49129176       -5160662.3816775382        1482537738.6519854     
  -1131958507.0041416       -7663884.7741008401        1454224778.1825047     
  -1099773144.7206805       -7155678.6659539342        1449935225.2315321     
  -1067671777.6709780       -6927456.6703381538        1449568018.2617140     
  -1035654405.8550375       -6979218.7872610092        1453123157.2730505     
  -1003721029.2728574       -7310965.0167188644        1460600642.2655413     
  -1504556315.4741445       -8802004.7652636766        1429136392.6585288     
  -1462345112.9396424       -8335180.7881506085        1425497330.4325027     
  -1420245904.0633552       -8241669.0050835013        1425657656.7563634     
  -1378258688.8452759       -8521469.4160436392        1429617371.6301064     
  -1336383467.2854133       -9174582.0210605860        1437376475.0537341     
  -2.6211311967048689      -0.21948612799044676        1522550718.9487896     
  -2.2830295804038094       -7.6292383582804546E-002   1514252156.8340619     
  -2.2223396886470059      -0.85780404071131755        1512480701.7008898     
  -2.4390588564416880       -2.5640123895391049        1517236353.5492752     
  -2.9331935232339030       -5.1949397622480573        1528519112.3792174     
  -335529296.94071549       -2723674.1159297228        1503187764.2130692     
  -318551704.52850074       -1094189.0729879737        1494993229.8344593     
  -301651524.64197302        277254.21766431630        1492955239.7082849     
  -284828757.28113025        1390655.7560319752        1497073793.8345454     
  -268083402.44596928        2246015.5421289653        1507348892.2132416     
  -670102972.49129176       -5160662.3816775382        1482537738.6519854     
  -637206538.65959942       -2219317.6353817880        1474356917.7198434     
  -604464929.60186446        205944.53105518222        1471962078.3110156     
  -571878145.31809127        2115124.1176194251        1475353220.4254992     
  -539446185.80827427        3508221.1243289709        1484530344.0632989     
  -1003721029.2728574       -7310965.0167188644        1460600642.2655413     
  -955964504.67631984       -3375385.7634554505        1452343220.4902136     
  -908440217.10201573       -213929.91763848066        1449501217.5090775     
  -861148166.54994285        2173402.5207397342        1452074633.3221323     
  -814088353.02010512        3786611.5516728163        1460063467.9293768     
  -1336383467.2854133       -9174582.0210605860        1437376475.0537341     
  -1274825602.5786655       -4562393.4572233558        1428952138.1455703     
  -1213577387.1424234       -982369.12840491533        1425572657.3024740     
  -1152638820.9766910        1565490.9653820992        1427238032.5244486     
  -1092009904.0814590        3081186.8241664767        1433948263.8114891     
  -2.9331935232339030       -5.1949397622480573        1528519112.3792174     
  -3.1330925491375590       -7.8553060347639105        1527181342.2053547     
  -3.1331818549896493       -9.8496392132184898        1526576773.7286334     
  -2.9334723752669425       -11.177977133646467        1526705406.9490588     
  -2.5339512539528202       -11.840275554880336        1527567241.8666232     
  -268083402.44596928        2246015.5421289653        1507348892.2132416     
  -265826091.34083262       -1363903.7172599733        1505414301.2482104     
  -263569740.84833258       -4977025.0187728852        1505315959.5742998     
  -261314350.96847412       -8593348.3624224365        1507053867.1915071     
  -259059921.70125517       -12212873.748204306        1510628024.0998363     
  -539446185.80827427        3508221.1243289709        1484530344.0632989     
  -531779998.84388238       -2766145.3678084910        1481997811.3592441     
  -524115733.30457592       -9046916.6102318466        1482404575.5402892     
  -516453389.19035381       -15334092.602934659        1485750636.6064267     
  -508792966.50121820       -21627673.345927417        1492035994.5576615     
  -814088353.02010512        3786611.5516728163        1460063467.9293768     
  -797861725.64224148       -4206732.8069473505        1456931872.5384536     
  -781637980.50191164       -12209684.624016434        1457842621.6266015     
  -765417117.59911084       -20222243.899511635        1462795715.1938193     
  -749199136.93384171       -28244410.633447081        1471791153.2401116     
  -1092009904.0814590        3081186.8241664767        1433948263.8114891     
  -1064071271.7359111       -5685666.0346843004        1430216484.7858412     
  -1036136482.4403427       -14465329.060134590        1431630097.8332386     
  -1008205536.1947433       -23257802.252149224        1438189102.9536850     
  -980278432.99912465       -32063085.610764503        1449893500.1471779     
  -2.5339512539528202       -11.840275554880336        1527567241.8666232     
  0.66688509110561789       -12.125594964920015        1515596903.6123590     
   3.3623834485915980       -14.095372945755766        1514277573.7804139     
   5.5525376421270316       -17.749632166982735        1523609252.3707907     
   7.2373504625197977       -23.088362632018598        1543591939.3834929     
  -259059921.70125517       -12212873.748204306        1510628024.0998363     
  -231348064.75173649       -8349633.9816578403        1501424881.4300885     
  -203737091.02629164       -4822671.6286920980        1501996023.9788847     
  -176227000.52492532       -1631986.6893232912        1512341451.7462177     
  -148817793.24763978        1222420.8364506289        1532461164.7321000     
  -508792966.50121820       -21627673.345927417        1492035994.5576615     
  -455874179.24238378       -14652670.559325084        1485482350.9672444     
  -403157157.92636079       -8350220.9154261351        1487826269.3915868     
  -350641902.55315226       -2720324.4142419398        1499067749.8306992     
  -298328413.12275702        2237018.9442324638        1519206792.2845643     
  -749199136.93384171       -28244410.633447081        1471791153.2401116     
  -673578342.80505931       -18909121.858595818        1467769312.2238264     
  -598260197.33782673       -10582661.955580920        1471768310.0185270     
  -523244700.53214669       -3265030.9244016409        1483788146.6242087     
  -448531852.38800687        3043771.2349711657        1503828822.0408788     
  -980278432.99912465       -32063085.610764503        1449893500.1471779     
  -884460555.43976486       -21118987.879485548        1448285765.1998355     
  -789046209.26068759       -11519994.749149114        1453822145.8597000     
  -694035394.46189427       -3266106.2197611332        1466502642.1267779     
  -599428111.04338992        3642677.7086699307        1486327254.0010509     
  -1756155293.8063841       -526846588.14191520        679932222.73790824     
  -1784240948.5924182       -500028694.81360787        806345970.05640829     
  -1809405728.5950708       -463474552.20736146        925641195.76102340     
  -1831649633.8143420       -417184160.32317597        1037817899.8517531     
  -1850972664.2502310       -361157519.16105145        1142876082.3285980     
  -2201824312.0217552       -660547293.60652661        696361752.89841831     
  -2238537974.1633153       -613848340.96676540        813790716.62561953     
  -2273212235.7838430       -560351386.59022999        927113336.46750498     
  -2305847096.8833380       -500056430.47692096        1036329612.4240741     
  -2336442557.4618006       -432963472.62683749        1141439544.4953268     
  -2685734377.0461497       -805720313.11384487        721947576.96252131     
  -2722469824.4616089       -736558434.53814185        829363370.45901597     
  -2758047345.6183858       -663536801.76683033        935684997.79876387     
  -2792466940.5164804       -586655414.79990983        1040912458.9817644     
  -2825728609.1558919       -505914273.63738036        1145045754.0080175     
  -3207885488.8795662       -962365646.66386998        756689694.93021739     
  -3236036499.4873004       -868158975.52773786        853063931.55659783     
  -3263911058.0987010       -773030797.73716211        951356179.75480008     
  -3291509164.7137680       -676981113.29214263        1051566439.5248243     
  -3318830819.3325028       -580009922.19267893        1153694710.8666697     
  -3768277647.5220060       -1130483294.2566018        800588106.80150628     
  -3779237999.2403884       -1008649963.9355526        884892399.91836464     
  -3790803373.2247872       -888833374.50122499        974126882.33561373     
  -3802973769.4752030       -771033525.95361924        1068291554.0532537     
  -3815749187.9916344       -655250418.29273403        1167386415.0712841     
  -1850972664.2502310       -361157519.16105145        1142876082.3285980     
  -1835631746.1393266       -295414835.87999576        1190316287.0519881     
  -1823662126.4019833       -240909813.84414399        1240054560.3945639     
  -1815063805.0382018       -197642453.05349904        1292090902.3563259     
  -1809836782.0479820       -165612753.50805891        1346425312.9372737     
  -2336442557.4618006       -432963472.62683749        1141439544.4953268     
  -2312848501.2222686       -351818042.35101527        1182638988.4974711     
  -2292747284.5936542       -282315410.77825135        1224334451.5959659     
  -2276138907.5759559       -224455577.90854287        1266525933.7908113     
  -2263023370.1691766       -178238543.74189365        1309213435.0820076     
  -2825728609.1558919       -505914273.63738036        1145045754.0080175     
  -2799030127.7101188       -410910710.24350852        1179862639.1786673     
  -2775946027.1126180       -327955083.01054525        1213373493.9228323     
  -2756476307.3633914       -257047391.93849301        1245578318.2405133     
  -2740620968.4624367       -198187637.02735090        1276477112.1317086     
  -3318830819.3325028       -580009922.19267893        1153694710.8666697     
  -3294176625.6028748       -472692839.55747306        1181987239.0955768     
  -3273258353.9588761       -377828830.54102838        1207171687.3751643     
  -3256076004.4005060       -295417895.14334643        1229248055.7054324     
  -3242629576.9277654       -225460033.36442745        1248216344.0863793     
  -3815749187.9916344       -655250418.29273403        1167386415.0712841     
  -3798287994.9005399       -537164430.29290998        1189012788.2482004     
  -3784684265.1324282       -431936653.36969876        1205729031.9529617     
  -3774937998.6873012       -339567087.52310312        1217535146.1855669     
  -3769049195.5651598       -260055732.75312436        1224431130.9460185     
  -1809836782.0479820       -165612753.50805891        1346425312.9372737     
  -1779646203.0735753       -133169959.67300075        1364222586.8644531     
  -1750749802.1029541       -105041092.51722622        1382819442.5764365     
  -1723147579.1361146       -81226152.040722549        1402215880.0732253     
  -1696839534.1730590       -61725138.243502319        1422411899.3548186     
  -2263023370.1691766       -178238543.74189365        1309213435.0820076     
  -2224076579.5783153       -133938851.01971984        1317231528.0185590     
  -2188010609.2005129       -99241892.341075659        1328449379.1320901     
  -2154825459.0357704       -74147667.705961823        1342866988.4226010     
  -2124521129.0840859       -58656177.114377618        1360484355.8900917     
  -2740620968.4624367       -198187637.02735090        1276477112.1317086     
  -2686060319.4203343       -139973751.36762083        1272864941.5001447     
  -2635967132.8005662       -96651407.115673065        1274852705.4377353     
  -2590341408.6031346       -68220604.271510005        1282440403.9444802     
  -2549183146.8280373       -54681342.835130334        1295628037.0203803     
  -3242629576.9277654       -225460033.36442745        1248216344.0863793     
  -3165597422.5996346       -151274660.71670520        1231122827.3092103     
  -3094619372.9031157       -97269636.841020226        1222029421.4933712     
  -3029695427.8382068       -63444961.737370729        1220936126.6388621     
  -2970825587.4049106       -49800635.405760646        1227842942.7456820     
  -3769049195.5651598       -260055732.75312436        1224431130.9460185     
  -3662687889.1162162       -167841579.06697667        1192005185.4457567     
  -3563967329.5081601       -101096581.51711476        1169979527.2989993     
  -3472887516.7409906       -59820740.103545904        1158354156.5057468     
  -3389448450.8147087       -44014054.826264739        1157129073.0659993     
  -1696839534.1730590       -61725138.243502319        1422411899.3548186     
  -1646089443.9126501       -39563402.921673834        1415613118.3195968     
  -1597125544.0426936       -23355635.568022847        1414467606.8584747     
  -1549947834.5631907       -13101836.182550371        1418975364.9714525     
  -1504556315.4741445       -8802004.7652636766        1429136392.6585288     
  -2124521129.0840859       -58656177.114377618        1360484355.8900917     
  -2060702684.3520367       -39459852.893169284        1352654067.1206427     
  -1998189837.5197721       -24615521.671247005        1349907414.7785003     
  -1936982588.5872943       -14123183.448614597        1352244398.8636627     
  -1877080937.5546048       -7982838.2252731323        1359665019.3761315     
  -2549183146.8280373       -54681342.835130334        1295628037.0203803     
  -2473923870.9009004       -38938686.697512388        1287326931.7558172     
  -2399489600.3828812       -25946048.590288520        1283539829.7717659     
  -2325880335.2739801       -15703428.513454676        1284266731.0682278     
  -2253096075.5741992       -8210826.4670209885        1289507635.6452014     
  -2970825587.4049106       -49800635.405760646        1227842942.7456820     
  -2885753003.5592408       -37999904.334696889        1219631712.2251172     
  -2801024832.6320195       -27347216.325134039        1215364851.8382716     
  -2716641074.6232491       -17842571.377071619        1215042361.5851433     
  -2632601729.5329304       -9485969.4905109406        1218664241.4657359     
  -3389448450.8147087       -44014054.826264739        1157129073.0659993     
  -3296190082.3270574       -36643505.804724813        1149568408.5285451     
  -3202795534.2671876       -28819024.875791073        1145382480.9780166     
  -3109264806.6350970       -20540612.039456725        1144571290.4144142     
  -3015597899.4307938       -11808267.295740247        1147134836.8377366     
  -1504556315.4741445       -8802004.7652636766        1429136392.6585288     
  -1462345112.9396424       -8335180.7881506085        1425497330.4325027     
  -1420245904.0633552       -8241669.0050835013        1425657656.7563634     
  -1378258688.8452759       -8521469.4160436392        1429617371.6301064     
  -1336383467.2854133       -9174582.0210605860        1437376475.0537341     
  -1877080937.5546048       -7982838.2252731323        1359665019.3761315     
  -1824291532.0616968       -6458852.9004173279        1354692837.2845707     
  -1771833464.6491487       -6039327.8434324265        1353814385.5308819     
  -1719706735.3169601       -6724263.0543122292        1357029664.1150663     
  -1667911344.0651305       -8513658.5330566168        1364338673.0371237     
  -2253096075.5741992       -8210826.4670209885        1289507635.6452014     
  -2188887490.5857735       -5377386.8332902193        1282946431.8622639     
  -2125229588.0998576       -4379555.5412594080        1280773300.2051880     
  -2062122368.1164496       -5217332.5909142494        1282988240.6739714     
  -1999565830.6355481       -7890717.9822645187        1289591253.2686174     
  -2632601729.5329304       -9485969.4905109406        1218664241.4657359     
  -2556132988.5118790       -5090782.5867780447        1210258114.1655850     
  -2480434274.4154816       -3262352.0985575914        1206534400.7792814     
  -2405505587.2437420       -4000678.0258576870        1207493101.3068283     
  -2331346926.9966555       -7305760.3686782122        1213134215.7482245     
  -3015597899.4307938       -11808267.295740247        1147134836.8377366     
  -2926028025.8400049       -5599040.1608610153        1136627884.1945291     
  -2837447523.5960221       -2687717.5153372288        1131097687.2531617     
  -2749856392.6988401       -3074299.3591471910        1130544246.0136311     
  -2663254633.1484628       -6758785.6923021078        1134967560.4759388     
  -1336383467.2854133       -9174582.0210605860        1437376475.0537341     
  -1274825602.5786655       -4562393.4572233558        1428952138.1455703     
  -1213577387.1424234       -982369.12840491533        1425572657.3024740     
  -1152638820.9766910        1565490.9653820992        1427238032.5244486     
  -1092009904.0814590        3081186.8241664767        1433948263.8114891     
  -1667911344.0651305       -8513658.5330566168        1364338673.0371237     
  -1593364489.6422226       -4278198.0635932684        1355569135.8049567     
  -1519014154.0640831       -697800.41003537178        1351833210.3111618     
  -1444860337.3307152        2227534.4276203513        1353130896.5557387     
  -1370903039.4421220        4497806.4493670464        1359462194.5386910     
  -1999565830.6355481       -7890717.9822645187        1289591253.2686174     
  -1912062113.1441758       -4041623.6014803648        1280608501.2091393     
  -1824641784.0718415       -470490.61748909950        1276648116.5613353     
  -1737304843.4185464        2822680.9697064161        1277710099.3252110     
  -1650051291.1842842        5837891.1601210833        1283794449.5007637     
  -2331346926.9966555       -7305760.3686782122        1213134215.7482245     
  -2230918473.0845270       -3852670.0708925724        1204070234.3581226     
  -2130460277.1656992       -300439.75077736378        1200017376.0530012     
  -2029972339.2401724        3350930.5916621685        1200975640.8328602     
  -1929454659.3079522        7101440.9564217329        1206945028.6977036     
  -2663254633.1484628       -6758785.6923021078        1134967560.4759388     
  -2549933569.4632740       -3711337.4718118906        1125954335.2519023     
  -2436469633.3456554       -187647.80988967419        1121940988.7861538     
  -2322862824.7956061        3812283.2934666872        1122927521.0786922     
  -2209113143.8131237        8288455.8382711411        1128913932.1295114     
  -1092009904.0814590        3081186.8241664767        1433948263.8114891     
  -1064071271.7359111       -5685666.0346843004        1430216484.7858412     
  -1036136482.4403427       -14465329.060134590        1431630097.8332386     
  -1008205536.1947433       -23257802.252149224        1438189102.9536850     
  -980278432.99912465       -32063085.610764503        1449893500.1471779     
  -1370903039.4421220        4497806.4493670464        1359462194.5386910     
  -1330673649.4512787       -3847562.3761136532        1355095451.5190895     
  -1290575609.9417613       -12630766.139336526        1354940479.8381972     
  -1250608920.9135654       -21851804.840305626        1358997279.4960110     
  -1210773582.3666940       -31510678.479016423        1367265850.4925354     
  -1650051291.1842842        5837891.1601210833        1283794449.5007637     
  -1600198631.3605478       -2886239.9757125974        1278643983.8173051     
  -1550604829.4494803       -12473230.820442796        1276771668.7382150     
  -1501269885.4510813       -22923081.374066949        1278177504.2634950     
  -1452193799.3653519       -34235791.636591613        1282861490.3931451     
  -1929454659.3079522        7101440.9564217329        1206945028.6977036     
  -1872646217.4637165       -2801698.8334852457        1200862081.6804838     
  -1816224140.9634922       -13992723.103423238        1197123664.5332928     
  -1760188429.8072894       -26471631.853434205        1195729777.2561359     
  -1704539083.9950986       -40238425.083488464        1196680419.8490050     
  -2209113143.8131237        8288455.8382711411        1128913932.1295114     
  -2148016407.7607856       -3593938.9494194984        1121749745.1086235     
  -2087433544.4838059       -17189242.988308311        1115996467.2234323     
  -2027364553.9821920       -32497456.278413415        1111654098.4739287     
  -1967809436.2559390       -49518578.819723487        1108722638.8601196     
  -980278432.99912465       -32063085.610764503        1449893500.1471779     
  -884460555.43976486       -21118987.879485548        1448285765.1998355     
  -789046209.26068759       -11519994.749149114        1453822145.8597000     
  -694035394.46189427       -3266106.2197611332        1466502642.1267779     
  -599428111.04338992        3642677.7086699307        1486327254.0010509     
  -1210773582.3666940       -31510678.479016423        1367265850.4925354     
  -1096301864.3084297       -19322882.668778002        1361353179.7186415     
  -982057638.23332512       -7893393.4690746069        1362358494.1646307     
  -868040904.14138663        2777789.1200695038        1370281793.8305085     
  -754251662.03261042        12690665.098688543        1385123078.7162635     
  -1452193799.3653519       -34235791.636591613        1282861490.3931451     
  -1319714327.6291020       -20998123.793667614        1272849263.0893390     
  -1187286308.4788938       -7931964.5708819628        1269528890.6180930     
  -1054909741.9147278        4962686.0317556858        1272900372.9794104     
  -922584627.93660188        17685828.014269233        1282963710.1732874     
  -1704539083.9950986       -40238425.083488464        1196680419.8490050     
  -1554697945.4017835       -26144711.254155874        1182774015.3119302     
  -1404732219.9973888       -11635708.054556072        1175333335.2200894     
  -1254641907.7819200        3288584.5152914524        1174358379.5734975     
  -1104427008.7553685        18628166.455417335        1179849148.3721325     
  -1967809436.2559390       -49518578.819723487        1108722638.8601196     
  -1801252717.6264863       -34762645.050277233        1091127436.3864119     
  -1634395372.7888231       -19004623.920127690        1079771827.9706225     
  -1467237401.7429659       -2244515.4293411374        1074655813.6127517     
  -1299778804.4889052        15517680.422141194        1075779393.3127933     
  -3768277647.5220060       -1130483294.2566018        800588106.80150628     
  -3779237999.2403884       -1008649963.9355526        884892399.91836464     
  -3790803373.2247872       -888833374.50122499        974126882.33561373     
  -3802973769.4752030       -771033525.95361924        1068291554.0532537     
  -3815749187.9916344       -655250418.29273403        1167386415.0712841     
  -4339760906.4446487       -1301928271.9333947        858791839.48002040     
  -4335320291.1582079       -1125693877.1313729        942419187.09308541     
  -4332012519.8973684       -953235629.08135617        1020409151.2984760     
  -4329837592.6621304       -784553527.78334308        1092761732.0961921     
  -4328795509.4524946       -619647573.23733473        1159476929.4862339     
  -4895185319.1186733       -1468555595.7356021        936449919.86939180     
  -4905536801.7075958       -1246978055.9166641        1018784529.9258142     
  -4917548950.0817051       -1030936068.7150131        1084914183.8664975     
  -4931221764.2409983       -820429634.13064909        1134838881.6914411     
  -4946555244.1854801       -615458752.16357303        1168558623.4006455     
  -5434550885.5440817       -1630365265.6632245        1033562347.9696209     
  -5489887530.8885527       -1372502500.2914252        1113988428.4165516     
  -5547412663.7777939       -1121934693.4021962        1167641980.0396781     
  -5607126284.2118073       -878661844.99553740        1194523002.8390002     
  -5669028392.1905928       -642683955.07144952        1194631496.8145175     
  -5957857605.7208719       -1787357281.7162616        1150129123.7807074     
  -6088372478.7010775       -1502267210.2556572        1228030882.5652976     
  -6221603660.9856386       -1226231503.1429062        1268592539.8180184     
  -6357551152.5745564       -959250160.37800765        1271814095.5388696     
  -6496214953.4678297       -701323181.96096253        1237695549.7278516     
  -3815749187.9916344       -655250418.29273403        1167386415.0712841     
  -3798287994.9005399       -537164430.29290998        1189012788.2482004     
  -3784684265.1324282       -431936653.36969876        1205729031.9529617     
  -3774937998.6873012       -339567087.52310312        1217535146.1855669     
  -3769049195.5651598       -260055732.75312436        1224431130.9460185     
  -4328795509.4524946       -619647573.23733473        1159476929.4862339     
  -4298492177.5203962       -463789789.68885279        1141499012.6033082     
  -4278809767.9017720       -343335080.51862061        1129593225.3282351     
  -4269748280.5966229       -258283445.72663546        1123759567.6610136     
  -4271307715.6049466       -208634885.31289840        1123998039.6016438     
  -4946555244.1854801       -615458752.16357303        1168558623.4006455     
  -4872031890.3266439       -412415808.14071321        1103085714.3023064     
  -4814892917.7717733       -267320801.79773808        1054667193.8918265     
  -4775138326.5208654       -180173733.13464236        1023303062.1692055     
  -4752768116.5739260       -150974602.15143180        1008993319.1344428     
  -5669028392.1905928       -642683955.07144952        1194631496.8145175     
  -5518907133.3192844       -383042485.64849091        1073772893.3451931     
  -5392933714.7424307       -203893817.20705199        980950937.64373565     
  -5291108136.4600325       -105237949.74712491        916165629.71014380     
  -5213430398.4720898       -87074883.268718481        879416969.54441762     
  -6496214953.4678297       -701323181.96096253        1237695549.7278516     
  -6239117906.4983149       -375669822.21218729        1053560549.7319711     
  -6012932158.8137474       -153054126.74656534        908444456.58396232     
  -5817657710.4141226       -33476095.564088583        802347270.28382778     
  -5653294561.2994452       -16935728.664765120        735268990.83156562     
  -3769049195.5651598       -260055732.75312436        1224431130.9460185     
  -3662687889.1162162       -167841579.06697667        1192005185.4457567     
  -3563967329.5081601       -101096581.51711476        1169979527.2989993     
  -3472887516.7409906       -59820740.103545904        1158354156.5057468     
  -3389448450.8147087       -44014054.826264739        1157129073.0659993     
  -4271307715.6049466       -208634885.31289840        1123998039.6016438     
  -4149149130.0786467       -144634303.74795818        1090765724.7705958     
  -4031378447.5196524       -95260065.407371283        1065795700.0581342     
  -3917995667.9279642       -60512170.291134357        1049087965.4642609     
  -3809000791.3035798       -40390618.399250269        1040642520.9889755     
  -4752768116.5739260       -150974602.15143180        1008993319.1344428     
  -4620920815.4986019       -117020161.76619959        978749619.49178624     
  -4490208573.5170021       -86849251.693381310        954630212.73279953     
  -4360631390.6291275       -60461871.932978392        936635098.85748386     
  -4232189266.8349752       -37858022.484991074        924764277.86583936     
  -5213430398.4720898       -87074883.268718481        879416969.54441762     
  -5078002945.3760777       -84999153.121696234        855956869.60933137     
  -4940457707.5002079       -75864140.375151396        836483065.32299566     
  -4800794684.8444824       -59669845.029081821        820995556.68541467     
  -4659013877.4089003       -36416267.083490610        809494343.69658935     
  -5653294561.2994452       -16935728.664765120        735268990.83156562     
  -5520395519.7110767       -48571277.814451456        722387475.12322533     
  -5382125849.4692726       -62304731.452675819        711354257.82872224     
  -5238485550.5740271       -58136089.579440594        702169338.94805539     
  -5089474623.0253477       -36065352.194746733        694832718.48122549     
  -3389448450.8147087       -44014054.826264739        1157129073.0659993     
  -3296190082.3270574       -36643505.804724813        1149568408.5285451     
  -3202795534.2671876       -28819024.875791073        1145382480.9780166     
  -3109264806.6350970       -20540612.039456725        1144571290.4144142     
  -3015597899.4307938       -11808267.295740247        1147134836.8377366     
  -3809000791.3035798       -40390618.399250269        1040642520.9889755     
  -3704534399.3402410       -29259143.440659761        1032015141.1783788     
  -3600711883.4436560       -20273922.037907839        1027766674.9151409     
  -3497533243.6138163       -13434954.190976620        1027897122.1992630     
  -3394998479.8507261       -8742239.8998835087        1032406483.0307450     
  -4232189266.8349752       -37858022.484991074        924764277.86583936     
  -4113645775.5089989       -22104898.823272467        914160117.86997032     
  -3996526215.8887391       -11098214.180608988        908939047.98189569     
  -3880830587.9741945       -4837968.5569984913        909101068.20161581     
  -3766558891.7653666       -3324161.9524409771        914646178.52913034     
  -4659013877.4089003       -36416267.083490610        809494343.69658935     
  -4523524210.8333254       -15180771.952549458        796003338.60332012     
  -4390238531.6024370       -1291901.3038980961        788899600.17828012     
  -4259156839.7162280        5250344.8624889851        788183128.42146921     
  -4130279135.1747036        4445966.5465917587        793853923.33288777     
  -5089474623.0253477       -36065352.194746733        694832718.48122549     
  -4934169705.3132219       -8486762.8285052776        677544803.37842846     
  -4781848830.5847464        9145016.5922350883        667648331.50429618     
  -4632511998.8399229        16829986.067475319        665143302.85882640     
  -4486159210.0787477        14568145.597215891        670029717.44202054     
  -3015597899.4307938       -11808267.295740247        1147134836.8377366     
  -2926028025.8400049       -5599040.1608610153        1136627884.1945291     
  -2837447523.5960221       -2687717.5153372288        1131097687.2531617     
  -2749856392.6988401       -3074299.3591471910        1130544246.0136311     
  -2663254633.1484628       -6758785.6923021078        1134967560.4759388     
  -3394998479.8507261       -8742239.8998835087        1032406483.0307450     
  -3294342764.2212386       -6375563.8406682014        1023494634.5836519     
  -3194205144.2558584       -5735873.3284780979        1019020343.7896411     
  -3094585619.9545803       -6823168.3633050919        1018983610.6487155     
  -2995484191.3174200       -9637448.9451708794        1023384435.1608745     
  -3766558891.7653666       -3324161.9524409771        914646178.52913034     
  -3656357899.9507594       -5262206.7249646187        907879255.90796053     
  -3546203728.1175632       -7356318.1021862030        905010692.89112020     
  -3436096376.2657809       -9606496.0841145515        906040489.47861111     
  -3326035844.3954058       -12012740.670744658        910968645.67043090     
  -4130279135.1747036        4445966.5465917587        793853923.33288777     
  -4012073433.0285621       -2258968.8137373924        789781748.16745532     
  -3893443275.1811385       -7549051.8364553452        789068734.55759823     
  -3774388661.6324272       -11424282.521551132        791714882.50331736     
  -3654909592.3824320       -13884660.869032383        797720192.00461197     
  -4486159210.0787477        14568145.597215891        670029717.44202054     
  -4361489363.4546585        2634149.8929920197        669202111.36213529     
  -4235923785.4465809       -6314074.5312831402        671194468.78907299     
  -4109462476.0545244       -12276527.675622940        676006789.72283471     
  -3982105435.2784891       -15253209.540029049        683639074.16341555     
  -2663254633.1484628       -6758785.6923021078        1134967560.4759388     
  -2549933569.4632740       -3711337.4718118906        1125954335.2519023     
  -2436469633.3456554       -187647.80988967419        1121940988.7861538     
  -2322862824.7956061        3812283.2934666872        1122927521.0786922     
  -2209113143.8131237        8288455.8382711411        1128913932.1295114     
  -2995484191.3174200       -9637448.9451708794        1023384435.1608745     
  -2868369050.1900797       -4809902.4578189850        1015150993.9465431     
  -2741238419.9994073        69274.240644335747        1012117710.8678451     
  -2614092300.7454052        5000081.1501996517        1014284585.9247774     
  -2486930692.4280691        9982518.2708779573        1021651619.1173387     
  -3326035844.3954058       -12012740.670744658        910968645.67043090     
  -3184554399.0335016       -5233427.8788049221        903366374.53519142     
  -3043184847.9773631        1172903.8939141035        901164540.91292882     
  -2901927191.2269936        7206254.6473993063        904363144.80363953     
  -2760781428.7823906        12866624.381671548        912962186.20733023     
  -3654909592.3824320       -13884660.869032383        797720192.00461197     
  -3498489615.9935460       -4981913.7347757816        790600477.01784563     
  -3342308917.2795262        3123241.1499214172        789081478.92140114     
  -3186367496.2403727        10430803.785063386        793163197.71527755     
  -3030665352.8760905        16940774.170655131        802845633.39947617     
  -3982105435.2784891       -15253209.540029049        683639074.16341555     
  -3810174701.0702109       -4055360.0257427692        676853301.39450824     
  -3638610627.9058924        5920286.0086729527        675868524.89326644     
  -3467413215.7855482        14673728.563178778        680684744.65969324     
  -3296582464.7091618        22204967.637820482        691301960.69378233     
  -2209113143.8131237        8288455.8382711411        1128913932.1295114     
  -2148016407.7607856       -3593938.9494194984        1121749745.1086235     
  -2087433544.4838059       -17189242.988308311        1115996467.2234323     
  -2027364553.9821920       -32497456.278413415        1111654098.4739287     
  -1967809436.2559390       -49518578.819723487        1108722638.8601196     
  -2486930692.4280691        9982518.2708779573        1021651619.1173387     
  -2422027658.0743823       -4200548.7955763340        1015697869.7641342     
  -2357461826.1893172       -19507624.090775967        1011792057.4175260     
  -2293233196.7728834       -35938707.614747167        1009934182.0775161     
  -2229341769.8250690       -53493799.367450833        1010124243.7441059     
  -2760781428.7823906        12866624.381671548        912962186.20733023     
  -2690252016.4961905       -3071091.0741974115        908424989.87965977     
  -2619883136.3718824       -19543913.736365795        906572758.42949378     
  -2549674788.4094605       -36551843.604833126        907405491.85683382     
  -2479626972.6089349       -54094880.679607391        910923190.16168284     
  -3030665352.8760905        16940774.170655131        802845633.39947617     
  -2952689483.0262160       -205565.78528344631        799931105.45520294     
  -2874697475.0314927       -17298111.925056338        800338570.25934076     
  -2796689328.8919306       -34336864.248700619        804068027.81189382     
  -2718665044.6075172       -51321822.756174922        811119478.11285424     
  -3296582464.7091618        22204967.637820482        691301960.69378233     
  -3209340057.6644511        4396027.0711709261        690216216.49076116     
  -3121904842.1681623       -12770218.656891346        693089492.90706062     
  -3034276818.2202835       -29293769.546316028        699921789.94268143     
  -2946455985.8208327       -45174625.597168803        710713107.59762180     
  -1967809436.2559390       -49518578.819723487        1108722638.8601196     
  -1801252717.6264863       -34762645.050277233        1091127436.3864119     
  -1634395372.7888231       -19004623.920127690        1079771827.9706225     
  -1467237401.7429659       -2244515.4293411374        1074655813.6127517     
  -1299778804.4889052        15517680.422141194        1075779393.3127933     
  -2229341769.8250690       -53493799.367450833        1010124243.7441059     
  -2045898017.2503207       -35577421.837209463        996576729.87391245     
  -1862376993.0235062       -17403472.133424759        989050314.88200283     
  -1678778697.1446271        1028049.7438994646        987544998.76838505     
  -1495103129.6136951        19717143.794753015        992060781.53304148     
  -2479626972.6089349       -54094880.679607391        910923190.16168284     
  -2279920458.0306935       -33205340.971116543        901162784.57951057     
  -2080360026.3565326       -12802744.276218414        897204982.69598627     
  -1880945677.5864522        7112909.4050759077        899049784.51111364     
  -1681677411.7204447        26541620.072776914        906697190.02489185     
  -2718665044.6075172       -51321822.756174922        811119478.11285424     
  -2503320039.9676018       -27646402.451984167        804885600.50320351     
  -2288344472.7879071       -5202440.3485298157        804235831.41256917     
  -2073738343.0684235        16010063.554205894        809170170.84095597     
  -1859501650.8091695        35991109.256208301        819688618.78834581     
  -2946455985.8208327       -45174625.597168803        710713107.59762180     
  -2716096763.0610495       -18900606.279820442        707745177.64499676     
  -2486330332.3176227        5397439.6496680975        710142861.03175688     
  -2257156693.5905547        27719512.191297650        717906157.75789452     
  -2028575846.8798449        48065611.345054507        731035067.82342243     
  -5957857605.7208719       -1787357281.7162616        1150129123.7807074     
  -6088372478.7010775       -1502267210.2556572        1228030882.5652976     
  -6221603660.9856386       -1226231503.1429062        1268592539.8180184     
  -6357551152.5745564       -959250160.37800765        1271814095.5388696     
  -6496214953.4678297       -701323181.96096253        1237695549.7278516     
  -6810481035.0479927       -2043144310.5143976        1353857558.3120005     
  -6828404521.6697807       -1395415554.6545386        1202865686.2965903     
  -6897702374.3905039       -918934685.79113960        1092136824.3043125     
  -7018374593.2101669       -613701703.92420030        1021670972.3351676     
  -7190421178.1287680       -479716609.05372071        991468130.38915586     
  -8337796728.9243889       -2501339018.6773167        1712454962.5728493     
  -8021405653.3163223       -1424454625.6567721        1275801726.8304265     
  -7805047000.6017761       -681011642.28129435        957014612.66613781     
  -7688720770.7807484       -271010068.55088377        756093620.07998466     
  -7672426963.8532448       -194449904.46554041        673038749.07196569     
  -10539804687.350061       -3161941406.2050180        2225921336.5632544     
  -9667375873.6407070       -1589384423.2623582        1446839004.1668062     
  -8943637539.6194553       -512462372.61337137        863225904.90349472     
  -8368589685.2863045        68824745.741941452        475082038.77331978     
  -7942232310.6412563        154476931.80357933        282407405.77628195     
  -13416504910.325008       -4024951473.0975027        2894256680.2832155     
  -11766315182.642935       -1890204947.4712970        1715977518.3057292     
  -10313473991.443541       -413286876.78737164        810770701.01638210     
  -9057981336.7268333        405802738.95427275        178636228.41517425     
  -7999837218.4928131        567063899.75363684       -180425899.49789527     
  -6496214953.4678297       -701323181.96096253        1237695549.7278516     
  -6239117906.4983149       -375669822.21218729        1053560549.7319711     
  -6012932158.8137474       -153054126.74656534        908444456.58396232     
  -5817657710.4141226       -33476095.564088583        802347270.28382778     
  -5653294561.2994452       -16935728.664765120        735268990.83156562     
  -7190421178.1287680       -479716609.05372071        991468130.38915586     
  -6900240414.0039520       -304372092.64187384        847162545.75750124     
  -6622844921.0362349       -171645146.75368762        723973723.62903535     
  -6358234699.2256165       -81535771.389166355        621901664.00375915     
  -6106409748.5720997       -34043966.548310995        540946366.88167119     
  -7672426963.8532448       -194449904.46554041        673038749.07196569     
  -7400311466.4150801       -184758926.54320574        589709612.62035894     
  -7122855212.0061712       -157265425.38504839        509595094.32725585     
  -6840058200.6265135       -111969400.99106932        432695194.19265693     
  -6551920432.2761126       -48870853.361266375        359009912.21656233     
  -7942232310.6412563        154476931.80357933        282407405.77628195     
  -7739331063.7317047       -16830323.916186333        281201750.32054222     
  -7512963031.7235584       -109914962.64064264        265308568.67862207     
  -7263128214.6168194       -124776984.36979008        234727860.85052210     
  -6989826612.4114866       -61416389.103628635        189459626.83624297     
  -7999837218.4928131        567063899.75363684       -180425899.49789527     
  -7917299205.9538212        199413715.23918200       -78361041.141948819     
  -7793168380.1883926       -29593758.520469189       -8885853.3168646395     
  -7627444741.1965265       -119958521.52533484        27999663.977356002     
  -7420128288.9782219       -71680573.775399208        32295510.740709260     
  -5653294561.2994452       -16935728.664765120        735268990.83156562     
  -5520395519.7110767       -48571277.814451456        722387475.12322533     
  -5382125849.4692726       -62304731.452675819        711354257.82872224     
  -5238485550.5740271       -58136089.579440594        702169338.94805539     
  -5089474623.0253477       -36065352.194746733        694832718.48122549     
  -6106409748.5720997       -34043966.548310995        540946366.88167119     
  -5958901450.9921722       -35832527.639953375        534726681.93532640     
  -5810466367.9763088       -34531803.945124388        531008821.32448912     
  -5661104499.5244989       -30141795.463819027        529792785.04915649     
  -5510815845.6367502       -22662502.196048260        531078573.10932893     
  -6551920432.2761126       -48870853.361266375        359009912.21656233     
  -6387935661.7855778       -20252261.319147587        354267574.27846998     
  -6227467949.0765953       -3357195.2155458927        352680586.59755224     
  -6070517294.1491699        1814344.9495377541        354248949.17380720     
  -5917083697.0033016       -4737640.8238947392        358972662.00723696     
  -6989826612.4114866       -61416389.103628635        189459626.83624297     
  -6807498152.0912886       -1830478.8520379066        181010152.15265453     
  -6633130592.7701359        31219094.736054897        176369553.64790946     
  -6466723934.4480400        37732331.660635233        175537831.32200795     
  -6308278177.1249962        17709231.921719551        178514985.17494819     
  -7420128288.9782219       -71680573.775399208        32295510.740709260     
  -7217588921.9093046        19432819.761387348        14954415.557879915     
  -7027454299.0569344        69197065.909675121        2075722.4755613145     
  -6849724420.4211111        77612164.669481277       -6340568.5062447824     
  -6684399286.0018358        44678116.040782928       -10294457.387541099     
  -5089474623.0253477       -36065352.194746733        694832718.48122549     
  -4934169705.3132219       -8486762.8285052776        677544803.37842846     
  -4781848830.5847464        9145016.5922350883        667648331.50429618     
  -4632511998.8399229        16829986.067475319        665143302.85882640     
  -4486159210.0787477        14568145.597215891        670029717.44202054     
  -5510815845.6367502       -22662502.196048260        531078573.10932893     
  -5342876288.7121010       -9813795.8882167339        515981172.85048604     
  -5175814632.3031845        108575.36717915535        506610486.38609219     
  -5009630876.4099941        7104611.5701444149        502966513.71614641     
  -4844325021.0325384        11174312.720672607        505049254.84065044     
  -5917083697.0033016       -4737640.8238947392        358972662.00723696     
  -5741265870.6781712       -8045728.5180890560        348522942.80492043     
  -5564219802.4008484       -7259676.3716471195        342135207.96283567     
  -5385945492.1713371       -2379484.3845691681        339809457.48098820     
  -5206442939.9896355        6594847.4431405067        341545691.35937607     
  -6308278177.1249962        17709231.921719551        178514985.17494819     
  -6129338451.2114239       -3182560.7181131840        175170113.24172983     
  -5947064340.8777437       -12959738.624236345        174222496.23453504     
  -5761455846.1239471       -11622301.796655893        175672134.15335438     
  -5572512966.9500494        829749.76461029053        179519026.99819556     
  -6684399286.0018358        44678116.040782928       -10294457.387541099     
  -6507094030.3118696        4775707.5117063522       -4077315.8390867021     
  -6324348247.7338676       -16991611.390601397        2872351.2011757507     
  -6136161938.2678385       -20623840.666141272        10554543.733241135     
  -5942535101.9137735       -6120980.3149063587        18969261.757115860     
  -4486159210.0787477        14568145.597215891        670029717.44202054     
  -4361489363.4546585        2634149.8929920197        669202111.36213529     
  -4235923785.4465809       -6314074.5312831402        671194468.78907299     
  -4109462476.0545244       -12276527.675622940        676006789.72283471     
  -3982105435.2784891       -15253209.540029049        683639074.16341555     
  -4844325021.0325384        11174312.720672607        505049254.84065044     
  -4710592599.1347809        4486211.1665892601        503438848.51014727     
  -4576830038.9151697       -2101429.3146386147        504769099.46407193     
  -4443037340.3736973       -8588608.7229921818        509040007.70242488     
  -4309214503.5103645       -14975327.058491230        516251573.22519898     
  -5206442939.9896355        6594847.4431405067        341545691.35937607     
  -5063303103.4536333        5256091.8485658169        338142626.20578057     
  -4920998721.6579027        1132487.1197679043        337800912.11421633     
  -4779529794.6024294       -5775966.7432358265        340520549.08468312     
  -4638896322.2872219       -15469269.740447760        346301537.11717415     
  -5572512966.9500494        829749.76461029053        179519026.99819556     
  -5419620876.4112234        4943791.9389188290        173313444.44903442     
  -5268429833.6747799        3387674.7719314098        170289906.73950449     
  -5118939838.7407255       -3838601.7363336086        170448413.86960936     
  -4971150891.6090536       -16735037.585896730        173788965.83934578     
  -5942535101.9137735       -6120980.3149063587        18969261.757115860     
  -5779545918.0075331        3549311.4376528263        8951303.2399083879     
  -5619123374.9658117        4664133.6418366432        2236083.3399384874     
  -5461267472.7885866       -2776513.7023155689       -1176397.9427946436     
  -5305978211.4758768       -18772630.594842911       -1286140.6082924460     
  -3982105435.2784891       -15253209.540029049        683639074.16341555     
  -3810174701.0702109       -4055360.0257427692        676853301.39450824     
  -3638610627.9058924        5920286.0086729527        675868524.89326644     
  -3467413215.7855482        14673728.563178778        680684744.65969324     
  -3296582464.7091618        22204967.637820482        691301960.69378233     
  -4309214503.5103645       -14975327.058491230        516251573.22519898     
  -4122754107.9429832       -5347104.9719860554        508388345.35431373     
  -3936176374.1189280        4672244.6367707253        506263005.51378733     
  -3749481302.0381894        15082721.767794609        509875553.70362014     
  -3562668891.7007771        25884326.421076298        519225989.92381948     
  -4638896322.2872219       -15469269.740447760        346301537.11717415     
  -4438086574.6101837       -7464767.8565678596        337925519.99505949     
  -4236675489.3758240        2544192.5517134666        335224282.66600043     
  -4034663066.5841446        14557611.484412909        338197825.13000256     
  -3832049306.2351379        28575488.941515684        346846147.38705778     
  -4971150891.6090536       -16735037.585896730        173788965.83934578     
  -4756172101.0718021       -10408348.679470301        165464825.31675380     
  -4540107973.6765871       -463870.24650001526        162752356.34991437     
  -4322958509.4234009        13098397.713037252        165651558.93882829     
  -4104723708.3122478        30278455.199128151        174162433.08349186     
  -5305978211.4758768       -18772630.594842911       -1286140.6082924460     
  -5077010687.3278456       -14177847.440696955       -8993738.6806075815     
  -4846473827.0212164       -4351943.7578806877       -11152773.434476143     
  -4614367630.5559664        10705080.453676462       -7763244.8698967695     
  -4380692097.9321079        30993225.193912745        1174847.0131309410     
  -3296582464.7091618        22204967.637820482        691301960.69378233     
  -3209340057.6644511        4396027.0711709261        690216216.49076116     
  -3121904842.1681623       -12770218.656891346        693089492.90706062     
  -3034276818.2202835       -29293769.546316028        699921789.94268143     
  -2946455985.8208327       -45174625.597168803        710713107.59762180     
  -3562668891.7007771        25884326.421076298        519225989.92381948     
  -3466006316.0750904        9652594.4119074345        516517976.72833848     
  -3369453421.2877903       -6944740.3918755054        516733255.23179036     
  -3273010207.3388891       -23907677.990312815        519871825.43417746     
  -3176676674.2283640       -41236218.383363008        525933687.33549941     
  -3832049306.2351379        28575488.941515684        346846147.38705778     
  -3728925787.5152931        13033197.843803883        342162961.02748251     
  -3626214438.9238067       -3882993.6817865372        339367337.44645715     
  -3523915260.4606829       -22173085.635249376        338459276.64397752     
  -3422028252.1259193       -41837078.016567707        339438778.62004817     
  -4104723708.3122478        30278455.199128151        174162433.08349186     
  -3998098471.9850559        14537837.366815805        167151169.38819185     
  -3892187895.0762057       -3584978.5266172886        160991739.55105859     
  -3786991977.5856853       -24089992.481160402        155684143.57207578     
  -3682510719.5134888       -46977204.496785402        151228381.45126083     
  -4380692097.9321079        30993225.193912745        1174847.0131309410     
  -4273524369.4844012        14166512.980942965       -8517398.1895281244     
  -4167373789.7449861       -6050694.9263586998       -18393538.454419609     
  -4062240358.7138858       -29658398.528017998       -28453573.781517409     
  -3958124076.3910732       -56656597.823993444       -38697504.170854993     
  -2946455985.8208327       -45174625.597168803        710713107.59762180     
  -2716096763.0610495       -18900606.279820442        707745177.64499676     
  -2486330332.3176227        5397439.6496680975        710142861.03175688     
  -2257156693.5905547        27719512.191297650        717906157.75789452     
  -2028575846.8798449        48065611.345054507        731035067.82342243     
  -3176676674.2283640       -41236218.383363008        525933687.33549941     
  -2931382705.5526385       -14276022.576883674        517533863.44477648     
  -2686242393.0517235        12171985.980219722        515098343.88329291     
  -2441255736.7256160        38107807.287958384        518627128.65103811     
  -2196422736.5743294        63531441.346313834        528120217.74802333     
  -3422028252.1259193       -41837078.016567707        339438778.62004817     
  -3160088991.8489504       -13677542.015357137        326119385.93970168     
  -2897864251.9052687        15433592.874928594        319362988.57844234     
  -2635354032.2948356        45496326.654374957        319169586.53626496     
  -2372558333.0176678        76510659.322923541        325539179.81317538     
  -3682510719.5134888       -46977204.496785402        151228381.45126083     
  -3402215621.9500103       -17105164.595281839        133501745.12976694     
  -3121195908.8782482        15182260.333835125        122936795.11719710     
  -2839451580.2982016        49885070.290549278        119533531.41356908     
  -2556982636.2098866        87003265.274859309        123291954.01887827     
  -3958124076.3910732       -56656597.823993444       -38697504.170854993     
  -3657762595.8557711       -24558890.316576481       -60319058.985030666     
  -3356237363.9706731        11417988.356873035       -74180236.500426903     
  -3053548380.7357259        51274038.196475863       -80281036.717049956     
  -2749695646.1509485        95009259.202155352       -78621459.634859324     
 </DataArray>
 <DataArray  type="Float64" Name="VM" NumberOfComponents="1" format="ascii">
   12935695666.356989     
   11340724716.499790     
   10210199594.971449     
   9272712015.6143646     
   8303796506.3601160     
   10130315338.108969     
   9321971455.9468193     
   8826294200.6074810     
   8443406011.4213800     
   8035488207.1511955     
   7982318015.2129402     
   7734914440.2238941     
   7669083294.7682238     
   7669497083.0687265     
   7666223782.3396397     
   6491616585.5720234     
   6586842079.7649374     
   6757402576.1468344     
   6961210958.0725718     
   7171607034.0587807     
   5657763174.1875134     
   5890917027.2030973     
   6116440999.9009676     
   6331877198.0413303     
   6537001423.6445141     
   8303796506.3601160     
   8020014462.6303177     
   7778428951.5257616     
   7568333918.9225225     
   7384760789.0184631     
   8035488207.1511955     
   7746256929.7061310     
   7472755428.7682562     
   7213017472.1610241     
   6967054112.8223848     
   7666223782.3396397     
   7380700803.9692411     
   7100611341.9513865     
   6826033367.0256948     
   6557172877.0488548     
   7171607034.0587807     
   6910772219.9767103     
   6657865392.6330347     
   6409029415.8896189     
   6161118529.0184097     
   6537001423.6445141     
   6328810413.8403225     
   6142824157.5565920     
   5965131419.5670090     
   5786721440.2259769     
   7384760789.0184631     
   7227371342.8895760     
   7062308004.3061695     
   6888867169.6068611     
   6706873660.3495636     
   6967054112.8223848     
   6813799785.3520031     
   6655809125.4864216     
   6492795035.2483082     
   6324713809.6048899     
   6557172877.0488548     
   6407283245.9407616     
   6255686398.0794096     
   6102349916.0436583     
   5947306368.6727695     
   6161118529.0184097     
   6012825114.4691906     
   5865831321.2994785     
   5720176398.0228920     
   5575916907.5417976     
   5786721440.2259769     
   5636889585.2939272     
   5491256985.2235937     
   5349737465.2876205     
   5212377238.3210268     
   6706873660.3495636     
   6509487033.3532400     
   6315871548.9443178     
   6125903338.8168840     
   5939567858.0265436     
   6324713809.6048899     
   6135254414.5990324     
   5948254391.6973257     
   5763690598.0489492     
   5581595340.1648464     
   5947306368.6727695     
   5768917629.3707638     
   5592080990.6874094     
   5416826577.0730619     
   5243223024.7808962     
   5575916907.5417976     
   5412273013.7161522     
   5249722055.1789122     
   5088316955.1357965     
   4928180805.2556896     
   5212377238.3210268     
   5067684724.2842607     
   4924140011.1598282     
   4781805373.8553934     
   4640906290.1430807     
   5939567858.0265436     
   5781342185.4632759     
   5621458231.5531845     
   5459880128.8421040     
   5296617317.4158993     
   5581595340.1648464     
   5430397873.1025476     
   5278371729.5285368     
   5125531022.2160473     
   4971924848.5348845     
   5243223024.7808962     
   5099676506.7252035     
   4956221451.5023661     
   4812919570.1642618     
   4669862134.6985531     
   4928180805.2556896     
   4792826673.9963245     
   4658555066.2675323     
   4525467964.3820047     
   4393696520.5543861     
   4640906290.1430807     
   4514153259.3379936     
   4389515956.0823898     
   4267122943.3634386     
   4147136805.0719252     
   5296617317.4158993     
   5069960563.9786329     
   4844337835.8462620     
   4619749040.9245806     
   4396271117.4395990     
   4971924848.5348845     
   4759612730.7521725     
   4548619529.2880011     
   4339019130.2446814     
   4130975172.9061699     
   4669862134.6985531     
   4472820127.8218565     
   4277537912.8475528     
   4084187359.9563303     
   3893048666.1513219     
   4393696520.5543861     
   4213129645.4035969     
   4034947806.4587440     
   3859444156.3963013     
   3687042696.6677160     
   4147136805.0719252     
   3984518452.7374663     
   3825108993.0482640     
   3669338471.7219076     
   3517789754.5773988     
   4396271117.4395990     
   4280650626.0184765     
   4164473597.8312259     
   4047792681.7482185     
   3930673578.7602353     
   4130975172.9061699     
   4015836774.2258434     
   3900377042.6242037     
   3784623178.9721804     
   3668611188.0735946     
   3893048666.1513219     
   3782179758.4990997     
   3671631279.6691942     
   3561460147.9737616     
   3451741022.1573882     
   3687042696.6677160     
   3584288130.8846021     
   3482944789.1069155     
   3383152003.4333653     
   3285087474.9825449     
   3517789754.5773988     
   3426833317.3695140     
   3338817855.6977215     
   3253994480.6466870     
   3172676779.7849841     
   3930673578.7602353     
   3647041890.1285400     
   3364415035.4120412     
   3082643129.7349858     
   2801721299.4930620     
   3668611188.0735946     
   3401563789.7906690     
   3136051852.7668204     
   2872191558.4209089     
   2610325217.0820837     
   3451741022.1573882     
   3203465116.5532103     
   2957796125.2107115     
   2715265597.1710277     
   2476759995.7222710     
   3285087474.9825449     
   3058575451.6694732     
   2836321950.0711193     
   2619376846.2278962     
   2409270436.4965959     
   3172676779.7849841     
   2971348638.0875769     
   2776363846.0978966     
   2589258561.8879228     
   2412088733.1660690     
   5657763174.1875134     
   5890917027.2030973     
   6116440999.9009676     
   6331877198.0413303     
   6537001423.6445141     
   5151396374.9430332     
   5311370304.3791904     
   5467984397.8241892     
   5618344906.9877653     
   5760986480.7016153     
   4643431749.3638802     
   4755619265.2183533     
   4868937731.2378807     
   4980753985.7490530     
   5089143868.0402203     
   4134132896.0621791     
   4224500798.4195132     
   4320794656.5134478     
   4421358735.2527456     
   4524739361.8192759     
   3625018334.7058716     
   3719837363.2173834     
   3825910607.0823674     
   3943174158.5369172     
   4071534949.7003207     
   6537001423.6445141     
   6328810413.8403225     
   6142824157.5565920     
   5965131419.5670090     
   5786721440.2259769     
   5760986480.7016153     
   5652437197.1550798     
   5559902438.7587290     
   5474317615.1942978     
   5390139361.2632465     
   5089143868.0402203     
   5054490364.8931007     
   5030358024.5236006     
   5011536848.5396242     
   4994822657.4475040     
   4524739361.8192759     
   4539559358.6737261     
   4559053528.1935034     
   4580738162.7058744     
   4602887039.5210657     
   4071534949.7003207     
   4112965637.8377957     
   4151747571.2151442     
   4186979041.2498002     
   4217925171.4947515     
   5786721440.2259769     
   5636889585.2939272     
   5491256985.2235937     
   5349737465.2876205     
   5212377238.3210268     
   5390139361.2632465     
   5249733260.7234068     
   5112551799.8287907     
   4978637216.3731098     
   4848083728.1525412     
   4994822657.4475040     
   4868235250.2553549     
   4744839417.5562620     
   4624604388.2590857     
   4507571830.6126156     
   4602887039.5210657     
   4495059275.0495310     
   4391448361.5456266     
   4291738811.9273987     
   4195840928.6361556     
   4217925171.4947515     
   4134166316.5506315     
   4056887354.9671884     
   3985238835.5880947     
   3918923033.3794284     
   5212377238.3210268     
   5067684724.2842607     
   4924140011.1598282     
   4781805373.8553934     
   4640906290.1430807     
   4848083728.1525412     
   4721725860.2503862     
   4597348368.6537313     
   4475098271.2663660     
   4355249792.6406927     
   4507571830.6126156     
   4397579406.1773939     
   4290279856.4330840     
   4185867698.8091063     
   4084628404.0132475     
   4195840928.6361556     
   4100147005.5633931     
   4007673835.3610301     
   3918628278.7093911     
   3833275450.0232630     
   3918923033.3794284     
   3835355319.6197467     
   3755280471.7817011     
   3678887561.2966623     
   3606399335.8435740     
   4640906290.1430807     
   4514153259.3379936     
   4389515956.0823898     
   4267122943.3634386     
   4147136805.0719252     
   4355249792.6406927     
   4237799056.6651535     
   4122796886.1143231     
   4010418683.5750222     
   3900882247.3515811     
   4084628404.0132475     
   3977747419.5039697     
   3873843194.9006791     
   3773137938.4861627     
   3675907455.1870484     
   3833275450.0232630     
   3738228917.3123803     
   3646898034.4907122     
   3559546977.3125920     
   3476506401.4870172     
   3606399335.8435740     
   3524352037.8680992     
   3446974817.7085509     
   3374560219.7286963     
   3307480113.2165108     
   4147136805.0719252     
   3984518452.7374663     
   3825108993.0482640     
   3669338471.7219076     
   3517789754.5773988     
   3900882247.3515811     
   3754620172.3049097     
   3612398964.8205490     
   3474709572.6322761     
   3342191594.6934676     
   3675907455.1870484     
   3545837058.8364286     
   3420648680.4015927     
   3300873143.8819232     
   3187177666.2462554     
   3476506401.4870172     
   3362344753.5115366     
   3253878424.9668331     
   3151649398.7992697     
   3056315735.2493534     
   3307480113.2165108     
   3208742878.9572291     
   3116437373.3761935     
   3031082370.8246040     
   2953286262.5865884     
   3517789754.5773988     
   3426833317.3695140     
   3338817855.6977215     
   3253994480.6466870     
   3172676779.7849841     
   3342191594.6934676     
   3261508486.1068716     
   3183721638.0938344     
   3109050801.8315873     
   3037760879.2676334     
   3187177666.2462554     
   3115270655.0363402     
   3046077703.8015709     
   2979787990.8604417     
   2916622066.1154094     
   3056315735.2493534     
   2991820231.8258433     
   2929707814.1299429     
   2870138578.1585937     
   2813294044.4147425     
   2953286262.5865884     
   2895036282.5413713     
   2838685834.3184562     
   2784367701.3607550     
   2732229984.7008276     
   3172676779.7849841     
   2971348638.0875769     
   2776363846.0978966     
   2589258561.8879228     
   2412088733.1660690     
   3037760879.2676334     
   2853364731.0774074     
   2676757069.5372748     
   2509604935.3431845     
   2354067911.8807998     
   2916622066.1154094     
   2749494044.1449862     
   2591593686.5289974     
   2444638592.6133718     
   2310774174.1697650     
   2813294044.4147425     
   2663394876.1731353     
   2524084139.3462739     
   2397031548.8743620     
   2284240594.9061875     
   2732229984.7008276     
   2598996113.3775797     
   2477553225.3782773     
   2369420342.3561292     
   2276343377.6563821     
   3625018334.7058716     
   3719837363.2173834     
   3825910607.0823674     
   3943174158.5369172     
   4071534949.7003207     
   3138033784.9267306     
   3255670792.8528862     
   3382724342.7326570     
   3518724541.0951929     
   3663212956.4418406     
   2694815120.2923160     
   2830659456.3654256     
   2973812296.4191999     
   3123190127.9383855     
   3277881071.4840536     
   2298848191.5013490     
   2449592866.9383631     
   2605054189.2473683     
   2763307943.6446743     
   2922923126.8518724     
   1955338282.3426805     
   2119423094.2726891     
   2284858662.4799294     
   2448682455.0515881     
   2608934471.3639202     
   4071534949.7003207     
   4112965637.8377957     
   4151747571.2151442     
   4186979041.2498002     
   4217925171.4947515     
   3663212956.4418406     
   3702591788.6020947     
   3740592726.3392181     
   3776314592.5680470     
   3809006110.1977406     
   3277881071.4840536     
   3321068103.2165041     
   3364501593.6579890     
   3407357624.8858175     
   3448957217.2041378     
   2922923126.8518724     
   2975776742.0057473     
   3030857758.5930715     
   3087484473.7505684     
   3145124037.5248184     
   2608934471.3639202     
   2676770361.0951781     
   2749117843.7132349     
   2825470259.2434134     
   2905475532.7147207     
   4217925171.4947515     
   4134166316.5506315     
   4056887354.9671884     
   3985238835.5880947     
   3918923033.3794284     
   3809006110.1977406     
   3756595084.9686694     
   3710146312.4980874     
   3669184624.8398790     
   3633611240.3734217     
   3448957217.2041378     
   3423315676.9154048     
   3402740446.1579609     
   3386999877.8155832     
   3376075833.6696415     
   3145124037.5248184     
   3141952048.4170604     
   3142360628.2620530     
   3146247064.7909303     
   3153595936.1821833     
   2905475532.7147207     
   2920819957.6338911     
   2937486451.5286326     
   2955418537.9281735     
   2974576199.6398525     
   3918923033.3794284     
   3835355319.6197467     
   3755280471.7817011     
   3678887561.2966623     
   3606399335.8435740     
   3633611240.3734217     
   3561160007.0200396     
   3493024896.6507196     
   3429426928.5202522     
   3370628530.2702684     
   3376075833.6696415     
   3316189994.6327987     
   3261654450.0443802     
   3212703651.0662937     
   3169621333.1288314     
   3153595936.1821833     
   3107371345.4295788     
   3067724261.5062542     
   3034870571.8549972     
   3009082754.5993667     
   2974576199.6398525     
   2942436458.3248539     
   2918254516.8588057     
   2902184698.7824316     
   2894445807.4000368     
   3606399335.8435740     
   3524352037.8680992     
   3446974817.7085509     
   3374560219.7286963     
   3307480113.2165108     
   3370628530.2702684     
   3303786189.4843698     
   3242167267.5306292     
   3186058424.0282578     
   3135806676.7379537     
   3169621333.1288314     
   3117265069.8906732     
   3070578637.4104986     
   3029817418.1796670     
   2995277044.2324400     
   3009082754.5993667     
   2970164392.5527072     
   2937204414.7165923     
   2910405679.7714562     
   2889993205.6707945     
   2894445807.4000368     
   2867483510.0681033     
   2846569932.8440247     
   2831844325.5199065     
   2823454892.0587306     
   3307480113.2165108     
   3208742878.9572291     
   3116437373.3761935     
   3031082370.8246040     
   2953286262.5865884     
   3135806676.7379537     
   3052502661.7464671     
   2976297387.9990425     
   2907684425.0249963     
   2847226114.7037568     
   2995277044.2324400     
   2927139290.9917259     
   2866696815.1032901     
   2814386121.7223678     
   2770689577.5921311     
   2889993205.6707945     
   2836320679.3511958     
   2790824893.3297386     
   2753858109.2985635     
   2725797826.9313641     
   2823454892.0587306     
   2783001521.3682613     
   2751063615.8439937     
   2727894483.5814204     
   2713758030.5025606     
   2953286262.5865884     
   2895036282.5413713     
   2838685834.3184562     
   2784367701.3607550     
   2732229984.7008276     
   2847226114.7037568     
   2797815998.2937574     
   2751866139.0575857     
   2709553126.4922190     
   2671070346.3444042     
   2770689577.5921311     
   2731449570.5431147     
   2697337125.2795048     
   2668545714.1393867     
   2645283115.5828371     
   2725797826.9313641     
   2697116674.1923728     
   2675263554.8815103     
   2660412172.2442594     
   2652745937.8785520     
   2713758030.5025606     
   2694955953.3641477     
   2684677667.0810266     
   2683045719.3872700     
   2690188941.0510139     
   2732229984.7008276     
   2598996113.3775797     
   2477553225.3782773     
   2369420342.3561292     
   2276343377.6563821     
   2671070346.3444042     
   2563978408.4039307     
   2470078605.3167744     
   2390735437.8504124     
   2327404450.1373034     
   2645283115.5828371     
   2564139439.3284345     
   2497079293.2837229     
   2445183108.7821913     
   2409518510.3862944     
   2652745937.8785520     
   2596327188.6279292     
   2554370709.6401472     
   2527633380.9818196     
   2516808763.2424488     
   2690188941.0510139     
   2656432288.4410219     
   2637125948.9190826     
   2632739817.7563257     
   2643674887.3761454     
   1955338282.3426805     
   2119423094.2726891     
   2284858662.4799294     
   2448682455.0515881     
   2608934471.3639202     
   1653781595.5270643     
   1820245886.4115717     
   1988401596.8433228     
   2155549908.7455697     
   2319931167.6237698     
   1393522967.2127733     
   1570904725.3811743     
   1749284429.8512611     
   1926656288.9362073     
   2101768701.1751897     
   1206894725.3294389     
   1398841152.6812787     
   1590354530.6637585     
   1780657116.3127298     
   1969289839.3700557     
   1136622759.6139553     
   1334941759.0019898     
   1533555636.5929258     
   1732464392.3867610     
   1931668026.3834965     
   2608934471.3639202     
   2676770361.0951781     
   2749117843.7132349     
   2825470259.2434134     
   2905475532.7147207     
   2319931167.6237698     
   2406840849.7786074     
   2496189981.5332203     
   2587590600.2460995     
   2680768052.9394479     
   2101768701.1751897     
   2205340577.6117859     
   2308815413.3079314     
   2411958064.6657262     
   2514602268.6381764     
   1969289839.3700557     
   2086232625.3526616     
   2200311833.1007628     
   2311452772.4995890     
   2419603481.4007325     
   1931668026.3834965     
   2058106024.4370441     
   2179104102.6934099     
   2294662261.1525950     
   2404780499.8145990     
   2905475532.7147207     
   2920819957.6338911     
   2937486451.5286326     
   2955418537.9281735     
   2974576199.6398525     
   2680768052.9394479     
   2702914342.7966428     
   2727397636.2664323     
   2754199680.5245733     
   2783312201.5347123     
   2514602268.6381764     
   2543400903.6352711     
   2575573789.6531100     
   2611122044.5259199     
   2650051133.4260364     
   2419603481.4007325     
   2453449213.0555158     
   2491703136.3850970     
   2534368450.2849979     
   2581449290.7479939     
   2404780499.8145990     
   2440532018.1815042     
   2481712821.5411930     
   2528322909.8936667     
   2580362283.2389240     
   2974576199.6398525     
   2942436458.3248539     
   2918254516.8588057     
   2902184698.7824316     
   2894445807.4000368     
   2783312201.5347123     
   2765955052.8365664     
   2756198841.7087803     
   2754136770.5823159     
   2759895413.0830035     
   2650051133.4260364     
   2644309678.3094602     
   2645523881.3778419     
   2653733745.3750801     
   2668992487.7447796     
   2581449290.7479939     
   2583782482.5204802     
   2592151958.5898991     
   2606566251.6095767     
   2627036808.4670343     
   2580362283.2389240     
   2587208992.3904638     
   2598953597.5191841     
   2615596098.6250844     
   2637136495.7081699     
   2894445807.4000368     
   2867483510.0681033     
   2846569932.8440247     
   2831844325.5199065     
   2823454892.0587306     
   2759895413.0830035     
   2740185941.6066847     
   2726961138.2668486     
   2720312737.5641413     
   2720337083.5248423     
   2668992487.7447796     
   2654693740.8925152     
   2647261034.3382707     
   2646740330.1424341     
   2653179386.1569242     
   2627036808.4670343     
   2615728548.0925508     
   2611603983.0983291     
   2614675517.5993915     
   2624955961.3002186     
   2637136495.7081699     
   2625987260.2431755     
   2622270632.8567853     
   2625986613.5489998     
   2637135202.3198256     
   2823454892.0587306     
   2783001521.3682613     
   2751063615.8439937     
   2727894483.5814204     
   2713758030.5025606     
   2720337083.5248423     
   2690456323.3575850     
   2669874647.8575163     
   2658761874.4051361     
   2657290498.4868360     
   2653179386.1569242     
   2631692965.9606586     
   2620213624.1136365     
   2618827989.4719119     
   2627622120.8521991     
   2624955961.3002186     
   2608858387.4216008     
   2603425317.6779537     
   2608680754.4881697     
   2624648151.8468928     
   2637135202.3198256     
   2622761671.1073508     
   2619693420.8133683     
   2627930451.4378805     
   2647472762.9808869     
   2713758030.5025606     
   2694955953.3641477     
   2684677667.0810266     
   2683045719.3872700     
   2690188941.0510139     
   2657290498.4868360     
   2645977335.4601836     
   2641491767.3622980     
   2643881187.2637873     
   2653195048.0969949     
   2627622120.8521991     
   2621121737.6523666     
   2619657892.9794726     
   2623243170.7339854     
   2631890618.6761894     
   2624648151.8468928     
   2620900505.5165958     
   2620326390.3029251     
   2622927283.3865027     
   2628704699.3441243     
   2647472762.9808869     
   2645155677.0709066     
   2644108533.7525706     
   2644331333.0258889     
   2645824074.8908472     
   2690188941.0510139     
   2656432288.4410219     
   2637125948.9190826     
   2632739817.7563257     
   2643674887.3761454     
   2653195048.0969949     
   2627616561.7914653     
   2617250833.1397438     
   2622397575.1766739     
   2643304500.2832975     
   2631890618.6761894     
   2611767528.2675896     
   2607703968.3410168     
   2619850309.5632229     
   2648327785.6560082     
   2628704699.3441243     
   2610457812.0199471     
   2609315173.2158327     
   2625319224.2655592     
   2658503682.6914768     
   2645824074.8908472     
   2625090840.8506765     
   2622805694.5498061     
   2638968635.9882412     
   2673579665.1659884     
   1136622759.6139553     
   1334941759.0019898     
   1533555636.5929258     
   1732464392.3867610     
   1931668026.3834965     
   1206894725.7134752     
   1398841153.0449774     
   1590354531.0115070     
   1780657116.6473849     
   1969289839.6931956     
   1393522967.8374891     
   1570904725.9998381     
   1749284430.4644952     
   1926656289.5449779     
   2101768701.7800610     
   1653781596.2456133     
   1820245887.1565442     
   1988401597.6105525     
   2155549909.5329714     
   2319931168.4301448     
   1955338283.0506964     
   2119423095.0407097     
   2284858663.3015466     
   2448682455.9231415     
   2608934472.2834496     
   1931668026.3834965     
   2058106024.4370441     
   2179104102.6934099     
   2294662261.1525950     
   2404780499.8145990     
   1969289839.6931956     
   2086232625.7332296     
   2200311833.5459476     
   2311452773.0168023     
   2419603481.9974899     
   2101768701.7800610     
   2205340578.3069673     
   2308815414.1062536     
   2411958065.5799761     
   2514602269.6812458     
   2319931168.4301448     
   2406840850.6795716     
   2496189982.5459938     
   2587590601.3871999     
   2680768054.2254419     
   2608934472.2834496     
   2676770362.0845685     
   2749117844.7930112     
   2825470260.4324727     
   2905475534.0318894     
   2404780499.8145990     
   2440532018.1815042     
   2481712821.5411930     
   2528322909.8936667     
   2580362283.2389240     
   2419603481.9974899     
   2453449213.6292238     
   2491703136.9401398     
   2534368450.8253908     
   2581449291.2777119     
   2514602269.6812458     
   2543400904.6569924     
   2575573790.6647935     
   2611122045.5386977     
   2650051134.4512124     
   2680768054.2254419     
   2702914344.0787797     
   2727397637.5651946     
   2754199681.8610363     
   2783312202.9306664     
   2905475534.0318894     
   2920819958.9689546     
   2937486452.9127202     
   2955418539.3942208     
   2974576201.2223687     
   2580362283.2389240     
   2587208992.3904638     
   2598953597.5191841     
   2615596098.6250844     
   2637136495.7081699     
   2581449291.2777119     
   2583782483.2708435     
   2592151959.6179981     
   2606566252.9728208     
   2627036810.2229738     
   2650051134.4512124     
   2644309679.7086310     
   2645523883.2621107     
   2653733747.8568926     
   2668992490.9378567     
   2783312202.9306664     
   2765955054.6528068     
   2756198844.1068554     
   2754136773.7277441     
   2759895417.1457291     
   2974576201.2223687     
   2942436460.2438517     
   2918254519.3213077     
   2902184702.0040150     
   2894445811.6063786     
   2637136495.7081699     
   2625987260.2431755     
   2622270632.8567853     
   2625986613.5489998     
   2637135202.3198256     
   2627036810.2229738     
   2615728550.3186007     
   2611603985.8147101     
   2614675520.8259268     
   2624955965.0563025     
   2668992490.9378567     
   2654693744.9020824     
   2647261039.2003293     
   2646740335.8934407     
   2653179392.8337984     
   2759895417.1457291     
   2740185946.6938663     
   2726961144.4270058     
   2720312744.8484621     
   2720337091.9873180     
   2894445811.6063786     
   2867483515.3661795     
   2846569939.2907500     
   2831844333.1782622     
   2823454900.9981618     
   2637135202.3198256     
   2622761671.1073508     
   2619693420.8133683     
   2627930451.4378805     
   2647472762.9808869     
   2624955965.0563025     
   2608858390.4968987     
   2603425319.9704938     
   2608680755.9007711     
   2624648152.2883716     
   2653179392.8337984     
   2631692971.6548924     
   2620213628.6446676     
   2618827992.6638308     
   2627622122.5353417     
   2720337091.9873180     
   2690456330.9524827     
   2669874654.3526039     
   2658761879.5671735     
   2657290502.0824380     
   2823454900.9981618     
   2783001529.9615273     
   2751063623.8403845     
   2727894490.7195115     
   2713758036.5088758     
   2647472762.9808869     
   2645155677.0709066     
   2644108533.7525706     
   2644331333.0258889     
   2645824074.8908472     
   2624648152.2883716     
   2620900506.5215054     
   2620326391.9446726     
   2622927285.7360744     
   2628704702.4699106     
   2627622122.5353417     
   2621121740.1278539     
   2619657896.3697882     
   2623243175.1624594     
   2631890624.2665720     
   2657290502.0824380     
   2645977339.7374878     
   2641491772.4693012     
   2643881193.3582234     
   2653195055.3459563     
   2713758036.5088758     
   2694955959.6222067     
   2684677673.7412963     
   2683045726.6236010     
   2690188949.0609336     
   2645824074.8908472     
   2625090840.8506765     
   2622805694.5498061     
   2638968635.9882412     
   2673579665.1659884     
   2628704702.4699106     
   2610457813.3961535     
   2609315172.8907766     
   2625319222.3013535     
   2658503679.1600070     
   2631890624.2665720     
   2611767531.5760803     
   2607703969.4948769     
   2619850308.7028213     
   2648327782.9250145     
   2653195055.3459563     
   2627616567.4500675     
   2617250837.4527707     
   2622397578.3853140     
   2643304502.6070652     
   2690188949.0609336     
   2656432296.7222552     
   2637125957.8974361     
   2632739827.8203621     
   2643674898.8457146     
   1955338283.0506964     
   2119423095.0407097     
   2284858663.3015466     
   2448682455.9231415     
   2608934472.2834496     
   2298848192.1382351     
   2449592867.6508088     
   2605054190.0320129     
   2763307944.4996133     
   2922923127.7762055     
   2694815120.8280816     
   2830659456.9795828     
   2973812297.1121559     
   3123190128.7110567     
   3277881072.3377428     
   3138033785.3430438     
   3255670793.3399119     
   3382724343.2944541     
   3518724541.7359009     
   3663212957.1657014     
   3625018334.9907498     
   3719837363.5566173     
   3825910607.4831848     
   3943174159.0066576     
   4071534950.2465153     
   2608934472.2834496     
   2676770362.0845685     
   2749117844.7930112     
   2825470260.4324727     
   2905475534.0318894     
   2922923127.7762055     
   2975776742.9560742     
   3030857759.5802927     
   3087484474.7835259     
   3145124038.6115065     
   3277881072.3377428     
   3321068104.0653706     
   3364501594.5045667     
   3407357625.7303381     
   3448957218.0454206     
   3663212957.1657014     
   3702591789.3053675     
   3740592727.0173697     
   3776314593.2143540     
   3809006110.8039608     
   4071534950.2465153     
   4112965638.3638315     
   4151747571.7106915     
   4186979041.7028599     
   4217925171.8922315     
   2905475534.0318894     
   2920819958.9689546     
   2937486452.9127202     
   2955418539.3942208     
   2974576201.2223687     
   3145124038.6115065     
   3141952049.4767251     
   3142360629.3039212     
   3146247065.8261375     
   3153595937.2235107     
   3448957218.0454206     
   3423315677.7060337     
   3402740446.8886805     
   3386999878.4786906     
   3376075834.2586083     
   3809006110.8039608     
   3756595085.5316358     
   3710146312.9937692     
   3669184625.2449918     
   3633611240.6647496     
   4217925171.8922315     
   4134166316.9485893     
   4056887355.3304863     
   3985238835.8813009     
   3918923033.5656319     
   2974576201.2223687     
   2942436460.2438517     
   2918254519.3213077     
   2902184702.0040150     
   2894445811.6063786     
   3153595937.2235107     
   3107371346.3953738     
   3067724262.5189815     
   3034870573.0459270     
   3009082756.1105809     
   3376075834.2586083     
   3316189994.7807655     
   3261654449.7925010     
   3212703650.4619393     
   3169621332.2273841     
   3633611240.6647496     
   3561160006.6000018     
   3493024895.4857879     
   3429426926.5786762     
   3370628527.5229764     
   3918923033.5656319     
   3835355318.9495025     
   3755280470.1562014     
   3678887558.6139169     
   3606399331.9979439     
   2894445811.6063786     
   2867483515.3661795     
   2846569939.2907500     
   2831844333.1782622     
   2823454900.9981618     
   3009082756.1105809     
   2970164394.4822483     
   2937204417.1568146     
   2910405682.8229885     
   2889993209.4435940     
   3169621332.2273841     
   3117265068.7814398     
   3070578636.2147255     
   3029817417.0287900     
   2995277043.2699137     
   3370628527.5229764     
   3303786185.9432621     
   3242167263.3390241     
   3186058419.3407860     
   3135806671.7231789     
   3606399331.9979439     
   3524352032.6733809     
   3446974811.3247032     
   3374560212.3270812     
   3307480104.9831600     
   2823454900.9981618     
   2783001529.9615273     
   2751063623.8403845     
   2727894490.7195115     
   2713758036.5088758     
   2889993209.4435940     
   2836320682.9973049     
   2790824896.6879711     
   2753858112.1921973     
   2725797829.1661005     
   2995277043.2699137     
   2927139290.1578979     
   2866696814.3250556     
   2814386120.9092145     
   2770689576.6335096     
   3135806671.7231789     
   3052502657.0973353     
   2976297383.7265773     
   2907684421.1243992     
   2847226111.1517458     
   3307480104.9831600     
   3208742871.2678466     
   3116437366.3194342     
   3031082364.4779310     
   2953286257.0144925     
   2713758036.5088758     
   2694955959.6222067     
   2684677673.7412963     
   2683045726.6236010     
   2690188949.0609336     
   2725797829.1661005     
   2697116675.8957396     
   2675263556.0310693     
   2660412172.8417764     
   2652745937.9517803     
   2770689576.6335096     
   2731449568.4502435     
   2697337121.8532977     
   2668545709.1998863     
   2645283108.9723277     
   2847226111.1517458     
   2797815993.2755542     
   2751866132.2050219     
   2709553117.4466624     
   2671070334.7603574     
   2953286257.0144925     
   2895036275.5117011     
   2838685825.3174486     
   2784367689.8743434     
   2732229970.2180357     
   2690188949.0609336     
   2656432296.7222552     
   2637125957.8974361     
   2632739827.8203621     
   2643674898.8457146     
   2652745937.9517803     
   2596327190.2780943     
   2554370713.6969271     
   2527633388.2634878     
   2516808774.5158248     
   2645283108.9723277     
   2564139435.0872912     
   2497079292.6479254     
   2445183113.0354180     
   2409518520.8129416     
   2671070334.7603574     
   2563978399.3599572     
   2470078600.4159346     
   2390735438.8397746     
   2327404458.8670263     
   2732229970.2180357     
   2598996100.9367728     
   2477553216.8581715     
   2369420339.8998880     
   2276343383.6618648     
   3625018334.9907498     
   3719837363.5566173     
   3825910607.4831848     
   3943174159.0066576     
   4071534950.2465153     
   4134132896.2075715     
   4224500798.6012421     
   4320794656.7345715     
   4421358735.5175200     
   4524739362.1328697     
   4643431749.3635044     
   4755619265.2348423     
   4868937731.2695732     
   4980753985.7963839     
   5089143868.1050348     
   5151396374.7900553     
   5311370304.2234306     
   5467984397.6591282     
   5618344906.8098211     
   5760986480.5090313     
   5657763173.8737621     
   5890917026.8677816     
   6116440999.5328140     
   6331877197.6328487     
   6537001423.1905155     
   4071534950.2465153     
   4112965638.3638315     
   4151747571.7106915     
   4186979041.7028599     
   4217925171.8922315     
   4524739362.1328697     
   4539559358.9637403     
   4559053528.4576626     
   4580738162.9411402     
   4602887039.7240419     
   5089143868.1050348     
   5054490364.9251595     
   5030358024.5295210     
   5011536848.5257301     
   4994822657.4196310     
   5760986480.5090313     
   5652437196.9136620     
   5559902438.4830513     
   5474317614.8992033     
   5390139360.9628153     
   6537001423.1905155     
   6328810413.3137331     
   6142824156.9779224     
   5965131418.9578295     
   5786721439.6069336     
   4217925171.8922315     
   4134166316.9485893     
   4056887355.3304863     
   3985238835.8813009     
   3918923033.5656319     
   4602887039.7240419     
   4495059275.3467274     
   4391448361.9168301     
   4291738812.3514552     
   4195840929.0907178     
   4994822657.4196310     
   4868235250.3751869     
   4744839417.8133097     
   4624604388.6419001     
   4507571831.1087675     
   5390139360.9628153     
   5249733260.5826073     
   5112551799.8422508     
   4978637216.5349932     
   4848083728.4562149     
   5786721439.6069336     
   5636889584.8052454     
   5491256984.8609524     
   5349737465.0474138     
   5212377238.1993160     
   3918923033.5656319     
   3835355318.9495025     
   3755280470.1562014     
   3678887558.6139169     
   3606399331.9979439     
   4195840929.0907178     
   4100147005.2747102     
   4007673834.2434545     
   3918628276.6734977     
   3833275446.9759088     
   4507571831.1087675     
   4397579406.0556459     
   4290279855.6225109     
   4185867697.2346115     
   4084628401.5958686     
   4848083728.4562149     
   4721725860.0609941     
   4597348367.9156456     
   4475098269.9198246     
   4355249790.6221361     
   5212377238.1993160     
   5067684723.7850962     
   4924140010.2425852     
   4781805372.4758205     
   4640906288.2535706     
   3606399331.9979439     
   3524352032.6733809     
   3446974811.3247032     
   3374560212.3270812     
   3307480104.9831600     
   3833275446.9759088     
   3738228912.7940454     
   3646898028.5870733     
   3559546970.1169348     
   3476506393.1026344     
   4084628401.5958686     
   3977747415.5790639     
   3873843189.4945788     
   3773137931.6285977     
   3675907446.9122610     
   4355249790.6221361     
   4237799053.2121015     
   4122796881.2080965     
   4010418677.1963911     
   3900882239.4805746     
   4640906288.2535706     
   4514153256.2118921     
   4389515951.6691895     
   4267122937.6087646     
   4147136797.9161239     
   3307480104.9831600     
   3208742871.2678466     
   3116437366.3194342     
   3031082364.4779310     
   2953286257.0144925     
   3476506393.1026344     
   3362344745.7745190     
   3253878418.0185404     
   3151649392.7782550     
   3056315730.2907357     
   3675907446.9122610     
   3545837051.1516857     
   3420648673.4853482     
   3300873137.9188466     
   3187177661.4287066     
   3900882239.4805746     
   3754620164.8093219     
   3612398957.9001474     
   3474709566.5011926     
   3342191589.5844121     
   4147136797.9161239     
   3984518445.5932097     
   3825108986.1220598     
   3669338465.2408853     
   3517789748.7964234     
   2953286257.0144925     
   2895036275.5117011     
   2838685825.3174486     
   2784367689.8743434     
   2732229970.2180357     
   3056315730.2907357     
   2991820225.8250217     
   2929707806.6905327     
   2870138568.8709679     
   2813294032.8554072     
   3187177661.4287066     
   3115270649.8185005     
   3046077697.9211607     
   2979787984.0298100     
   2916622058.0176802     
   3342191589.5844121     
   3261508481.3507671     
   3183721633.5743198     
   3109050797.3978815     
   3037760874.7284999     
   3517789748.7964234     
   3426833312.7069697     
   3338817852.1913362     
   3253994478.2959094     
   3172676778.5440216     
   2732229970.2180357     
   2598996100.9367728     
   2477553216.8581715     
   2369420339.8998880     
   2276343383.6618648     
   2813294032.8554072     
   2663394865.3394027     
   2524084129.9350796     
   2397031541.8575325     
   2284240591.5539007     
   2916622058.0176802     
   2749494034.6095052     
   2591593674.7543507     
   2444638577.9497843     
   2310774156.1716542     
   3037760874.7284999     
   2853364723.0021400     
   2676757055.3734565     
   2509604912.4216433     
   2354067877.4617629     
   3172676778.5440216     
   2971348632.0408764     
   2776363830.7862973     
   2589258532.3413591     
   2412088683.8881221     
   5657763173.8737621     
   5890917026.8677816     
   6116440999.5328140     
   6331877197.6328487     
   6537001423.1905155     
   6491616585.1278381     
   6586842079.2159605     
   6757402575.4971600     
   6961210957.3351469     
   7171607033.2511120     
   7982318014.7048960     
   7734914439.5413132     
   7669083293.9232378     
   7669497082.0850000     
   7666223781.2449713     
   10130315337.600149     
   9321971455.2077332     
   8826294199.6500912     
   8443406010.2727661     
   8035488205.8394165     
   12935695665.909288     
   11340724715.775106     
   10210199593.976374     
   9272712014.3775654     
   8303796504.9083624     
   6537001423.1905155     
   6328810413.3137331     
   6142824156.9779224     
   5965131418.9578295     
   5786721439.6069336     
   7171607033.2511120     
   6910772219.0861712     
   6657865391.6715107     
   6409029414.8685188     
   6161118527.9485970     
   7666223781.2449713     
   7380700802.7640734     
   7100611340.6410275     
   6826033365.6143513     
   6557172875.5397511     
   8035488205.8394165     
   7746256928.2395000     
   7472755427.1465092     
   7213017470.3835764     
   6967054110.8874989     
   8303796504.9083624     
   8020014460.9625568     
   7778428949.6354208     
   7568333916.8056993     
   7384760786.6709290     
   5786721439.6069336     
   5636889584.8052454     
   5491256984.8609524     
   5349737465.0474138     
   5212377238.1993160     
   6161118527.9485970     
   6012825113.4427605     
   5865831320.3153124     
   5720176397.0804920     
   5575916906.6415110     
   6557172875.5397511     
   6407283244.3589973     
   6255686396.4253159     
   6102349914.3180666     
   5947306366.8779669     
   6967054110.8874989     
   6813799783.1990509     
   6655809123.1159439     
   6492795032.6607218     
   6324713806.8017111     
   7384760786.6709290     
   7227371340.1496878     
   7062308001.1738911     
   6888867166.0805922     
   6706873656.4271460     
   5212377238.1993160     
   5067684723.7850962     
   4924140010.2425852     
   4781805372.4758205     
   4640906288.2535706     
   5575916906.6415110     
   5412273012.5084047     
   5249722053.6401329     
   5088316953.2402306     
   4928180802.9756346     
   5947306366.8779669     
   5768917627.2503595     
   5592080988.2268276     
   5416826574.2566004     
   5243223021.5917597     
   6324713806.8017111     
   6135254411.3612843     
   5948254388.0123453     
   5763690593.9039688     
   5581595335.5467167     
   6706873656.4271460     
   6509487028.7954264     
   6315871543.7342482     
   6125903332.9391117     
   5939567851.4663620     
   4640906288.2535706     
   4514153256.2118921     
   4389515951.6691895     
   4267122937.6087646     
   4147136797.9161239     
   4928180802.9756346     
   4792826670.8489637     
   4658555062.2087545     
   4525467959.3630657     
   4393696514.5196142     
   5243223021.5917597     
   5099676503.1799440     
   4956221447.5777874     
   4812919565.8341341     
   4669862129.9303827     
   5581595335.5467167     
   5430397868.7746496     
   5278371725.4985085     
   5125531018.4925261     
   4971924845.1233425     
   5939567851.4663620     
   5781342179.9690704     
   5621458227.1690617     
   5459880125.6193466     
   5296617315.4080963     
   4147136797.9161239     
   3984518445.5932097     
   3825108986.1220598     
   3669338465.2408853     
   3517789748.7964234     
   4393696514.5196142     
   4213129639.1376038     
   4034947800.0651875     
   3859444149.9879007     
   3687042690.3694544     
   4669862129.9303827     
   4472820122.8843632     
   4277537907.7787867     
   4084187354.7955828     
   3893048660.9379606     
   4971924845.1233425     
   4759612727.5630083     
   4548619526.3293667     
   4339019127.5228119     
   4130975170.4203587     
   5296617315.4080963     
   5069960562.9260921     
   4844337835.7586451     
   4619749041.8106995     
   4396271119.2993603     
   3517789748.7964234     
   3426833312.7069697     
   3338817852.1913362     
   3253994478.2959094     
   3172676778.5440216     
   3687042690.3694544     
   3584288125.9324136     
   3482944785.6032791     
   3383152001.4560642     
   3285087474.5802841     
   3893048660.9379606     
   3782179754.6221170     
   3671631277.2554898     
   3561460147.1351337     
   3451741022.9881177     
   4130975170.4203587     
   4015836772.8345604     
   3900377042.4453068     
   3784623180.1130662     
   3668611190.6293645     
   4396271119.2993603     
   4280650628.5070176     
   4164473601.0313902     
   4047792685.7331338     
   3930673583.5906396     
   3172676778.5440216     
   2971348632.0408764     
   2776363830.7862973     
   2589258532.3413591     
   2412088683.8881221     
   3285087474.5802841     
   3058575450.2683101     
   2836321943.6151080     
   2619376829.6956148     
   2409270403.5087566     
   3451741022.9881177     
   3203465127.5235200     
   2957796144.2181048     
   2715265621.2761383     
   2476760020.6082110     
   3668611190.6293645     
   3401563818.9739308     
   3136051909.3678460     
   2872191643.0075188     
   2610325329.6143193     
   3930673583.5906396     
   3647041941.4876423     
   3364415137.1935992     
   3082643286.4287868     
   2801721516.1241784     
 </DataArray>
 <DataArray  type="Float64" Name="strain" NumberOfComponents="3" format="ascii">
  0.20348365781639843        0.0000000000000000       0.12541778947365401     
  0.18665422832000847       -2.7328160125378975E-002   7.4359025789917543E-002
  0.16982479882361845       -4.4679255349941924E-002   3.5133397041623493E-002
  0.15299536932722846       -5.2053285673688846E-002   7.7409032287718421E-003
  0.13616593983083849       -4.9450251096619741E-002  -7.8184556486373957E-003
  0.15985370443667485        0.0000000000000000        9.6456591242251172E-002
  0.15317600912545581       -2.1847138983419868E-002   6.2696356839897716E-002
  0.14649831381423681       -3.6177148159642097E-002   3.7406455872443817E-002
  0.13982061850301777       -4.2990027528666687E-002   2.0586888339889434E-002
  0.13314292319179877       -4.2285777090493651E-002   1.2237654242234566E-002
  0.12645658373459889        0.0000000000000000        7.4206381699616630E-002
  0.12656782110800796       -1.6366117841460762E-002   5.5284741485027836E-002
  0.12667905848141703       -2.7675040969342271E-002   4.1470633204795639E-002
  0.12679029585482610       -3.3926769383644535E-002   3.2764056858920129E-002
  0.12690153322823516       -3.5121303084367561E-002   2.9165012447401301E-002
  0.10329229571017051        0.0000000000000000        5.8667160845750403E-002
  0.10682966426766483       -1.0885096699501651E-002   5.2124179725307820E-002
  0.11036703282515908       -1.9172933779042445E-002   4.7325929038679021E-002
  0.11390440138265338       -2.4863511238622380E-002   4.4272408785864012E-002
  0.11744176994014767       -2.7956829078241461E-002   4.2963618966862724E-002
   9.0360840363389788E-002   0.0000000000000000        4.9838928680652483E-002
   9.3961538604426437E-002  -5.4040755575425429E-003   5.3214671560737746E-002
   9.7562236845463057E-002  -1.0670826588742618E-002   5.4972343374093915E-002
  0.10116293508649968       -1.5800253093600222E-002   5.5111944120720992E-002
  0.10476363332753633       -2.0792355072115364E-002   5.3633473800618975E-002
  0.13616593983083849       -4.9450251096619741E-002  -7.8184556486373957E-003
  0.13295205536976268       -4.2910057959177489E-002  -3.3956451185907788E-003
  0.12973817090868686       -3.8472612601804998E-002  -3.8505364612030635E-004
  0.12652428644761105       -3.6137915024502199E-002   1.2133187687738724E-003
  0.12331040198653523       -3.5905965227269132E-002   1.3994721260919551E-003
  0.13314292319179877       -4.2285777090493651E-002   1.2237654242234566E-002
  0.12890469946738844       -3.8416149927640600E-002   1.2185409173045347E-002
  0.12466647574297815       -3.5732899122625103E-002   1.1496704634763290E-002
  0.12042825201856787       -3.4236024675447237E-002   1.0171540627388301E-002
  0.11619002829415753       -3.3925526586106924E-002   8.2099171509206481E-003
  0.12690153322823516       -3.5121303084367561E-002   2.9165012447401301E-002
  0.12241472982897372       -3.3922241896103683E-002   2.5554083201208309E-002
  0.11792792642971228       -3.2993185643445271E-002   2.2082454074405913E-002
  0.11344112303045084       -3.2334134326392261E-002   1.8750125066994094E-002
  0.10895431963118943       -3.1945087944944744E-002   1.5557096178972676E-002
  0.11744176994014767       -2.7956829078241461E-002   4.2963618966862724E-002
  0.11348214645451847       -2.9428333864566780E-002   3.6710376965898177E-002
  0.10952252296888929       -3.0253472164265379E-002   3.1372194672807552E-002
  0.10556289948326007       -3.0432243977337299E-002   2.6949072087590866E-002
  0.10160327599763086       -2.9964649303782537E-002   2.3441009210247991E-002
  0.10476363332753633       -2.0792355072115364E-002   5.3633473800618975E-002
  0.10210694934402270       -2.4934425833029857E-002   4.5654290467115020E-002
   9.9450265360509105E-002  -2.7513758685085519E-002   3.9365926429968265E-002
   9.6793581376995480E-002  -2.8530353628282355E-002   3.4768381689178826E-002
   9.4136897393481883E-002  -2.7984210662620329E-002   3.1861656244746683E-002
  0.12331040198653523       -3.5905965227269132E-002   1.3994721260919551E-003
  0.12039031284301616       -3.6411824952419486E-002   6.4802466946933812E-004
  0.11747022369949707       -3.6290555942266822E-002   8.9947967309961241E-005
  0.11455013455597798       -3.5542158196811197E-002  -2.7475798038559957E-004
  0.11163004541245891       -3.4166631716052887E-002  -4.4609317361749001E-004
  0.11619002829415753       -3.3925526586106924E-002   8.2099171509206481E-003
  0.11344915017705981       -3.4006982789509504E-002   7.8437732494928414E-003
  0.11070827205996214       -3.3685971220560079E-002   7.6426806464441333E-003
  0.10796739394286448       -3.2962491879258739E-002   7.6066393417748047E-003
  0.10522651582576678       -3.1836544765605490E-002   7.7356493354844014E-003
  0.10895431963118943       -3.1945087944944744E-002   1.5557096178972676E-002
  0.10636433308442876       -3.1602140626599426E-002   1.5351594869788598E-002
  0.10377434653766811       -3.1081386498853281E-002   1.5282825402899422E-002
  0.10118435999090745       -3.0382825561706142E-002   1.5350787778305151E-002
   9.8594373444146816E-002  -2.9506457815158121E-002   1.5555481996005552E-002
  0.10160327599763086       -2.9964649303782537E-002   2.3441009210247991E-002
   9.9135861565122899E-002  -2.9197298463689451E-002   2.3171489530356769E-002
   9.6668447132614937E-002  -2.8476801777146482E-002   2.3010382236676015E-002
   9.4201032700106976E-002  -2.7803159244153587E-002   2.2957687329205792E-002
   9.1733618267599043E-002  -2.7176370864710794E-002   2.3013404807946076E-002
   9.4136897393481883E-002  -2.7984210662620329E-002   3.1861656244746683E-002
   9.1763735619142264E-002  -2.6792456300779428E-002   3.1303457231197193E-002
   8.9390573844802618E-002  -2.5872217055439711E-002   3.0825351147773947E-002
   8.7017412070462985E-002  -2.5223492926601039E-002   3.0427337994476791E-002
   8.4644250296123352E-002  -2.4846283914263440E-002   3.0109417771305741E-002
  0.11163004541245891       -3.4166631716052887E-002  -4.4609317361749001E-004
  0.10847544578575552       -3.2615065297934981E-002  -1.7668370023429802E-004
  0.10532084615905218       -3.1338547740401387E-002   1.2446853974878991E-004
  0.10216624653234882       -3.0337079043451964E-002   4.5736354633184317E-004
   9.9011646905645456E-002  -2.9610659207086831E-002   8.2200131951493116E-004
  0.10522651582576678       -3.1836544765605490E-002   7.7356493354844014E-003
  0.10213972810416022       -3.0593649594910080E-002   7.5907048930104332E-003
   9.9052940382553731E-002  -2.9519326082482561E-002   7.5496414941304130E-003
   9.5966152660947213E-002  -2.8613574228322843E-002   7.6124591388438342E-003
   9.2879364939340681E-002  -2.7876394032430807E-002   7.7791578271511619E-003
   9.8594373444146816E-002  -2.9506457815158121E-002   1.5555481996005552E-002
   9.5647535904630820E-002  -2.8572233891885332E-002   1.5102660839991303E-002
   9.2700698365114867E-002  -2.7700104424563797E-002   1.4825859004564200E-002
   8.9753860825598913E-002  -2.6890069413193558E-002   1.4725076489724657E-002
   8.6807023286082891E-002  -2.6142128857774727E-002   1.4800313295472489E-002
   9.1733618267599043E-002  -2.7176370864710794E-002   2.3013404807946076E-002
   8.8998869187167276E-002  -2.6550818188860480E-002   2.2359184140707575E-002
   8.6264120106735578E-002  -2.5880882766645002E-002   2.1953121071050199E-002
   8.3529371026303811E-002  -2.5166564598064409E-002   2.1795215598973881E-002
   8.0794621945872114E-002  -2.4407863683118702E-002   2.1885467724478830E-002
   8.4644250296123352E-002  -2.4846283914263440E-002   3.0109417771305741E-002
   8.2193727951769602E-002  -2.4529402485835641E-002   2.9360274795159638E-002
   7.9743205607415865E-002  -2.4061661108726221E-002   2.8931427693588363E-002
   7.7292683263062129E-002  -2.3443059782935195E-002   2.8822876466591922E-002
   7.4842160918708406E-002  -2.2673598508462595E-002   2.9034621114170323E-002
   9.9011646905645456E-002  -2.9610659207086831E-002   8.2200131951493116E-004
   9.6343511945768512E-002  -2.8956884821776108E-002   3.8788975398823533E-004
   9.3675376985891567E-002  -2.8173352477989355E-002   9.6896877499696998E-005
   9.1007242026014623E-002  -2.7260062175726685E-002  -5.0977309951016903E-005
   8.8339107066137679E-002  -2.6217013914988208E-002  -5.5732808363684327E-005
   9.2879364939340681E-002  -2.7876394032430807E-002   7.7791578271511619E-003
   9.0351733635217812E-002  -2.7180500956058951E-002   7.5102492302393520E-003
   8.7824102331094889E-002  -2.6398610460459049E-002   7.3792292557980643E-003
   8.5296471026971979E-002  -2.5530722545631809E-002   7.3860979038267438E-003
   8.2768839722849097E-002  -2.4576837211576663E-002   7.5308551743256125E-003
   8.6807023286082891E-002  -2.6142128857774727E-002   1.4800313295472489E-002
   8.4414665571146297E-002  -2.5404117090341766E-002   1.4652847127927721E-002
   8.2022307856209675E-002  -2.4623868442929020E-002   1.4638039516285062E-002
   7.9629950141273109E-002  -2.3801382915536823E-002   1.4755890460545290E-002
   7.7237592426336488E-002  -2.2936660508164897E-002   1.5006399960707517E-002
   8.0794621945872114E-002  -2.4407863683118702E-002   2.1885467724478830E-002
   7.8532307753554104E-002  -2.3627733224624650E-002   2.1815683447052689E-002
   7.6269993561235983E-002  -2.2849126425398963E-002   2.1873327658961189E-002
   7.4007679368917945E-002  -2.2072043285441836E-002   2.2058400360204330E-002
   7.1745365176599851E-002  -2.1296483804753130E-002   2.2370901550782252E-002
   7.4842160918708406E-002  -2.2673598508462595E-002   2.9034621114170323E-002
   7.2704660182441067E-002  -2.1851349358907451E-002   2.8998758187614826E-002
   7.0567159446173797E-002  -2.1074384407868844E-002   2.9085093683826238E-002
   6.8429658709906471E-002  -2.0342703655346947E-002   2.9293627602804510E-002
   6.6292157973639160E-002  -1.9656307101341419E-002   2.9624359944549594E-002
   8.8339107066137679E-002  -2.6217013914988208E-002  -5.5732808363684327E-005
   8.4545955564155229E-002  -2.5148756005509587E-002  -3.8972872478804099E-004
   8.0752804062172723E-002  -2.4159836757025377E-002  -4.8328688223908678E-004
   7.6959652560190217E-002  -2.3250256169536382E-002  -3.3640728071637760E-004
   7.3166501058207767E-002  -2.2420014243042075E-002   5.0910079779420414E-005
   8.2768839722849097E-002  -2.4576837211576663E-002   7.5308551743256125E-003
   7.9217493322061960E-002  -2.3607388070672308E-002   7.1701424136368930E-003
   7.5666146921274824E-002  -2.2692808735297748E-002   7.0526020963653235E-003
   7.2114800520487715E-002  -2.1833099205452448E-002   7.1782342225109319E-003
   6.8563454119700551E-002  -2.1028259481136957E-002   7.5470387920735238E-003
   7.7237592426336488E-002  -2.2936660508164897E-002   1.5006399960707517E-002
   7.3930785811188393E-002  -2.2066020135835307E-002   1.4643439211219828E-002
   7.0623979196040299E-002  -2.1225780713569897E-002   1.4526385589592794E-002
   6.7317172580892204E-002  -2.0415942241368737E-002   1.4655239095826861E-002
   6.4010365965744082E-002  -1.9636504719231784E-002   1.5029999729921584E-002
   7.1745365176599851E-002  -2.1296483804753130E-002   2.2370901550782252E-002
   6.8685833031534499E-002  -2.0524652200998056E-002   2.2030161667960631E-002
   6.5626300886469174E-002  -1.9758752691842046E-002   2.1938063597443533E-002
   6.2566768741403794E-002  -1.8998785277284803E-002   2.2094607339231194E-002
   5.9507236596338497E-002  -1.8244749957326750E-002   2.2499792893323517E-002
   6.6292157973639160E-002  -1.9656307101341419E-002   2.9624359944549594E-002
   6.3482634983100306E-002  -1.8983284266161082E-002   2.9330309783859615E-002
   6.0673111992561410E-002  -1.8291724670114334E-002   2.9287636119917942E-002
   5.7863589002022563E-002  -1.7581628313201210E-002   2.9496338952724591E-002
   5.5054066011483660E-002  -1.6852995195421661E-002   2.9956418282279296E-002
   7.3166501058207767E-002  -2.2420014243042075E-002   5.0910079779420414E-005
   7.1296238681572310E-002  -2.1603730385750364E-002  -3.6908712076588746E-004
   6.9425976304936965E-002  -2.0736024005868603E-002  -7.9705312163458331E-004
   6.7555713928301564E-002  -1.9816895103397653E-002  -1.2329879228268892E-003
   6.5685451551666163E-002  -1.8846343678337152E-002  -1.6768915243423610E-003
   6.8563454119700551E-002  -2.1028259481136957E-002   7.5470387920735238E-003
   6.6707663738615031E-002  -2.0232789654108740E-002   7.2432174387246362E-003
   6.4851873357529594E-002  -1.9401189816125181E-002   6.9763088767991754E-003
   6.2996082976444115E-002  -1.8533459967187006E-002   6.7463131062967668E-003
   6.1140292595358636E-002  -1.7629600107293641E-002   6.5532301272176463E-003
   6.4010365965744082E-002  -1.9636504719231784E-002   1.5029999729921584E-002
   6.2213929171955284E-002  -1.8861848922466895E-002   1.4827061712134215E-002
   6.0417492378166487E-002  -1.8066355626381536E-002   1.4705918077517366E-002
   5.8621055584377649E-002  -1.7250024830975916E-002   1.4666568826070051E-002
   5.6824618790588838E-002  -1.6412856536249965E-002   1.4709013957792977E-002
   5.9507236596338497E-002  -1.8244749957326750E-002   2.2499792893323517E-002
   5.7815034981592947E-002  -1.7490908190825105E-002   2.2382445699463717E-002
   5.6122833366847522E-002  -1.6731521436637781E-002   2.2391774480520335E-002
   5.4430631752102068E-002  -1.5966589694764825E-002   2.2527779236493913E-002
   5.2738430137356608E-002  -1.5196112965206260E-002   2.2790459967383887E-002
   5.5054066011483660E-002  -1.6852995195421661E-002   2.9956418282279296E-002
   5.3510981167528282E-002  -1.6119967459183482E-002   2.9909369400711927E-002
   5.1967896323572821E-002  -1.5396687246894206E-002   3.0033878085807791E-002
   5.0424811479617387E-002  -1.4683154558554085E-002   3.0329944337567180E-002
   4.8881726635661982E-002  -1.3979369394162666E-002   3.0797568155989996E-002
   6.5685451551666163E-002  -1.8846343678337152E-002  -1.6768915243423610E-003
   6.0839914628584402E-002  -1.7879497918555476E-002  -2.6138252250382799E-003
   5.5994377705502474E-002  -1.6971486011922859E-002  -3.2144755637064093E-003
   5.1148840782420685E-002  -1.6122307958436909E-002  -3.4788425403475542E-003
   4.6303303859338785E-002  -1.5331963758099754E-002  -3.4069261549607432E-003
   6.1140292595358636E-002  -1.7629600107293641E-002   6.5532301272176463E-003
   5.6618067360565794E-002  -1.6725991851882283E-002   5.7850763677871897E-003
   5.2095842125772923E-002  -1.5859016816389238E-002   5.3272626229081688E-003
   4.7573616890979817E-002  -1.5028675000814729E-002   5.1797888925786684E-003
   4.3051391656187099E-002  -1.4234966405158644E-002   5.3426551767992159E-003
   5.6824618790588838E-002  -1.6412856536249965E-002   1.4709013957792977E-002
   5.2599761896607700E-002  -1.5572485785208201E-002   1.4131840772858201E-002
   4.8374905002626492E-002  -1.4746547620855852E-002   1.3839064254996883E-002
   4.4150048108645402E-002  -1.3935042043191941E-002   1.3830684404208406E-002
   3.9925191214664146E-002  -1.3137969052217313E-002   1.4106701220492956E-002
   5.2738430137356608E-002  -1.5196112965206260E-002   2.2790459967383887E-002
   4.8784998236710016E-002  -1.4418979718534342E-002   2.2426467990174101E-002
   4.4831566336063430E-002  -1.3634078425322348E-002   2.2320929332559868E-002
   4.0878134435416859E-002  -1.2841409085569458E-002   2.2473843994542032E-002
   3.6924702534770260E-002  -1.2040971699276093E-002   2.2885211976120229E-002
   4.8881726635661982E-002  -1.3979369394162666E-002   3.0797568155989996E-002
   4.5173776380872777E-002  -1.3265473651860704E-002   3.0668958019734460E-002
   4.1465826126083655E-002  -1.2521609229788844E-002   3.0772857855597857E-002
   3.7757875871294408E-002  -1.1747776127946780E-002   3.1109267663579632E-002
   3.4049925616505328E-002  -1.0943974346334873E-002   3.1678187443680672E-002
   9.0360840363389788E-002   0.0000000000000000        4.9838928680652483E-002
   9.3961538604426437E-002  -5.4040755575425429E-003   5.3214671560737746E-002
   9.7562236845463057E-002  -1.0670826588742618E-002   5.4972343374093915E-002
  0.10116293508649968       -1.5800253093600222E-002   5.5111944120720992E-002
  0.10476363332753633       -2.0792355072115364E-002   5.3633473800618975E-002
   8.2424021771421385E-002   0.0000000000000000        4.4787701727341221E-002
   8.4635613021065870E-002  -4.5743959839459076E-003   4.8272831879874495E-002
   8.6847204270710354E-002  -9.0381517639661485E-003   5.0597819116352576E-002
   8.9058795520354839E-002  -1.3391267340060723E-002   5.1762663436775498E-002
   9.1270386769999323E-002  -1.7633742712229630E-002   5.1767364841143193E-002
   7.4243644011429979E-002   0.0000000000000000        4.0579496508835002E-002
   7.5524056420356214E-002  -3.7447164103492732E-003   4.4147329611399506E-002
   7.6804468829282449E-002  -7.4054769391896785E-003   4.7012947948582719E-002
   7.8084881238208684E-002  -1.0982281586521215E-002   4.9176351520384638E-002
   7.9365293647134932E-002  -1.4475130352343888E-002   5.0637540326805258E-002
   6.5819707083415571E-002   0.0000000000000000        3.7214313025133804E-002
   6.6626868802297484E-002  -2.9150368367526383E-003   4.0838164755312746E-002
   6.7434030521179369E-002  -5.7728021144132077E-003   4.4217729870784282E-002
   6.8241192240061241E-002  -8.5732958329817130E-003   4.7353008371548440E-002
   6.9048353958943140E-002  -1.1316517992458142E-002   5.0244000257605149E-002
   5.7152210987378188E-002   0.0000000000000000        3.4692151276237655E-002
   5.7944050166889631E-002  -2.0853572631560034E-003   3.8345337311614221E-002
   5.8735889346401067E-002  -4.1401272896367386E-003   4.2212164882957280E-002
   5.9527728525912510E-002  -6.1643100794422055E-003   4.6292633990266840E-002
   6.0319567705423946E-002  -8.1579056325724059E-003   5.0586744633542902E-002
  0.10476363332753633       -2.0792355072115364E-002   5.3633473800618975E-002
  0.10210694934402270       -2.4934425833029857E-002   4.5654290467115020E-002
   9.9450265360509105E-002  -2.7513758685085519E-002   3.9365926429968265E-002
   9.6793581376995480E-002  -2.8530353628282355E-002   3.4768381689178826E-002
   9.4136897393481883E-002  -2.7984210662620329E-002   3.1861656244746683E-002
   9.1270386769999323E-002  -1.7633742712229630E-002   5.1767364841143193E-002
   9.0066573136195802E-002  -2.1210494241509725E-002   4.6530158691020007E-002
   8.8862759502392252E-002  -2.3566438288937883E-002   4.2507873943959704E-002
   8.7658945868588717E-002  -2.4701574854514071E-002   3.9700510599962262E-002
   8.6455132234785168E-002  -2.4615903938238343E-002   3.8108068659027640E-002
   7.9365293647134932E-002  -1.4475130352343888E-002   5.0637540326805258E-002
   7.9138452469747073E-002  -1.7486562649989591E-002   4.7800380933055976E-002
   7.8911611292359199E-002  -1.9619117892790236E-002   4.5702245049075170E-002
   7.8684770114971325E-002  -2.0872796080745815E-002   4.4343132674862805E-002
   7.8457928937583479E-002  -2.1247597213856328E-002   4.3723043810418916E-002
   6.9048353958943140E-002  -1.1316517992458142E-002   5.0244000257605149E-002
   6.9322587344676542E-002  -1.3762631058469458E-002   4.9464957193222893E-002
   6.9596820730409945E-002  -1.5671797496642600E-002   4.8949039745314719E-002
   6.9871054116143319E-002  -1.7044017306977546E-002   4.8696247913880580E-002
   7.0145287501876749E-002  -1.7879290489474328E-002   4.8706581698920469E-002
   6.0319567705423946E-002  -8.1579056325724059E-003   5.0586744633542902E-002
   6.0618977760984218E-002  -1.0038699466949323E-002   5.1523887471520771E-002
   6.0918387816544468E-002  -1.1724477100494960E-002   5.2248258032678289E-002
   6.1217797872104712E-002  -1.3215238533209278E-002   5.2759856317015491E-002
   6.1517207927664977E-002  -1.4510983765092321E-002   5.3058682324532348E-002
   9.4136897393481883E-002  -2.7984210662620329E-002   3.1861656244746683E-002
   9.1763735619142264E-002  -2.6792456300779428E-002   3.1303457231197193E-002
   8.9390573844802618E-002  -2.5872217055439711E-002   3.0825351147773947E-002
   8.7017412070462985E-002  -2.5223492926601039E-002   3.0427337994476791E-002
   8.4644250296123352E-002  -2.4846283914263440E-002   3.0109417771305741E-002
   8.6455132234785168E-002  -2.4615903938238343E-002   3.8108068659027640E-002
   8.4208386664339649E-002  -2.3973362174572799E-002   3.7091464328954424E-002
   8.1961641093894061E-002  -2.3437886197979506E-002   3.6247599476543144E-002
   7.9714895523448487E-002  -2.3009476008458582E-002   3.5576474101793952E-002
   7.7468149953002954E-002  -2.2688131606009951E-002   3.5078088204706634E-002
   7.8457928937583479E-002  -2.1247597213856328E-002   4.3723043810418916E-002
   7.6430246118567843E-002  -2.1154268048366068E-002   4.2412483493250636E-002
   7.4402563299552221E-002  -2.1003555340519356E-002   4.1367309201280268E-002
   7.2374880480536585E-002  -2.0795459090316135E-002   4.0587520934507675E-002
   7.0347197661520977E-002  -2.0529979297756448E-002   4.0073118692933035E-002
   7.0145287501876749E-002  -1.7879290489474328E-002   4.8706581698920469E-002
   6.8429313981826903E-002  -1.8335173922159380E-002   4.7266514724086037E-002
   6.6713340461777071E-002  -1.8569224483059178E-002   4.6184480321985272E-002
   6.4997366941727225E-002  -1.8581442172173723E-002   4.5460478492618223E-002
   6.3281393421677393E-002  -1.8371826989502939E-002   4.5094509235984848E-002
   6.1517207927664977E-002  -1.4510983765092321E-002   5.3058682324532348E-002
   6.0205590254116800E-002  -1.5516079795952695E-002   5.1653558021460405E-002
   5.8893972580568603E-002  -1.6134893625599007E-002   5.0699112838658078E-002
   5.7582354907020419E-002  -1.6367425254031256E-002   5.0195346776125353E-002
   5.6270737233472215E-002  -1.6213674681249443E-002   5.0142259833862127E-002
   8.4644250296123352E-002  -2.4846283914263440E-002   3.0109417771305741E-002
   8.2193727951769602E-002  -2.4529402485835641E-002   2.9360274795159638E-002
   7.9743205607415865E-002  -2.4061661108726221E-002   2.8931427693588363E-002
   7.7292683263062129E-002  -2.3443059782935195E-002   2.8822876466591922E-002
   7.4842160918708406E-002  -2.2673598508462595E-002   2.9034621114170323E-002
   7.7468149953002954E-002  -2.2688131606009951E-002   3.5078088204706634E-002
   7.5316166324532363E-002  -2.2364608196144234E-002   3.4493477996801372E-002
   7.3164182696061786E-002  -2.1929660984371931E-002   3.4185649346087456E-002
   7.1012199067591208E-002  -2.1383289970693185E-002   3.4154602252565211E-002
   6.8860215439120603E-002  -2.0725495155107743E-002   3.4400336716234214E-002
   7.0347197661520977E-002  -2.0529979297756448E-002   4.0073118692933035E-002
   6.8450238431550181E-002  -2.0199813906452820E-002   3.9613605106493421E-002
   6.6553279201579357E-002  -1.9797660860017614E-002   3.9387358759862025E-002
   6.4656319971608561E-002  -1.9323520158451034E-002   3.9394379653038672E-002
   6.2759360741637765E-002  -1.8777391801752905E-002   3.9634667786023418E-002
   6.3281393421677393E-002  -1.8371826989502939E-002   4.5094509235984848E-002
   6.1595944272823028E-002  -1.8035019616761381E-002   4.4720656124235848E-002
   5.9910495123968635E-002  -1.7665660735663367E-002   4.4536555934911778E-002
   5.8225045975114263E-002  -1.7263750346208900E-002   4.4542208668012333E-002
   5.6539596826259891E-002  -1.6829288448398004E-002   4.4737614323537712E-002
   5.6270737233472215E-002  -1.6213674681249443E-002   5.0142259833862127E-002
   5.4753283848350903E-002  -1.5870225327070012E-002   4.9814631050028868E-002
   5.3235830463229585E-002  -1.5533660611309046E-002   4.9633240871236987E-002
   5.1718377078108238E-002  -1.5203980533966873E-002   4.9598089297486464E-002
   5.0200923692986926E-002  -1.4881185095043215E-002   4.9709176328777305E-002
   7.4842160918708406E-002  -2.2673598508462595E-002   2.9034621114170323E-002
   7.2704660182441067E-002  -2.1851349358907451E-002   2.8998758187614826E-002
   7.0567159446173797E-002  -2.1074384407868844E-002   2.9085093683826238E-002
   6.8429658709906471E-002  -2.0342703655346947E-002   2.9293627602804510E-002
   6.6292157973639160E-002  -1.9656307101341419E-002   2.9624359944549594E-002
   6.8860215439120603E-002  -2.0725495155107743E-002   3.4400336716234214E-002
   6.6856595748729319E-002  -2.0022717735505319E-002   3.4223875798698372E-002
   6.4852976058338022E-002  -1.9341398909775161E-002   3.4192978550147538E-002
   6.2849356367946752E-002  -1.8681538677917400E-002   3.4307644970581967E-002
   6.0845736677555412E-002  -1.8043137039932072E-002   3.4567875060001363E-002
   6.2759360741637765E-002  -1.8777391801752905E-002   3.9634667786023418E-002
   6.0912987343340712E-002  -1.8194086112103117E-002   3.9341434482151251E-002
   5.9066613945043672E-002  -1.7608413411681480E-002   3.9217130093482544E-002
   5.7220240546746640E-002  -1.7020373700488027E-002   3.9261754620017179E-002
   5.5373867148449600E-002  -1.6429966978522698E-002   3.9475308061755102E-002
   5.6539596826259891E-002  -1.6829288448398004E-002   4.4737614323537712E-002
   5.4873834966275320E-002  -1.6365454488700922E-002   4.4351434237973671E-002
   5.3208073106290769E-002  -1.5875427913587800E-002   4.4157548313831112E-002
   5.1542311246306205E-002  -1.5359208723058595E-002   4.4155956551110237E-002
   4.9876549386321627E-002  -1.4816796917113392E-002   4.4346658949810908E-002
   5.0200923692986926E-002  -1.4881185095043215E-002   4.9709176328777305E-002
   4.8739138617533095E-002  -1.4536822865298726E-002   4.9253875066165492E-002
   4.7277353542079265E-002  -1.4142442415494116E-002   4.9014233211193386E-002
   4.5815568466625406E-002  -1.3698043745629107E-002   4.8990250763861098E-002
   4.4353783391171575E-002  -1.3203626855703976E-002   4.9181927724168684E-002
   6.6292157973639160E-002  -1.9656307101341419E-002   2.9624359944549594E-002
   6.3482634983100306E-002  -1.8983284266161082E-002   2.9330309783859615E-002
   6.0673111992561410E-002  -1.8291724670114334E-002   2.9287636119917942E-002
   5.7863589002022563E-002  -1.7581628313201210E-002   2.9496338952724591E-002
   5.5054066011483660E-002  -1.6852995195421661E-002   2.9956418282279296E-002
   6.0845736677555412E-002  -1.8043137039932072E-002   3.4567875060001363E-002
   5.8283250798199918E-002  -1.7409416286683840E-002   3.4259354073356521E-002
   5.5720764918844395E-002  -1.6763598709037784E-002   3.4193530812330036E-002
   5.3158279039488873E-002  -1.6105684306993613E-002   3.4370405276921728E-002
   5.0595793160133323E-002  -1.5435673080551493E-002   3.4789977467131972E-002
   5.5373867148449600E-002  -1.6429966978522698E-002   3.9475308061755102E-002
   5.3049739609147550E-002  -1.5835548307206654E-002   3.9145876312686824E-002
   5.0725612069845508E-002  -1.5235472747961235E-002   3.9050463518107176E-002
   4.8401484530543430E-002  -1.4629740300786068E-002   3.9189069678016025E-002
   4.6077356991241394E-002  -1.4018350965681464E-002   3.9561694792413268E-002
   4.9876549386321627E-002  -1.4816796917113392E-002   4.4346658949810908E-002
   4.7782101415943107E-002  -1.4261680327729606E-002   4.3989876501850954E-002
   4.5687653445564601E-002  -1.3707346786884574E-002   4.3858434237249569E-002
   4.3593205475186102E-002  -1.3153796294578609E-002   4.3952332156006912E-002
   4.1498757504807582E-002  -1.2601028850811394E-002   4.4271570258122658E-002
   4.4353783391171575E-002  -1.3203626855703976E-002   4.9181927724168684E-002
   4.2480336218586726E-002  -1.2687812348252281E-002   4.8791354640848605E-002
   4.0606889046001834E-002  -1.2179220825808079E-002   4.8617442969757119E-002
   3.8733441873416957E-002  -1.1677852288370968E-002   4.8660192710894418E-002
   3.6859994700832094E-002  -1.1183706735941268E-002   4.8919603864260308E-002
   5.5054066011483660E-002  -1.6852995195421661E-002   2.9956418282279296E-002
   5.3510981167528282E-002  -1.6119967459183482E-002   2.9909369400711927E-002
   5.1967896323572821E-002  -1.5396687246894206E-002   3.0033878085807791E-002
   5.0424811479617387E-002  -1.4683154558554085E-002   3.0329944337567180E-002
   4.8881726635661982E-002  -1.3979369394162666E-002   3.0797568155989996E-002
   5.0595793160133323E-002  -1.5435673080551493E-002   3.4789977467131972E-002
   4.9210463613006433E-002  -1.4760021374953497E-002   3.4663681303170435E-002
   4.7825134065879488E-002  -1.4085185535441636E-002   3.4681338166202363E-002
   4.6439804518752584E-002  -1.3411165562015867E-002   3.4842948056227799E-002
   4.5054474971625652E-002  -1.2737961454675872E-002   3.5148510973246838E-002
   4.6077356991241394E-002  -1.4018350965681464E-002   3.9561694792413268E-002
   4.4822178201273072E-002  -1.3400075290723651E-002   3.9365083003920248E-002
   4.3566999411304722E-002  -1.2773683823989058E-002   3.9284819702751127E-002
   4.2311820621336364E-002  -1.2139176565477647E-002   3.9320904888905509E-002
   4.1056641831368104E-002  -1.1496553515189356E-002   3.9473338562383636E-002
   4.1498757504807582E-002  -1.2601028850811394E-002   4.4271570258122658E-002
   4.0346124932328045E-002  -1.2040129206493791E-002   4.4013574502961103E-002
   3.9193492359848509E-002  -1.1462182112536374E-002   4.3844322695453707E-002
   3.8040859787368965E-002  -1.0867187568939427E-002   4.3763814835600150E-002
   3.6888227214889421E-002  -1.0255145575702812E-002   4.3772050923400183E-002
   3.6859994700832094E-002  -1.1183706735941268E-002   4.8919603864260308E-002
   3.5782303806171478E-002  -1.0680183122263848E-002   4.8609155800293680E-002
   3.4704612911510849E-002  -1.0150680401083884E-002   4.8359847144310658E-002
   3.3626922016850240E-002  -9.5951985724012853E-003   4.8171677896311799E-002
   3.2549231122189604E-002  -9.0137376362161570E-003   4.8044648056297046E-002
   4.8881726635661982E-002  -1.3979369394162666E-002   3.0797568155989996E-002
   4.5173776380872777E-002  -1.3265473651860704E-002   3.0668958019734460E-002
   4.1465826126083655E-002  -1.2521609229788844E-002   3.0772857855597857E-002
   3.7757875871294408E-002  -1.1747776127946780E-002   3.1109267663579632E-002
   3.4049925616505328E-002  -1.0943974346334873E-002   3.1678187443680672E-002
   4.5054474971625652E-002  -1.2737961454675872E-002   3.5148510973246838E-002
   4.1583768741532023E-002  -1.2055826809119097E-002   3.4878376224492164E-002
   3.8113062511438436E-002  -1.1355015221041848E-002   3.4850219553009654E-002
   3.4642356281344801E-002  -1.0635526690444146E-002   3.5064040958799628E-002
   3.1171650051251332E-002  -9.8973612173263170E-003   3.5519840441861517E-002
   4.1056641831368104E-002  -1.1496553515189356E-002   3.9473338562383636E-002
   3.7832647731123589E-002  -1.0846179966377378E-002   3.9050387463879871E-002
   3.4608653630879026E-002  -1.0188421212294796E-002   3.8878882547801918E-002
   3.1384659530634573E-002  -9.5232772529415671E-003   3.8958823814149973E-002
   2.8160665430389892E-002  -8.8507480883176504E-003   3.9290211262923147E-002
   3.6888227214889421E-002  -1.0255145575702812E-002   4.3772050923400183E-002
   3.3920413349647446E-002  -9.6365331236356599E-003   4.3184991737898033E-002
   3.0952599484405457E-002  -9.0218272035477720E-003   4.2858846839974998E-002
   2.7984785619163455E-002  -8.4110278154390719E-003   4.2793616229631265E-002
   2.5016971753921438E-002  -7.8041349593090392E-003   4.2989299906866785E-002
   3.2549231122189604E-002  -9.0137376362161570E-003   4.8044648056297046E-002
   2.9847065597103595E-002  -8.4268862808939970E-003   4.7282189046546241E-002
   2.7144900072017683E-002  -7.8552331948008591E-003   4.6790112429528352E-002
   2.4442734546931653E-002  -7.2987783779363546E-003   4.6568418205243156E-002
   2.1740569021845679E-002  -6.7575218303004281E-003   4.6617106373690875E-002
   5.7152210987378188E-002   0.0000000000000000        3.4692151276237655E-002
   5.7944050166889631E-002  -2.0853572631560034E-003   3.8345337311614221E-002
   5.8735889346401067E-002  -4.1401272896367386E-003   4.2212164882957280E-002
   5.9527728525912510E-002  -6.1643100794422055E-003   4.6292633990266840E-002
   6.0319567705423946E-002  -8.1579056325724059E-003   5.0586744633542902E-002
   4.8652929912334719E-002   0.0000000000000000        3.2789886762831046E-002
   4.9593146777076665E-002  -1.7108662375156323E-003   3.6966103683624012E-002
   5.0533363641818603E-002  -3.4357086594233692E-003   4.1225434438911482E-002
   5.1473580506560555E-002  -5.1745272657232090E-003   4.5567879028693477E-002
   5.2413797371302501E-002  -6.9273220564151552E-003   4.9993437452969990E-002
   4.0733638047302040E-002   0.0000000000000000        3.1284394985598492E-002
   4.1691704895802512E-002  -1.3363752118752603E-003   3.5939079370740479E-002
   4.2649771744302983E-002  -2.7312900292099981E-003   4.0546349888905008E-002
   4.3607838592803448E-002  -4.1847444520042142E-003   4.5106206540092057E-002
   4.4565905441303913E-002  -5.6967384802579070E-003   4.9618649324301628E-002
   3.3394335392280185E-002   0.0000000000000000        3.0175675944540004E-002
   3.4239724523067193E-002  -9.6188418623488914E-004   3.5264264372963643E-002
   3.5085113653854194E-002  -2.0268713989966261E-003   4.0174911232937836E-002
   3.5930502784641202E-002  -3.1949616382852177E-003   4.4907616524462547E-002
   3.6775891915428210E-002  -4.4661549041006502E-003   4.9462380247537838E-002
   2.6635021947269133E-002   0.0000000000000000        2.9463729639655566E-002
   2.7237205658870695E-002  -5.8739316059451714E-004   3.4941658690293496E-002
   2.7839389370472256E-002  -1.3224527687832575E-003   4.0111118471009961E-002
   2.8441573082073814E-002  -2.2051788245662212E-003   4.4972108981805023E-002
   2.9043756793675379E-002  -3.2355713279434090E-003   4.9524630222678626E-002
   6.0319567705423946E-002  -8.1579056325724059E-003   5.0586744633542902E-002
   6.0618977760984218E-002  -1.0038699466949323E-002   5.1523887471520771E-002
   6.0918387816544468E-002  -1.1724477100494960E-002   5.2248258032678289E-002
   6.1217797872104712E-002  -1.3215238533209278E-002   5.2759856317015491E-002
   6.1517207927664977E-002  -1.4510983765092321E-002   5.3058682324532348E-002
   5.2413797371302501E-002  -6.9273220564151552E-003   4.9993437452969990E-002
   5.2539479556232505E-002  -8.5926691313478881E-003   5.1219447009631720E-002
   5.2665161741162501E-002  -1.0069144590370088E-002   5.2310773101853301E-002
   5.2790843926092491E-002  -1.1356748433481736E-002   5.3267415729634712E-002
   5.2916526111022495E-002  -1.2455480660682874E-002   5.4089374892975953E-002
   4.4565905441303913E-002  -5.6967384802579070E-003   4.9618649324301628E-002
   4.4595948567983837E-002  -7.1466387957464439E-003   5.1127381014726511E-002
   4.4625991694663754E-002  -8.4138120802452216E-003   5.2579518053091349E-002
   4.4656034821343671E-002  -9.4982583337542021E-003   5.3975060439396198E-002
   4.4686077948023595E-002  -1.0399977556273431E-002   5.5314008173641065E-002
   3.6775891915428210E-002  -4.4661549041006502E-003   4.9462380247537838E-002
   3.6788384796238215E-002  -5.7006084601450031E-003   5.1247689486805054E-002
   3.6800877677048226E-002  -6.7584795701203420E-003   5.3054492886392440E-002
   3.6813370557858223E-002  -7.6397682340266651E-003   5.4882790446300019E-002
   3.6825863438668220E-002  -8.3444744518639726E-003   5.6732582166527733E-002
   2.9043756793675379E-002  -3.2355713279434090E-003   4.9524630222678626E-002
   2.9116788240995638E-002  -4.2545781245435597E-003   5.1580372425867431E-002
   2.9189819688315903E-002  -5.1031470599954866E-003   5.3735697601756609E-002
   2.9262851135636161E-002  -5.7812781342991221E-003   5.5990605750346062E-002
   2.9335882582956427E-002  -6.2889713474545347E-003   5.8345096871635908E-002
   6.1517207927664977E-002  -1.4510983765092321E-002   5.3058682324532348E-002
   6.0205590254116800E-002  -1.5516079795952695E-002   5.1653558021460405E-002
   5.8893972580568603E-002  -1.6134893625599007E-002   5.0699112838658078E-002
   5.7582354907020419E-002  -1.6367425254031256E-002   5.0195346776125353E-002
   5.6270737233472215E-002  -1.6213674681249443E-002   5.0142259833862127E-002
   5.2916526111022495E-002  -1.2455480660682874E-002   5.4089374892975953E-002
   5.2003583735596492E-002  -1.3306742768421236E-002   5.3348655833514697E-002
   5.1090641360170483E-002  -1.3851936253144667E-002   5.2954608250028311E-002
   5.0177698984744480E-002  -1.4091061114853098E-002   5.2907232142516608E-002
   4.9264756609318464E-002  -1.4024117353546556E-002   5.3206527510979693E-002
   4.4686077948023595E-002  -1.0399977556273431E-002   5.5314008173641065E-002
   4.4067803226424979E-002  -1.1097405740889819E-002   5.5157480779591414E-002
   4.3449528504826349E-002  -1.1568978880690296E-002   5.5243617217221791E-002
   4.2831253783227725E-002  -1.1814696975674914E-002   5.5572417486532147E-002
   4.2212979061629088E-002  -1.1834560025843648E-002   5.6143881587522496E-002
   3.6825863438668220E-002  -8.3444744518639726E-003   5.6732582166527733E-002
   3.6398248726602203E-002  -8.8880687133583818E-003   5.7080032859690599E-002
   3.5970634014536186E-002  -9.2860215082359466E-003   5.7566139740238664E-002
   3.5543019302470155E-002  -9.5383328364967834E-003   5.8190902808171963E-002
   3.5115404590404152E-002  -9.6450026981407637E-003   5.8954322063490459E-002
   2.9335882582956427E-002  -6.2889713474545347E-003   5.8345096871635908E-002
   2.8994920236128215E-002  -6.6787316858269510E-003   5.9116312073812211E-002
   2.8653957889300006E-002  -7.0030641357815924E-003   5.9922175819078910E-002
   2.8312995542471804E-002  -7.2619686973185594E-003   6.0762688107436048E-002
   2.7972033195643592E-002  -7.4554453704378382E-003   6.1637848938883619E-002
   5.6270737233472215E-002  -1.6213674681249443E-002   5.0142259833862127E-002
   5.4753283848350903E-002  -1.5870225327070012E-002   4.9814631050028868E-002
   5.3235830463229585E-002  -1.5533660611309046E-002   4.9633240871236987E-002
   5.1718377078108238E-002  -1.5203980533966873E-002   4.9598089297486464E-002
   5.0200923692986926E-002  -1.4881185095043215E-002   4.9709176328777305E-002
   4.9264756609318464E-002  -1.4024117353546556E-002   5.3206527510979693E-002
   4.7905883879726885E-002  -1.3795433289272477E-002   5.2850707526349988E-002
   4.6547011150135320E-002  -1.3549337242078283E-002   5.2665810247738358E-002
   4.5188138420543755E-002  -1.3285829211963984E-002   5.2651835675144851E-002
   4.3829265690952177E-002  -1.3004909198929604E-002   5.2808783808569515E-002
   4.2212979061629088E-002  -1.1834560025843648E-002   5.6143881587522496E-002
   4.1037371088544050E-002  -1.1720641251475018E-002   5.5784167023435041E-002
   3.9861763115458970E-002  -1.1565013872847548E-002   5.5620059266342413E-002
   3.8686155142373911E-002  -1.1367677889961179E-002   5.5651558316244680E-002
   3.7510547169288866E-002  -1.1128633302815966E-002   5.5878664173141884E-002
   3.5115404590404152E-002  -9.6450026981407637E-003   5.8954322063490459E-002
   3.4147745474802337E-002  -9.6458492136775632E-003   5.8615009541283958E-002
   3.3180086359200563E-002  -9.5806905036167449E-003   5.8495987927049152E-002
   3.2212427243598768E-002  -9.4495265679583728E-003   5.8597257220785910E-002
   3.1244768127996966E-002  -9.2523574067023412E-003   5.8918817422494357E-002
   2.7972033195643592E-002  -7.4554453704378382E-003   6.1637848938883619E-002
   2.7237007038501820E-002  -7.5710571758800457E-003   6.1343235079896849E-002
   2.6501980881360056E-002  -7.5963671343860541E-003   6.1293596229858548E-002
   2.5766954724218288E-002  -7.5313752459555275E-003   6.1488932388768583E-002
   2.5031928567076506E-002  -7.3760815105887445E-003   6.1929243556627045E-002
   5.0200923692986926E-002  -1.4881185095043215E-002   4.9709176328777305E-002
   4.8739138617533095E-002  -1.4536822865298726E-002   4.9253875066165492E-002
   4.7277353542079265E-002  -1.4142442415494116E-002   4.9014233211193386E-002
   4.5815568466625406E-002  -1.3698043745629107E-002   4.8990250763861098E-002
   4.4353783391171575E-002  -1.3203626855703976E-002   4.9181927724168684E-002
   4.3829265690952177E-002  -1.3004909198929604E-002   5.2808783808569515E-002
   4.2576762618241955E-002  -1.2695818624857330E-002   5.2444518301040716E-002
   4.1324259545531719E-002  -1.2347798911629793E-002   5.2283157391359220E-002
   4.0071756472821497E-002  -1.1960850059246714E-002   5.2324701079525054E-002
   3.8819253400111275E-002  -1.1534972067708205E-002   5.2569149365538359E-002
   3.7510547169288866E-002  -1.1128633302815966E-002   5.5878664173141884E-002
   3.6454571289529766E-002  -1.0854814384415989E-002   5.5594345339791282E-002
   3.5398595409770681E-002  -1.0553155407765524E-002   5.5500176294495510E-002
   3.4342619530011588E-002  -1.0223656372864265E-002   5.5596157037254706E-002
   3.3286643650252509E-002  -9.8663172797124887E-003   5.5882287568068872E-002
   3.1244768127996966E-002  -9.2523574067023412E-003   5.8918817422494357E-002
   3.0372564631396572E-002  -9.0138101439746765E-003   5.8703356182417205E-002
   2.9500361134796170E-002  -8.7585119039011727E-003   5.8665289920602465E-002
   2.8628157638195775E-002  -8.4864626864818160E-003   5.8804618637050131E-002
   2.7755954141595349E-002  -8.1976624917167451E-003   5.9121342331760418E-002
   2.5031928567076506E-002  -7.3760815105887445E-003   6.1929243556627045E-002
   2.4330742643842336E-002  -7.1728059035332803E-003   6.1771550828918442E-002
   2.3629556720608159E-002  -6.9638684000369391E-003   6.1778498269679918E-002
   2.2928370797373983E-002  -6.7492690000993828E-003   6.1950085878911272E-002
   2.2227184874139813E-002  -6.5290077037209460E-003   6.2286313656612635E-002
   4.4353783391171575E-002  -1.3203626855703976E-002   4.9181927724168684E-002
   4.2480336218586726E-002  -1.2687812348252281E-002   4.8791354640848605E-002
   4.0606889046001834E-002  -1.2179220825808079E-002   4.8617442969757119E-002
   3.8733441873416957E-002  -1.1677852288370968E-002   4.8660192710894418E-002
   3.6859994700832094E-002  -1.1183706735941268E-002   4.8919603864260308E-002
   3.8819253400111275E-002  -1.1534972067708205E-002   5.2569149365538359E-002
   3.7162711267850812E-002  -1.1090381314164260E-002   5.2176376851439638E-002
   3.5506169135590349E-002  -1.0647294175765057E-002   5.2000753005761152E-002
   3.3849627003329892E-002  -1.0205710652510028E-002   5.2042277828502584E-002
   3.2193084871069463E-002  -9.7656307443998447E-003   5.2300951319664363E-002
   3.3286643650252509E-002  -9.8663172797124887E-003   5.5882287568068872E-002
   3.1847493814507966E-002  -9.4929502800763232E-003   5.5493034993054288E-002
   3.0408343978763415E-002  -9.1153675257219235E-003   5.5321418342651391E-002
   2.8969194143018861E-002  -8.7335690166492549E-003   5.5367437616860124E-002
   2.7530044307274300E-002  -8.3475547528585325E-003   5.5631092815680377E-002
   2.7755954141595349E-002  -8.1976624917167451E-003   5.9121342331760418E-002
   2.6534683858558183E-002  -7.8955192459882889E-003   5.8741329065692641E-002
   2.5313413575520999E-002  -7.5834408756787902E-003   5.8579438980428035E-002
   2.4092143292483808E-002  -7.2614273807885647E-003   5.8635672075966427E-002
   2.2870873009446624E-002  -6.9294787613172759E-003   5.8910028352308109E-002
   2.2227184874139813E-002  -6.5290077037209460E-003   6.2286313656612635E-002
   2.1224281400001474E-002  -6.2980882119002823E-003   6.1921259069354584E-002
   2.0221377925863121E-002  -6.0515142256357679E-003   6.1774814919091092E-002
   1.9218474451724789E-002  -5.7892857449275692E-003   6.1846981205822216E-002
   1.8215570977586429E-002  -5.5114027697757972E-003   6.2137757929547899E-002
   3.6859994700832094E-002  -1.1183706735941268E-002   4.8919603864260308E-002
   3.5782303806171478E-002  -1.0680183122263848E-002   4.8609155800293680E-002
   3.4704612911510849E-002  -1.0150680401083884E-002   4.8359847144310658E-002
   3.3626922016850240E-002  -9.5951985724012853E-003   4.8171677896311799E-002
   3.2549231122189604E-002  -9.0137376362161570E-003   4.8044648056297046E-002
   3.2193084871069463E-002  -9.7656307443998447E-003   5.2300951319664363E-002
   3.1196761831569081E-002  -9.3165361943691460E-003   5.2037356972085363E-002
   3.0200438792068761E-002  -8.8479087453526839E-003   5.1875358926843071E-002
   2.9204115752568430E-002  -8.3597483973506526E-003   5.1814957183937270E-002
   2.8207792713068058E-002  -7.8520551503631353E-003   5.1856151743367829E-002
   2.7530044307274300E-002  -8.3475547528585325E-003   5.5631092815680377E-002
   2.6655546017286785E-002  -7.9528892664743195E-003   5.5407905975972338E-002
   2.5781047727299295E-002  -7.5451370896215536E-003   5.5326772332953245E-002
   2.4906549437311833E-002  -7.1242982223001343E-003   5.5387691886623409E-002
   2.4032051147324283E-002  -6.6903726645100581E-003   5.5590664636982645E-002
   2.2870873009446624E-002  -6.9294787613172759E-003   5.8910028352308109E-002
   2.2158656363324532E-002  -6.5892423385795831E-003   5.8720802811953937E-002
   2.1446439717202424E-002  -6.2423654338903331E-003   5.8714087362641318E-002
   2.0734223071080343E-002  -5.8888480472496698E-003   5.8889882004370613E-002
   2.0022006424958223E-002  -5.5286901786572307E-003   5.9248186737141412E-002
   1.8215570977586429E-002  -5.5114027697757972E-003   6.2137757929547899E-002
   1.7706092869682319E-002  -5.2255954106847358E-003   6.1976047480030605E-002
   1.7196614761778174E-002  -4.9395937781592653E-003   6.2037304015907430E-002
   1.6687136653874047E-002  -4.6533978721989659E-003   6.2321527537178664E-002
   1.6177658545969920E-002  -4.3670076928040147E-003   6.2828718043844101E-002
   3.2549231122189604E-002  -9.0137376362161570E-003   4.8044648056297046E-002
   2.9847065597103595E-002  -8.4268862808939970E-003   4.7282189046546241E-002
   2.7144900072017683E-002  -7.8552331948008591E-003   4.6790112429528352E-002
   2.4442734546931653E-002  -7.2987783779363546E-003   4.6568418205243156E-002
   2.1740569021845679E-002  -6.7575218303004281E-003   4.6617106373690875E-002
   2.8207792713068058E-002  -7.8520551503631353E-003   5.1856151743367829E-002
   2.5780909075304337E-002  -7.3377447028050713E-003   5.1253540688047383E-002
   2.3354025437540546E-002  -6.8297327530922325E-003   5.0931111014638819E-002
   2.0927141799776706E-002  -6.3280193012242442E-003   5.0888862723141567E-002
   1.8500258162013061E-002  -5.8326043472012312E-003   5.1126795813556170E-002
   2.4032051147324283E-002  -6.6903726645100581E-003   5.5590664636982645E-002
   2.1890248386061559E-002  -6.2486031247162843E-003   5.5156801307476300E-002
   1.9748445624798893E-002  -5.8042323113837724E-003   5.5012918349060733E-002
   1.7606642863536241E-002  -5.3572602245123280E-003   5.5159015761735403E-002
   1.5464840102273489E-002  -4.9076868641020344E-003   5.5595093545500796E-002
   2.0022006424958223E-002  -5.5286901786572307E-003   5.9248186737141412E-002
   1.8175083529375528E-002  -5.1594615466274280E-003   5.8991970904833033E-002
   1.6328160633792808E-002  -4.7787318696752845E-003   5.9035534432794010E-002
   1.4481237738209999E-002  -4.3865011478004257E-003   5.9378877321024495E-002
   1.2634314842627361E-002  -3.9827693810027820E-003   6.0021999569524434E-002
   1.6177658545969920E-002  -4.3670076928040147E-003   6.2828718043844101E-002
   1.4635414505246039E-002  -4.0703199685384051E-003   6.2759049480117457E-002
   1.3093170464522158E-002  -3.7532314279668383E-003   6.2998959265839122E-002
   1.1550926423798250E-002  -3.4157420710884782E-003   6.3548447401009248E-002
   1.0008682383074397E-002  -3.0578518979036406E-003   6.4407513885627043E-002
   2.6635021947269133E-002   0.0000000000000000        2.9463729639655566E-002
   2.7237205658870695E-002  -5.8739316059451714E-004   3.4941658690293496E-002
   2.7839389370472256E-002  -1.3224527687832575E-003   4.0111118471009961E-002
   2.8441573082073814E-002  -2.2051788245662212E-003   4.4972108981805023E-002
   2.9043756793675379E-002  -3.2355713279434090E-003   4.9524630222678626E-002
   2.0118343945158192E-002   0.0000000000000000        2.9014364695202424E-002
   2.0451539222298368E-002  -4.4054487001232278E-004   3.4307848115389256E-002
   2.0784734499438542E-002  -9.9183957583152960E-004   3.9371823936574776E-002
   2.1117929776578722E-002  -1.6538841174576152E-003   4.4206292158758938E-002
   2.1451125053718895E-002  -2.4266784948905858E-003   4.8811252781941782E-002
   1.3506947618836675E-002   0.0000000000000000        2.8693389735437801E-002
   1.3650116132435566E-002  -2.9369657943012842E-004   3.3839344136960894E-002
   1.3793284646034461E-002  -6.6122638287979818E-004   3.8834752610402763E-002
   1.3936453159633353E-002  -1.1025894103490119E-003   4.3679615155763400E-002
   1.4079621673232248E-002  -1.6177856618377622E-003   4.8373931773042805E-002
   6.8008329683045690E-003   0.0000000000000000        2.8500804760361709E-002
   6.8329363892822848E-003  -1.4684828884793406E-004   3.3536146755008406E-002
   6.8650398102600013E-003  -3.3061318992807110E-004   3.8499904492493971E-002
   6.8971432312377170E-003  -5.5129470324040376E-004   4.3392077972818417E-002
   6.9292466522154310E-003  -8.0889282878494223E-004   4.8212667195981732E-002
  -6.4381156655857197E-012   0.0000000000000000        2.8436609769974135E-002
  -7.1614736710245985E-012   1.7342603048087213E-012   3.3398255969531762E-002
  -7.8848338448678224E-012   3.0236611825440463E-012   3.8367279582848392E-002
  -8.6081942355514807E-012   3.8681974290355470E-012   4.3343680609923975E-002
  -9.3315520241499250E-012   4.2678820547092933E-012   4.8327459050758546E-002
   2.9043756793675379E-002  -3.2355713279434090E-003   4.9524630222678626E-002
   2.9116788240995638E-002  -4.2545781245435597E-003   5.1580372425867431E-002
   2.9189819688315903E-002  -5.1031470599954866E-003   5.3735697601756609E-002
   2.9262851135636161E-002  -5.7812781342991221E-003   5.5990605750346062E-002
   2.9335882582956427E-002  -6.2889713474545347E-003   5.8345096871635908E-002
   2.1451125053718895E-002  -2.4266784948905858E-003   4.8811252781941782E-002
   2.1594279265039231E-002  -3.1909335922574193E-003   5.1207796264443842E-002
   2.1737433476359567E-002  -3.8273602936850946E-003   5.3645002302245740E-002
   2.1880587687679899E-002  -4.3359585991736118E-003   5.6122870895347413E-002
   2.2023741899000235E-002  -4.7167285087230115E-003   5.8641402043748923E-002
   1.4079621673232248E-002  -1.6177856618377622E-003   4.8373931773042805E-002
   1.4233978231152116E-002  -2.1272890599712590E-003   5.1068667069649049E-002
   1.4388334789071984E-002  -2.5515735273747165E-003   5.3745144504154546E-002
   1.4542691346991852E-002  -2.8906390640481114E-003   5.6403364076559284E-002
   1.4697047904911718E-002  -3.1444856699914779E-003   5.9043325786863339E-002
   6.9292466522154310E-003  -8.0889282878494223E-004   4.8212667195981732E-002
   7.0358851393342919E-003  -1.0636445276851017E-003   5.1162984841483024E-002
   7.1425236264531511E-003  -1.2757867610643280E-003   5.4036124207483049E-002
   7.2491621135720120E-003  -1.4453195289226199E-003   5.6832085293981774E-002
   7.3558006006908712E-003  -1.5722428312599634E-003   5.9550868100979232E-002
  -9.3315520241499250E-012   4.2678820547092933E-012   4.8327459050758546E-002
  -1.0414239783040902E-011   4.6010461066114949E-012   5.1490749579945774E-002
  -1.1496927975612747E-011   5.2460477368426739E-012   5.4517941412231194E-002
  -1.2579618987110242E-011   6.2029082499755195E-012   5.7409034547614798E-002
  -1.3662303927075570E-011   7.4715719722284746E-012   6.0164028986096608E-002
   2.9335882582956427E-002  -6.2889713474545347E-003   5.8345096871635908E-002
   2.8994920236128215E-002  -6.6787316858269510E-003   5.9116312073812211E-002
   2.8653957889300006E-002  -7.0030641357815924E-003   5.9922175819078910E-002
   2.8312995542471804E-002  -7.2619686973185594E-003   6.0762688107436048E-002
   2.7972033195643592E-002  -7.4554453704378382E-003   6.1637848938883619E-002
   2.2023741899000235E-002  -4.7167285087230115E-003   5.8641402043748923E-002
   2.1730076106116637E-002  -5.0090487623086176E-003   5.9467961348850060E-002
   2.1436410313233036E-002  -5.2522980999058846E-003   6.0354465218750056E-002
   2.1142744520349442E-002  -5.4464765215148075E-003   6.1300913653448870E-002
   2.0849078727465845E-002  -5.5915840271353739E-003   6.2307306652946474E-002
   1.4697047904911718E-002  -3.1444856699914779E-003   5.9043325786863339E-002
   1.4475974687681114E-002  -3.3393658387903431E-003   5.9908872222460045E-002
   1.4254901470450502E-002  -3.5015320640301622E-003   6.0859659244563956E-002
   1.4033828253219898E-002  -3.6309843457110269E-003   6.1895686853175105E-002
   1.3812755035989287E-002  -3.7277226838328612E-003   6.3016955048293327E-002
   7.3558006006908712E-003  -1.5722428312599634E-003   5.9550868100979232E-002
   7.2326159808216370E-003  -1.6696829152720322E-003   6.0439044694642147E-002
   7.1094313609524010E-003  -1.7507660281544401E-003   6.1437757896520596E-002
   6.9862467410831694E-003  -1.8154921699072399E-003   6.2547007706614643E-002
   6.8630621212139318E-003  -1.8638613405303865E-003   6.3766794124924225E-002
  -1.3662303927075570E-011   7.4715719722284746E-012   6.0164028986096608E-002
  -1.4461781598640311E-011   8.2462647821301971E-012   6.1058478765396322E-002
  -1.5261261004928528E-011   7.7212802124249080E-012   6.2088761174619991E-002
  -1.6060740844897614E-011   5.8965362974283675E-012   6.3254876213767616E-002
  -1.6860218082781486E-011   2.7721158701865534E-012   6.4556823882839176E-002
   2.7972033195643592E-002  -7.4554453704378382E-003   6.1637848938883619E-002
   2.7237007038501820E-002  -7.5710571758800457E-003   6.1343235079896849E-002
   2.6501980881360056E-002  -7.5963671343860541E-003   6.1293596229858548E-002
   2.5766954724218288E-002  -7.5313752459555275E-003   6.1488932388768583E-002
   2.5031928567076506E-002  -7.3760815105887445E-003   6.1929243556627045E-002
   2.0849078727465845E-002  -5.5915840271353739E-003   6.2307306652946474E-002
   2.0343722961608739E-002  -5.6782928820519746E-003   6.2163033069175130E-002
   1.9838367195751633E-002  -5.6972753515490866E-003   6.2233125259024663E-002
   1.9333011429894534E-002  -5.6485314356266971E-003   6.2517583222495232E-002
   1.8827655664037421E-002  -5.5320611342848103E-003   6.3016406959586713E-002
   1.3812755035989287E-002  -3.7277226838328612E-003   6.3016955048293327E-002
   1.3506460426089377E-002  -3.7855285882238514E-003   6.3000446278220545E-002
   1.3200165816189468E-002  -3.7981835687122007E-003   6.3167694046441222E-002
   1.2893871206289560E-002  -3.7656876252978801E-003   6.3518698352955344E-002
   1.2587576596389649E-002  -3.6880407579808344E-003   6.4053459197762924E-002
   6.8630621212139318E-003  -1.8638613405303865E-003   6.3766794124924225E-002
   6.7252194319437431E-003  -1.8927642943957542E-003   6.3855474707033219E-002
   6.5873767426735501E-003  -1.8990917858753157E-003   6.4097302592108107E-002
   6.4495340534033640E-003  -1.8828438149690147E-003   6.4492277780148974E-002
   6.3116913641331675E-003  -1.8440203816768932E-003   6.5040400271155888E-002
  -1.6860218082781486E-011   2.7721158701865534E-012   6.4556823882839176E-002
  -2.0828162111685700E-011  -5.6766397138474645E-013   6.4728118355613040E-002
  -2.4796111344760341E-011  -3.0383751070672815E-012   6.5021950896025374E-002
  -2.8764057975749768E-011  -4.6402395814659769E-012   6.5438321504076191E-002
  -3.2732004606739196E-011  -5.3729243276734451E-012   6.5977230179765589E-002
   2.5031928567076506E-002  -7.3760815105887445E-003   6.1929243556627045E-002
   2.4330742643842336E-002  -7.1728059035332803E-003   6.1771550828918442E-002
   2.3629556720608159E-002  -6.9638684000369391E-003   6.1778498269679918E-002
   2.2928370797373983E-002  -6.7492690000993828E-003   6.1950085878911272E-002
   2.2227184874139813E-002  -6.5290077037209460E-003   6.2286313656612635E-002
   1.8827655664037421E-002  -5.5320611342848103E-003   6.3016406959586713E-002
   1.8293773987203873E-002  -5.3796044288175610E-003   6.2830526304836085E-002
   1.7759892310370333E-002  -5.2229013005191602E-003   6.2814613974416761E-002
   1.7226010633536792E-002  -5.0619517493895021E-003   6.2968669968328755E-002
   1.6692128956703245E-002  -4.8967557754288071E-003   6.3292694286571999E-002
   1.2587576596389649E-002  -3.6880407579808344E-003   6.4053459197762924E-002
   1.2226327321818003E-002  -3.5864029541018277E-003   6.3837975142360504E-002
   1.1865078047246357E-002  -3.4819342010014055E-003   6.3797787567150724E-002
   1.1503828772674708E-002  -3.3746344986796762E-003   6.3932896472133405E-002
   1.1142579498103072E-002  -3.2645038471366961E-003   6.4243301857308560E-002
   6.3116913641331675E-003  -1.8440203816768932E-003   6.5040400271155888E-002
   6.1284026476846973E-003  -1.7932014793861153E-003   6.4793897341491880E-002
   5.9451139312362315E-003  -1.7409671014837497E-003   6.4728019047881669E-002
   5.7618252147877604E-003  -1.6873172479698229E-003   6.4842765390325352E-002
   5.5785364983392954E-003  -1.6322519188445711E-003   6.5138136368822805E-002
  -3.2732004606739196E-011  -5.3729243276734451E-012   6.5977230179765589E-002
  -3.5196026648698364E-011  -4.6703613199028382E-012   6.5698292902230088E-002
  -3.7660046955934057E-011  -1.9659690542184194E-012   6.5605308416609665E-002
  -4.0124068130531487E-011   2.7400200164340305E-012   6.5698276722904320E-002
  -4.2588089305128918E-011   9.4475538503502321E-012   6.5977197821114220E-002
   2.2227184874139813E-002  -6.5290077037209460E-003   6.2286313656612635E-002
   2.1224281400001474E-002  -6.2980882119002823E-003   6.1921259069354584E-002
   2.0221377925863121E-002  -6.0515142256357679E-003   6.1774814919091092E-002
   1.9218474451724789E-002  -5.7892857449275692E-003   6.1846981205822216E-002
   1.8215570977586429E-002  -5.5114027697757972E-003   6.2137757929547899E-002
   1.6692128956703245E-002  -4.8967557754288071E-003   6.3292694286571999E-002
   1.5915864777751913E-002  -4.7235661563891918E-003   6.2934872697227889E-002
   1.5139600598800602E-002  -4.5386356700230779E-003   6.2811719261263263E-002
   1.4363336419849278E-002  -4.3419643163300978E-003   6.2923233978677884E-002
   1.3587072240897967E-002  -4.1335520953108551E-003   6.3269416849472349E-002
   1.1142579498103072E-002  -3.2645038471366961E-003   6.4243301857308560E-002
   1.0609012330723654E-002  -3.1490441008783093E-003   6.3888799638761401E-002
   1.0075445163344240E-002  -3.0257571144103323E-003   6.3785023289978510E-002
   9.5418779959648339E-003  -2.8946428877329039E-003   6.3931972810959900E-002
   9.0083108285854176E-003  -2.7557014208460795E-003   6.4329648201705711E-002
   5.5785364983392954E-003  -1.6322519188445711E-003   6.5138136368822805E-002
   5.3037240589166633E-003  -1.5745220453672951E-003   6.4783039893955285E-002
   5.0289116194940503E-003  -1.5128785587974203E-003   6.4694727005236902E-002
   4.7540991800714321E-003  -1.4473214591355713E-003   6.4873197702667806E-002
   4.4792867406487991E-003  -1.3778507463812206E-003   6.5318451986248055E-002
  -4.2588089305128918E-011   9.4475538503502321E-012   6.5977197821114220E-002
  -3.7669031088816141E-011   1.0143608175638974E-011   6.5617593462809348E-002
  -3.2749974607226839E-011  -3.1850355686202647E-012   6.5540830407038564E-002
  -2.7830918992999276E-011  -3.0538245543443310E-011   6.5746908653801922E-002
  -2.2911859909324761E-011  -7.1916361754631453E-011   6.6235828203099423E-002
   1.8215570977586429E-002  -5.5114027697757972E-003   6.2137757929547899E-002
   1.7706092869682319E-002  -5.2255954106847358E-003   6.1976047480030605E-002
   1.7196614761778174E-002  -4.9395937781592653E-003   6.2037304015907430E-002
   1.6687136653874047E-002  -4.6533978721989659E-003   6.2321527537178664E-002
   1.6177658545969920E-002  -4.3670076928040147E-003   6.2828718043844101E-002
   1.3587072240897967E-002  -4.1335520953108551E-003   6.3269416849472349E-002
   1.3276661754406664E-002  -3.9191965868276557E-003   6.3133714350867398E-002
   1.2966251267915365E-002  -3.7046953707430830E-003   6.3173180109693999E-002
   1.2655840781424057E-002  -3.4900484470572896E-003   6.3387814125952124E-002
   1.2345430294932777E-002  -3.2752558157700395E-003   6.3777616399641468E-002
   9.0083108285854176E-003  -2.7557014208460795E-003   6.4329648201705711E-002
   8.8491692355441159E-003  -2.6127977629705479E-003   6.4219905088179985E-002
   8.6900276425028091E-003  -2.4697969633270186E-003   6.4237531504122980E-002
   8.5308860494615092E-003  -2.3266990219156149E-003   6.4382527449534335E-002
   8.3717444564202076E-003  -2.1835039387361477E-003   6.4654892924414523E-002
   4.4792867406487991E-003  -1.3778507463812206E-003   6.5318451986248055E-002
   4.4236153130946653E-003  -1.3063989391135095E-003   6.5234619691968213E-002
   4.3679438855405168E-003  -1.2348985559109231E-003   6.5230358199193983E-002
   4.3122724579863795E-003  -1.1633495967739394E-003   6.5305667507925547E-002
   4.2566010304322353E-003  -1.0917520617022142E-003   6.5460547618162890E-002
  -2.2911859909324761E-011  -7.1916361754631453E-011   6.6235828203099423E-002
  -1.2941678978473092E-011  -1.1525630450037738E-010   6.6177858162232039E-002
  -2.9715015170683756E-012  -1.4849474427869325E-010   6.6151660194907452E-002
   6.9986794137832931E-012  -1.7163225701777307E-010   6.6157234301125883E-002
   1.6968856875188010E-011  -1.8466816964490818E-010   6.6194580480887000E-002
   1.6177658545969920E-002  -4.3670076928040147E-003   6.2828718043844101E-002
   1.4635414505246039E-002  -4.0703199685384051E-003   6.2759049480117457E-002
   1.3093170464522158E-002  -3.7532314279668383E-003   6.2998959265839122E-002
   1.1550926423798250E-002  -3.4157420710884782E-003   6.3548447401009248E-002
   1.0008682383074397E-002  -3.0578518979036406E-003   6.4407513885627043E-002
   1.2345430294932777E-002  -3.2752558157700395E-003   6.3777616399641468E-002
   1.1131760272263716E-002  -3.0527400277610139E-003   6.3603336628120732E-002
   9.9180902495946480E-003  -2.8149236339088668E-003   6.3776626543261050E-002
   8.7044202269255973E-003  -2.5618066342137855E-003   6.4297486145063157E-002
   7.4907502042565188E-003  -2.2933890286759295E-003   6.5165915433526456E-002
   8.3717444564202076E-003  -2.1835039387361477E-003   6.4654892924414523E-002
   7.5246397890190442E-003  -2.0351600869831510E-003   6.4370901734635888E-002
   6.6775351216178808E-003  -1.8766158398508467E-003   6.4472471568731649E-002
   5.8304304542167278E-003  -1.7078711973391499E-003   6.4959602426701998E-002
   4.9833257868155539E-003  -1.5289261594482184E-003   6.5832294308546480E-002
   4.2566010304322353E-003  -1.0917520617022142E-003   6.5460547618162890E-002
   3.8140530555120468E-003  -1.0175801462053574E-003   6.5061744799663007E-002
   3.3715050805918668E-003  -9.3830804579296198E-004   6.5086494342250667E-002
   2.9289571056716887E-003  -8.5393576046459679E-004   6.5534796245925730E-002
   2.4864091307514984E-003  -7.6446329022050730E-004   6.6406650510688350E-002
   1.6968856875188010E-011  -1.8466816964490818E-010   6.6194580480887000E-002
   7.1742726343027030E-011  -2.0542767487086167E-010   6.5675865823202229E-002
   1.2651658887197215E-010  -2.5173479967222079E-010   6.5618694863817939E-002
   1.8129045487036421E-010  -3.2358989099368074E-010   6.6023067602734270E-002
   2.3606432086875628E-010  -4.2099279617957563E-010   6.6888984039951360E-002
  -6.4381156655857197E-012   0.0000000000000000        2.8436609769974135E-002
  -7.1614736710245985E-012   1.7342603048087213E-012   3.3398255969531762E-002
  -7.8848338448678224E-012   3.0236611825440463E-012   3.8367279582848392E-002
  -8.6081942355514807E-012   3.8681974290355470E-012   4.3343680609923975E-002
  -9.3315520241499250E-012   4.2678820547092933E-012   4.8327459050758546E-002
  -6.8008329809256833E-003   0.0000000000000000        2.8500804764066766E-002
  -6.8329364033518150E-003   1.4684829198451880E-004   3.3536146758416978E-002
  -6.8650398257779468E-003   3.3061319548091054E-004   3.8499904495602671E-002
  -6.8971432482040785E-003   5.5129471048917869E-004   4.3392077975623833E-002
  -6.9292466706302094E-003   8.0889283700931805E-004   4.8212667198480483E-002
  -1.3506947630692436E-002   0.0000000000000000        2.8693389742431293E-002
  -1.3650116145744840E-002   2.9369658223477643E-004   3.3839344143530820E-002
  -1.3793284660797243E-002   6.6122638793816163E-004   3.8834752616542297E-002
  -1.3936453175849644E-002   1.1025894171101565E-003   4.3679615161465790E-002
  -1.4079621690902046E-002   1.6177856697507571E-003   4.8373931778301245E-002
  -2.0118343955738371E-002   0.0000000000000000        2.9014364705067713E-002
  -2.0451539234340545E-002   4.4054487248503535E-004   3.4307848124873280E-002
  -2.0784734512942719E-002   9.9183958039541272E-004   3.9371823945667322E-002
  -2.1117929791544893E-002   1.6538841237311325E-003   4.4206292167449833E-002
  -2.1451125070147063E-002   2.4266785024921909E-003   4.8811252790220847E-002
  -2.6635021956063491E-002   0.0000000000000000        2.9463729651976023E-002
  -2.7237205669138932E-002   5.8739316273529255E-004   3.4941658702444360E-002
  -2.7839389382214374E-002   1.3224527728526638E-003   4.0111118482977680E-002
  -2.8441573095289822E-002   2.2051788303521121E-003   4.4972108993575968E-002
  -2.9043756808365261E-002   3.2355713352336321E-003   4.9524630234239253E-002
  -9.3315520241499250E-012   4.2678820547092933E-012   4.8327459050758546E-002
  -1.0414239783040902E-011   4.6010461066114949E-012   5.1490749579945774E-002
  -1.1496927975612747E-011   5.2460477368426739E-012   5.4517941412231194E-002
  -1.2579618987110242E-011   6.2029082499755195E-012   5.7409034547614798E-002
  -1.3662303927075570E-011   7.4715719722284746E-012   6.0164028986096608E-002
  -6.9292466706302094E-003   8.0889283700931805E-004   4.8212667198480483E-002
  -7.0358851598147304E-003   1.0636445366249687E-003   5.1162984844990003E-002
  -7.1425236489992515E-003   1.2757867709197587E-003   5.4036124212197695E-002
  -7.2491621381837734E-003   1.4453195398936734E-003   5.6832085300103537E-002
  -7.3558006273682945E-003   1.5722428435467409E-003   5.9550868108707494E-002
  -1.4079621690902046E-002   1.6177856697507571E-003   4.8373931778301245E-002
  -1.4233978250588432E-002   2.1272890686488848E-003   5.1068667076500381E-002
  -1.4388334810274815E-002   2.5515735365934486E-003   5.3745144512997618E-002
  -1.4542691369961202E-002   2.8906390735844662E-003   5.6403364087793000E-002
  -1.4697047929647584E-002   3.1444856796219132E-003   5.9043325800886490E-002
  -2.1451125070147063E-002   2.4266785024921909E-003   4.8811252790220847E-002
  -2.1594279282735346E-002   3.1909336006727971E-003   5.1207796274476865E-002
  -2.1737433495323623E-002   3.8273603022671563E-003   5.3645002314630978E-002
  -2.1880587707911903E-002   4.3359586072752492E-003   5.6122870910683201E-002
  -2.2023741920500179E-002   4.7167285156970839E-003   5.8641402062633470E-002
  -2.9043756808365261E-002   3.2355713352336321E-003   4.9524630234239253E-002
  -2.9116788256255462E-002   4.2545781326967028E-003   5.1580372438919490E-002
  -2.9189819704145668E-002   5.1031470679408497E-003   5.3735697617097775E-002
  -2.9262851152035869E-002   5.7812781409660244E-003   5.5990605768774120E-002
  -2.9335882599926075E-002   6.2889713517722615E-003   5.8345096893948532E-002
  -1.3662303927075570E-011   7.4715719722284746E-012   6.0164028986096608E-002
  -1.4461781598640311E-011   8.2462647821301971E-012   6.1058478765396322E-002
  -1.5261261004928528E-011   7.7212802124249080E-012   6.2088761174619991E-002
  -1.6060740844897614E-011   5.8965362974283675E-012   6.3254876213767616E-002
  -1.6860218082781486E-011   2.7721158701865534E-012   6.4556823882839176E-002
  -7.3558006273682945E-003   1.5722428435467409E-003   5.9550868108707494E-002
  -7.2326160089832966E-003   1.6696829280558600E-003   6.0439044701561070E-002
  -7.1094313905982944E-003   1.7507660395978900E-003   6.1437757902859672E-002
  -6.9862467722132948E-003   1.8154921781728902E-003   6.2547007712603228E-002
  -6.8630621538282970E-003   1.8638613437808316E-003   6.3766794130791865E-002
  -1.4697047929647584E-002   3.1444856796219132E-003   5.9043325800886490E-002
  -1.4475974713557046E-002   3.3393658478653998E-003   5.9908872235626541E-002
  -1.4254901497466501E-002   3.5015320714744729E-003   6.0859659257332700E-002
  -1.4033828281375959E-002   3.6309843504491891E-003   6.1895686866004940E-002
  -1.3812755065285415E-002   3.7277226847895195E-003   6.3016955061643232E-002
  -2.2023741920500179E-002   4.7167285156970839E-003   5.8641402062633470E-002
  -2.1730076128183028E-002   5.0090487676749673E-003   5.9467961367592748E-002
  -2.1436410335865883E-002   5.2522981033510975E-003   6.0354465238039112E-002
  -2.1142744543548735E-002   5.4464765227255291E-003   6.1300913673972661E-002
  -2.0849078751231594E-002   5.5915840257981936E-003   6.2307306675393324E-002
  -2.9335882599926075E-002   6.2889713517722615E-003   5.8345096893948532E-002
  -2.8994920252861253E-002   6.6787316874845314E-003   5.9116312097459635E-002
  -2.8653957905796439E-002   7.0030641352276674E-003   5.9922175844978914E-002
  -2.8312995558731627E-002   7.2619686950018622E-003   6.0762688136506426E-002
  -2.7972033211666806E-002   7.4554453668069232E-003   6.1637848972042136E-002
  -1.6860218082781486E-011   2.7721158701865534E-012   6.4556823882839176E-002
  -2.0828162111685700E-011  -5.6766397138474645E-013   6.4728118355613040E-002
  -2.4796111344760341E-011  -3.0383751070672815E-012   6.5021950896025374E-002
  -2.8764057975749768E-011  -4.6402395814659769E-012   6.5438321504076191E-002
  -3.2732004606739196E-011  -5.3729243276734451E-012   6.5977230179765589E-002
  -6.8630621538282970E-003   1.8638613437808316E-003   6.3766794130791865E-002
  -6.7252194717528427E-003   1.8927642922914253E-003   6.3855474717302241E-002
  -6.5873767896773893E-003   1.8990917795744036E-003   6.4097302608260937E-002
  -6.4495341076019393E-003   1.8828438056299000E-003   6.4492277803667897E-002
  -6.3116914255264885E-003   1.8440203704577496E-003   6.5040400303523135E-002
  -1.3812755065285415E-002   3.7277226847895195E-003   6.3016955061643232E-002
  -1.3506460460356785E-002   3.7855285851505181E-003   6.3000446299793539E-002
  -1.3200165855428150E-002   3.7981835621873489E-003   6.3167694079201975E-002
  -1.2893871250499509E-002   3.7656876158999562E-003   6.3518698399868484E-002
  -1.2587576645570883E-002   3.6880407462883680E-003   6.4053459261793025E-002
  -2.0849078751231594E-002   5.5915840257981936E-003   6.2307306675393324E-002
  -2.0343722986639990E-002   5.6782928780096092E-003   6.2163033103086983E-002
  -1.9838367222048393E-002   5.6972753448002386E-003   6.2233125308848558E-002
  -1.9333011457456788E-002   5.6485314261700958E-003   6.2517583292677925E-002
  -1.8827655692865191E-002   5.5320611221190280E-003   6.3016407054575202E-002
  -2.7972033211666806E-002   7.4554453668069232E-003   6.1637848972042136E-002
  -2.7237007050602467E-002   7.5710571708686863E-003   6.1343235127182524E-002
  -2.6501980889538111E-002   7.5963671274130867E-003   6.1293596297200575E-002
  -2.5766954728473759E-002   7.5313752364401139E-003   6.1488932482096276E-002
  -2.5031928567409420E-002   7.3760814979496603E-003   6.1929243681869584E-002
  -3.2732004606739196E-011  -5.3729243276734451E-012   6.5977230179765589E-002
  -3.5196026648698364E-011  -4.6703613199028382E-012   6.5698292902230088E-002
  -3.7660046955934057E-011  -1.9659690542184194E-012   6.5605308416609665E-002
  -4.0124068130531487E-011   2.7400200164340305E-012   6.5698276722904320E-002
  -4.2588089305128918E-011   9.4475538503502321E-012   6.5977197821114220E-002
  -6.3116914255264885E-003   1.8440203704577496E-003   6.5040400303523135E-002
  -6.1284027137529342E-003   1.7932014677212310E-003   6.4793897385110502E-002
  -5.9451140019793824E-003   1.7409670910834840E-003   6.4728019103257928E-002
  -5.7618252902058315E-003   1.6873172405447931E-003   6.4842765457965496E-002
  -5.5785365784322763E-003   1.6322519161047488E-003   6.5138136449232997E-002
  -1.2587576645570883E-002   3.6880407462883680E-003   6.4053459261793025E-002
  -1.2226327374914775E-002   3.5864029401126776E-003   6.3837975226600396E-002
  -1.1865078104258683E-002   3.4819341841330134E-003   6.3797787672612766E-002
  -1.1503828833602578E-002   3.3746344783494534E-003   6.3932896599830244E-002
  -1.1142579562946474E-002   3.2645038227618328E-003   6.4243302008252706E-002
  -1.8827655692865191E-002   5.5320611221190280E-003   6.3016407054575202E-002
  -1.8293774018681569E-002   5.3796044125041693E-003   6.2830526426699729E-002
  -1.7759892344497943E-002   5.2229012771825879E-003   6.2814614124674276E-002
  -1.7226010670314318E-002   5.0619517161541701E-003   6.2968670148498856E-002
  -1.6692128996130696E-002   4.8967557294189723E-003   6.3292694498173457E-002
  -2.5031928567409420E-002   7.3760814979496603E-003   6.1929243681869584E-002
  -2.4330742645053288E-002   7.1728058848957027E-003   6.1771550985408458E-002
  -2.3629556722697169E-002   6.9638683702320514E-003   6.1778498459442416E-002
  -2.2928370800341043E-002   6.7492689539589840E-003   6.1950086103971277E-002
  -2.2227184877984918E-002   6.5290076360760563E-003   6.2286313918995140E-002
  -4.2588089305128918E-011   9.4475538503502321E-012   6.5977197821114220E-002
  -3.7669031088816141E-011   1.0143608175638974E-011   6.5617593462809348E-002
  -3.2749974607226839E-011  -3.1850355686202647E-012   6.5540830407038564E-002
  -2.7830918992999276E-011  -3.0538245543443310E-011   6.5746908653801922E-002
  -2.2911859909324761E-011  -7.1916361754631453E-011   6.6235828203099423E-002
  -5.5785365784322763E-003   1.6322519161047488E-003   6.5138136449232997E-002
  -5.3037241301100730E-003   1.5745220380927044E-003   6.4783039959493235E-002
  -5.0289116817878714E-003   1.5128785268376035E-003   6.4694727054025680E-002
  -4.7540992334656638E-003   1.4473213823395174E-003   6.4873197732830304E-002
  -4.4792867851434666E-003   1.3778506045986627E-003   6.5318451995907134E-002
  -1.1142579562946474E-002   3.2645038227618328E-003   6.4243302008252706E-002
  -1.0609012389483082E-002   3.1490440660416341E-003   6.3888799767859883E-002
  -1.0075445216019685E-002   3.0257570568602427E-003   6.3785023393477344E-002
  -9.5418780425562851E-003   2.8946427952174468E-003   6.3931972885104965E-002
  -9.0083108690928830E-003   2.7557012811135206E-003   6.4329648242742954E-002
  -1.6692128996130696E-002   4.8967557294189723E-003   6.3292694498173457E-002
  -1.5915864815788053E-002   4.7235660939906748E-003   6.2934872887909263E-002
  -1.5139600635445404E-002   4.5386355868827707E-003   6.2811719425393361E-002
  -1.4363336455102746E-002   4.3419642080953762E-003   6.2923234110625739E-002
  -1.3587072274760116E-002   4.1335519576284063E-003   6.3269416943606327E-002
  -2.2227184877984918E-002   6.5290076360760563E-003   6.2286313918995140E-002
  -2.1224281409024975E-002   6.2980881219396045E-003   6.1921259319641375E-002
  -2.0221377940065031E-002   6.0515141169053682E-003   6.1774815149773871E-002
  -1.9218474471105095E-002   5.7892856209731565E-003   6.1846981409392779E-002
  -1.8215571002145152E-002   5.5114026341434030E-003   6.2137758098497864E-002
  -2.2911859909324761E-011  -7.1916361754631453E-011   6.6235828203099423E-002
  -1.2941678978473092E-011  -1.1525630450037738E-010   6.6177858162232039E-002
  -2.9715015170683756E-012  -1.4849474427869325E-010   6.6151660194907452E-002
   6.9986794137832931E-012  -1.7163225701777307E-010   6.6157234301125883E-002
   1.6968856875188010E-011  -1.8466816964490818E-010   6.6194580480887000E-002
  -4.4792867851434666E-003   1.3778506045986627E-003   6.5318451995907134E-002
  -4.4236153370942437E-003   1.3063987280831635E-003   6.5234619720755782E-002
  -4.3679438890450121E-003   1.2348982872621150E-003   6.5230358248219655E-002
  -4.3122724409957900E-003   1.1633492821353300E-003   6.5305667578298643E-002
  -4.2566009929465645E-003   1.0917517127028709E-003   6.5460547710992911E-002
  -9.0083108690928830E-003   2.7557012811135206E-003   6.4329648242742954E-002
  -8.8491692538923312E-003   2.6127975714226037E-003   6.4219905158900581E-002
  -8.6900276386917743E-003   2.4697967230190160E-003   6.4237531606745862E-002
  -8.5308860234912243E-003   2.3266987359028581E-003   6.4382527586278493E-002
  -8.3717444082906656E-003   2.1835036100739669E-003   6.4654893097498667E-002
  -1.3587072274760116E-002   4.1335519576284063E-003   6.3269416943606327E-002
  -1.3276661763335956E-002   3.9191964147620856E-003   6.3133714476666325E-002
  -1.2966251251911779E-002   3.7046951587759516E-003   6.3173180270486060E-002
  -1.2655840740487622E-002   3.4900481896703601E-003   6.3387814325065503E-002
  -1.2345430229063460E-002   3.2752555074450906E-003   6.3777616640404836E-002
  -1.8215571002145152E-002   5.5114026341434030E-003   6.2137758098497864E-002
  -1.7706092865425099E-002   5.2255952581014842E-003   6.1976047674053125E-002
  -1.7196614728705040E-002   4.9395935945328040E-003   6.2037304239440344E-002
  -1.6687136591984977E-002   4.6533976434378968E-003   6.2321527794659687E-002
  -1.6177658455264921E-002   4.3670074048162144E-003   6.2828718339711043E-002
   1.6968856875188010E-011  -1.8466816964490818E-010   6.6194580480887000E-002
   7.1742726343027030E-011  -2.0542767487086167E-010   6.5675865823202229E-002
   1.2651658887197215E-010  -2.5173479967222079E-010   6.5618694863817939E-002
   1.8129045487036421E-010  -3.2358989099368074E-010   6.6023067602734270E-002
   2.3606432086875628E-010  -4.2099279617957563E-010   6.6888984039951360E-002
  -4.2566009929465645E-003   1.0917517127028709E-003   6.5460547710992911E-002
  -3.8140529092873191E-003   1.0175797573977186E-003   6.5061744861970500E-002
  -3.3715048256280668E-003   9.3830759465325653E-004   6.5086494372418341E-002
  -2.9289567419688058E-003   8.5393522446923845E-004   6.5534796242336102E-002
  -2.4864086583095829E-003   7.6446264684570941E-004   6.6406650471724338E-002
  -8.3717444082906656E-003   2.1835036100739669E-003   6.4654893097498667E-002
  -7.5246396345764370E-003   2.0351597202231675E-003   6.4370901875247258E-002
  -6.6775348608622154E-003   1.8766154410413682E-003   6.4472471673635429E-002
  -5.8304300871479947E-003   1.7078707725283956E-003   6.4959602492663637E-002
  -4.9833253134337792E-003   1.5289257146843260E-003   6.5832294332331120E-002
  -1.2345430229063460E-002   3.2752555074450906E-003   6.3777616640404836E-002
  -1.1131760104124677E-002   3.0527396830486997E-003   6.3603336863032475E-002
  -9.9180899791858762E-003   2.8149232874294522E-003   6.3776626767469508E-002
  -8.7044198542471033E-003   2.5618063205873724E-003   6.4297486353715710E-002
  -7.4907497293083035E-003   2.2933887825228871E-003   6.5165915621771417E-002
  -1.6177658455264921E-002   4.3670074048162144E-003   6.2828718339711043E-002
  -1.4635414317931986E-002   4.0703196458740654E-003   6.2759049825326207E-002
  -1.3093170180599047E-002   3.7532311338176194E-003   6.2998959653920328E-002
  -1.1550926043266100E-002   3.4157418686467864E-003   6.3548447825493709E-002
  -1.0008681905933181E-002   3.0578518503614482E-003   6.4407514340045546E-002
  -2.6635021956063491E-002   0.0000000000000000        2.9463729651976023E-002
  -2.7237205669138932E-002   5.8739316273529255E-004   3.4941658702444360E-002
  -2.7839389382214374E-002   1.3224527728526638E-003   4.0111118482977680E-002
  -2.8441573095289822E-002   2.2051788303521121E-003   4.4972108993575968E-002
  -2.9043756808365261E-002   3.2355713352336321E-003   4.9524630234239253E-002
  -3.3394335398996625E-002   0.0000000000000000        3.0175675958931461E-002
  -3.4239724531221427E-002   9.6188418803715321E-004   3.5264264387110181E-002
  -3.5085113663446230E-002   2.0268714024153801E-003   4.0174911246925217E-002
  -3.5930502795671025E-002   3.1949616431346736E-003   4.4907616538376542E-002
  -3.6775891927895821E-002   4.4661549101950443E-003   4.9462380261464163E-002
  -4.0733638051866604E-002   0.0000000000000000        3.1284395001709257E-002
  -4.1691704901669437E-002   1.3363752133390121E-003   3.5939079386557361E-002
  -4.2649771751472283E-002   2.7312900319780920E-003   4.0546349904613102E-002
  -4.3607838601275123E-002   4.1847444559172369E-003   4.5106206555876459E-002
  -4.4565905451077963E-002   5.6967384851564530E-003   4.9618649340347425E-002
  -4.8652929914673425E-002   0.0000000000000000        3.2789886780309419E-002
  -4.9593146780482981E-002   1.7108662386408702E-003   3.6966103700785909E-002
  -5.0533363646292538E-002   3.4357086615408022E-003   4.1225434456041335E-002
  -5.1473580512102095E-002   5.1745272686997993E-003   4.5567879046075718E-002
  -5.2413797377911651E-002   6.9273220601178635E-003   4.9993437470889024E-002
  -5.7152210987417094E-002   0.0000000000000000        3.4692151294731938E-002
  -5.7944050167662041E-002   2.0853572639427300E-003   3.8345337329795802E-002
  -5.8735889347906994E-002   4.1401272911035202E-003   4.2212164901209930E-002
  -5.9527728528151962E-002   6.1643100814823635E-003   4.6292634008974327E-002
  -6.0319567708396908E-002   8.1579056350792739E-003   5.0586744653088975E-002
  -2.9043756808365261E-002   3.2355713352336321E-003   4.9524630234239253E-002
  -2.9116788256255462E-002   4.2545781326967028E-003   5.1580372438919490E-002
  -2.9189819704145668E-002   5.1031470679408497E-003   5.3735697617097775E-002
  -2.9262851152035869E-002   5.7812781409660244E-003   5.5990605768774120E-002
  -2.9335882599926075E-002   6.2889713517722615E-003   5.8345096893948532E-002
  -3.6775891927895821E-002   4.4661549101950443E-003   4.9462380261464163E-002
  -3.6788384808616070E-002   5.7006084669277562E-003   5.1247689501557080E-002
  -3.6800877689336313E-002   6.7584795766640823E-003   5.3054492902491854E-002
  -3.6813370570056549E-002   7.6397682394040642E-003   5.4882790464268486E-002
  -3.6825863450776805E-002   8.3444744551476532E-003   5.6732582186886996E-002
  -4.4565905451077963E-002   5.6967384851564530E-003   4.9618649340347425E-002
  -4.4595948577284439E-002   7.1466388011587854E-003   5.1127381031075586E-002
  -4.4625991703490908E-002   8.4138120853873358E-003   5.2579518069989402E-002
  -4.4656034829697391E-002   9.4982583378420728E-003   5.3975060457088914E-002
  -4.4686077955903854E-002   1.0399977558523000E-002   5.5314008192374045E-002
  -5.2413797377911651E-002   6.9273220601178635E-003   4.9993437470889024E-002
  -5.2539479562260551E-002   8.5926691353898233E-003   5.1219447027474996E-002
  -5.2665161746609464E-002   1.0069144594110575E-002   5.2310773119590454E-002
  -5.2790843930958370E-002   1.1356748436280090E-002   5.3267415747235404E-002
  -5.2916526115307283E-002   1.2455480661898369E-002   5.4089374910409771E-002
  -6.0319567708396908E-002   8.1579056350792739E-003   5.0586744653088975E-002
  -6.0618977763544447E-002   1.0038699469620866E-002   5.1523887490755350E-002
  -6.0918387818691980E-002   1.1724477102833829E-002   5.2248258051295002E-002
  -6.1217797873839505E-002   1.3215238534718119E-002   5.2759856334707901E-002
  -6.1517207928987037E-002   1.4510983765273724E-002   5.3058682340994132E-002
  -2.9335882599926075E-002   6.2889713517722615E-003   5.8345096893948532E-002
  -2.8994920252861253E-002   6.6787316874845314E-003   5.9116312097459635E-002
  -2.8653957905796439E-002   7.0030641352276674E-003   5.9922175844978914E-002
  -2.8312995558731627E-002   7.2619686950018622E-003   6.0762688136506426E-002
  -2.7972033211666806E-002   7.4554453668069232E-003   6.1637848972042136E-002
  -3.6825863450776805E-002   8.3444744551476532E-003   5.6732582186886996E-002
  -3.6398248737873326E-002   8.8880687142295807E-003   5.7080032880804224E-002
  -3.5970634024969833E-002   9.2860215069846350E-003   5.7566139762390570E-002
  -3.5543019312066368E-002   9.5383328334128232E-003   5.8190902831646039E-002
  -3.5115404599162875E-002   9.6450026935141348E-003   5.8954322088570640E-002
  -4.4686077955903854E-002   1.0399977558523000E-002   5.5314008192374045E-002
  -4.4067803233500805E-002   1.1097405740974660E-002   5.5157480798339605E-002
  -4.3449528511097742E-002   1.1568978878741615E-002   5.5243617235635194E-002
  -4.2831253788694693E-002   1.1814696971823840E-002   5.5572417504260806E-002
  -4.2212979066291637E-002   1.1834560020221346E-002   5.6143881604216475E-002
  -5.2916526115307283E-002   1.2455480661898369E-002   5.4089374910409771E-002
  -5.2003583739743717E-002   1.3306742767719752E-002   5.3348655850065783E-002
  -5.1090641364180164E-002   1.3851936250498575E-002   5.2954608264712752E-002
  -5.0177698988616598E-002   1.4091061110234856E-002   5.2907232154350697E-002
  -4.9264756613053046E-002   1.4024117346928544E-002   5.3206527518979557E-002
  -6.1517207928987037E-002   1.4510983765273724E-002   5.3058682340994132E-002
  -6.0205590256602055E-002   1.5516079794464805E-002   5.1653558035982788E-002
  -5.8893972584217094E-002   1.6134893622255553E-002   5.0699112849623300E-002
  -5.7582354911832112E-002   1.6367425248645855E-002   5.0195346781915701E-002
  -5.6270737239447151E-002   1.6213674673635797E-002   5.0142259832859970E-002
  -2.7972033211666806E-002   7.4554453668069232E-003   6.1637848972042136E-002
  -2.7237007050602467E-002   7.5710571708686863E-003   6.1343235127182524E-002
  -2.6501980889538111E-002   7.5963671274130867E-003   6.1293596297200575E-002
  -2.5766954728473759E-002   7.5313752364401139E-003   6.1488932482096276E-002
  -2.5031928567409420E-002   7.3760814979496603E-003   6.1929243681869584E-002
  -3.5115404599162875E-002   9.6450026935141348E-003   5.8954322088570640E-002
  -3.4147745474734766E-002   9.6458492068740298E-003   5.8615009575227847E-002
  -3.3180086350306635E-002   9.5806904930780777E-003   5.8495987973735016E-002
  -3.2212427225878498E-002   9.4495265521262264E-003   5.8597257284092055E-002
  -3.1244768101450382E-002   9.2523573840184725E-003   5.8918817506299029E-002
  -4.2212979066291637E-002   1.1834560020221346E-002   5.6143881604216475E-002
  -4.1037371081527448E-002   1.1720641242879297E-002   5.5784167042752075E-002
  -3.9861763096763245E-002   1.1565013858742930E-002   5.5620059290109859E-002
  -3.8686155111999063E-002   1.1367677867812323E-002   5.5651558346289876E-002
  -3.7510547127234881E-002   1.1128633270087313E-002   5.5878664211292062E-002
  -4.9264756613053046E-002   1.4024117346928544E-002   5.3206527518979557E-002
  -4.7905883870980527E-002   1.3795433278884588E-002   5.2850707529755077E-002
  -4.6547011128907995E-002   1.3549337224407865E-002   5.2665810246325100E-002
  -4.5188138386835462E-002   1.3285829183498386E-002   5.2651835668689542E-002
  -4.3829265644762957E-002   1.3004909156156139E-002   5.2808783796848557E-002
  -5.6270737239447151E-002   1.6213674673635797E-002   5.0142259832859970E-002
  -5.4753283843093997E-002   1.5870225314889873E-002   4.9814631036236956E-002
  -5.3235830446740837E-002   1.5533660590072752E-002   4.9633240842380716E-002
  -5.1718377050387669E-002   1.5203980499184542E-002   4.9598089251291284E-002
  -5.0200923654034529E-002   1.4881185042224965E-002   4.9709176262968585E-002
  -2.5031928567409420E-002   7.3760814979496603E-003   6.1929243681869584E-002
  -2.4330742645053288E-002   7.1728058848957027E-003   6.1771550985408458E-002
  -2.3629556722697169E-002   6.9638683702320514E-003   6.1778498459442416E-002
  -2.2928370800341043E-002   6.7492689539589840E-003   6.1950086103971277E-002
  -2.2227184877984918E-002   6.5290076360760563E-003   6.2286313918995140E-002
  -3.1244768101450382E-002   9.2523573840184725E-003   5.8918817506299029E-002
  -3.0372564603192861E-002   9.0138101119681957E-003   5.8703356282331393E-002
  -2.9500361104935317E-002   8.7585118591885364E-003   5.8665290039671546E-002
  -2.8628157606677772E-002   8.4864626256795951E-003   5.8804618778319537E-002
  -2.7755954108420224E-002   8.1976624114413754E-003   5.9121342498275359E-002
  -3.7510547127234881E-002   1.1128633270087313E-002   5.5878664211292062E-002
  -3.6454571242263104E-002   1.0854814339040696E-002   5.5594345380698101E-002
  -3.5398595357291333E-002   1.0553155348144966E-002   5.5500176342224816E-002
  -3.4342619472319591E-002   1.0223656297400345E-002   5.5596157095872095E-002
  -3.3286643587347814E-002   9.8663171868066668E-003   5.5882287641640091E-002
  -4.3829265644762957E-002   1.3004909156156139E-002   5.2808783796848557E-002
  -4.2576762562264094E-002   1.2695818566113095E-002   5.2444518280508681E-002
  -4.1324259479765243E-002   1.2347798837101451E-002   5.2283157367102193E-002
  -4.0071756397266414E-002   1.1960849969121081E-002   5.2324701056629230E-002
  -3.8819253314767529E-002   1.1534971962171972E-002   5.2569149349089725E-002
  -5.0200923654034529E-002   1.4881185042224965E-002   4.9709176262968585E-002
  -4.8739138563195776E-002   1.4536822793185675E-002   4.9253874981762924E-002
  -4.7277353472357023E-002   1.4142442326057825E-002   4.9014233114303668E-002
  -4.5815568381518269E-002   1.3698043640841748E-002   4.8990250660590678E-002
  -4.4353783290679530E-002   1.3203626737537277E-002   4.9181927620624011E-002
  -2.2227184877984918E-002   6.5290076360760563E-003   6.2286313918995140E-002
  -2.1224281409024975E-002   6.2980881219396045E-003   6.1921259319641375E-002
  -2.0221377940065031E-002   6.0515141169053682E-003   6.1774815149773871E-002
  -1.9218474471105095E-002   5.7892856209731565E-003   6.1846981409392779E-002
  -1.8215571002145152E-002   5.5114026341434030E-003   6.2137758098497864E-002
  -2.7755954108420224E-002   8.1976624114413754E-003   5.9121342498275359E-002
  -2.6534683837052410E-002   7.8955191471512254E-003   5.8741329218214788E-002
  -2.5313413565684544E-002   7.5834407634864931E-003   5.8579439113483678E-002
  -2.4092143294316685E-002   7.2614272604472480E-003   5.8635672184082013E-002
  -2.2870873022948865E-002   6.9294786380333928E-003   5.8910028430009947E-002
  -3.3286643587347814E-002   9.8663171868066668E-003   5.5882287641640091E-002
  -3.1847493767728864E-002   9.4929501723628740E-003   5.5493035052396042E-002
  -3.0408343948109914E-002   9.1153674100677221E-003   5.5321418384324535E-002
  -2.8969194128490972E-002   8.7335688999211711E-003   5.5367437637425812E-002
  -2.7530044308872008E-002   8.3475546419234381E-003   5.5631092811699756E-002
  -3.8819253314767529E-002   1.1534971962171972E-002   5.2569149349089725E-002
  -3.7162711201054320E-002   1.1090381197574425E-002   5.2176376822185316E-002
  -3.5506169087341097E-002   1.0647294056648871E-002   5.2000752962296719E-002
  -3.3849626973627853E-002   1.0205710539395233E-002   5.2042277769423946E-002
  -3.2193084859914643E-002   9.7656306458134556E-003   5.2300951243567158E-002
  -4.4353783290679530E-002   1.3203626737537277E-002   4.9181927620624011E-002
  -4.2480336137028840E-002   1.2687812222786171E-002   4.8791354527582431E-002
  -4.0606888983378144E-002   1.2179220703230118E-002   4.8617442847399994E-002
  -3.8733441829727433E-002   1.1677852178869141E-002   4.8660192580076658E-002
  -3.6859994676076757E-002   1.1183706649703473E-002   4.8919603725612160E-002
  -1.8215571002145152E-002   5.5114026341434030E-003   6.2137758098497864E-002
  -1.7706092865425099E-002   5.2255952581014842E-003   6.1976047674053125E-002
  -1.7196614728705040E-002   4.9395935945328040E-003   6.2037304239440344E-002
  -1.6687136591984977E-002   4.6533976434378968E-003   6.2321527794659687E-002
  -1.6177658455264921E-002   4.3670074048162144E-003   6.2828718339711043E-002
  -2.2870873022948865E-002   6.9294786380333928E-003   5.8910028430009947E-002
  -2.2158656345640744E-002   6.5892422076544999E-003   5.8720802899160540E-002
  -2.1446439668332672E-002   6.2423652807198637E-003   5.8714087459655215E-002
  -2.0734222991024565E-002   5.8888478572294012E-003   5.8889882111493812E-002
  -2.0022006313716482E-002   5.5286899371831955E-003   5.9248186854676532E-002
  -2.7530044308872008E-002   8.3475546419234381E-003   5.5631092811699756E-002
  -2.6655545989463902E-002   7.9528891572075294E-003   5.5407905965416560E-002
  -2.5781047670055790E-002   7.5451369669066876E-003   5.5326772311989320E-002
  -2.4906549350647688E-002   7.1242980710209576E-003   5.5387691851418112E-002
  -2.4032051031239572E-002   6.6903724695502320E-003   5.5590664583702959E-002
  -3.2193084859914643E-002   9.7656306458134556E-003   5.2300951243567158E-002
  -3.1196761796894519E-002   9.3165361067604965E-003   5.2037356872820961E-002
  -3.0200438733874423E-002   8.8479086530937404E-003   5.1875358796442686E-002
  -2.9204115670854319E-002   8.3597482848125435E-003   5.1814957014432554E-002
  -2.8207792607834202E-002   7.8520550019173518E-003   5.1856151526790219E-002
  -3.6859994676076757E-002   1.1183706649703473E-002   4.8919603725612160E-002
  -3.5782303767932663E-002   1.0680183056313602E-002   4.8609155621373690E-002
  -3.4704612859788556E-002   1.0150680339280557E-002   4.8359846913015397E-002
  -3.3626921951644469E-002   9.5951984986040705E-003   4.8171677600536908E-002
  -3.2549231043500368E-002   9.0137375342843051E-003   4.8044647683938513E-002
  -1.6177658455264921E-002   4.3670074048162144E-003   6.2828718339711043E-002
  -1.4635414317931986E-002   4.0703196458740654E-003   6.2759049825326207E-002
  -1.3093170180599047E-002   3.7532311338176194E-003   6.2998959653920328E-002
  -1.1550926043266100E-002   3.4157418686467864E-003   6.3548447825493709E-002
  -1.0008681905933181E-002   3.0578518503614482E-003   6.4407514340045546E-002
  -2.0022006313716482E-002   5.5286899371831955E-003   5.9248186854676532E-002
  -1.8175083325129938E-002   5.1594612770625159E-003   5.8991971121141129E-002
  -1.6328160336543378E-002   4.7787316333487151E-003   5.9035534747133994E-002
  -1.4481237347956793E-002   4.3865010060414253E-003   5.9378877732655364E-002
  -1.2634314359370284E-002   3.9827693951411947E-003   6.0022000077704751E-002
  -2.4032051031239572E-002   6.6903724695502320E-003   5.5590664583702959E-002
  -2.1890248174850028E-002   6.2486029082510497E-003   5.5156801400538025E-002
  -1.9748445318460487E-002   5.8042321328797691E-003   5.5012918593450699E-002
  -1.7606642462070908E-002   5.3572601434362342E-003   5.5159016162441114E-002
  -1.5464839605681378E-002   4.9076869399208300E-003   5.5595094107509124E-002
  -2.8207792607834202E-002   7.8520550019173518E-003   5.1856151526790219E-002
  -2.5780908867092278E-002   7.3377445394396529E-003   5.1253540663516971E-002
  -2.3354025126350368E-002   6.8297326324110105E-003   5.0931111192870540E-002
  -2.0927141385608458E-002   6.3280192808311247E-003   5.0888863114851565E-002
  -1.8500257644866562E-002   5.8326044847004654E-003   5.1126796429459082E-002
  -3.2549231043500368E-002   9.0137375342843051E-003   4.8044647683938513E-002
  -2.9847065401856721E-002   8.4268861706278120E-003   4.7282188910077849E-002
  -2.7144899760213080E-002   7.8552331319419882E-003   4.6790112545393642E-002
  -2.4442734118569395E-002   7.2987784182258104E-003   4.6568418589885904E-002
  -2.1740568476925792E-002   6.7575220294802119E-003   4.6617107043554373E-002
  -5.7152210987417094E-002   0.0000000000000000        3.4692151294731938E-002
  -5.7944050167662041E-002   2.0853572639427300E-003   3.8345337329795802E-002
  -5.8735889347906994E-002   4.1401272911035202E-003   4.2212164901209930E-002
  -5.9527728528151962E-002   6.1643100814823635E-003   4.6292634008974327E-002
  -6.0319567708396908E-002   8.1579056350792739E-003   5.0586744653088975E-002
  -6.5819707081077178E-002   0.0000000000000000        3.7214313044134216E-002
  -6.6626868800313266E-002   2.9150368369348229E-003   4.0838164774033701E-002
  -6.7434030519549368E-002   5.7728021147975764E-003   4.4217729889600627E-002
  -6.8241192238785470E-002   8.5732958335882695E-003   4.7353008390834991E-002
  -6.9048353958021572E-002   1.1316517993306893E-002   5.0244000277736810E-002
  -7.4243644006633219E-002   0.0000000000000000        4.0579496527673647E-002
  -7.5524056415543286E-002   3.7447164099269148E-003   4.4147329630118616E-002
  -7.6804468824453354E-002   7.4054769384916379E-003   4.7012947967548221E-002
  -7.8084881233363393E-002   1.0982281585694174E-002   4.9176351539962443E-002
  -7.9365293642273474E-002   1.4475130351534519E-002   5.0637540347361308E-002
  -8.2424021764085240E-002   0.0000000000000000        4.4787701745350239E-002
  -8.4635613013352082E-002   4.5743959829190068E-003   4.8272831898050567E-002
  -8.6847204262618924E-002   9.0381517621857029E-003   5.0597819135052714E-002
  -8.9058795511885766E-002   1.3391267337800080E-002   5.1762663456356675E-002
  -9.1270386761152622E-002   1.7633742709762135E-002   5.1767364861962428E-002
  -9.0360840353433225E-002   0.0000000000000000        4.9838928697163984E-002
  -9.3961538593739666E-002   5.4040755559110996E-003   5.3214671577829567E-002
  -9.7562236834046120E-002   1.0670826585879759E-002   5.4972343392114133E-002
 -0.10116293507435256        1.5800253089905986E-002   5.5111944140017688E-002
 -0.10476363331465902        2.0792355067989772E-002   5.3633473821540240E-002
  -6.0319567708396908E-002   8.1579056350792739E-003   5.0586744653088975E-002
  -6.0618977763544447E-002   1.0038699469620866E-002   5.1523887490755350E-002
  -6.0918387818691980E-002   1.1724477102833829E-002   5.2248258051295002E-002
  -6.1217797873839505E-002   1.3215238534718119E-002   5.2759856334707901E-002
  -6.1517207928987037E-002   1.4510983765273724E-002   5.3058682340994132E-002
  -6.9048353958021572E-002   1.1316517993306893E-002   5.0244000277736810E-002
  -6.9322587343562336E-002   1.3762631059454434E-002   4.9464957212810023E-002
  -6.9596820729103101E-002   1.5671797497531850E-002   4.8949039764223524E-002
  -6.9871054114643866E-002   1.7044017307539190E-002   4.8696247931977257E-002
  -7.0145287500184617E-002   1.7879290489476424E-002   4.8706581716071229E-002
  -7.9365293642273474E-002   1.4475130351534519E-002   5.0637540347361308E-002
  -7.9138452464740494E-002   1.7486562649287996E-002   4.7800380953099950E-002
  -7.8911611287207542E-002   1.9619117892229903E-002   4.5702245068645814E-002
  -7.8684770109674548E-002   2.0872796080360287E-002   4.4343132693998907E-002
  -7.8457928932141610E-002   2.1247597213679102E-002   4.3723043829159189E-002
  -9.1270386761152622E-002   1.7633742709762135E-002   5.1767364861962428E-002
  -9.0066573127078942E-002   2.1210494239121570E-002   4.6530158711625039E-002
  -8.8862759493005261E-002   2.3566438286927956E-002   4.2507873964561876E-002
  -8.7658945858931581E-002   2.4701574853181411E-002   3.9700510620772900E-002
  -8.6455132224857900E-002   2.4615903937881805E-002   3.8108068680258095E-002
 -0.10476363331465902        2.0792355067989772E-002   5.3633473821540240E-002
 -0.10210694933057765        2.4934425828955119E-002   4.5654290488385416E-002
  -9.9450265346496300E-002   2.7513758681625981E-002   3.9365926451971699E-002
  -9.6793581362414935E-002   2.8530353626002470E-002   3.4768381712299207E-002
  -9.4136897378333584E-002   2.7984210662084473E-002   3.1861656269367843E-002
  -6.1517207928987037E-002   1.4510983765273724E-002   5.3058682340994132E-002
  -6.0205590256602055E-002   1.5516079794464805E-002   5.1653558035982788E-002
  -5.8893972584217094E-002   1.6134893622255553E-002   5.0699112849623300E-002
  -5.7582354911832112E-002   1.6367425248645855E-002   5.0195346781915701E-002
  -5.6270737239447151E-002   1.6213674673635797E-002   5.0142259832859970E-002
  -7.0145287500184617E-002   1.7879290489476424E-002   4.8706581716071229E-002
  -6.8429313982570988E-002   1.8335173921260599E-002   4.7266514740059155E-002
  -6.6713340464957346E-002   1.8569224480808742E-002   4.6184480335852485E-002
  -6.4997366947343732E-002   1.8581442168120917E-002   4.5460478503451307E-002
  -6.3281393429730076E-002   1.8371826983197059E-002   4.5094509242855609E-002
  -7.8457928932141610E-002   2.1247597213679102E-002   4.3723043829159189E-002
  -7.6430246116145698E-002   2.1154268048056347E-002   4.2412483511310738E-002
  -7.4402563300149785E-002   2.1003555339361983E-002   4.1367309218421314E-002
  -7.2374880484153886E-002   2.0795459087595995E-002   4.0587520950490966E-002
  -7.0347197668157974E-002   2.0529979292758363E-002   4.0073118707519707E-002
  -8.6455132224857900E-002   2.4615903937881805E-002   3.8108068680258095E-002
  -8.4208386657326148E-002   2.3973362174852120E-002   3.7091464349737695E-002
  -8.1961641089794382E-002   2.3437886197915186E-002   3.6247599497329815E-002
  -7.9714895522262630E-002   2.3009476007071050E-002   3.5576474123034635E-002
  -7.7468149954730892E-002   2.2688131602319660E-002   3.5078088226852204E-002
  -9.4136897378333584E-002   2.7984210662084473E-002   3.1861656269367843E-002
  -9.1763735606112354E-002   2.6792456301647859E-002   3.1303457255339763E-002
  -8.9390573833891152E-002   2.5872217056468430E-002   3.0825351172577963E-002
  -8.7017412061669921E-002   2.5223492926546128E-002   3.0427338021082398E-002
  -8.4644250289448719E-002   2.4846283911880956E-002   3.0109417800853105E-002
  -5.6270737239447151E-002   1.6213674673635797E-002   5.0142259832859970E-002
  -5.4753283843093997E-002   1.5870225314889873E-002   4.9814631036236956E-002
  -5.3235830446740837E-002   1.5533660590072752E-002   4.9633240842380716E-002
  -5.1718377050387669E-002   1.5203980499184542E-002   4.9598089251291284E-002
  -5.0200923654034529E-002   1.4881185042224965E-002   4.9709176262968585E-002
  -6.3281393429730076E-002   1.8371826983197059E-002   4.5094509242855609E-002
  -6.1595944271800721E-002   1.8035019606023543E-002   4.4720656117729747E-002
  -5.9910495113871400E-002   1.7665660716586484E-002   4.4536555912989439E-002
  -5.8225045955942058E-002   1.7263750314886139E-002   4.4542208628634727E-002
  -5.6539596798012681E-002   1.6829288400922238E-002   4.4737614264665618E-002
  -7.0347197668157974E-002   2.0529979292758363E-002   4.0073118707519707E-002
  -6.8450238431033622E-002   2.0199813897157120E-002   3.9613605107698714E-002
  -6.6553279193909270E-002   1.9797660843100213E-002   3.9387358745882145E-002
  -6.4656319956784919E-002   1.9323520130587666E-002   3.9394379622070021E-002
  -6.2759360719660567E-002   1.8777391759619483E-002   3.9634667736262313E-002
  -7.7468149954730892E-002   2.2688131602319660E-002   3.5078088226852204E-002
  -7.5316166320792674E-002   2.2364608188290801E-002   3.4493478006143871E-002
  -7.3164182686854470E-002   2.1929660969613886E-002   3.4185649341058805E-002
  -7.1012199052916239E-002   2.1383289946289286E-002   3.4154602231596998E-002
  -6.8860215418978021E-002   2.0725495118316714E-002   3.4400336677758471E-002
  -8.4644250289448719E-002   2.4846283911880956E-002   3.0109417800853105E-002
  -8.2193727941077835E-002   2.4529402479424353E-002   2.9360274813065232E-002
  -7.9743205592706951E-002   2.4061661096127653E-002   2.8931427698519502E-002
  -7.7292683244336094E-002   2.3443059761990868E-002   2.8822876457215811E-002
  -7.4842160895965210E-002   2.2673598477014001E-002   2.9034621089154222E-002
  -5.0200923654034529E-002   1.4881185042224965E-002   4.9709176262968585E-002
  -4.8739138563195776E-002   1.4536822793185675E-002   4.9253874981762924E-002
  -4.7277353472357023E-002   1.4142442326057825E-002   4.9014233114303668E-002
  -4.5815568381518269E-002   1.3698043640841748E-002   4.8990250660590678E-002
  -4.4353783290679530E-002   1.3203626737537277E-002   4.9181927620624011E-002
  -5.6539596798012681E-002   1.6829288400922238E-002   4.4737614264665618E-002
  -5.4873834917817298E-002   1.6365454423761722E-002   4.4351434165291581E-002
  -5.3208073037621921E-002   1.5875427832471325E-002   4.4157548230884448E-002
  -5.1542311157426482E-002   1.5359208627051150E-002   4.4155956461444337E-002
  -4.9876549277231147E-002   1.4816796807500920E-002   4.4346658856971227E-002
  -6.2759360719660567E-002   1.8777391759619483E-002   3.9634667736262313E-002
  -6.0912987298887840E-002   1.8194086054337720E-002   3.9341434422678290E-002
  -5.9066613878115126E-002   1.7608413338884715E-002   3.9217130025281877E-002
  -5.7220240457342440E-002   1.7020373613260330E-002   3.9261754544073151E-002
  -5.5373867036569713E-002   1.6429966877464619E-002   3.9475307979052007E-002
  -6.8860215418978021E-002   2.0725495118316714E-002   3.4400336677758471E-002
  -6.6856595706407354E-002   2.0022717684913854E-002   3.4223875753923064E-002
  -6.4852975993836701E-002   1.9341398845298105E-002   3.4192978497495925E-002
  -6.2849356281266033E-002   1.8681538599469621E-002   3.4307644908477083E-002
  -6.0845736568695373E-002   1.8043136947428290E-002   3.4567874986866517E-002
  -7.4842160895965210E-002   2.2673598477014001E-002   2.9034621089154222E-002
  -7.2704660140375924E-002   2.1851349315489821E-002   2.8998758159025861E-002
  -7.0567159384786610E-002   2.1074384351711523E-002   2.9085093647526497E-002
  -6.8429658629197296E-002   2.0342703585678905E-002   2.9293627554656171E-002
  -6.6292157873608010E-002   1.9656307017391961E-002   2.9624359880414675E-002
  -4.4353783290679530E-002   1.3203626737537277E-002   4.9181927620624011E-002
  -4.2480336137028840E-002   1.2687812222786171E-002   4.8791354527582431E-002
  -4.0606888983378144E-002   1.2179220703230118E-002   4.8617442847399994E-002
  -3.8733441829727433E-002   1.1677852178869141E-002   4.8660192580076658E-002
  -3.6859994676076757E-002   1.1183706649703473E-002   4.8919603725612160E-002
  -4.9876549277231147E-002   1.4816796807500920E-002   4.4346658856971227E-002
  -4.7782101324212234E-002   1.4261680209986749E-002   4.3989876404350203E-002
  -4.5687653371193342E-002   1.3707346670674442E-002   4.3858434137606622E-002
  -4.3593205418174422E-002   1.3153796189563687E-002   4.3952332056740352E-002
  -4.1498757465155536E-002   1.2601028766654976E-002   4.4271570161751345E-002
  -5.5373867036569713E-002   1.6429966877464619E-002   3.9475307979052007E-002
  -5.3049739511164332E-002   1.5835548197187424E-002   3.9145876229858295E-002
  -5.0725611985758957E-002   1.5235472638118717E-002   3.9050463439560250E-002
  -4.8401484460353555E-002   1.4629740200258290E-002   3.9189069608157712E-002
  -4.6077356934948202E-002   1.4018350883606479E-002   3.9561694735650979E-002
  -6.0845736568695373E-002   1.8043136947428290E-002   3.4567874986866517E-002
  -5.8283250697885217E-002   1.7409416184388134E-002   3.4259354004106644E-002
  -5.5720764827075046E-002   1.6763598605562990E-002   3.4193530753260717E-002
  -5.3158278956264862E-002   1.6105684210952920E-002   3.4370405234328695E-002
  -5.0595793085454782E-002   1.5435673000558037E-002   3.4789977447310633E-002
  -6.6292157873608010E-002   1.9656307017391961E-002   2.9624359880414675E-002
  -6.3482634884374806E-002   1.8983284171588677E-002   2.9330309727095355E-002
  -6.0673111895141574E-002   1.8291724573007345E-002   2.9287636078708212E-002
  -5.7863588905908370E-002   1.7581628221647390E-002   2.9496338935253372E-002
  -5.5054065916675138E-002   1.6852995117509484E-002   2.9956418296730569E-002
  -3.6859994676076757E-002   1.1183706649703473E-002   4.8919603725612160E-002
  -3.5782303767932663E-002   1.0680183056313602E-002   4.8609155621373690E-002
  -3.4704612859788556E-002   1.0150680339280557E-002   4.8359846913015397E-002
  -3.3626921951644469E-002   9.5951984986040705E-003   4.8171677600536908E-002
  -3.2549231043500368E-002   9.0137375342843051E-003   4.8044647683938513E-002
  -4.1498757465155536E-002   1.2601028766654976E-002   4.4271570161751345E-002
  -4.0346124890595157E-002   1.2040129143778971E-002   4.4013574356445817E-002
  -3.9193492316034743E-002   1.1462182062766987E-002   4.3844322488092793E-002
  -3.8040859741474323E-002   1.0867187523618631E-002   4.3763814556692364E-002
  -3.6888227166913895E-002   1.0255145526334497E-002   4.3772050562244591E-002
  -4.6077356934948202E-002   1.4018350883606479E-002   3.9561694735650979E-002
  -4.4822178152898851E-002   1.3400075231244327E-002   3.9365082894785255E-002
  -4.3566999370849541E-002   1.2773683786253313E-002   3.9284819531944730E-002
  -4.2311820588800175E-002   1.2139176548633416E-002   3.9320904647129465E-002
  -4.1056641806750879E-002   1.1496553518384550E-002   3.9473338240339592E-002
  -5.0595793085454782E-002   1.5435673000558037E-002   3.4789977447310633E-002
  -4.9210463554843847E-002   1.4760021318709689E-002   3.4663681236392130E-002
  -4.7825134024232933E-002   1.4085185509739858E-002   3.4681338044571436E-002
  -4.6439804493622013E-002   1.3411165573647979E-002   3.4842947871848731E-002
  -4.5054474963011085E-002   1.2737961510434673E-002   3.5148510718223683E-002
  -5.5054065916675138E-002   1.6852995117509484E-002   2.9956418296730569E-002
  -5.3510981096430044E-002   1.6119967406175106E-002   2.9909369381266315E-002
  -5.1967896276184922E-002   1.5396687233225959E-002   3.0033878025972627E-002
  -5.0424811455939814E-002   1.4683154598662818E-002   3.0329944230849532E-002
  -4.8881726635694706E-002   1.3979369502484684E-002   3.0797567995896946E-002
  -3.2549231043500368E-002   9.0137375342843051E-003   4.8044647683938513E-002
  -2.9847065401856721E-002   8.4268861706278120E-003   4.7282188910077849E-002
  -2.7144899760213080E-002   7.8552331319419882E-003   4.6790112545393642E-002
  -2.4442734118569395E-002   7.2987784182258104E-003   4.6568418589885904E-002
  -2.1740568476925792E-002   6.7575220294802119E-003   4.6617107043554373E-002
  -3.6888227166913895E-002   1.0255145526334497E-002   4.3772050562244591E-002
  -3.3920413178319300E-002   9.6365330556314466E-003   4.3184991627869540E-002
  -3.0952599189724650E-002   9.0218270962271196E-003   4.2858846978220122E-002
  -2.7984785201129951E-002   8.4110276481214608E-003   4.2793616613296684E-002
  -2.5016971212535349E-002   7.8041347113143589E-003   4.2989300533098462E-002
  -4.1056641806750879E-002   1.1496553518384550E-002   3.9473338240339592E-002
  -3.7832647595655980E-002   1.0846179940634859E-002   3.9050387331778791E-002
  -3.4608653384561115E-002   1.0188421060512355E-002   3.8878882583492737E-002
  -3.1384659173466251E-002   9.5232768780168595E-003   3.8958823995481590E-002
  -2.8160664962371296E-002   8.8507473931485059E-003   3.9290211567745315E-002
  -4.5054474963011085E-002   1.2737961510434673E-002   3.5148510718223683E-002
  -4.1583768653866773E-002   1.2055826825638272E-002   3.4878376021805484E-002
  -3.8113062344722469E-002   1.1355015024797372E-002   3.4850219361211333E-002
  -3.4642356035578088E-002   1.0635526107912217E-002   3.5064040736441426E-002
  -3.1171649726433867E-002   9.8973600749826529E-003   3.5519840147494985E-002
  -4.8881726635694706E-002   1.3979369502484684E-002   3.0797567995896946E-002
  -4.5173776352951722E-002   1.3265473710641573E-002   3.0668957697949861E-002
  -4.1465826070208725E-002   1.2521608989082583E-002   3.0772857311376134E-002
  -3.7757875787465735E-002   1.1747775337807735E-002   3.1109266836175431E-002
  -3.4049925504722689E-002   1.0943972756816800E-002   3.1678186272348308E-002
  -9.0360840353433225E-002   0.0000000000000000        4.9838928697163984E-002
  -9.3961538593739666E-002   5.4040755559110996E-003   5.3214671577829567E-002
  -9.7562236834046120E-002   1.0670826585879759E-002   5.4972343392114133E-002
 -0.10116293507435256        1.5800253089905986E-002   5.5111944140017688E-002
 -0.10476363331465902        2.0792355067989772E-002   5.3633473821540240E-002
 -0.10329229569822788        0.0000000000000000        5.8667160860186689E-002
 -0.10682966425455698        1.0885096697439922E-002   5.2124179739518911E-002
 -0.11036703281088604        1.9172933775433530E-002   4.7325929053186874E-002
 -0.11390440136721512        2.4863511233980833E-002   4.4272408801190599E-002
 -0.11744176992354420        2.7956829073081824E-002   4.2963618983530086E-002
 -0.12645658372201990        0.0000000000000000        7.4206381711490133E-002
 -0.12656782109365486        1.6366117838968745E-002   5.5284741495985147E-002
 -0.12667905846528979        2.7675040964987303E-002   4.1470633215532640E-002
 -0.12679029583692472        3.3926769378055679E-002   3.2764056870132667E-002
 -0.12690153320855971        3.5121303078173884E-002   2.9165012459785183E-002
 -0.15985370442480926        0.0000000000000000        9.6456591251074350E-002
 -0.15317600911103332        2.1847138980497567E-002   6.2696356847228268E-002
 -0.14649831379725739        3.6177148154541081E-002   3.7406455879151437E-002
 -0.13982061848348146        4.2990027522130554E-002   2.0586888346843857E-002
 -0.13314292316970552        4.2285777083265946E-002   1.2237654250305551E-002
 -0.20348365780659597        0.0000000000000000       0.12541778947893933     
 -0.18665422830669243        2.7328160122026390E-002   7.4359025793248268E-002
 -0.16982479880678883        4.4679255344094851E-002   3.5133397044043224E-002
 -0.15299536930688526        5.2053285666205380E-002   7.7409032313242171E-003
 -0.13616593980698172        4.9450251088358002E-002  -7.8184556449087950E-003
 -0.10476363331465902        2.0792355067989772E-002   5.3633473821540240E-002
 -0.10210694933057765        2.4934425828955119E-002   4.5654290488385416E-002
  -9.9450265346496300E-002   2.7513758681625981E-002   3.9365926451971699E-002
  -9.6793581362414935E-002   2.8530353626002470E-002   3.4768381712299207E-002
  -9.4136897378333584E-002   2.7984210662084473E-002   3.1861656269367843E-002
 -0.11744176992354420        2.7956829073081824E-002   4.2963618983530086E-002
 -0.11348214643685650        2.9428333859321865E-002   3.6710376982825053E-002
 -0.10952252295016880        3.0253472159286379E-002   3.1372194690591534E-002
 -0.10556289946348112        3.0432243972975313E-002   2.6949072106829564E-002
 -0.10160327597679343        2.9964649300388647E-002   2.3441009231539085E-002
 -0.12690153320855971        3.5121303078173884E-002   2.9165012459785183E-002
 -0.12241472980753532        3.3922241889688641E-002   2.5554083213548889E-002
 -0.11792792640651094        3.2993185636946712E-002   2.2082454087514421E-002
 -0.11344112300548655        3.2334134319948082E-002   1.8750125081681800E-002
 -0.10895431960446221        3.1945087938692787E-002   1.5557096196051034E-002
 -0.13314292316970552        4.2285777083265946E-002   1.2237654250305551E-002
 -0.12890469944261415        3.8416149920055417E-002   1.2185409180556829E-002
 -0.12466647571552275        3.5732899114607079E-002   1.1496704642740290E-002
 -0.12042825198843136        3.4236024666920925E-002   1.0171540636855958E-002
 -0.11619002826133996        3.3925526576996955E-002   8.2099171629038629E-003
 -0.13616593980698172        4.9450251088358002E-002  -7.8184556449087950E-003
 -0.13295205534209292        4.2910057950422138E-002  -3.3956451161511157E-003
 -0.12973817087720421        3.8472612592267474E-002  -3.8505364373080109E-004
 -0.12652428641231545        3.6137915013893726E-002   1.2133187723520934E-003
 -0.12331040194742671        3.5905965215301122E-002   1.3994721320974013E-003
  -9.4136897378333584E-002   2.7984210662084473E-002   3.1861656269367843E-002
  -9.1763735606112354E-002   2.6792456301647859E-002   3.1303457255339763E-002
  -8.9390573833891152E-002   2.5872217056468430E-002   3.0825351172577963E-002
  -8.7017412061669921E-002   2.5223492926546128E-002   3.0427338021082398E-002
  -8.4644250289448719E-002   2.4846283911880956E-002   3.0109417800853105E-002
 -0.10160327597679343        2.9964649300388647E-002   2.3441009231539085E-002
  -9.9135861545003118E-002   2.9197298460961640E-002   2.3171489550530812E-002
  -9.6668447113212846E-002   2.8476801774129465E-002   2.3010382257394529E-002
  -9.4201032681422561E-002   2.7803159239892180E-002   2.2957687352130114E-002
  -9.1733618249632262E-002   2.7176370858249616E-002   2.3013404834737586E-002
 -0.10895431960446221        3.1945087938692787E-002   1.5557096196051034E-002
 -0.10636433305649723        3.1602140620275429E-002   1.5351594885400366E-002
 -0.10377434650853221        3.1081386491790548E-002   1.5282825419227264E-002
 -0.10118435996056720        3.0382825553238148E-002   1.5350787797531646E-002
  -9.8594373412602215E-002   2.9506457804618261E-002   1.5555482020313600E-002
 -0.11619002826133996        3.3925526576996955E-002   8.2099171629038629E-003
 -0.11344915014059462        3.4006982779589141E-002   7.8437732599483632E-003
 -0.11070827201984922        3.3685971209451597E-002   7.6426806580760769E-003
 -0.10796739389910384        3.2962491866584120E-002   7.6066393572870117E-003
 -0.10522651577835852        3.1836544750986968E-002   7.7356493575810887E-003
 -0.12331040194742671        3.5905965215301122E-002   1.3994721320974013E-003
 -0.12039031279729534        3.6411824938902979E-002   6.4802467417479637E-004
 -0.11747022364716395        3.6290555927112590E-002   8.9947973940990300E-005
 -0.11455013449703259        3.5542158179930249E-002  -2.7475796860394058E-004
 -0.11163004534690119        3.4166631697355565E-002  -4.4609315346011424E-004
  -8.4644250289448719E-002   2.4846283911880956E-002   3.0109417800853105E-002
  -8.2193727941077835E-002   2.4529402479424353E-002   2.9360274813065232E-002
  -7.9743205592706951E-002   2.4061661096127653E-002   2.8931427698519502E-002
  -7.7292683244336094E-002   2.3443059761990868E-002   2.8822876457215811E-002
  -7.4842160895965210E-002   2.2673598477014001E-002   2.9034621089154222E-002
  -9.1733618249632262E-002   2.7176370858249616E-002   2.3013404834737586E-002
  -8.8998869165760594E-002   2.6550818178756888E-002   2.2359184156854395E-002
  -8.6264120081888968E-002   2.5880882750968906E-002   2.1953121076730663E-002
  -8.3529370998017299E-002   2.5166564574885714E-002   2.1795215594366344E-002
  -8.0794621914145659E-002   2.4407863650507233E-002   2.1885467709761519E-002
  -9.8594373412602215E-002   2.9506457804618261E-002   1.5555482020313600E-002
  -9.5647535868712413E-002   2.8572233878089374E-002   1.5102660854879886E-002
  -9.2700698324822584E-002   2.7700104405810128E-002   1.4825859011722880E-002
  -8.9753860780932768E-002   2.6890069387780529E-002   1.4725076490842823E-002
  -8.6807023237042966E-002   2.6142128824000521E-002   1.4800313292239631E-002
 -0.10522651577835852        3.1836544750986968E-002   7.7356493575810887E-003
 -0.10213972804993317        3.0593649577421899E-002   7.5907049071416259E-003
  -9.9052940321507882E-002   2.9519326060651448E-002   7.5496415034965189E-003
  -9.5966152593082513E-002   2.8613574200675472E-002   7.6124591466453558E-003
  -9.2879364864657213E-002   2.7876393997493754E-002   7.7791578365884739E-003
 -0.11163004534690119        3.4166631697355565E-002  -4.4609315346011424E-004
 -0.10847544570942302        3.2615065276754451E-002  -1.7668368636042375E-004
 -0.10532084607194478        3.1338547715492646E-002   1.2446855205094920E-004
 -0.10216624643446660        3.0337079013570172E-002   4.5736356177378257E-004
  -9.9011646796988373E-002   2.9610659170987097E-002   8.2200134280835391E-004
  -7.4842160895965210E-002   2.2673598477014001E-002   2.9034621089154222E-002
  -7.2704660140375924E-002   2.1851349315489821E-002   2.8998758159025861E-002
  -7.0567159384786610E-002   2.1074384351711523E-002   2.9085093647526497E-002
  -6.8429658629197296E-002   2.0342703585678905E-002   2.9293627554656171E-002
  -6.6292157873608010E-002   1.9656307017391961E-002   2.9624359880414675E-002
  -8.0794621914145659E-002   2.4407863650507233E-002   2.1885467709761519E-002
  -7.8532307708079299E-002   2.3627733181783725E-002   2.1815683435439714E-002
  -7.6269993502012981E-002   2.2849126372665209E-002   2.1873327643443116E-002
  -7.4007679295946663E-002   2.2072043223151948E-002   2.2058400333771745E-002
  -7.1745365089880289E-002   2.1296483733243637E-002   2.2370901506425289E-002
  -8.6807023237042966E-002   2.6142128824000521E-002   1.4800313292239631E-002
  -8.4414665516803392E-002   2.5404117048077601E-002   1.4652847135583826E-002
  -8.2022307796563887E-002   2.4623868393618978E-002   1.4638039524949374E-002
  -7.9629950076324313E-002   2.3801382860624883E-002   1.4755890460336270E-002
  -7.7237592356084794E-002   2.2936660449095314E-002   1.5006399941744214E-002
  -9.2879364864657213E-002   2.7876393997493754E-002   7.7791578365884739E-003
  -9.0351733566548326E-002   2.7180500914371436E-002   7.5102492594581582E-003
  -8.7824102268439327E-002   2.6398610414572761E-002   7.3792292920451946E-003
  -8.5296470970330426E-002   2.5530722498098068E-002   7.3860979343497394E-003
  -8.2768839672221414E-002   2.4576837164946991E-002   7.5308551863716502E-003
  -9.9011646796988373E-002   2.9610659170987097E-002   8.2200134280835391E-004
  -9.6343511857313824E-002   2.8956884780665215E-002   3.8788980706269682E-004
  -9.3675376917639386E-002   2.8173352435526336E-002   9.6896944730667789E-005
  -9.1007241977964864E-002   2.7260062135571004E-002  -5.0977244187767889E-005
  -8.8339107038290399E-002   2.6217013880798667E-002  -5.5732759692672662E-005
  -6.6292157873608010E-002   1.9656307017391961E-002   2.9624359880414675E-002
  -6.3482634884374806E-002   1.8983284171588677E-002   2.9330309727095355E-002
  -6.0673111895141574E-002   1.8291724573007345E-002   2.9287636078708212E-002
  -5.7863588905908370E-002   1.7581628221647390E-002   2.9496338935253372E-002
  -5.5054065916675138E-002   1.6852995117509484E-002   2.9956418296730569E-002
  -7.1745365089880289E-002   2.1296483733243637E-002   2.2370901506425289E-002
  -6.8685832940856451E-002   2.0524652123515147E-002   2.2030161632020262E-002
  -6.5626300791832654E-002   1.9758752614540818E-002   2.1938063572264119E-002
  -6.2566768642808801E-002   1.8998785206320860E-002   2.2094607327156873E-002
  -5.9507236493785004E-002   1.8244749898855162E-002   2.2499792896698845E-002
  -7.7237592356084794E-002   2.2936660449095314E-002   1.5006399941744214E-002
  -7.3930785737553545E-002   2.2066020075441450E-002   1.4643439199785911E-002
  -7.0623979119022309E-002   2.1225780656074347E-002   1.4526385582193352E-002
  -6.7317172500491143E-002   2.0415942190994272E-002   1.4655239088966779E-002
  -6.4010365881959880E-002   1.9636504680200950E-002   1.5029999720105838E-002
  -8.2768839672221414E-002   2.4576837164946991E-002   7.5308551863716502E-003
  -7.9217493274466019E-002   2.3607388027367837E-002   7.1701424303926651E-003
  -7.5666146876710610E-002   2.2692808697607932E-002   7.0526021084962899E-003
  -7.2114800478955202E-002   2.1833099175667628E-002   7.1782342206825594E-003
  -6.8563454081199779E-002   2.1028259461546711E-002   7.5470387669513139E-003
  -8.8339107038290399E-002   2.6217013880798667E-002  -5.5732759692672662E-005
  -8.4545955551593943E-002   2.5148755979294279E-002  -3.8972867615966189E-004
  -8.0752804064897543E-002   2.4159836739141405E-002  -4.8328684882729955E-004
  -7.6959652578201171E-002   2.3250256160341112E-002  -3.3640727769552667E-004
  -7.3166501091504688E-002   2.2420014242892417E-002   5.0910037235674110E-005
  -5.5054065916675138E-002   1.6852995117509484E-002   2.9956418296730569E-002
  -5.3510981096430044E-002   1.6119967406175106E-002   2.9909369381266315E-002
  -5.1967896276184922E-002   1.5396687233225959E-002   3.0033878025972627E-002
  -5.0424811455939814E-002   1.4683154598662818E-002   3.0329944230849532E-002
  -4.8881726635694706E-002   1.3979369502484684E-002   3.0797567995896946E-002
  -5.9507236493785004E-002   1.8244749898855162E-002   2.2499792896698845E-002
  -5.7815034906644386E-002   1.7490908153907248E-002   2.2382445658228001E-002
  -5.6122833319503795E-002   1.6731521433241026E-002   2.2391774393377584E-002
  -5.4430631732363254E-002   1.5966589736855899E-002   2.2527779102147691E-002
  -5.2738430145222587E-002   1.5196113064752437E-002   2.2790459784538308E-002
  -6.4010365881959880E-002   1.9636504680200950E-002   1.5029999720105838E-002
  -6.2213929114473904E-002   1.8861848901639860E-002   1.4827061644524242E-002
  -6.0417492346987844E-002   1.8066355633255926E-002   1.4705917956013143E-002
  -5.8621055579501799E-002   1.7250024875049258E-002   1.4666568654572359E-002
  -5.6824618812015816E-002   1.6412856627020134E-002   1.4709013740202087E-002
  -6.8563454081199779E-002   2.1028259461546711E-002   7.5470387669513139E-003
  -6.6707663719918348E-002   2.0232789649372210E-002   7.2432173401549803E-003
  -6.4851873358637013E-002   1.9401189833270743E-002   6.9763087138792063E-003
  -6.2996082997355624E-002   1.8533460013242423E-002   6.7463128881232841E-003
  -6.1140292636074227E-002   1.7629600189287692E-002   6.5532298628879701E-003
  -7.3166501091504688E-002   2.2420014242892417E-002   5.0910037235674110E-005
  -7.1296238722978078E-002   2.1603730397104393E-002  -3.6908725487955207E-004
  -6.9425976354451302E-002   2.0736024033285616E-002  -7.9705333302484971E-004
  -6.7555713985924665E-002   1.9816895151435795E-002  -1.2329881971990878E-003
  -6.5685451617397916E-002   1.8846343751555472E-002  -1.6768918474037164E-003
  -4.8881726635694706E-002   1.3979369502484684E-002   3.0797567995896946E-002
  -4.5173776352951722E-002   1.3265473710641573E-002   3.0668957697949861E-002
  -4.1465826070208725E-002   1.2521608989082583E-002   3.0772857311376134E-002
  -3.7757875787465735E-002   1.1747775337807735E-002   3.1109266836175431E-002
  -3.4049925504722689E-002   1.0943972756816800E-002   3.1678186272348308E-002
  -5.2738430145222587E-002   1.5196113064752437E-002   2.2790459784538308E-002
  -4.8784998312992892E-002   1.4418979818148464E-002   2.2426467415940315E-002
  -4.4831566480763155E-002   1.3634078398262278E-002   2.2320928234942694E-002
  -4.0878134648533390E-002   1.2841408805094053E-002   2.2473842241544986E-002
  -3.6924702816303723E-002   1.2040971038643544E-002   2.2885209435747678E-002
  -5.6824618812015816E-002   1.6412856627020134E-002   1.4709013740202087E-002
  -5.2599762154072388E-002   1.5572485925655466E-002   1.4131840057387074E-002
  -4.8374905496129120E-002   1.4746547807441820E-002   1.3839062838399169E-002
  -4.4150048838185803E-002   1.3935042272380429E-002   1.3830682083238149E-002
  -3.9925192180242416E-002   1.3137969320470400E-002   1.4106697791904266E-002
  -6.1140292636074227E-002   1.7629600189287692E-002   6.5532298628879701E-003
  -5.6618067876190434E-002   1.6725992033162024E-002   5.7850756222899008E-003
  -5.2095843116306648E-002   1.5859017216621828E-002   5.3272611217452075E-003
  -4.7573618356422778E-002   1.5028675739666831E-002   5.1797863612546603E-003
  -4.3051393596539075E-002   1.4234967602297088E-002   5.3426513408180581E-003
  -6.5685451617397916E-002   1.8846343751555472E-002  -1.6768918474037164E-003
  -6.0839915479346640E-002   1.7879498140669248E-002  -2.6138258893513289E-003
  -5.5994379341295586E-002   1.6971486625801252E-002  -3.2144769150184993E-003
  -5.1148843203244476E-002   1.6122309206953227E-002  -3.4788449244054984E-003
  -4.6303307065193255E-002   1.5331965884123999E-002  -3.4069299175105705E-003
 </DataArray>
 </PointData>
 </Piece>
 <Piece  NumberOfPoints="          1600 "  NumberOfCells="         1024 ">
 <Points>
 <DataArray  type="Float64" NumberOfComponents="3"  format="ascii" >
  0.50000000000000000        0.0000000000000000        0.0000000000000000     
  0.53125000000000000        0.0000000000000000        0.0000000000000000     
  0.56250000000000000        0.0000000000000000        0.0000000000000000     
  0.59375000000000000        0.0000000000000000        0.0000000000000000     
  0.62500000000000000        0.0000000000000000        0.0000000000000000     
  0.50000000000000000        3.1250000000000000E-002   0.0000000000000000     
  0.53125000000000000        3.1250000000000000E-002   0.0000000000000000     
  0.56250000000000000        3.1250000000000000E-002   0.0000000000000000     
  0.59375000000000000        3.1250000000000000E-002   0.0000000000000000     
  0.62500000000000000        3.1250000000000000E-002   0.0000000000000000     
  0.50000000000000000        6.2500000000000000E-002   0.0000000000000000     
  0.53125000000000000        6.2500000000000000E-002   0.0000000000000000     
  0.56250000000000000        6.2500000000000000E-002   0.0000000000000000     
  0.59375000000000000        6.2500000000000000E-002   0.0000000000000000     
  0.62500000000000000        6.2500000000000000E-002   0.0000000000000000     
  0.50000000000000000        9.3750000000000000E-002   0.0000000000000000     
  0.53125000000000000        9.3750000000000000E-002   0.0000000000000000     
  0.56250000000000000        9.3750000000000000E-002   0.0000000000000000     
  0.59375000000000000        9.3750000000000000E-002   0.0000000000000000     
  0.62500000000000000        9.3750000000000000E-002   0.0000000000000000     
  0.50000000000000000       0.12500000000000000        0.0000000000000000     
  0.53125000000000000       0.12500000000000000        0.0000000000000000     
  0.56250000000000000       0.12500000000000000        0.0000000000000000     
  0.59375000000000000       0.12500000000000000        0.0000000000000000     
  0.62500000000000000       0.12500000000000000        0.0000000000000000     
  0.62500000000000000        0.0000000000000000        0.0000000000000000     
  0.65625000000000000        0.0000000000000000        0.0000000000000000     
  0.68750000000000000        0.0000000000000000        0.0000000000000000     
  0.71875000000000000        0.0000000000000000        0.0000000000000000     
  0.75000000000000000        0.0000000000000000        0.0000000000000000     
  0.62500000000000000        3.1250000000000000E-002   0.0000000000000000     
  0.65625000000000000        3.1250000000000000E-002   0.0000000000000000     
  0.68750000000000000        3.1250000000000000E-002   0.0000000000000000     
  0.71875000000000000        3.1250000000000000E-002   0.0000000000000000     
  0.75000000000000000        3.1250000000000000E-002   0.0000000000000000     
  0.62500000000000000        6.2500000000000000E-002   0.0000000000000000     
  0.65625000000000000        6.2500000000000000E-002   0.0000000000000000     
  0.68750000000000000        6.2500000000000000E-002   0.0000000000000000     
  0.71875000000000000        6.2500000000000000E-002   0.0000000000000000     
  0.75000000000000000        6.2500000000000000E-002   0.0000000000000000     
  0.62500000000000000        9.3750000000000000E-002   0.0000000000000000     
  0.65625000000000000        9.3750000000000000E-002   0.0000000000000000     
  0.68750000000000000        9.3750000000000000E-002   0.0000000000000000     
  0.71875000000000000        9.3750000000000000E-002   0.0000000000000000     
  0.75000000000000000        9.3750000000000000E-002   0.0000000000000000     
  0.62500000000000000       0.12500000000000000        0.0000000000000000     
  0.65625000000000000       0.12500000000000000        0.0000000000000000     
  0.68750000000000000       0.12500000000000000        0.0000000000000000     
  0.71875000000000000       0.12500000000000000        0.0000000000000000     
  0.75000000000000000       0.12500000000000000        0.0000000000000000     
  0.75000000000000000        0.0000000000000000        0.0000000000000000     
  0.78125000000000000        0.0000000000000000        0.0000000000000000     
  0.81250000000000000        0.0000000000000000        0.0000000000000000     
  0.84375000000000000        0.0000000000000000        0.0000000000000000     
  0.87500000000000000        0.0000000000000000        0.0000000000000000     
  0.75000000000000000        3.1250000000000000E-002   0.0000000000000000     
  0.78125000000000000        3.1250000000000000E-002   0.0000000000000000     
  0.81250000000000000        3.1250000000000000E-002   0.0000000000000000     
  0.84375000000000000        3.1250000000000000E-002   0.0000000000000000     
  0.87500000000000000        3.1250000000000000E-002   0.0000000000000000     
  0.75000000000000000        6.2500000000000000E-002   0.0000000000000000     
  0.78125000000000000        6.2500000000000000E-002   0.0000000000000000     
  0.81250000000000000        6.2500000000000000E-002   0.0000000000000000     
  0.84375000000000000        6.2500000000000000E-002   0.0000000000000000     
  0.87500000000000000        6.2500000000000000E-002   0.0000000000000000     
  0.75000000000000000        9.3750000000000000E-002   0.0000000000000000     
  0.78125000000000000        9.3750000000000000E-002   0.0000000000000000     
  0.81250000000000000        9.3750000000000000E-002   0.0000000000000000     
  0.84375000000000000        9.3750000000000000E-002   0.0000000000000000     
  0.87500000000000000        9.3750000000000000E-002   0.0000000000000000     
  0.75000000000000000       0.12500000000000000        0.0000000000000000     
  0.78125000000000000       0.12500000000000000        0.0000000000000000     
  0.81250000000000000       0.12500000000000000        0.0000000000000000     
  0.84375000000000000       0.12500000000000000        0.0000000000000000     
  0.87500000000000000       0.12500000000000000        0.0000000000000000     
  0.87500000000000000        0.0000000000000000        0.0000000000000000     
  0.90625000000000000        0.0000000000000000        0.0000000000000000     
  0.93750000000000000        0.0000000000000000        0.0000000000000000     
  0.96875000000000000        0.0000000000000000        0.0000000000000000     
   1.0000000000000000        0.0000000000000000        0.0000000000000000     
  0.87500000000000000        3.1250000000000000E-002   0.0000000000000000     
  0.90625000000000000        3.1250000000000000E-002   0.0000000000000000     
  0.93750000000000000        3.1250000000000000E-002   0.0000000000000000     
  0.96875000000000000        3.1250000000000000E-002   0.0000000000000000     
   1.0000000000000000        3.1250000000000000E-002   0.0000000000000000     
  0.87500000000000000        6.2500000000000000E-002   0.0000000000000000     
  0.90625000000000000        6.2500000000000000E-002   0.0000000000000000     
  0.93750000000000000        6.2500000000000000E-002   0.0000000000000000     
  0.96875000000000000        6.2500000000000000E-002   0.0000000000000000     
   1.0000000000000000        6.2500000000000000E-002   0.0000000000000000     
  0.87500000000000000        9.3750000000000000E-002   0.0000000000000000     
  0.90625000000000000        9.3750000000000000E-002   0.0000000000000000     
  0.93750000000000000        9.3750000000000000E-002   0.0000000000000000     
  0.96875000000000000        9.3750000000000000E-002   0.0000000000000000     
   1.0000000000000000        9.3750000000000000E-002   0.0000000000000000     
  0.87500000000000000       0.12500000000000000        0.0000000000000000     
  0.90625000000000000       0.12500000000000000        0.0000000000000000     
  0.93750000000000000       0.12500000000000000        0.0000000000000000     
  0.96875000000000000       0.12500000000000000        0.0000000000000000     
   1.0000000000000000       0.12500000000000000        0.0000000000000000     
   1.0000000000000000        0.0000000000000000        0.0000000000000000     
   1.0312500000000000        0.0000000000000000        0.0000000000000000     
   1.0625000000000000        0.0000000000000000        0.0000000000000000     
   1.0937500000000000        0.0000000000000000        0.0000000000000000     
   1.1250000000000000        0.0000000000000000        0.0000000000000000     
   1.0000000000000000        3.1250000000000000E-002   0.0000000000000000     
   1.0312500000000000        3.1250000000000000E-002   0.0000000000000000     
   1.0625000000000000        3.1250000000000000E-002   0.0000000000000000     
   1.0937500000000000        3.1250000000000000E-002   0.0000000000000000     
   1.1250000000000000        3.1250000000000000E-002   0.0000000000000000     
   1.0000000000000000        6.2500000000000000E-002   0.0000000000000000     
   1.0312500000000000        6.2500000000000000E-002   0.0000000000000000     
   1.0625000000000000        6.2500000000000000E-002   0.0000000000000000     
   1.0937500000000000        6.2500000000000000E-002   0.0000000000000000     
   1.1250000000000000        6.2500000000000000E-002   0.0000000000000000     
   1.0000000000000000        9.3750000000000000E-002   0.0000000000000000     
   1.0312500000000000        9.3750000000000000E-002   0.0000000000000000     
   1.0625000000000000        9.3750000000000000E-002   0.0000000000000000     
   1.0937500000000000        9.3750000000000000E-002   0.0000000000000000     
   1.1250000000000000        9.3750000000000000E-002   0.0000000000000000     
   1.0000000000000000       0.12500000000000000        0.0000000000000000     
   1.0312500000000000       0.12500000000000000        0.0000000000000000     
   1.0625000000000000       0.12500000000000000        0.0000000000000000     
   1.0937500000000000       0.12500000000000000        0.0000000000000000     
   1.1250000000000000       0.12500000000000000        0.0000000000000000     
   1.1250000000000000        0.0000000000000000        0.0000000000000000     
   1.1562500000000000        0.0000000000000000        0.0000000000000000     
   1.1875000000000000        0.0000000000000000        0.0000000000000000     
   1.2187500000000000        0.0000000000000000        0.0000000000000000     
   1.2500000000000000        0.0000000000000000        0.0000000000000000     
   1.1250000000000000        3.1250000000000000E-002   0.0000000000000000     
   1.1562500000000000        3.1250000000000000E-002   0.0000000000000000     
   1.1875000000000000        3.1250000000000000E-002   0.0000000000000000     
   1.2187500000000000        3.1250000000000000E-002   0.0000000000000000     
   1.2500000000000000        3.1250000000000000E-002   0.0000000000000000     
   1.1250000000000000        6.2500000000000000E-002   0.0000000000000000     
   1.1562500000000000        6.2500000000000000E-002   0.0000000000000000     
   1.1875000000000000        6.2500000000000000E-002   0.0000000000000000     
   1.2187500000000000        6.2500000000000000E-002   0.0000000000000000     
   1.2500000000000000        6.2500000000000000E-002   0.0000000000000000     
   1.1250000000000000        9.3750000000000000E-002   0.0000000000000000     
   1.1562500000000000        9.3750000000000000E-002   0.0000000000000000     
   1.1875000000000000        9.3750000000000000E-002   0.0000000000000000     
   1.2187500000000000        9.3750000000000000E-002   0.0000000000000000     
   1.2500000000000000        9.3750000000000000E-002   0.0000000000000000     
   1.1250000000000000       0.12500000000000000        0.0000000000000000     
   1.1562500000000000       0.12500000000000000        0.0000000000000000     
   1.1875000000000000       0.12500000000000000        0.0000000000000000     
   1.2187500000000000       0.12500000000000000        0.0000000000000000     
   1.2500000000000000       0.12500000000000000        0.0000000000000000     
   1.2500000000000000        0.0000000000000000        0.0000000000000000     
   1.2812500000000000        0.0000000000000000        0.0000000000000000     
   1.3125000000000000        0.0000000000000000        0.0000000000000000     
   1.3437500000000000        0.0000000000000000        0.0000000000000000     
   1.3750000000000000        0.0000000000000000        0.0000000000000000     
   1.2500000000000000        3.1250000000000000E-002   0.0000000000000000     
   1.2812500000000000        3.1250000000000000E-002   0.0000000000000000     
   1.3125000000000000        3.1250000000000000E-002   0.0000000000000000     
   1.3437500000000000        3.1250000000000000E-002   0.0000000000000000     
   1.3750000000000000        3.1250000000000000E-002   0.0000000000000000     
   1.2500000000000000        6.2500000000000000E-002   0.0000000000000000     
   1.2812500000000000        6.2500000000000000E-002   0.0000000000000000     
   1.3125000000000000        6.2500000000000000E-002   0.0000000000000000     
   1.3437500000000000        6.2500000000000000E-002   0.0000000000000000     
   1.3750000000000000        6.2500000000000000E-002   0.0000000000000000     
   1.2500000000000000        9.3750000000000000E-002   0.0000000000000000     
   1.2812500000000000        9.3750000000000000E-002   0.0000000000000000     
   1.3125000000000000        9.3750000000000000E-002   0.0000000000000000     
   1.3437500000000000        9.3750000000000000E-002   0.0000000000000000     
   1.3750000000000000        9.3750000000000000E-002   0.0000000000000000     
   1.2500000000000000       0.12500000000000000        0.0000000000000000     
   1.2812500000000000       0.12500000000000000        0.0000000000000000     
   1.3125000000000000       0.12500000000000000        0.0000000000000000     
   1.3437500000000000       0.12500000000000000        0.0000000000000000     
   1.3750000000000000       0.12500000000000000        0.0000000000000000     
   1.3750000000000000        0.0000000000000000        0.0000000000000000     
   1.4062500000000000        0.0000000000000000        0.0000000000000000     
   1.4375000000000000        0.0000000000000000        0.0000000000000000     
   1.4687500000000000        0.0000000000000000        0.0000000000000000     
   1.5000000000000000        0.0000000000000000        0.0000000000000000     
   1.3750000000000000        3.1250000000000000E-002   0.0000000000000000     
   1.4062500000000000        3.1250000000000000E-002   0.0000000000000000     
   1.4375000000000000        3.1250000000000000E-002   0.0000000000000000     
   1.4687500000000000        3.1250000000000000E-002   0.0000000000000000     
   1.5000000000000000        3.1250000000000000E-002   0.0000000000000000     
   1.3750000000000000        6.2500000000000000E-002   0.0000000000000000     
   1.4062500000000000        6.2500000000000000E-002   0.0000000000000000     
   1.4375000000000000        6.2500000000000000E-002   0.0000000000000000     
   1.4687500000000000        6.2500000000000000E-002   0.0000000000000000     
   1.5000000000000000        6.2500000000000000E-002   0.0000000000000000     
   1.3750000000000000        9.3750000000000000E-002   0.0000000000000000     
   1.4062500000000000        9.3750000000000000E-002   0.0000000000000000     
   1.4375000000000000        9.3750000000000000E-002   0.0000000000000000     
   1.4687500000000000        9.3750000000000000E-002   0.0000000000000000     
   1.5000000000000000        9.3750000000000000E-002   0.0000000000000000     
   1.3750000000000000       0.12500000000000000        0.0000000000000000     
   1.4062500000000000       0.12500000000000000        0.0000000000000000     
   1.4375000000000000       0.12500000000000000        0.0000000000000000     
   1.4687500000000000       0.12500000000000000        0.0000000000000000     
   1.5000000000000000       0.12500000000000000        0.0000000000000000     
  0.50000000000000000       0.12500000000000000        0.0000000000000000     
  0.53125000000000000       0.12500000000000000        0.0000000000000000     
  0.56250000000000000       0.12500000000000000        0.0000000000000000     
  0.59375000000000000       0.12500000000000000        0.0000000000000000     
  0.62500000000000000       0.12500000000000000        0.0000000000000000     
  0.50000000000000000       0.15625000000000000        0.0000000000000000     
  0.53125000000000000       0.15625000000000000        0.0000000000000000     
  0.56250000000000000       0.15625000000000000        0.0000000000000000     
  0.59375000000000000       0.15625000000000000        0.0000000000000000     
  0.62500000000000000       0.15625000000000000        0.0000000000000000     
  0.50000000000000000       0.18750000000000000        0.0000000000000000     
  0.53125000000000000       0.18750000000000000        0.0000000000000000     
  0.56250000000000000       0.18750000000000000        0.0000000000000000     
  0.59375000000000000       0.18750000000000000        0.0000000000000000     
  0.62500000000000000       0.18750000000000000        0.0000000000000000     
  0.50000000000000000       0.21875000000000000        0.0000000000000000     
  0.53125000000000000       0.21875000000000000        0.0000000000000000     
  0.56250000000000000       0.21875000000000000        0.0000000000000000     
  0.59375000000000000       0.21875000000000000        0.0000000000000000     
  0.62500000000000000       0.21875000000000000        0.0000000000000000     
  0.50000000000000000       0.25000000000000000        0.0000000000000000     
  0.53125000000000000       0.25000000000000000        0.0000000000000000     
  0.56250000000000000       0.25000000000000000        0.0000000000000000     
  0.59375000000000000       0.25000000000000000        0.0000000000000000     
  0.62500000000000000       0.25000000000000000        0.0000000000000000     
  0.62500000000000000       0.12500000000000000        0.0000000000000000     
  0.65625000000000000       0.12500000000000000        0.0000000000000000     
  0.68750000000000000       0.12500000000000000        0.0000000000000000     
  0.71875000000000000       0.12500000000000000        0.0000000000000000     
  0.75000000000000000       0.12500000000000000        0.0000000000000000     
  0.62500000000000000       0.15625000000000000        0.0000000000000000     
  0.65625000000000000       0.15625000000000000        0.0000000000000000     
  0.68750000000000000       0.15625000000000000        0.0000000000000000     
  0.71875000000000000       0.15625000000000000        0.0000000000000000     
  0.75000000000000000       0.15625000000000000        0.0000000000000000     
  0.62500000000000000       0.18750000000000000        0.0000000000000000     
  0.65625000000000000       0.18750000000000000        0.0000000000000000     
  0.68750000000000000       0.18750000000000000        0.0000000000000000     
  0.71875000000000000       0.18750000000000000        0.0000000000000000     
  0.75000000000000000       0.18750000000000000        0.0000000000000000     
  0.62500000000000000       0.21875000000000000        0.0000000000000000     
  0.65625000000000000       0.21875000000000000        0.0000000000000000     
  0.68750000000000000       0.21875000000000000        0.0000000000000000     
  0.71875000000000000       0.21875000000000000        0.0000000000000000     
  0.75000000000000000       0.21875000000000000        0.0000000000000000     
  0.62500000000000000       0.25000000000000000        0.0000000000000000     
  0.65625000000000000       0.25000000000000000        0.0000000000000000     
  0.68750000000000000       0.25000000000000000        0.0000000000000000     
  0.71875000000000000       0.25000000000000000        0.0000000000000000     
  0.75000000000000000       0.25000000000000000        0.0000000000000000     
  0.75000000000000000       0.12500000000000000        0.0000000000000000     
  0.78125000000000000       0.12500000000000000        0.0000000000000000     
  0.81250000000000000       0.12500000000000000        0.0000000000000000     
  0.84375000000000000       0.12500000000000000        0.0000000000000000     
  0.87500000000000000       0.12500000000000000        0.0000000000000000     
  0.75000000000000000       0.15625000000000000        0.0000000000000000     
  0.78125000000000000       0.15625000000000000        0.0000000000000000     
  0.81250000000000000       0.15625000000000000        0.0000000000000000     
  0.84375000000000000       0.15625000000000000        0.0000000000000000     
  0.87500000000000000       0.15625000000000000        0.0000000000000000     
  0.75000000000000000       0.18750000000000000        0.0000000000000000     
  0.78125000000000000       0.18750000000000000        0.0000000000000000     
  0.81250000000000000       0.18750000000000000        0.0000000000000000     
  0.84375000000000000       0.18750000000000000        0.0000000000000000     
  0.87500000000000000       0.18750000000000000        0.0000000000000000     
  0.75000000000000000       0.21875000000000000        0.0000000000000000     
  0.78125000000000000       0.21875000000000000        0.0000000000000000     
  0.81250000000000000       0.21875000000000000        0.0000000000000000     
  0.84375000000000000       0.21875000000000000        0.0000000000000000     
  0.87500000000000000       0.21875000000000000        0.0000000000000000     
  0.75000000000000000       0.25000000000000000        0.0000000000000000     
  0.78125000000000000       0.25000000000000000        0.0000000000000000     
  0.81250000000000000       0.25000000000000000        0.0000000000000000     
  0.84375000000000000       0.25000000000000000        0.0000000000000000     
  0.87500000000000000       0.25000000000000000        0.0000000000000000     
  0.87500000000000000       0.12500000000000000        0.0000000000000000     
  0.90625000000000000       0.12500000000000000        0.0000000000000000     
  0.93750000000000000       0.12500000000000000        0.0000000000000000     
  0.96875000000000000       0.12500000000000000        0.0000000000000000     
   1.0000000000000000       0.12500000000000000        0.0000000000000000     
  0.87500000000000000       0.15625000000000000        0.0000000000000000     
  0.90625000000000000       0.15625000000000000        0.0000000000000000     
  0.93750000000000000       0.15625000000000000        0.0000000000000000     
  0.96875000000000000       0.15625000000000000        0.0000000000000000     
   1.0000000000000000       0.15625000000000000        0.0000000000000000     
  0.87500000000000000       0.18750000000000000        0.0000000000000000     
  0.90625000000000000       0.18750000000000000        0.0000000000000000     
  0.93750000000000000       0.18750000000000000        0.0000000000000000     
  0.96875000000000000       0.18750000000000000        0.0000000000000000     
   1.0000000000000000       0.18750000000000000        0.0000000000000000     
  0.87500000000000000       0.21875000000000000        0.0000000000000000     
  0.90625000000000000       0.21875000000000000        0.0000000000000000     
  0.93750000000000000       0.21875000000000000        0.0000000000000000     
  0.96875000000000000       0.21875000000000000        0.0000000000000000     
   1.0000000000000000       0.21875000000000000        0.0000000000000000     
  0.87500000000000000       0.25000000000000000        0.0000000000000000     
  0.90625000000000000       0.25000000000000000        0.0000000000000000     
  0.93750000000000000       0.25000000000000000        0.0000000000000000     
  0.96875000000000000       0.25000000000000000        0.0000000000000000     
   1.0000000000000000       0.25000000000000000        0.0000000000000000     
   1.0000000000000000       0.12500000000000000        0.0000000000000000     
   1.0312500000000000       0.12500000000000000        0.0000000000000000     
   1.0625000000000000       0.12500000000000000        0.0000000000000000     
   1.0937500000000000       0.12500000000000000        0.0000000000000000     
   1.1250000000000000       0.12500000000000000        0.0000000000000000     
   1.0000000000000000       0.15625000000000000        0.0000000000000000     
   1.0312500000000000       0.15625000000000000        0.0000000000000000     
   1.0625000000000000       0.15625000000000000        0.0000000000000000     
   1.0937500000000000       0.15625000000000000        0.0000000000000000     
   1.1250000000000000       0.15625000000000000        0.0000000000000000     
   1.0000000000000000       0.18750000000000000        0.0000000000000000     
   1.0312500000000000       0.18750000000000000        0.0000000000000000     
   1.0625000000000000       0.18750000000000000        0.0000000000000000     
   1.0937500000000000       0.18750000000000000        0.0000000000000000     
   1.1250000000000000       0.18750000000000000        0.0000000000000000     
   1.0000000000000000       0.21875000000000000        0.0000000000000000     
   1.0312500000000000       0.21875000000000000        0.0000000000000000     
   1.0625000000000000       0.21875000000000000        0.0000000000000000     
   1.0937500000000000       0.21875000000000000        0.0000000000000000     
   1.1250000000000000       0.21875000000000000        0.0000000000000000     
   1.0000000000000000       0.25000000000000000        0.0000000000000000     
   1.0312500000000000       0.25000000000000000        0.0000000000000000     
   1.0625000000000000       0.25000000000000000        0.0000000000000000     
   1.0937500000000000       0.25000000000000000        0.0000000000000000     
   1.1250000000000000       0.25000000000000000        0.0000000000000000     
   1.1250000000000000       0.12500000000000000        0.0000000000000000     
   1.1562500000000000       0.12500000000000000        0.0000000000000000     
   1.1875000000000000       0.12500000000000000        0.0000000000000000     
   1.2187500000000000       0.12500000000000000        0.0000000000000000     
   1.2500000000000000       0.12500000000000000        0.0000000000000000     
   1.1250000000000000       0.15625000000000000        0.0000000000000000     
   1.1562500000000000       0.15625000000000000        0.0000000000000000     
   1.1875000000000000       0.15625000000000000        0.0000000000000000     
   1.2187500000000000       0.15625000000000000        0.0000000000000000     
   1.2500000000000000       0.15625000000000000        0.0000000000000000     
   1.1250000000000000       0.18750000000000000        0.0000000000000000     
   1.1562500000000000       0.18750000000000000        0.0000000000000000     
   1.1875000000000000       0.18750000000000000        0.0000000000000000     
   1.2187500000000000       0.18750000000000000        0.0000000000000000     
   1.2500000000000000       0.18750000000000000        0.0000000000000000     
   1.1250000000000000       0.21875000000000000        0.0000000000000000     
   1.1562500000000000       0.21875000000000000        0.0000000000000000     
   1.1875000000000000       0.21875000000000000        0.0000000000000000     
   1.2187500000000000       0.21875000000000000        0.0000000000000000     
   1.2500000000000000       0.21875000000000000        0.0000000000000000     
   1.1250000000000000       0.25000000000000000        0.0000000000000000     
   1.1562500000000000       0.25000000000000000        0.0000000000000000     
   1.1875000000000000       0.25000000000000000        0.0000000000000000     
   1.2187500000000000       0.25000000000000000        0.0000000000000000     
   1.2500000000000000       0.25000000000000000        0.0000000000000000     
   1.2500000000000000       0.12500000000000000        0.0000000000000000     
   1.2812500000000000       0.12500000000000000        0.0000000000000000     
   1.3125000000000000       0.12500000000000000        0.0000000000000000     
   1.3437500000000000       0.12500000000000000        0.0000000000000000     
   1.3750000000000000       0.12500000000000000        0.0000000000000000     
   1.2500000000000000       0.15625000000000000        0.0000000000000000     
   1.2812500000000000       0.15625000000000000        0.0000000000000000     
   1.3125000000000000       0.15625000000000000        0.0000000000000000     
   1.3437500000000000       0.15625000000000000        0.0000000000000000     
   1.3750000000000000       0.15625000000000000        0.0000000000000000     
   1.2500000000000000       0.18750000000000000        0.0000000000000000     
   1.2812500000000000       0.18750000000000000        0.0000000000000000     
   1.3125000000000000       0.18750000000000000        0.0000000000000000     
   1.3437500000000000       0.18750000000000000        0.0000000000000000     
   1.3750000000000000       0.18750000000000000        0.0000000000000000     
   1.2500000000000000       0.21875000000000000        0.0000000000000000     
   1.2812500000000000       0.21875000000000000        0.0000000000000000     
   1.3125000000000000       0.21875000000000000        0.0000000000000000     
   1.3437500000000000       0.21875000000000000        0.0000000000000000     
   1.3750000000000000       0.21875000000000000        0.0000000000000000     
   1.2500000000000000       0.25000000000000000        0.0000000000000000     
   1.2812500000000000       0.25000000000000000        0.0000000000000000     
   1.3125000000000000       0.25000000000000000        0.0000000000000000     
   1.3437500000000000       0.25000000000000000        0.0000000000000000     
   1.3750000000000000       0.25000000000000000        0.0000000000000000     
   1.3750000000000000       0.12500000000000000        0.0000000000000000     
   1.4062500000000000       0.12500000000000000        0.0000000000000000     
   1.4375000000000000       0.12500000000000000        0.0000000000000000     
   1.4687500000000000       0.12500000000000000        0.0000000000000000     
   1.5000000000000000       0.12500000000000000        0.0000000000000000     
   1.3750000000000000       0.15625000000000000        0.0000000000000000     
   1.4062500000000000       0.15625000000000000        0.0000000000000000     
   1.4375000000000000       0.15625000000000000        0.0000000000000000     
   1.4687500000000000       0.15625000000000000        0.0000000000000000     
   1.5000000000000000       0.15625000000000000        0.0000000000000000     
   1.3750000000000000       0.18750000000000000        0.0000000000000000     
   1.4062500000000000       0.18750000000000000        0.0000000000000000     
   1.4375000000000000       0.18750000000000000        0.0000000000000000     
   1.4687500000000000       0.18750000000000000        0.0000000000000000     
   1.5000000000000000       0.18750000000000000        0.0000000000000000     
   1.3750000000000000       0.21875000000000000        0.0000000000000000     
   1.4062500000000000       0.21875000000000000        0.0000000000000000     
   1.4375000000000000       0.21875000000000000        0.0000000000000000     
   1.4687500000000000       0.21875000000000000        0.0000000000000000     
   1.5000000000000000       0.21875000000000000        0.0000000000000000     
   1.3750000000000000       0.25000000000000000        0.0000000000000000     
   1.4062500000000000       0.25000000000000000        0.0000000000000000     
   1.4375000000000000       0.25000000000000000        0.0000000000000000     
   1.4687500000000000       0.25000000000000000        0.0000000000000000     
   1.5000000000000000       0.25000000000000000        0.0000000000000000     
  0.50000000000000000       0.25000000000000000        0.0000000000000000     
  0.53125000000000000       0.25000000000000000        0.0000000000000000     
  0.56250000000000000       0.25000000000000000        0.0000000000000000     
  0.59375000000000000       0.25000000000000000        0.0000000000000000     
  0.62500000000000000       0.25000000000000000        0.0000000000000000     
  0.50000000000000000       0.28125000000000000        0.0000000000000000     
  0.53125000000000000       0.28125000000000000        0.0000000000000000     
  0.56250000000000000       0.28125000000000000        0.0000000000000000     
  0.59375000000000000       0.28125000000000000        0.0000000000000000     
  0.62500000000000000       0.28125000000000000        0.0000000000000000     
  0.50000000000000000       0.31250000000000000        0.0000000000000000     
  0.53125000000000000       0.31250000000000000        0.0000000000000000     
  0.56250000000000000       0.31250000000000000        0.0000000000000000     
  0.59375000000000000       0.31250000000000000        0.0000000000000000     
  0.62500000000000000       0.31250000000000000        0.0000000000000000     
  0.50000000000000000       0.34375000000000000        0.0000000000000000     
  0.53125000000000000       0.34375000000000000        0.0000000000000000     
  0.56250000000000000       0.34375000000000000        0.0000000000000000     
  0.59375000000000000       0.34375000000000000        0.0000000000000000     
  0.62500000000000000       0.34375000000000000        0.0000000000000000     
  0.50000000000000000       0.37500000000000000        0.0000000000000000     
  0.53125000000000000       0.37500000000000000        0.0000000000000000     
  0.56250000000000000       0.37500000000000000        0.0000000000000000     
  0.59375000000000000       0.37500000000000000        0.0000000000000000     
  0.62500000000000000       0.37500000000000000        0.0000000000000000     
  0.62500000000000000       0.25000000000000000        0.0000000000000000     
  0.65625000000000000       0.25000000000000000        0.0000000000000000     
  0.68750000000000000       0.25000000000000000        0.0000000000000000     
  0.71875000000000000       0.25000000000000000        0.0000000000000000     
  0.75000000000000000       0.25000000000000000        0.0000000000000000     
  0.62500000000000000       0.28125000000000000        0.0000000000000000     
  0.65625000000000000       0.28125000000000000        0.0000000000000000     
  0.68750000000000000       0.28125000000000000        0.0000000000000000     
  0.71875000000000000       0.28125000000000000        0.0000000000000000     
  0.75000000000000000       0.28125000000000000        0.0000000000000000     
  0.62500000000000000       0.31250000000000000        0.0000000000000000     
  0.65625000000000000       0.31250000000000000        0.0000000000000000     
  0.68750000000000000       0.31250000000000000        0.0000000000000000     
  0.71875000000000000       0.31250000000000000        0.0000000000000000     
  0.75000000000000000       0.31250000000000000        0.0000000000000000     
  0.62500000000000000       0.34375000000000000        0.0000000000000000     
  0.65625000000000000       0.34375000000000000        0.0000000000000000     
  0.68750000000000000       0.34375000000000000        0.0000000000000000     
  0.71875000000000000       0.34375000000000000        0.0000000000000000     
  0.75000000000000000       0.34375000000000000        0.0000000000000000     
  0.62500000000000000       0.37500000000000000        0.0000000000000000     
  0.65625000000000000       0.37500000000000000        0.0000000000000000     
  0.68750000000000000       0.37500000000000000        0.0000000000000000     
  0.71875000000000000       0.37500000000000000        0.0000000000000000     
  0.75000000000000000       0.37500000000000000        0.0000000000000000     
  0.75000000000000000       0.25000000000000000        0.0000000000000000     
  0.78125000000000000       0.25000000000000000        0.0000000000000000     
  0.81250000000000000       0.25000000000000000        0.0000000000000000     
  0.84375000000000000       0.25000000000000000        0.0000000000000000     
  0.87500000000000000       0.25000000000000000        0.0000000000000000     
  0.75000000000000000       0.28125000000000000        0.0000000000000000     
  0.78125000000000000       0.28125000000000000        0.0000000000000000     
  0.81250000000000000       0.28125000000000000        0.0000000000000000     
  0.84375000000000000       0.28125000000000000        0.0000000000000000     
  0.87500000000000000       0.28125000000000000        0.0000000000000000     
  0.75000000000000000       0.31250000000000000        0.0000000000000000     
  0.78125000000000000       0.31250000000000000        0.0000000000000000     
  0.81250000000000000       0.31250000000000000        0.0000000000000000     
  0.84375000000000000       0.31250000000000000        0.0000000000000000     
  0.87500000000000000       0.31250000000000000        0.0000000000000000     
  0.75000000000000000       0.34375000000000000        0.0000000000000000     
  0.78125000000000000       0.34375000000000000        0.0000000000000000     
  0.81250000000000000       0.34375000000000000        0.0000000000000000     
  0.84375000000000000       0.34375000000000000        0.0000000000000000     
  0.87500000000000000       0.34375000000000000        0.0000000000000000     
  0.75000000000000000       0.37500000000000000        0.0000000000000000     
  0.78125000000000000       0.37500000000000000        0.0000000000000000     
  0.81250000000000000       0.37500000000000000        0.0000000000000000     
  0.84375000000000000       0.37500000000000000        0.0000000000000000     
  0.87500000000000000       0.37500000000000000        0.0000000000000000     
  0.87500000000000000       0.25000000000000000        0.0000000000000000     
  0.90625000000000000       0.25000000000000000        0.0000000000000000     
  0.93750000000000000       0.25000000000000000        0.0000000000000000     
  0.96875000000000000       0.25000000000000000        0.0000000000000000     
   1.0000000000000000       0.25000000000000000        0.0000000000000000     
  0.87500000000000000       0.28125000000000000        0.0000000000000000     
  0.90625000000000000       0.28125000000000000        0.0000000000000000     
  0.93750000000000000       0.28125000000000000        0.0000000000000000     
  0.96875000000000000       0.28125000000000000        0.0000000000000000     
   1.0000000000000000       0.28125000000000000        0.0000000000000000     
  0.87500000000000000       0.31250000000000000        0.0000000000000000     
  0.90625000000000000       0.31250000000000000        0.0000000000000000     
  0.93750000000000000       0.31250000000000000        0.0000000000000000     
  0.96875000000000000       0.31250000000000000        0.0000000000000000     
   1.0000000000000000       0.31250000000000000        0.0000000000000000     
  0.87500000000000000       0.34375000000000000        0.0000000000000000     
  0.90625000000000000       0.34375000000000000        0.0000000000000000     
  0.93750000000000000       0.34375000000000000        0.0000000000000000     
  0.96875000000000000       0.34375000000000000        0.0000000000000000     
   1.0000000000000000       0.34375000000000000        0.0000000000000000     
  0.87500000000000000       0.37500000000000000        0.0000000000000000     
  0.90625000000000000       0.37500000000000000        0.0000000000000000     
  0.93750000000000000       0.37500000000000000        0.0000000000000000     
  0.96875000000000000       0.37500000000000000        0.0000000000000000     
   1.0000000000000000       0.37500000000000000        0.0000000000000000     
   1.0000000000000000       0.25000000000000000        0.0000000000000000     
   1.0312500000000000       0.25000000000000000        0.0000000000000000     
   1.0625000000000000       0.25000000000000000        0.0000000000000000     
   1.0937500000000000       0.25000000000000000        0.0000000000000000     
   1.1250000000000000       0.25000000000000000        0.0000000000000000     
   1.0000000000000000       0.28125000000000000        0.0000000000000000     
   1.0312500000000000       0.28125000000000000        0.0000000000000000     
   1.0625000000000000       0.28125000000000000        0.0000000000000000     
   1.0937500000000000       0.28125000000000000        0.0000000000000000     
   1.1250000000000000       0.28125000000000000        0.0000000000000000     
   1.0000000000000000       0.31250000000000000        0.0000000000000000     
   1.0312500000000000       0.31250000000000000        0.0000000000000000     
   1.0625000000000000       0.31250000000000000        0.0000000000000000     
   1.0937500000000000       0.31250000000000000        0.0000000000000000     
   1.1250000000000000       0.31250000000000000        0.0000000000000000     
   1.0000000000000000       0.34375000000000000        0.0000000000000000     
   1.0312500000000000       0.34375000000000000        0.0000000000000000     
   1.0625000000000000       0.34375000000000000        0.0000000000000000     
   1.0937500000000000       0.34375000000000000        0.0000000000000000     
   1.1250000000000000       0.34375000000000000        0.0000000000000000     
   1.0000000000000000       0.37500000000000000        0.0000000000000000     
   1.0312500000000000       0.37500000000000000        0.0000000000000000     
   1.0625000000000000       0.37500000000000000        0.0000000000000000     
   1.0937500000000000       0.37500000000000000        0.0000000000000000     
   1.1250000000000000       0.37500000000000000        0.0000000000000000     
   1.1250000000000000       0.25000000000000000        0.0000000000000000     
   1.1562500000000000       0.25000000000000000        0.0000000000000000     
   1.1875000000000000       0.25000000000000000        0.0000000000000000     
   1.2187500000000000       0.25000000000000000        0.0000000000000000     
   1.2500000000000000       0.25000000000000000        0.0000000000000000     
   1.1250000000000000       0.28125000000000000        0.0000000000000000     
   1.1562500000000000       0.28125000000000000        0.0000000000000000     
   1.1875000000000000       0.28125000000000000        0.0000000000000000     
   1.2187500000000000       0.28125000000000000        0.0000000000000000     
   1.2500000000000000       0.28125000000000000        0.0000000000000000     
   1.1250000000000000       0.31250000000000000        0.0000000000000000     
   1.1562500000000000       0.31250000000000000        0.0000000000000000     
   1.1875000000000000       0.31250000000000000        0.0000000000000000     
   1.2187500000000000       0.31250000000000000        0.0000000000000000     
   1.2500000000000000       0.31250000000000000        0.0000000000000000     
   1.1250000000000000       0.34375000000000000        0.0000000000000000     
   1.1562500000000000       0.34375000000000000        0.0000000000000000     
   1.1875000000000000       0.34375000000000000        0.0000000000000000     
   1.2187500000000000       0.34375000000000000        0.0000000000000000     
   1.2500000000000000       0.34375000000000000        0.0000000000000000     
   1.1250000000000000       0.37500000000000000        0.0000000000000000     
   1.1562500000000000       0.37500000000000000        0.0000000000000000     
   1.1875000000000000       0.37500000000000000        0.0000000000000000     
   1.2187500000000000       0.37500000000000000        0.0000000000000000     
   1.2500000000000000       0.37500000000000000        0.0000000000000000     
   1.2500000000000000       0.25000000000000000        0.0000000000000000     
   1.2812500000000000       0.25000000000000000        0.0000000000000000     
   1.3125000000000000       0.25000000000000000        0.0000000000000000     
   1.3437500000000000       0.25000000000000000        0.0000000000000000     
   1.3750000000000000       0.25000000000000000        0.0000000000000000     
   1.2500000000000000       0.28125000000000000        0.0000000000000000     
   1.2812500000000000       0.28125000000000000        0.0000000000000000     
   1.3125000000000000       0.28125000000000000        0.0000000000000000     
   1.3437500000000000       0.28125000000000000        0.0000000000000000     
   1.3750000000000000       0.28125000000000000        0.0000000000000000     
   1.2500000000000000       0.31250000000000000        0.0000000000000000     
   1.2812500000000000       0.31250000000000000        0.0000000000000000     
   1.3125000000000000       0.31250000000000000        0.0000000000000000     
   1.3437500000000000       0.31250000000000000        0.0000000000000000     
   1.3750000000000000       0.31250000000000000        0.0000000000000000     
   1.2500000000000000       0.34375000000000000        0.0000000000000000     
   1.2812500000000000       0.34375000000000000        0.0000000000000000     
   1.3125000000000000       0.34375000000000000        0.0000000000000000     
   1.3437500000000000       0.34375000000000000        0.0000000000000000     
   1.3750000000000000       0.34375000000000000        0.0000000000000000     
   1.2500000000000000       0.37500000000000000        0.0000000000000000     
   1.2812500000000000       0.37500000000000000        0.0000000000000000     
   1.3125000000000000       0.37500000000000000        0.0000000000000000     
   1.3437500000000000       0.37500000000000000        0.0000000000000000     
   1.3750000000000000       0.37500000000000000        0.0000000000000000     
   1.3750000000000000       0.25000000000000000        0.0000000000000000     
   1.4062500000000000       0.25000000000000000        0.0000000000000000     
   1.4375000000000000       0.25000000000000000        0.0000000000000000     
   1.4687500000000000       0.25000000000000000        0.0000000000000000     
   1.5000000000000000       0.25000000000000000        0.0000000000000000     
   1.3750000000000000       0.28125000000000000        0.0000000000000000     
   1.4062500000000000       0.28125000000000000        0.0000000000000000     
   1.4375000000000000       0.28125000000000000        0.0000000000000000     
   1.4687500000000000       0.28125000000000000        0.0000000000000000     
   1.5000000000000000       0.28125000000000000        0.0000000000000000     
   1.3750000000000000       0.31250000000000000        0.0000000000000000     
   1.4062500000000000       0.31250000000000000        0.0000000000000000     
   1.4375000000000000       0.31250000000000000        0.0000000000000000     
   1.4687500000000000       0.31250000000000000        0.0000000000000000     
   1.5000000000000000       0.31250000000000000        0.0000000000000000     
   1.3750000000000000       0.34375000000000000        0.0000000000000000     
   1.4062500000000000       0.34375000000000000        0.0000000000000000     
   1.4375000000000000       0.34375000000000000        0.0000000000000000     
   1.4687500000000000       0.34375000000000000        0.0000000000000000     
   1.5000000000000000       0.34375000000000000        0.0000000000000000     
   1.3750000000000000       0.37500000000000000        0.0000000000000000     
   1.4062500000000000       0.37500000000000000        0.0000000000000000     
   1.4375000000000000       0.37500000000000000        0.0000000000000000     
   1.4687500000000000       0.37500000000000000        0.0000000000000000     
   1.5000000000000000       0.37500000000000000        0.0000000000000000     
  0.50000000000000000       0.37500000000000000        0.0000000000000000     
  0.53125000000000000       0.37500000000000000        0.0000000000000000     
  0.56250000000000000       0.37500000000000000        0.0000000000000000     
  0.59375000000000000       0.37500000000000000        0.0000000000000000     
  0.62500000000000000       0.37500000000000000        0.0000000000000000     
  0.50000000000000000       0.40625000000000000        0.0000000000000000     
  0.53125000000000000       0.40625000000000000        0.0000000000000000     
  0.56250000000000000       0.40625000000000000        0.0000000000000000     
  0.59375000000000000       0.40625000000000000        0.0000000000000000     
  0.62500000000000000       0.40625000000000000        0.0000000000000000     
  0.50000000000000000       0.43750000000000000        0.0000000000000000     
  0.53125000000000000       0.43750000000000000        0.0000000000000000     
  0.56250000000000000       0.43750000000000000        0.0000000000000000     
  0.59375000000000000       0.43750000000000000        0.0000000000000000     
  0.62500000000000000       0.43750000000000000        0.0000000000000000     
  0.50000000000000000       0.46875000000000000        0.0000000000000000     
  0.53125000000000000       0.46875000000000000        0.0000000000000000     
  0.56250000000000000       0.46875000000000000        0.0000000000000000     
  0.59375000000000000       0.46875000000000000        0.0000000000000000     
  0.62500000000000000       0.46875000000000000        0.0000000000000000     
  0.50000000000000000       0.50000000000000000        0.0000000000000000     
  0.53125000000000000       0.50000000000000000        0.0000000000000000     
  0.56250000000000000       0.50000000000000000        0.0000000000000000     
  0.59375000000000000       0.50000000000000000        0.0000000000000000     
  0.62500000000000000       0.50000000000000000        0.0000000000000000     
  0.62500000000000000       0.37500000000000000        0.0000000000000000     
  0.65625000000000000       0.37500000000000000        0.0000000000000000     
  0.68750000000000000       0.37500000000000000        0.0000000000000000     
  0.71875000000000000       0.37500000000000000        0.0000000000000000     
  0.75000000000000000       0.37500000000000000        0.0000000000000000     
  0.62500000000000000       0.40625000000000000        0.0000000000000000     
  0.65625000000000000       0.40625000000000000        0.0000000000000000     
  0.68750000000000000       0.40625000000000000        0.0000000000000000     
  0.71875000000000000       0.40625000000000000        0.0000000000000000     
  0.75000000000000000       0.40625000000000000        0.0000000000000000     
  0.62500000000000000       0.43750000000000000        0.0000000000000000     
  0.65625000000000000       0.43750000000000000        0.0000000000000000     
  0.68750000000000000       0.43750000000000000        0.0000000000000000     
  0.71875000000000000       0.43750000000000000        0.0000000000000000     
  0.75000000000000000       0.43750000000000000        0.0000000000000000     
  0.62500000000000000       0.46875000000000000        0.0000000000000000     
  0.65625000000000000       0.46875000000000000        0.0000000000000000     
  0.68750000000000000       0.46875000000000000        0.0000000000000000     
  0.71875000000000000       0.46875000000000000        0.0000000000000000     
  0.75000000000000000       0.46875000000000000        0.0000000000000000     
  0.62500000000000000       0.50000000000000000        0.0000000000000000     
  0.65625000000000000       0.50000000000000000        0.0000000000000000     
  0.68750000000000000       0.50000000000000000        0.0000000000000000     
  0.71875000000000000       0.50000000000000000        0.0000000000000000     
  0.75000000000000000       0.50000000000000000        0.0000000000000000     
  0.75000000000000000       0.37500000000000000        0.0000000000000000     
  0.78125000000000000       0.37500000000000000        0.0000000000000000     
  0.81250000000000000       0.37500000000000000        0.0000000000000000     
  0.84375000000000000       0.37500000000000000        0.0000000000000000     
  0.87500000000000000       0.37500000000000000        0.0000000000000000     
  0.75000000000000000       0.40625000000000000        0.0000000000000000     
  0.78125000000000000       0.40625000000000000        0.0000000000000000     
  0.81250000000000000       0.40625000000000000        0.0000000000000000     
  0.84375000000000000       0.40625000000000000        0.0000000000000000     
  0.87500000000000000       0.40625000000000000        0.0000000000000000     
  0.75000000000000000       0.43750000000000000        0.0000000000000000     
  0.78125000000000000       0.43750000000000000        0.0000000000000000     
  0.81250000000000000       0.43750000000000000        0.0000000000000000     
  0.84375000000000000       0.43750000000000000        0.0000000000000000     
  0.87500000000000000       0.43750000000000000        0.0000000000000000     
  0.75000000000000000       0.46875000000000000        0.0000000000000000     
  0.78125000000000000       0.46875000000000000        0.0000000000000000     
  0.81250000000000000       0.46875000000000000        0.0000000000000000     
  0.84375000000000000       0.46875000000000000        0.0000000000000000     
  0.87500000000000000       0.46875000000000000        0.0000000000000000     
  0.75000000000000000       0.50000000000000000        0.0000000000000000     
  0.78125000000000000       0.50000000000000000        0.0000000000000000     
  0.81250000000000000       0.50000000000000000        0.0000000000000000     
  0.84375000000000000       0.50000000000000000        0.0000000000000000     
  0.87500000000000000       0.50000000000000000        0.0000000000000000     
  0.87500000000000000       0.37500000000000000        0.0000000000000000     
  0.90625000000000000       0.37500000000000000        0.0000000000000000     
  0.93750000000000000       0.37500000000000000        0.0000000000000000     
  0.96875000000000000       0.37500000000000000        0.0000000000000000     
   1.0000000000000000       0.37500000000000000        0.0000000000000000     
  0.87500000000000000       0.40625000000000000        0.0000000000000000     
  0.90625000000000000       0.40625000000000000        0.0000000000000000     
  0.93750000000000000       0.40625000000000000        0.0000000000000000     
  0.96875000000000000       0.40625000000000000        0.0000000000000000     
   1.0000000000000000       0.40625000000000000        0.0000000000000000     
  0.87500000000000000       0.43750000000000000        0.0000000000000000     
  0.90625000000000000       0.43750000000000000        0.0000000000000000     
  0.93750000000000000       0.43750000000000000        0.0000000000000000     
  0.96875000000000000       0.43750000000000000        0.0000000000000000     
   1.0000000000000000       0.43750000000000000        0.0000000000000000     
  0.87500000000000000       0.46875000000000000        0.0000000000000000     
  0.90625000000000000       0.46875000000000000        0.0000000000000000     
  0.93750000000000000       0.46875000000000000        0.0000000000000000     
  0.96875000000000000       0.46875000000000000        0.0000000000000000     
   1.0000000000000000       0.46875000000000000        0.0000000000000000     
  0.87500000000000000       0.50000000000000000        0.0000000000000000     
  0.90625000000000000       0.50000000000000000        0.0000000000000000     
  0.93750000000000000       0.50000000000000000        0.0000000000000000     
  0.96875000000000000       0.50000000000000000        0.0000000000000000     
   1.0000000000000000       0.50000000000000000        0.0000000000000000     
   1.0000000000000000       0.37500000000000000        0.0000000000000000     
   1.0312500000000000       0.37500000000000000        0.0000000000000000     
   1.0625000000000000       0.37500000000000000        0.0000000000000000     
   1.0937500000000000       0.37500000000000000        0.0000000000000000     
   1.1250000000000000       0.37500000000000000        0.0000000000000000     
   1.0000000000000000       0.40625000000000000        0.0000000000000000     
   1.0312500000000000       0.40625000000000000        0.0000000000000000     
   1.0625000000000000       0.40625000000000000        0.0000000000000000     
   1.0937500000000000       0.40625000000000000        0.0000000000000000     
   1.1250000000000000       0.40625000000000000        0.0000000000000000     
   1.0000000000000000       0.43750000000000000        0.0000000000000000     
   1.0312500000000000       0.43750000000000000        0.0000000000000000     
   1.0625000000000000       0.43750000000000000        0.0000000000000000     
   1.0937500000000000       0.43750000000000000        0.0000000000000000     
   1.1250000000000000       0.43750000000000000        0.0000000000000000     
   1.0000000000000000       0.46875000000000000        0.0000000000000000     
   1.0312500000000000       0.46875000000000000        0.0000000000000000     
   1.0625000000000000       0.46875000000000000        0.0000000000000000     
   1.0937500000000000       0.46875000000000000        0.0000000000000000     
   1.1250000000000000       0.46875000000000000        0.0000000000000000     
   1.0000000000000000       0.50000000000000000        0.0000000000000000     
   1.0312500000000000       0.50000000000000000        0.0000000000000000     
   1.0625000000000000       0.50000000000000000        0.0000000000000000     
   1.0937500000000000       0.50000000000000000        0.0000000000000000     
   1.1250000000000000       0.50000000000000000        0.0000000000000000     
   1.1250000000000000       0.37500000000000000        0.0000000000000000     
   1.1562500000000000       0.37500000000000000        0.0000000000000000     
   1.1875000000000000       0.37500000000000000        0.0000000000000000     
   1.2187500000000000       0.37500000000000000        0.0000000000000000     
   1.2500000000000000       0.37500000000000000        0.0000000000000000     
   1.1250000000000000       0.40625000000000000        0.0000000000000000     
   1.1562500000000000       0.40625000000000000        0.0000000000000000     
   1.1875000000000000       0.40625000000000000        0.0000000000000000     
   1.2187500000000000       0.40625000000000000        0.0000000000000000     
   1.2500000000000000       0.40625000000000000        0.0000000000000000     
   1.1250000000000000       0.43750000000000000        0.0000000000000000     
   1.1562500000000000       0.43750000000000000        0.0000000000000000     
   1.1875000000000000       0.43750000000000000        0.0000000000000000     
   1.2187500000000000       0.43750000000000000        0.0000000000000000     
   1.2500000000000000       0.43750000000000000        0.0000000000000000     
   1.1250000000000000       0.46875000000000000        0.0000000000000000     
   1.1562500000000000       0.46875000000000000        0.0000000000000000     
   1.1875000000000000       0.46875000000000000        0.0000000000000000     
   1.2187500000000000       0.46875000000000000        0.0000000000000000     
   1.2500000000000000       0.46875000000000000        0.0000000000000000     
   1.1250000000000000       0.50000000000000000        0.0000000000000000     
   1.1562500000000000       0.50000000000000000        0.0000000000000000     
   1.1875000000000000       0.50000000000000000        0.0000000000000000     
   1.2187500000000000       0.50000000000000000        0.0000000000000000     
   1.2500000000000000       0.50000000000000000        0.0000000000000000     
   1.2500000000000000       0.37500000000000000        0.0000000000000000     
   1.2812500000000000       0.37500000000000000        0.0000000000000000     
   1.3125000000000000       0.37500000000000000        0.0000000000000000     
   1.3437500000000000       0.37500000000000000        0.0000000000000000     
   1.3750000000000000       0.37500000000000000        0.0000000000000000     
   1.2500000000000000       0.40625000000000000        0.0000000000000000     
   1.2812500000000000       0.40625000000000000        0.0000000000000000     
   1.3125000000000000       0.40625000000000000        0.0000000000000000     
   1.3437500000000000       0.40625000000000000        0.0000000000000000     
   1.3750000000000000       0.40625000000000000        0.0000000000000000     
   1.2500000000000000       0.43750000000000000        0.0000000000000000     
   1.2812500000000000       0.43750000000000000        0.0000000000000000     
   1.3125000000000000       0.43750000000000000        0.0000000000000000     
   1.3437500000000000       0.43750000000000000        0.0000000000000000     
   1.3750000000000000       0.43750000000000000        0.0000000000000000     
   1.2500000000000000       0.46875000000000000        0.0000000000000000     
   1.2812500000000000       0.46875000000000000        0.0000000000000000     
   1.3125000000000000       0.46875000000000000        0.0000000000000000     
   1.3437500000000000       0.46875000000000000        0.0000000000000000     
   1.3750000000000000       0.46875000000000000        0.0000000000000000     
   1.2500000000000000       0.50000000000000000        0.0000000000000000     
   1.2812500000000000       0.50000000000000000        0.0000000000000000     
   1.3125000000000000       0.50000000000000000        0.0000000000000000     
   1.3437500000000000       0.50000000000000000        0.0000000000000000     
   1.3750000000000000       0.50000000000000000        0.0000000000000000     
   1.3750000000000000       0.37500000000000000        0.0000000000000000     
   1.4062500000000000       0.37500000000000000        0.0000000000000000     
   1.4375000000000000       0.37500000000000000        0.0000000000000000     
   1.4687500000000000       0.37500000000000000        0.0000000000000000     
   1.5000000000000000       0.37500000000000000        0.0000000000000000     
   1.3750000000000000       0.40625000000000000        0.0000000000000000     
   1.4062500000000000       0.40625000000000000        0.0000000000000000     
   1.4375000000000000       0.40625000000000000        0.0000000000000000     
   1.4687500000000000       0.40625000000000000        0.0000000000000000     
   1.5000000000000000       0.40625000000000000        0.0000000000000000     
   1.3750000000000000       0.43750000000000000        0.0000000000000000     
   1.4062500000000000       0.43750000000000000        0.0000000000000000     
   1.4375000000000000       0.43750000000000000        0.0000000000000000     
   1.4687500000000000       0.43750000000000000        0.0000000000000000     
   1.5000000000000000       0.43750000000000000        0.0000000000000000     
   1.3750000000000000       0.46875000000000000        0.0000000000000000     
   1.4062500000000000       0.46875000000000000        0.0000000000000000     
   1.4375000000000000       0.46875000000000000        0.0000000000000000     
   1.4687500000000000       0.46875000000000000        0.0000000000000000     
   1.5000000000000000       0.46875000000000000        0.0000000000000000     
   1.3750000000000000       0.50000000000000000        0.0000000000000000     
   1.4062500000000000       0.50000000000000000        0.0000000000000000     
   1.4375000000000000       0.50000000000000000        0.0000000000000000     
   1.4687500000000000       0.50000000000000000        0.0000000000000000     
   1.5000000000000000       0.50000000000000000        0.0000000000000000     
  0.50000000000000000       0.50000000000000000        0.0000000000000000     
  0.53125000000000000       0.50000000000000000        0.0000000000000000     
  0.56250000000000000       0.50000000000000000        0.0000000000000000     
  0.59375000000000000       0.50000000000000000        0.0000000000000000     
  0.62500000000000000       0.50000000000000000        0.0000000000000000     
  0.50000000000000000       0.53125000000000000        0.0000000000000000     
  0.53125000000000000       0.53125000000000000        0.0000000000000000     
  0.56250000000000000       0.53125000000000000        0.0000000000000000     
  0.59375000000000000       0.53125000000000000        0.0000000000000000     
  0.62500000000000000       0.53125000000000000        0.0000000000000000     
  0.50000000000000000       0.56250000000000000        0.0000000000000000     
  0.53125000000000000       0.56250000000000000        0.0000000000000000     
  0.56250000000000000       0.56250000000000000        0.0000000000000000     
  0.59375000000000000       0.56250000000000000        0.0000000000000000     
  0.62500000000000000       0.56250000000000000        0.0000000000000000     
  0.50000000000000000       0.59375000000000000        0.0000000000000000     
  0.53125000000000000       0.59375000000000000        0.0000000000000000     
  0.56250000000000000       0.59375000000000000        0.0000000000000000     
  0.59375000000000000       0.59375000000000000        0.0000000000000000     
  0.62500000000000000       0.59375000000000000        0.0000000000000000     
  0.50000000000000000       0.62500000000000000        0.0000000000000000     
  0.53125000000000000       0.62500000000000000        0.0000000000000000     
  0.56250000000000000       0.62500000000000000        0.0000000000000000     
  0.59375000000000000       0.62500000000000000        0.0000000000000000     
  0.62500000000000000       0.62500000000000000        0.0000000000000000     
  0.62500000000000000       0.50000000000000000        0.0000000000000000     
  0.65625000000000000       0.50000000000000000        0.0000000000000000     
  0.68750000000000000       0.50000000000000000        0.0000000000000000     
  0.71875000000000000       0.50000000000000000        0.0000000000000000     
  0.75000000000000000       0.50000000000000000        0.0000000000000000     
  0.62500000000000000       0.53125000000000000        0.0000000000000000     
  0.65625000000000000       0.53125000000000000        0.0000000000000000     
  0.68750000000000000       0.53125000000000000        0.0000000000000000     
  0.71875000000000000       0.53125000000000000        0.0000000000000000     
  0.75000000000000000       0.53125000000000000        0.0000000000000000     
  0.62500000000000000       0.56250000000000000        0.0000000000000000     
  0.65625000000000000       0.56250000000000000        0.0000000000000000     
  0.68750000000000000       0.56250000000000000        0.0000000000000000     
  0.71875000000000000       0.56250000000000000        0.0000000000000000     
  0.75000000000000000       0.56250000000000000        0.0000000000000000     
  0.62500000000000000       0.59375000000000000        0.0000000000000000     
  0.65625000000000000       0.59375000000000000        0.0000000000000000     
  0.68750000000000000       0.59375000000000000        0.0000000000000000     
  0.71875000000000000       0.59375000000000000        0.0000000000000000     
  0.75000000000000000       0.59375000000000000        0.0000000000000000     
  0.62500000000000000       0.62500000000000000        0.0000000000000000     
  0.65625000000000000       0.62500000000000000        0.0000000000000000     
  0.68750000000000000       0.62500000000000000        0.0000000000000000     
  0.71875000000000000       0.62500000000000000        0.0000000000000000     
  0.75000000000000000       0.62500000000000000        0.0000000000000000     
  0.75000000000000000       0.50000000000000000        0.0000000000000000     
  0.78125000000000000       0.50000000000000000        0.0000000000000000     
  0.81250000000000000       0.50000000000000000        0.0000000000000000     
  0.84375000000000000       0.50000000000000000        0.0000000000000000     
  0.87500000000000000       0.50000000000000000        0.0000000000000000     
  0.75000000000000000       0.53125000000000000        0.0000000000000000     
  0.78125000000000000       0.53125000000000000        0.0000000000000000     
  0.81250000000000000       0.53125000000000000        0.0000000000000000     
  0.84375000000000000       0.53125000000000000        0.0000000000000000     
  0.87500000000000000       0.53125000000000000        0.0000000000000000     
  0.75000000000000000       0.56250000000000000        0.0000000000000000     
  0.78125000000000000       0.56250000000000000        0.0000000000000000     
  0.81250000000000000       0.56250000000000000        0.0000000000000000     
  0.84375000000000000       0.56250000000000000        0.0000000000000000     
  0.87500000000000000       0.56250000000000000        0.0000000000000000     
  0.75000000000000000       0.59375000000000000        0.0000000000000000     
  0.78125000000000000       0.59375000000000000        0.0000000000000000     
  0.81250000000000000       0.59375000000000000        0.0000000000000000     
  0.84375000000000000       0.59375000000000000        0.0000000000000000     
  0.87500000000000000       0.59375000000000000        0.0000000000000000     
  0.75000000000000000       0.62500000000000000        0.0000000000000000     
  0.78125000000000000       0.62500000000000000        0.0000000000000000     
  0.81250000000000000       0.62500000000000000        0.0000000000000000     
  0.84375000000000000       0.62500000000000000        0.0000000000000000     
  0.87500000000000000       0.62500000000000000        0.0000000000000000     
  0.87500000000000000       0.50000000000000000        0.0000000000000000     
  0.90625000000000000       0.50000000000000000        0.0000000000000000     
  0.93750000000000000       0.50000000000000000        0.0000000000000000     
  0.96875000000000000       0.50000000000000000        0.0000000000000000     
   1.0000000000000000       0.50000000000000000        0.0000000000000000     
  0.87500000000000000       0.53125000000000000        0.0000000000000000     
  0.90625000000000000       0.53125000000000000        0.0000000000000000     
  0.93750000000000000       0.53125000000000000        0.0000000000000000     
  0.96875000000000000       0.53125000000000000        0.0000000000000000     
   1.0000000000000000       0.53125000000000000        0.0000000000000000     
  0.87500000000000000       0.56250000000000000        0.0000000000000000     
  0.90625000000000000       0.56250000000000000        0.0000000000000000     
  0.93750000000000000       0.56250000000000000        0.0000000000000000     
  0.96875000000000000       0.56250000000000000        0.0000000000000000     
   1.0000000000000000       0.56250000000000000        0.0000000000000000     
  0.87500000000000000       0.59375000000000000        0.0000000000000000     
  0.90625000000000000       0.59375000000000000        0.0000000000000000     
  0.93750000000000000       0.59375000000000000        0.0000000000000000     
  0.96875000000000000       0.59375000000000000        0.0000000000000000     
   1.0000000000000000       0.59375000000000000        0.0000000000000000     
  0.87500000000000000       0.62500000000000000        0.0000000000000000     
  0.90625000000000000       0.62500000000000000        0.0000000000000000     
  0.93750000000000000       0.62500000000000000        0.0000000000000000     
  0.96875000000000000       0.62500000000000000        0.0000000000000000     
   1.0000000000000000       0.62500000000000000        0.0000000000000000     
   1.0000000000000000       0.50000000000000000        0.0000000000000000     
   1.0312500000000000       0.50000000000000000        0.0000000000000000     
   1.0625000000000000       0.50000000000000000        0.0000000000000000     
   1.0937500000000000       0.50000000000000000        0.0000000000000000     
   1.1250000000000000       0.50000000000000000        0.0000000000000000     
   1.0000000000000000       0.53125000000000000        0.0000000000000000     
   1.0312500000000000       0.53125000000000000        0.0000000000000000     
   1.0625000000000000       0.53125000000000000        0.0000000000000000     
   1.0937500000000000       0.53125000000000000        0.0000000000000000     
   1.1250000000000000       0.53125000000000000        0.0000000000000000     
   1.0000000000000000       0.56250000000000000        0.0000000000000000     
   1.0312500000000000       0.56250000000000000        0.0000000000000000     
   1.0625000000000000       0.56250000000000000        0.0000000000000000     
   1.0937500000000000       0.56250000000000000        0.0000000000000000     
   1.1250000000000000       0.56250000000000000        0.0000000000000000     
   1.0000000000000000       0.59375000000000000        0.0000000000000000     
   1.0312500000000000       0.59375000000000000        0.0000000000000000     
   1.0625000000000000       0.59375000000000000        0.0000000000000000     
   1.0937500000000000       0.59375000000000000        0.0000000000000000     
   1.1250000000000000       0.59375000000000000        0.0000000000000000     
   1.0000000000000000       0.62500000000000000        0.0000000000000000     
   1.0312500000000000       0.62500000000000000        0.0000000000000000     
   1.0625000000000000       0.62500000000000000        0.0000000000000000     
   1.0937500000000000       0.62500000000000000        0.0000000000000000     
   1.1250000000000000       0.62500000000000000        0.0000000000000000     
   1.1250000000000000       0.50000000000000000        0.0000000000000000     
   1.1562500000000000       0.50000000000000000        0.0000000000000000     
   1.1875000000000000       0.50000000000000000        0.0000000000000000     
   1.2187500000000000       0.50000000000000000        0.0000000000000000     
   1.2500000000000000       0.50000000000000000        0.0000000000000000     
   1.1250000000000000       0.53125000000000000        0.0000000000000000     
   1.1562500000000000       0.53125000000000000        0.0000000000000000     
   1.1875000000000000       0.53125000000000000        0.0000000000000000     
   1.2187500000000000       0.53125000000000000        0.0000000000000000     
   1.2500000000000000       0.53125000000000000        0.0000000000000000     
   1.1250000000000000       0.56250000000000000        0.0000000000000000     
   1.1562500000000000       0.56250000000000000        0.0000000000000000     
   1.1875000000000000       0.56250000000000000        0.0000000000000000     
   1.2187500000000000       0.56250000000000000        0.0000000000000000     
   1.2500000000000000       0.56250000000000000        0.0000000000000000     
   1.1250000000000000       0.59375000000000000        0.0000000000000000     
   1.1562500000000000       0.59375000000000000        0.0000000000000000     
   1.1875000000000000       0.59375000000000000        0.0000000000000000     
   1.2187500000000000       0.59375000000000000        0.0000000000000000     
   1.2500000000000000       0.59375000000000000        0.0000000000000000     
   1.1250000000000000       0.62500000000000000        0.0000000000000000     
   1.1562500000000000       0.62500000000000000        0.0000000000000000     
   1.1875000000000000       0.62500000000000000        0.0000000000000000     
   1.2187500000000000       0.62500000000000000        0.0000000000000000     
   1.2500000000000000       0.62500000000000000        0.0000000000000000     
   1.2500000000000000       0.50000000000000000        0.0000000000000000     
   1.2812500000000000       0.50000000000000000        0.0000000000000000     
   1.3125000000000000       0.50000000000000000        0.0000000000000000     
   1.3437500000000000       0.50000000000000000        0.0000000000000000     
   1.3750000000000000       0.50000000000000000        0.0000000000000000     
   1.2500000000000000       0.53125000000000000        0.0000000000000000     
   1.2812500000000000       0.53125000000000000        0.0000000000000000     
   1.3125000000000000       0.53125000000000000        0.0000000000000000     
   1.3437500000000000       0.53125000000000000        0.0000000000000000     
   1.3750000000000000       0.53125000000000000        0.0000000000000000     
   1.2500000000000000       0.56250000000000000        0.0000000000000000     
   1.2812500000000000       0.56250000000000000        0.0000000000000000     
   1.3125000000000000       0.56250000000000000        0.0000000000000000     
   1.3437500000000000       0.56250000000000000        0.0000000000000000     
   1.3750000000000000       0.56250000000000000        0.0000000000000000     
   1.2500000000000000       0.59375000000000000        0.0000000000000000     
   1.2812500000000000       0.59375000000000000        0.0000000000000000     
   1.3125000000000000       0.59375000000000000        0.0000000000000000     
   1.3437500000000000       0.59375000000000000        0.0000000000000000     
   1.3750000000000000       0.59375000000000000        0.0000000000000000     
   1.2500000000000000       0.62500000000000000        0.0000000000000000     
   1.2812500000000000       0.62500000000000000        0.0000000000000000     
   1.3125000000000000       0.62500000000000000        0.0000000000000000     
   1.3437500000000000       0.62500000000000000        0.0000000000000000     
   1.3750000000000000       0.62500000000000000        0.0000000000000000     
   1.3750000000000000       0.50000000000000000        0.0000000000000000     
   1.4062500000000000       0.50000000000000000        0.0000000000000000     
   1.4375000000000000       0.50000000000000000        0.0000000000000000     
   1.4687500000000000       0.50000000000000000        0.0000000000000000     
   1.5000000000000000       0.50000000000000000        0.0000000000000000     
   1.3750000000000000       0.53125000000000000        0.0000000000000000     
   1.4062500000000000       0.53125000000000000        0.0000000000000000     
   1.4375000000000000       0.53125000000000000        0.0000000000000000     
   1.4687500000000000       0.53125000000000000        0.0000000000000000     
   1.5000000000000000       0.53125000000000000        0.0000000000000000     
   1.3750000000000000       0.56250000000000000        0.0000000000000000     
   1.4062500000000000       0.56250000000000000        0.0000000000000000     
   1.4375000000000000       0.56250000000000000        0.0000000000000000     
   1.4687500000000000       0.56250000000000000        0.0000000000000000     
   1.5000000000000000       0.56250000000000000        0.0000000000000000     
   1.3750000000000000       0.59375000000000000        0.0000000000000000     
   1.4062500000000000       0.59375000000000000        0.0000000000000000     
   1.4375000000000000       0.59375000000000000        0.0000000000000000     
   1.4687500000000000       0.59375000000000000        0.0000000000000000     
   1.5000000000000000       0.59375000000000000        0.0000000000000000     
   1.3750000000000000       0.62500000000000000        0.0000000000000000     
   1.4062500000000000       0.62500000000000000        0.0000000000000000     
   1.4375000000000000       0.62500000000000000        0.0000000000000000     
   1.4687500000000000       0.62500000000000000        0.0000000000000000     
   1.5000000000000000       0.62500000000000000        0.0000000000000000     
  0.50000000000000000       0.62500000000000000        0.0000000000000000     
  0.53125000000000000       0.62500000000000000        0.0000000000000000     
  0.56250000000000000       0.62500000000000000        0.0000000000000000     
  0.59375000000000000       0.62500000000000000        0.0000000000000000     
  0.62500000000000000       0.62500000000000000        0.0000000000000000     
  0.50000000000000000       0.65625000000000000        0.0000000000000000     
  0.53125000000000000       0.65625000000000000        0.0000000000000000     
  0.56250000000000000       0.65625000000000000        0.0000000000000000     
  0.59375000000000000       0.65625000000000000        0.0000000000000000     
  0.62500000000000000       0.65625000000000000        0.0000000000000000     
  0.50000000000000000       0.68750000000000000        0.0000000000000000     
  0.53125000000000000       0.68750000000000000        0.0000000000000000     
  0.56250000000000000       0.68750000000000000        0.0000000000000000     
  0.59375000000000000       0.68750000000000000        0.0000000000000000     
  0.62500000000000000       0.68750000000000000        0.0000000000000000     
  0.50000000000000000       0.71875000000000000        0.0000000000000000     
  0.53125000000000000       0.71875000000000000        0.0000000000000000     
  0.56250000000000000       0.71875000000000000        0.0000000000000000     
  0.59375000000000000       0.71875000000000000        0.0000000000000000     
  0.62500000000000000       0.71875000000000000        0.0000000000000000     
  0.50000000000000000       0.75000000000000000        0.0000000000000000     
  0.53125000000000000       0.75000000000000000        0.0000000000000000     
  0.56250000000000000       0.75000000000000000        0.0000000000000000     
  0.59375000000000000       0.75000000000000000        0.0000000000000000     
  0.62500000000000000       0.75000000000000000        0.0000000000000000     
  0.62500000000000000       0.62500000000000000        0.0000000000000000     
  0.65625000000000000       0.62500000000000000        0.0000000000000000     
  0.68750000000000000       0.62500000000000000        0.0000000000000000     
  0.71875000000000000       0.62500000000000000        0.0000000000000000     
  0.75000000000000000       0.62500000000000000        0.0000000000000000     
  0.62500000000000000       0.65625000000000000        0.0000000000000000     
  0.65625000000000000       0.65625000000000000        0.0000000000000000     
  0.68750000000000000       0.65625000000000000        0.0000000000000000     
  0.71875000000000000       0.65625000000000000        0.0000000000000000     
  0.75000000000000000       0.65625000000000000        0.0000000000000000     
  0.62500000000000000       0.68750000000000000        0.0000000000000000     
  0.65625000000000000       0.68750000000000000        0.0000000000000000     
  0.68750000000000000       0.68750000000000000        0.0000000000000000     
  0.71875000000000000       0.68750000000000000        0.0000000000000000     
  0.75000000000000000       0.68750000000000000        0.0000000000000000     
  0.62500000000000000       0.71875000000000000        0.0000000000000000     
  0.65625000000000000       0.71875000000000000        0.0000000000000000     
  0.68750000000000000       0.71875000000000000        0.0000000000000000     
  0.71875000000000000       0.71875000000000000        0.0000000000000000     
  0.75000000000000000       0.71875000000000000        0.0000000000000000     
  0.62500000000000000       0.75000000000000000        0.0000000000000000     
  0.65625000000000000       0.75000000000000000        0.0000000000000000     
  0.68750000000000000       0.75000000000000000        0.0000000000000000     
  0.71875000000000000       0.75000000000000000        0.0000000000000000     
  0.75000000000000000       0.75000000000000000        0.0000000000000000     
  0.75000000000000000       0.62500000000000000        0.0000000000000000     
  0.78125000000000000       0.62500000000000000        0.0000000000000000     
  0.81250000000000000       0.62500000000000000        0.0000000000000000     
  0.84375000000000000       0.62500000000000000        0.0000000000000000     
  0.87500000000000000       0.62500000000000000        0.0000000000000000     
  0.75000000000000000       0.65625000000000000        0.0000000000000000     
  0.78125000000000000       0.65625000000000000        0.0000000000000000     
  0.81250000000000000       0.65625000000000000        0.0000000000000000     
  0.84375000000000000       0.65625000000000000        0.0000000000000000     
  0.87500000000000000       0.65625000000000000        0.0000000000000000     
  0.75000000000000000       0.68750000000000000        0.0000000000000000     
  0.78125000000000000       0.68750000000000000        0.0000000000000000     
  0.81250000000000000       0.68750000000000000        0.0000000000000000     
  0.84375000000000000       0.68750000000000000        0.0000000000000000     
  0.87500000000000000       0.68750000000000000        0.0000000000000000     
  0.75000000000000000       0.71875000000000000        0.0000000000000000     
  0.78125000000000000       0.71875000000000000        0.0000000000000000     
  0.81250000000000000       0.71875000000000000        0.0000000000000000     
  0.84375000000000000       0.71875000000000000        0.0000000000000000     
  0.87500000000000000       0.71875000000000000        0.0000000000000000     
  0.75000000000000000       0.75000000000000000        0.0000000000000000     
  0.78125000000000000       0.75000000000000000        0.0000000000000000     
  0.81250000000000000       0.75000000000000000        0.0000000000000000     
  0.84375000000000000       0.75000000000000000        0.0000000000000000     
  0.87500000000000000       0.75000000000000000        0.0000000000000000     
  0.87500000000000000       0.62500000000000000        0.0000000000000000     
  0.90625000000000000       0.62500000000000000        0.0000000000000000     
  0.93750000000000000       0.62500000000000000        0.0000000000000000     
  0.96875000000000000       0.62500000000000000        0.0000000000000000     
   1.0000000000000000       0.62500000000000000        0.0000000000000000     
  0.87500000000000000       0.65625000000000000        0.0000000000000000     
  0.90625000000000000       0.65625000000000000        0.0000000000000000     
  0.93750000000000000       0.65625000000000000        0.0000000000000000     
  0.96875000000000000       0.65625000000000000        0.0000000000000000     
   1.0000000000000000       0.65625000000000000        0.0000000000000000     
  0.87500000000000000       0.68750000000000000        0.0000000000000000     
  0.90625000000000000       0.68750000000000000        0.0000000000000000     
  0.93750000000000000       0.68750000000000000        0.0000000000000000     
  0.96875000000000000       0.68750000000000000        0.0000000000000000     
   1.0000000000000000       0.68750000000000000        0.0000000000000000     
  0.87500000000000000       0.71875000000000000        0.0000000000000000     
  0.90625000000000000       0.71875000000000000        0.0000000000000000     
  0.93750000000000000       0.71875000000000000        0.0000000000000000     
  0.96875000000000000       0.71875000000000000        0.0000000000000000     
   1.0000000000000000       0.71875000000000000        0.0000000000000000     
  0.87500000000000000       0.75000000000000000        0.0000000000000000     
  0.90625000000000000       0.75000000000000000        0.0000000000000000     
  0.93750000000000000       0.75000000000000000        0.0000000000000000     
  0.96875000000000000       0.75000000000000000        0.0000000000000000     
   1.0000000000000000       0.75000000000000000        0.0000000000000000     
   1.0000000000000000       0.62500000000000000        0.0000000000000000     
   1.0312500000000000       0.62500000000000000        0.0000000000000000     
   1.0625000000000000       0.62500000000000000        0.0000000000000000     
   1.0937500000000000       0.62500000000000000        0.0000000000000000     
   1.1250000000000000       0.62500000000000000        0.0000000000000000     
   1.0000000000000000       0.65625000000000000        0.0000000000000000     
   1.0312500000000000       0.65625000000000000        0.0000000000000000     
   1.0625000000000000       0.65625000000000000        0.0000000000000000     
   1.0937500000000000       0.65625000000000000        0.0000000000000000     
   1.1250000000000000       0.65625000000000000        0.0000000000000000     
   1.0000000000000000       0.68750000000000000        0.0000000000000000     
   1.0312500000000000       0.68750000000000000        0.0000000000000000     
   1.0625000000000000       0.68750000000000000        0.0000000000000000     
   1.0937500000000000       0.68750000000000000        0.0000000000000000     
   1.1250000000000000       0.68750000000000000        0.0000000000000000     
   1.0000000000000000       0.71875000000000000        0.0000000000000000     
   1.0312500000000000       0.71875000000000000        0.0000000000000000     
   1.0625000000000000       0.71875000000000000        0.0000000000000000     
   1.0937500000000000       0.71875000000000000        0.0000000000000000     
   1.1250000000000000       0.71875000000000000        0.0000000000000000     
   1.0000000000000000       0.75000000000000000        0.0000000000000000     
   1.0312500000000000       0.75000000000000000        0.0000000000000000     
   1.0625000000000000       0.75000000000000000        0.0000000000000000     
   1.0937500000000000       0.75000000000000000        0.0000000000000000     
   1.1250000000000000       0.75000000000000000        0.0000000000000000     
   1.1250000000000000       0.62500000000000000        0.0000000000000000     
   1.1562500000000000       0.62500000000000000        0.0000000000000000     
   1.1875000000000000       0.62500000000000000        0.0000000000000000     
   1.2187500000000000       0.62500000000000000        0.0000000000000000     
   1.2500000000000000       0.62500000000000000        0.0000000000000000     
   1.1250000000000000       0.65625000000000000        0.0000000000000000     
   1.1562500000000000       0.65625000000000000        0.0000000000000000     
   1.1875000000000000       0.65625000000000000        0.0000000000000000     
   1.2187500000000000       0.65625000000000000        0.0000000000000000     
   1.2500000000000000       0.65625000000000000        0.0000000000000000     
   1.1250000000000000       0.68750000000000000        0.0000000000000000     
   1.1562500000000000       0.68750000000000000        0.0000000000000000     
   1.1875000000000000       0.68750000000000000        0.0000000000000000     
   1.2187500000000000       0.68750000000000000        0.0000000000000000     
   1.2500000000000000       0.68750000000000000        0.0000000000000000     
   1.1250000000000000       0.71875000000000000        0.0000000000000000     
   1.1562500000000000       0.71875000000000000        0.0000000000000000     
   1.1875000000000000       0.71875000000000000        0.0000000000000000     
   1.2187500000000000       0.71875000000000000        0.0000000000000000     
   1.2500000000000000       0.71875000000000000        0.0000000000000000     
   1.1250000000000000       0.75000000000000000        0.0000000000000000     
   1.1562500000000000       0.75000000000000000        0.0000000000000000     
   1.1875000000000000       0.75000000000000000        0.0000000000000000     
   1.2187500000000000       0.75000000000000000        0.0000000000000000     
   1.2500000000000000       0.75000000000000000        0.0000000000000000     
   1.2500000000000000       0.62500000000000000        0.0000000000000000     
   1.2812500000000000       0.62500000000000000        0.0000000000000000     
   1.3125000000000000       0.62500000000000000        0.0000000000000000     
   1.3437500000000000       0.62500000000000000        0.0000000000000000     
   1.3750000000000000       0.62500000000000000        0.0000000000000000     
   1.2500000000000000       0.65625000000000000        0.0000000000000000     
   1.2812500000000000       0.65625000000000000        0.0000000000000000     
   1.3125000000000000       0.65625000000000000        0.0000000000000000     
   1.3437500000000000       0.65625000000000000        0.0000000000000000     
   1.3750000000000000       0.65625000000000000        0.0000000000000000     
   1.2500000000000000       0.68750000000000000        0.0000000000000000     
   1.2812500000000000       0.68750000000000000        0.0000000000000000     
   1.3125000000000000       0.68750000000000000        0.0000000000000000     
   1.3437500000000000       0.68750000000000000        0.0000000000000000     
   1.3750000000000000       0.68750000000000000        0.0000000000000000     
   1.2500000000000000       0.71875000000000000        0.0000000000000000     
   1.2812500000000000       0.71875000000000000        0.0000000000000000     
   1.3125000000000000       0.71875000000000000        0.0000000000000000     
   1.3437500000000000       0.71875000000000000        0.0000000000000000     
   1.3750000000000000       0.71875000000000000        0.0000000000000000     
   1.2500000000000000       0.75000000000000000        0.0000000000000000     
   1.2812500000000000       0.75000000000000000        0.0000000000000000     
   1.3125000000000000       0.75000000000000000        0.0000000000000000     
   1.3437500000000000       0.75000000000000000        0.0000000000000000     
   1.3750000000000000       0.75000000000000000        0.0000000000000000     
   1.3750000000000000       0.62500000000000000        0.0000000000000000     
   1.4062500000000000       0.62500000000000000        0.0000000000000000     
   1.4375000000000000       0.62500000000000000        0.0000000000000000     
   1.4687500000000000       0.62500000000000000        0.0000000000000000     
   1.5000000000000000       0.62500000000000000        0.0000000000000000     
   1.3750000000000000       0.65625000000000000        0.0000000000000000     
   1.4062500000000000       0.65625000000000000        0.0000000000000000     
   1.4375000000000000       0.65625000000000000        0.0000000000000000     
   1.4687500000000000       0.65625000000000000        0.0000000000000000     
   1.5000000000000000       0.65625000000000000        0.0000000000000000     
   1.3750000000000000       0.68750000000000000        0.0000000000000000     
   1.4062500000000000       0.68750000000000000        0.0000000000000000     
   1.4375000000000000       0.68750000000000000        0.0000000000000000     
   1.4687500000000000       0.68750000000000000        0.0000000000000000     
   1.5000000000000000       0.68750000000000000        0.0000000000000000     
   1.3750000000000000       0.71875000000000000        0.0000000000000000     
   1.4062500000000000       0.71875000000000000        0.0000000000000000     
   1.4375000000000000       0.71875000000000000        0.0000000000000000     
   1.4687500000000000       0.71875000000000000        0.0000000000000000     
   1.5000000000000000       0.71875000000000000        0.0000000000000000     
   1.3750000000000000       0.75000000000000000        0.0000000000000000     
   1.4062500000000000       0.75000000000000000        0.0000000000000000     
   1.4375000000000000       0.75000000000000000        0.0000000000000000     
   1.4687500000000000       0.75000000000000000        0.0000000000000000     
   1.5000000000000000       0.75000000000000000        0.0000000000000000     
  0.50000000000000000       0.75000000000000000        0.0000000000000000     
  0.53125000000000000       0.75000000000000000        0.0000000000000000     
  0.56250000000000000       0.75000000000000000        0.0000000000000000     
  0.59375000000000000       0.75000000000000000        0.0000000000000000     
  0.62500000000000000       0.75000000000000000        0.0000000000000000     
  0.50000000000000000       0.78125000000000000        0.0000000000000000     
  0.53125000000000000       0.78125000000000000        0.0000000000000000     
  0.56250000000000000       0.78125000000000000        0.0000000000000000     
  0.59375000000000000       0.78125000000000000        0.0000000000000000     
  0.62500000000000000       0.78125000000000000        0.0000000000000000     
  0.50000000000000000       0.81250000000000000        0.0000000000000000     
  0.53125000000000000       0.81250000000000000        0.0000000000000000     
  0.56250000000000000       0.81250000000000000        0.0000000000000000     
  0.59375000000000000       0.81250000000000000        0.0000000000000000     
  0.62500000000000000       0.81250000000000000        0.0000000000000000     
  0.50000000000000000       0.84375000000000000        0.0000000000000000     
  0.53125000000000000       0.84375000000000000        0.0000000000000000     
  0.56250000000000000       0.84375000000000000        0.0000000000000000     
  0.59375000000000000       0.84375000000000000        0.0000000000000000     
  0.62500000000000000       0.84375000000000000        0.0000000000000000     
  0.50000000000000000       0.87500000000000000        0.0000000000000000     
  0.53125000000000000       0.87500000000000000        0.0000000000000000     
  0.56250000000000000       0.87500000000000000        0.0000000000000000     
  0.59375000000000000       0.87500000000000000        0.0000000000000000     
  0.62500000000000000       0.87500000000000000        0.0000000000000000     
  0.62500000000000000       0.75000000000000000        0.0000000000000000     
  0.65625000000000000       0.75000000000000000        0.0000000000000000     
  0.68750000000000000       0.75000000000000000        0.0000000000000000     
  0.71875000000000000       0.75000000000000000        0.0000000000000000     
  0.75000000000000000       0.75000000000000000        0.0000000000000000     
  0.62500000000000000       0.78125000000000000        0.0000000000000000     
  0.65625000000000000       0.78125000000000000        0.0000000000000000     
  0.68750000000000000       0.78125000000000000        0.0000000000000000     
  0.71875000000000000       0.78125000000000000        0.0000000000000000     
  0.75000000000000000       0.78125000000000000        0.0000000000000000     
  0.62500000000000000       0.81250000000000000        0.0000000000000000     
  0.65625000000000000       0.81250000000000000        0.0000000000000000     
  0.68750000000000000       0.81250000000000000        0.0000000000000000     
  0.71875000000000000       0.81250000000000000        0.0000000000000000     
  0.75000000000000000       0.81250000000000000        0.0000000000000000     
  0.62500000000000000       0.84375000000000000        0.0000000000000000     
  0.65625000000000000       0.84375000000000000        0.0000000000000000     
  0.68750000000000000       0.84375000000000000        0.0000000000000000     
  0.71875000000000000       0.84375000000000000        0.0000000000000000     
  0.75000000000000000       0.84375000000000000        0.0000000000000000     
  0.62500000000000000       0.87500000000000000        0.0000000000000000     
  0.65625000000000000       0.87500000000000000        0.0000000000000000     
  0.68750000000000000       0.87500000000000000        0.0000000000000000     
  0.71875000000000000       0.87500000000000000        0.0000000000000000     
  0.75000000000000000       0.87500000000000000        0.0000000000000000     
  0.75000000000000000       0.75000000000000000        0.0000000000000000     
  0.78125000000000000       0.75000000000000000        0.0000000000000000     
  0.81250000000000000       0.75000000000000000        0.0000000000000000     
  0.84375000000000000       0.75000000000000000        0.0000000000000000     
  0.87500000000000000       0.75000000000000000        0.0000000000000000     
  0.75000000000000000       0.78125000000000000        0.0000000000000000     
  0.78125000000000000       0.78125000000000000        0.0000000000000000     
  0.81250000000000000       0.78125000000000000        0.0000000000000000     
  0.84375000000000000       0.78125000000000000        0.0000000000000000     
  0.87500000000000000       0.78125000000000000        0.0000000000000000     
  0.75000000000000000       0.81250000000000000        0.0000000000000000     
  0.78125000000000000       0.81250000000000000        0.0000000000000000     
  0.81250000000000000       0.81250000000000000        0.0000000000000000     
  0.84375000000000000       0.81250000000000000        0.0000000000000000     
  0.87500000000000000       0.81250000000000000        0.0000000000000000     
  0.75000000000000000       0.84375000000000000        0.0000000000000000     
  0.78125000000000000       0.84375000000000000        0.0000000000000000     
  0.81250000000000000       0.84375000000000000        0.0000000000000000     
  0.84375000000000000       0.84375000000000000        0.0000000000000000     
  0.87500000000000000       0.84375000000000000        0.0000000000000000     
  0.75000000000000000       0.87500000000000000        0.0000000000000000     
  0.78125000000000000       0.87500000000000000        0.0000000000000000     
  0.81250000000000000       0.87500000000000000        0.0000000000000000     
  0.84375000000000000       0.87500000000000000        0.0000000000000000     
  0.87500000000000000       0.87500000000000000        0.0000000000000000     
  0.87500000000000000       0.75000000000000000        0.0000000000000000     
  0.90625000000000000       0.75000000000000000        0.0000000000000000     
  0.93750000000000000       0.75000000000000000        0.0000000000000000     
  0.96875000000000000       0.75000000000000000        0.0000000000000000     
   1.0000000000000000       0.75000000000000000        0.0000000000000000     
  0.87500000000000000       0.78125000000000000        0.0000000000000000     
  0.90625000000000000       0.78125000000000000        0.0000000000000000     
  0.93750000000000000       0.78125000000000000        0.0000000000000000     
  0.96875000000000000       0.78125000000000000        0.0000000000000000     
   1.0000000000000000       0.78125000000000000        0.0000000000000000     
  0.87500000000000000       0.81250000000000000        0.0000000000000000     
  0.90625000000000000       0.81250000000000000        0.0000000000000000     
  0.93750000000000000       0.81250000000000000        0.0000000000000000     
  0.96875000000000000       0.81250000000000000        0.0000000000000000     
   1.0000000000000000       0.81250000000000000        0.0000000000000000     
  0.87500000000000000       0.84375000000000000        0.0000000000000000     
  0.90625000000000000       0.84375000000000000        0.0000000000000000     
  0.93750000000000000       0.84375000000000000        0.0000000000000000     
  0.96875000000000000       0.84375000000000000        0.0000000000000000     
   1.0000000000000000       0.84375000000000000        0.0000000000000000     
  0.87500000000000000       0.87500000000000000        0.0000000000000000     
  0.90625000000000000       0.87500000000000000        0.0000000000000000     
  0.93750000000000000       0.87500000000000000        0.0000000000000000     
  0.96875000000000000       0.87500000000000000        0.0000000000000000     
   1.0000000000000000       0.87500000000000000        0.0000000000000000     
   1.0000000000000000       0.75000000000000000        0.0000000000000000     
   1.0312500000000000       0.75000000000000000        0.0000000000000000     
   1.0625000000000000       0.75000000000000000        0.0000000000000000     
   1.0937500000000000       0.75000000000000000        0.0000000000000000     
   1.1250000000000000       0.75000000000000000        0.0000000000000000     
   1.0000000000000000       0.78125000000000000        0.0000000000000000     
   1.0312500000000000       0.78125000000000000        0.0000000000000000     
   1.0625000000000000       0.78125000000000000        0.0000000000000000     
   1.0937500000000000       0.78125000000000000        0.0000000000000000     
   1.1250000000000000       0.78125000000000000        0.0000000000000000     
   1.0000000000000000       0.81250000000000000        0.0000000000000000     
   1.0312500000000000       0.81250000000000000        0.0000000000000000     
   1.0625000000000000       0.81250000000000000        0.0000000000000000     
   1.0937500000000000       0.81250000000000000        0.0000000000000000     
   1.1250000000000000       0.81250000000000000        0.0000000000000000     
   1.0000000000000000       0.84375000000000000        0.0000000000000000     
   1.0312500000000000       0.84375000000000000        0.0000000000000000     
   1.0625000000000000       0.84375000000000000        0.0000000000000000     
   1.0937500000000000       0.84375000000000000        0.0000000000000000     
   1.1250000000000000       0.84375000000000000        0.0000000000000000     
   1.0000000000000000       0.87500000000000000        0.0000000000000000     
   1.0312500000000000       0.87500000000000000        0.0000000000000000     
   1.0625000000000000       0.87500000000000000        0.0000000000000000     
   1.0937500000000000       0.87500000000000000        0.0000000000000000     
   1.1250000000000000       0.87500000000000000        0.0000000000000000     
   1.1250000000000000       0.75000000000000000        0.0000000000000000     
   1.1562500000000000       0.75000000000000000        0.0000000000000000     
   1.1875000000000000       0.75000000000000000        0.0000000000000000     
   1.2187500000000000       0.75000000000000000        0.0000000000000000     
   1.2500000000000000       0.75000000000000000        0.0000000000000000     
   1.1250000000000000       0.78125000000000000        0.0000000000000000     
   1.1562500000000000       0.78125000000000000        0.0000000000000000     
   1.1875000000000000       0.78125000000000000        0.0000000000000000     
   1.2187500000000000       0.78125000000000000        0.0000000000000000     
   1.2500000000000000       0.78125000000000000        0.0000000000000000     
   1.1250000000000000       0.81250000000000000        0.0000000000000000     
   1.1562500000000000       0.81250000000000000        0.0000000000000000     
   1.1875000000000000       0.81250000000000000        0.0000000000000000     
   1.2187500000000000       0.81250000000000000        0.0000000000000000     
   1.2500000000000000       0.81250000000000000        0.0000000000000000     
   1.1250000000000000       0.84375000000000000        0.0000000000000000     
   1.1562500000000000       0.84375000000000000        0.0000000000000000     
   1.1875000000000000       0.84375000000000000        0.0000000000000000     
   1.2187500000000000       0.84375000000000000        0.0000000000000000     
   1.2500000000000000       0.84375000000000000        0.0000000000000000     
   1.1250000000000000       0.87500000000000000        0.0000000000000000     
   1.1562500000000000       0.87500000000000000        0.0000000000000000     
   1.1875000000000000       0.87500000000000000        0.0000000000000000     
   1.2187500000000000       0.87500000000000000        0.0000000000000000     
   1.2500000000000000       0.87500000000000000        0.0000000000000000     
   1.2500000000000000       0.75000000000000000        0.0000000000000000     
   1.2812500000000000       0.75000000000000000        0.0000000000000000     
   1.3125000000000000       0.75000000000000000        0.0000000000000000     
   1.3437500000000000       0.75000000000000000        0.0000000000000000     
   1.3750000000000000       0.75000000000000000        0.0000000000000000     
   1.2500000000000000       0.78125000000000000        0.0000000000000000     
   1.2812500000000000       0.78125000000000000        0.0000000000000000     
   1.3125000000000000       0.78125000000000000        0.0000000000000000     
   1.3437500000000000       0.78125000000000000        0.0000000000000000     
   1.3750000000000000       0.78125000000000000        0.0000000000000000     
   1.2500000000000000       0.81250000000000000        0.0000000000000000     
   1.2812500000000000       0.81250000000000000        0.0000000000000000     
   1.3125000000000000       0.81250000000000000        0.0000000000000000     
   1.3437500000000000       0.81250000000000000        0.0000000000000000     
   1.3750000000000000       0.81250000000000000        0.0000000000000000     
   1.2500000000000000       0.84375000000000000        0.0000000000000000     
   1.2812500000000000       0.84375000000000000        0.0000000000000000     
   1.3125000000000000       0.84375000000000000        0.0000000000000000     
   1.3437500000000000       0.84375000000000000        0.0000000000000000     
   1.3750000000000000       0.84375000000000000        0.0000000000000000     
   1.2500000000000000       0.87500000000000000        0.0000000000000000     
   1.2812500000000000       0.87500000000000000        0.0000000000000000     
   1.3125000000000000       0.87500000000000000        0.0000000000000000     
   1.3437500000000000       0.87500000000000000        0.0000000000000000     
   1.3750000000000000       0.87500000000000000        0.0000000000000000     
   1.3750000000000000       0.75000000000000000        0.0000000000000000     
   1.4062500000000000       0.75000000000000000        0.0000000000000000     
   1.4375000000000000       0.75000000000000000        0.0000000000000000     
   1.4687500000000000       0.75000000000000000        0.0000000000000000     
   1.5000000000000000       0.75000000000000000        0.0000000000000000     
   1.3750000000000000       0.78125000000000000        0.0000000000000000     
   1.4062500000000000       0.78125000000000000        0.0000000000000000     
   1.4375000000000000       0.78125000000000000        0.0000000000000000     
   1.4687500000000000       0.78125000000000000        0.0000000000000000     
   1.5000000000000000       0.78125000000000000        0.0000000000000000     
   1.3750000000000000       0.81250000000000000        0.0000000000000000     
   1.4062500000000000       0.81250000000000000        0.0000000000000000     
   1.4375000000000000       0.81250000000000000        0.0000000000000000     
   1.4687500000000000       0.81250000000000000        0.0000000000000000     
   1.5000000000000000       0.81250000000000000        0.0000000000000000     
   1.3750000000000000       0.84375000000000000        0.0000000000000000     
   1.4062500000000000       0.84375000000000000        0.0000000000000000     
   1.4375000000000000       0.84375000000000000        0.0000000000000000     
   1.4687500000000000       0.84375000000000000        0.0000000000000000     
   1.5000000000000000       0.84375000000000000        0.0000000000000000     
   1.3750000000000000       0.87500000000000000        0.0000000000000000     
   1.4062500000000000       0.87500000000000000        0.0000000000000000     
   1.4375000000000000       0.87500000000000000        0.0000000000000000     
   1.4687500000000000       0.87500000000000000        0.0000000000000000     
   1.5000000000000000       0.87500000000000000        0.0000000000000000     
  0.50000000000000000       0.87500000000000000        0.0000000000000000     
  0.53125000000000000       0.87500000000000000        0.0000000000000000     
  0.56250000000000000       0.87500000000000000        0.0000000000000000     
  0.59375000000000000       0.87500000000000000        0.0000000000000000     
  0.62500000000000000       0.87500000000000000        0.0000000000000000     
  0.50000000000000000       0.90625000000000000        0.0000000000000000     
  0.53125000000000000       0.90625000000000000        0.0000000000000000     
  0.56250000000000000       0.90625000000000000        0.0000000000000000     
  0.59375000000000000       0.90625000000000000        0.0000000000000000     
  0.62500000000000000       0.90625000000000000        0.0000000000000000     
  0.50000000000000000       0.93750000000000000        0.0000000000000000     
  0.53125000000000000       0.93750000000000000        0.0000000000000000     
  0.56250000000000000       0.93750000000000000        0.0000000000000000     
  0.59375000000000000       0.93750000000000000        0.0000000000000000     
  0.62500000000000000       0.93750000000000000        0.0000000000000000     
  0.50000000000000000       0.96875000000000000        0.0000000000000000     
  0.53125000000000000       0.96875000000000000        0.0000000000000000     
  0.56250000000000000       0.96875000000000000        0.0000000000000000     
  0.59375000000000000       0.96875000000000000        0.0000000000000000     
  0.62500000000000000       0.96875000000000000        0.0000000000000000     
  0.50000000000000000        1.0000000000000000        0.0000000000000000     
  0.53125000000000000        1.0000000000000000        0.0000000000000000     
  0.56250000000000000        1.0000000000000000        0.0000000000000000     
  0.59375000000000000        1.0000000000000000        0.0000000000000000     
  0.62500000000000000        1.0000000000000000        0.0000000000000000     
  0.62500000000000000       0.87500000000000000        0.0000000000000000     
  0.65625000000000000       0.87500000000000000        0.0000000000000000     
  0.68750000000000000       0.87500000000000000        0.0000000000000000     
  0.71875000000000000       0.87500000000000000        0.0000000000000000     
  0.75000000000000000       0.87500000000000000        0.0000000000000000     
  0.62500000000000000       0.90625000000000000        0.0000000000000000     
  0.65625000000000000       0.90625000000000000        0.0000000000000000     
  0.68750000000000000       0.90625000000000000        0.0000000000000000     
  0.71875000000000000       0.90625000000000000        0.0000000000000000     
  0.75000000000000000       0.90625000000000000        0.0000000000000000     
  0.62500000000000000       0.93750000000000000        0.0000000000000000     
  0.65625000000000000       0.93750000000000000        0.0000000000000000     
  0.68750000000000000       0.93750000000000000        0.0000000000000000     
  0.71875000000000000       0.93750000000000000        0.0000000000000000     
  0.75000000000000000       0.93750000000000000        0.0000000000000000     
  0.62500000000000000       0.96875000000000000        0.0000000000000000     
  0.65625000000000000       0.96875000000000000        0.0000000000000000     
  0.68750000000000000       0.96875000000000000        0.0000000000000000     
  0.71875000000000000       0.96875000000000000        0.0000000000000000     
  0.75000000000000000       0.96875000000000000        0.0000000000000000     
  0.62500000000000000        1.0000000000000000        0.0000000000000000     
  0.65625000000000000        1.0000000000000000        0.0000000000000000     
  0.68750000000000000        1.0000000000000000        0.0000000000000000     
  0.71875000000000000        1.0000000000000000        0.0000000000000000     
  0.75000000000000000        1.0000000000000000        0.0000000000000000     
  0.75000000000000000       0.87500000000000000        0.0000000000000000     
  0.78125000000000000       0.87500000000000000        0.0000000000000000     
  0.81250000000000000       0.87500000000000000        0.0000000000000000     
  0.84375000000000000       0.87500000000000000        0.0000000000000000     
  0.87500000000000000       0.87500000000000000        0.0000000000000000     
  0.75000000000000000       0.90625000000000000        0.0000000000000000     
  0.78125000000000000       0.90625000000000000        0.0000000000000000     
  0.81250000000000000       0.90625000000000000        0.0000000000000000     
  0.84375000000000000       0.90625000000000000        0.0000000000000000     
  0.87500000000000000       0.90625000000000000        0.0000000000000000     
  0.75000000000000000       0.93750000000000000        0.0000000000000000     
  0.78125000000000000       0.93750000000000000        0.0000000000000000     
  0.81250000000000000       0.93750000000000000        0.0000000000000000     
  0.84375000000000000       0.93750000000000000        0.0000000000000000     
  0.87500000000000000       0.93750000000000000        0.0000000000000000     
  0.75000000000000000       0.96875000000000000        0.0000000000000000     
  0.78125000000000000       0.96875000000000000        0.0000000000000000     
  0.81250000000000000       0.96875000000000000        0.0000000000000000     
  0.84375000000000000       0.96875000000000000        0.0000000000000000     
  0.87500000000000000       0.96875000000000000        0.0000000000000000     
  0.75000000000000000        1.0000000000000000        0.0000000000000000     
  0.78125000000000000        1.0000000000000000        0.0000000000000000     
  0.81250000000000000        1.0000000000000000        0.0000000000000000     
  0.84375000000000000        1.0000000000000000        0.0000000000000000     
  0.87500000000000000        1.0000000000000000        0.0000000000000000     
  0.87500000000000000       0.87500000000000000        0.0000000000000000     
  0.90625000000000000       0.87500000000000000        0.0000000000000000     
  0.93750000000000000       0.87500000000000000        0.0000000000000000     
  0.96875000000000000       0.87500000000000000        0.0000000000000000     
   1.0000000000000000       0.87500000000000000        0.0000000000000000     
  0.87500000000000000       0.90625000000000000        0.0000000000000000     
  0.90625000000000000       0.90625000000000000        0.0000000000000000     
  0.93750000000000000       0.90625000000000000        0.0000000000000000     
  0.96875000000000000       0.90625000000000000        0.0000000000000000     
   1.0000000000000000       0.90625000000000000        0.0000000000000000     
  0.87500000000000000       0.93750000000000000        0.0000000000000000     
  0.90625000000000000       0.93750000000000000        0.0000000000000000     
  0.93750000000000000       0.93750000000000000        0.0000000000000000     
  0.96875000000000000       0.93750000000000000        0.0000000000000000     
   1.0000000000000000       0.93750000000000000        0.0000000000000000     
  0.87500000000000000       0.96875000000000000        0.0000000000000000     
  0.90625000000000000       0.96875000000000000        0.0000000000000000     
  0.93750000000000000       0.96875000000000000        0.0000000000000000     
  0.96875000000000000       0.96875000000000000        0.0000000000000000     
   1.0000000000000000       0.96875000000000000        0.0000000000000000     
  0.87500000000000000        1.0000000000000000        0.0000000000000000     
  0.90625000000000000        1.0000000000000000        0.0000000000000000     
  0.93750000000000000        1.0000000000000000        0.0000000000000000     
  0.96875000000000000        1.0000000000000000        0.0000000000000000     
   1.0000000000000000        1.0000000000000000        0.0000000000000000     
   1.0000000000000000       0.87500000000000000        0.0000000000000000     
   1.0312500000000000       0.87500000000000000        0.0000000000000000     
   1.0625000000000000       0.87500000000000000        0.0000000000000000     
   1.0937500000000000       0.87500000000000000        0.0000000000000000     
   1.1250000000000000       0.87500000000000000        0.0000000000000000     
   1.0000000000000000       0.90625000000000000        0.0000000000000000     
   1.0312500000000000       0.90625000000000000        0.0000000000000000     
   1.0625000000000000       0.90625000000000000        0.0000000000000000     
   1.0937500000000000       0.90625000000000000        0.0000000000000000     
   1.1250000000000000       0.90625000000000000        0.0000000000000000     
   1.0000000000000000       0.93750000000000000        0.0000000000000000     
   1.0312500000000000       0.93750000000000000        0.0000000000000000     
   1.0625000000000000       0.93750000000000000        0.0000000000000000     
   1.0937500000000000       0.93750000000000000        0.0000000000000000     
   1.1250000000000000       0.93750000000000000        0.0000000000000000     
   1.0000000000000000       0.96875000000000000        0.0000000000000000     
   1.0312500000000000       0.96875000000000000        0.0000000000000000     
   1.0625000000000000       0.96875000000000000        0.0000000000000000     
   1.0937500000000000       0.96875000000000000        0.0000000000000000     
   1.1250000000000000       0.96875000000000000        0.0000000000000000     
   1.0000000000000000        1.0000000000000000        0.0000000000000000     
   1.0312500000000000        1.0000000000000000        0.0000000000000000     
   1.0625000000000000        1.0000000000000000        0.0000000000000000     
   1.0937500000000000        1.0000000000000000        0.0000000000000000     
   1.1250000000000000        1.0000000000000000        0.0000000000000000     
   1.1250000000000000       0.87500000000000000        0.0000000000000000     
   1.1562500000000000       0.87500000000000000        0.0000000000000000     
   1.1875000000000000       0.87500000000000000        0.0000000000000000     
   1.2187500000000000       0.87500000000000000        0.0000000000000000     
   1.2500000000000000       0.87500000000000000        0.0000000000000000     
   1.1250000000000000       0.90625000000000000        0.0000000000000000     
   1.1562500000000000       0.90625000000000000        0.0000000000000000     
   1.1875000000000000       0.90625000000000000        0.0000000000000000     
   1.2187500000000000       0.90625000000000000        0.0000000000000000     
   1.2500000000000000       0.90625000000000000        0.0000000000000000     
   1.1250000000000000       0.93750000000000000        0.0000000000000000     
   1.1562500000000000       0.93750000000000000        0.0000000000000000     
   1.1875000000000000       0.93750000000000000        0.0000000000000000     
   1.2187500000000000       0.93750000000000000        0.0000000000000000     
   1.2500000000000000       0.93750000000000000        0.0000000000000000     
   1.1250000000000000       0.96875000000000000        0.0000000000000000     
   1.1562500000000000       0.96875000000000000        0.0000000000000000     
   1.1875000000000000       0.96875000000000000        0.0000000000000000     
   1.2187500000000000       0.96875000000000000        0.0000000000000000     
   1.2500000000000000       0.96875000000000000        0.0000000000000000     
   1.1250000000000000        1.0000000000000000        0.0000000000000000     
   1.1562500000000000        1.0000000000000000        0.0000000000000000     
   1.1875000000000000        1.0000000000000000        0.0000000000000000     
   1.2187500000000000        1.0000000000000000        0.0000000000000000     
   1.2500000000000000        1.0000000000000000        0.0000000000000000     
   1.2500000000000000       0.87500000000000000        0.0000000000000000     
   1.2812500000000000       0.87500000000000000        0.0000000000000000     
   1.3125000000000000       0.87500000000000000        0.0000000000000000     
   1.3437500000000000       0.87500000000000000        0.0000000000000000     
   1.3750000000000000       0.87500000000000000        0.0000000000000000     
   1.2500000000000000       0.90625000000000000        0.0000000000000000     
   1.2812500000000000       0.90625000000000000        0.0000000000000000     
   1.3125000000000000       0.90625000000000000        0.0000000000000000     
   1.3437500000000000       0.90625000000000000        0.0000000000000000     
   1.3750000000000000       0.90625000000000000        0.0000000000000000     
   1.2500000000000000       0.93750000000000000        0.0000000000000000     
   1.2812500000000000       0.93750000000000000        0.0000000000000000     
   1.3125000000000000       0.93750000000000000        0.0000000000000000     
   1.3437500000000000       0.93750000000000000        0.0000000000000000     
   1.3750000000000000       0.93750000000000000        0.0000000000000000     
   1.2500000000000000       0.96875000000000000        0.0000000000000000     
   1.2812500000000000       0.96875000000000000        0.0000000000000000     
   1.3125000000000000       0.96875000000000000        0.0000000000000000     
   1.3437500000000000       0.96875000000000000        0.0000000000000000     
   1.3750000000000000       0.96875000000000000        0.0000000000000000     
   1.2500000000000000        1.0000000000000000        0.0000000000000000     
   1.2812500000000000        1.0000000000000000        0.0000000000000000     
   1.3125000000000000        1.0000000000000000        0.0000000000000000     
   1.3437500000000000        1.0000000000000000        0.0000000000000000     
   1.3750000000000000        1.0000000000000000        0.0000000000000000     
   1.3750000000000000       0.87500000000000000        0.0000000000000000     
   1.4062500000000000       0.87500000000000000        0.0000000000000000     
   1.4375000000000000       0.87500000000000000        0.0000000000000000     
   1.4687500000000000       0.87500000000000000        0.0000000000000000     
   1.5000000000000000       0.87500000000000000        0.0000000000000000     
   1.3750000000000000       0.90625000000000000        0.0000000000000000     
   1.4062500000000000       0.90625000000000000        0.0000000000000000     
   1.4375000000000000       0.90625000000000000        0.0000000000000000     
   1.4687500000000000       0.90625000000000000        0.0000000000000000     
   1.5000000000000000       0.90625000000000000        0.0000000000000000     
   1.3750000000000000       0.93750000000000000        0.0000000000000000     
   1.4062500000000000       0.93750000000000000        0.0000000000000000     
   1.4375000000000000       0.93750000000000000        0.0000000000000000     
   1.4687500000000000       0.93750000000000000        0.0000000000000000     
   1.5000000000000000       0.93750000000000000        0.0000000000000000     
   1.3750000000000000       0.96875000000000000        0.0000000000000000     
   1.4062500000000000       0.96875000000000000        0.0000000000000000     
   1.4375000000000000       0.96875000000000000        0.0000000000000000     
   1.4687500000000000       0.96875000000000000        0.0000000000000000     
   1.5000000000000000       0.96875000000000000        0.0000000000000000     
   1.3750000000000000        1.0000000000000000        0.0000000000000000     
   1.4062500000000000        1.0000000000000000        0.0000000000000000     
   1.4375000000000000        1.0000000000000000        0.0000000000000000     
   1.4687500000000000        1.0000000000000000        0.0000000000000000     
   1.5000000000000000        1.0000000000000000        0.0000000000000000     
 </DataArray>
 </Points>
 <Cells>
 <DataArray  type="Int32"  Name="connectivity"  format="ascii">
           0           1           6           5
           1           2           7           6
           2           3           8           7
           3           4           9           8
           5           6          11          10
           6           7          12          11
           7           8          13          12
           8           9          14          13
          10          11          16          15
          11          12          17          16
          12          13          18          17
          13          14          19          18
          15          16          21          20
          16          17          22          21
          17          18          23          22
          18          19          24          23
          25          26          31          30
          26          27          32          31
          27          28          33          32
          28          29          34          33
          30          31          36          35
          31          32          37          36
          32          33          38          37
          33          34          39          38
          35          36          41          40
          36          37          42          41
          37          38          43          42
          38          39          44          43
          40          41          46          45
          41          42          47          46
          42          43          48          47
          43          44          49          48
          50          51          56          55
          51          52          57          56
          52          53          58          57
          53          54          59          58
          55          56          61          60
          56          57          62          61
          57          58          63          62
          58          59          64          63
          60          61          66          65
          61          62          67          66
          62          63          68          67
          63          64          69          68
          65          66          71          70
          66          67          72          71
          67          68          73          72
          68          69          74          73
          75          76          81          80
          76          77          82          81
          77          78          83          82
          78          79          84          83
          80          81          86          85
          81          82          87          86
          82          83          88          87
          83          84          89          88
          85          86          91          90
          86          87          92          91
          87          88          93          92
          88          89          94          93
          90          91          96          95
          91          92          97          96
          92          93          98          97
          93          94          99          98
         100         101         106         105
         101         102         107         106
         102         103         108         107
         103         104         109         108
         105         106         111         110
         106         107         112         111
         107         108         113         112
         108         109         114         113
         110         111         116         115
         111         112         117         116
         112         113         118         117
         113         114         119         118
         115         116         121         120
         116         117         122         121
         117         118         123         122
         118         119         124         123
         125         126         131         130
         126         127         132         131
         127         128         133         132
         128         129         134         133
         130         131         136         135
         131         132         137         136
         132         133         138         137
         133         134         139         138
         135         136         141         140
         136         137         142         141
         137         138         143         142
         138         139         144         143
         140         141         146         145
         141         142         147         146
         142         143         148         147
         143         144         149         148
         150         151         156         155
         151         152         157         156
         152         153         158         157
         153         154         159         158
         155         156         161         160
         156         157         162         161
         157         158         163         162
         158         159         164         163
         160         161         166         165
         161         162         167         166
         162         163         168         167
         163         164         169         168
         165         166         171         170
         166         167         172         171
         167         168         173         172
         168         169         174         173
         175         176         181         180
         176         177         182         181
         177         178         183         182
         178         179         184         183
         180         181         186         185
         181         182         187         186
         182         183         188         187
         183         184         189         188
         185         186         191         190
         186         187         192         191
         187         188         193         192
         188         189         194         193
         190         191         196         195
         191         192         197         196
         192         193         198         197
         193         194         199         198
         200         201         206         205
         201         202         207         206
         202         203         208         207
         203         204         209         208
         205         206         211         210
         206         207         212         211
         207         208         213         212
         208         209         214         213
         210         211         216         215
         211         212         217         216
         212         213         218         217
         213         214         219         218
         215         216         221         220
         216         217         222         221
         217         218         223         222
         218         219         224         223
         225         226         231         230
         226         227         232         231
         227         228         233         232
         228         229         234         233
         230         231         236         235
         231         232         237         236
         232         233         238         237
         233         234         239         238
         235         236         241         240
         236         237         242         241
         237         238         243         242
         238         239         244         243
         240         241         246         245
         241         242         247         246
         242         243         248         247
         243         244         249         248
         250         251         256         255
         251         252         257         256
         252         253         258         257
         253         254         259         258
         255         256         261         260
         256         257         262         261
         257         258         263         262
         258         259         264         263
         260         261         266         265
         261         262         267         266
         262         263         268         267
         263         264         269         268
         265         266         271         270
         266         267         272         271
         267         268         273         272
         268         269         274         273
         275         276         281         280
         276         277         282         281
         277         278         283         282
         278         279         284         283
         280         281         286         285
         281         282         287         286
         282         283         288         287
         283         284         289         288
         285         286         291         290
         286         287         292         291
         287         288         293         292
         288         289         294         293
         290         291         296         295
         291         292         297         296
         292         293         298         297
         293         294         299         298
         300         301         306         305
         301         302         307         306
         302         303         308         307
         303         304         309         308
         305         306         311         310
         306         307         312         311
         307         308         313         312
         308         309         314         313
         310         311         316         315
         311         312         317         316
         312         313         318         317
         313         314         319         318
         315         316         321         320
         316         317         322         321
         317         318         323         322
         318         319         324         323
         325         326         331         330
         326         327         332         331
         327         328         333         332
         328         329         334         333
         330         331         336         335
         331         332         337         336
         332         333         338         337
         333         334         339         338
         335         336         341         340
         336         337         342         341
         337         338         343         342
         338         339         344         343
         340         341         346         345
         341         342         347         346
         342         343         348         347
         343         344         349         348
         350         351         356         355
         351         352         357         356
         352         353         358         357
         353         354         359         358
         355         356         361         360
         356         357         362         361
         357         358         363         362
         358         359         364         363
         360         361         366         365
         361         362         367         366
         362         363         368         367
         363         364         369         368
         365         366         371         370
         366         367         372         371
         367         368         373         372
         368         369         374         373
         375         376         381         380
         376         377         382         381
         377         378         383         382
         378         379         384         383
         380         381         386         385
         381         382         387         386
         382         383         388         387
         383         384         389         388
         385         386         391         390
         386         387         392         391
         387         388         393         392
         388         389         394         393
         390         391         396         395
         391         392         397         396
         392         393         398         397
         393         394         399         398
         400         401         406         405
         401         402         407         406
         402         403         408         407
         403         404         409         408
         405         406         411         410
         406         407         412         411
         407         408         413         412
         408         409         414         413
         410         411         416         415
         411         412         417         416
         412         413         418         417
         413         414         419         418
         415         416         421         420
         416         417         422         421
         417         418         423         422
         418         419         424         423
         425         426         431         430
         426         427         432         431
         427         428         433         432
         428         429         434         433
         430         431         436         435
         431         432         437         436
         432         433         438         437
         433         434         439         438
         435         436         441         440
         436         437         442         441
         437         438         443         442
         438         439         444         443
         440         441         446         445
         441         442         447         446
         442         443         448         447
         443         444         449         448
         450         451         456         455
         451         452         457         456
         452         453         458         457
         453         454         459         458
         455         456         461         460
         456         457         462         461
         457         458         463         462
         458         459         464         463
         460         461         466         465
         461         462         467         466
         462         463         468         467
         463         464         469         468
         465         466         471         470
         466         467         472         471
         467         468         473         472
         468         469         474         473
         475         476         481         480
         476         477         482         481
         477         478         483         482
         478         479         484         483
         480         481         486         485
         481         482         487         486
         482         483         488         487
         483         484         489         488
         485         486         491         490
         486         487         492         491
         487         488         493         492
         488         489         494         493
         490         491         496         495
         491         492         497         496
         492         493         498         497
         493         494         499         498
         500         501         506         505
         501         502         507         506
         502         503         508         507
         503         504         509         508
         505         506         511         510
         506         507         512         511
         507         508         513         512
         508         509         514         513
         510         511         516         515
         511         512         517         516
         512         513         518         517
         513         514         519         518
         515         516         521         520
         516         517         522         521
         517         518         523         522
         518         519         524         523
         525         526         531         530
         526         527         532         531
         527         528         533         532
         528         529         534         533
         530         531         536         535
         531         532         537         536
         532         533         538         537
         533         534         539         538
         535         536         541         540
         536         537         542         541
         537         538         543         542
         538         539         544         543
         540         541         546         545
         541         542         547         546
         542         543         548         547
         543         544         549         548
         550         551         556         555
         551         552         557         556
         552         553         558         557
         553         554         559         558
         555         556         561         560
         556         557         562         561
         557         558         563         562
         558         559         564         563
         560         561         566         565
         561         562         567         566
         562         563         568         567
         563         564         569         568
         565         566         571         570
         566         567         572         571
         567         568         573         572
         568         569         574         573
         575         576         581         580
         576         577         582         581
         577         578         583         582
         578         579         584         583
         580         581         586         585
         581         582         587         586
         582         583         588         587
         583         584         589         588
         585         586         591         590
         586         587         592         591
         587         588         593         592
         588         589         594         593
         590         591         596         595
         591         592         597         596
         592         593         598         597
         593         594         599         598
         600         601         606         605
         601         602         607         606
         602         603         608         607
         603         604         609         608
         605         606         611         610
         606         607         612         611
         607         608         613         612
         608         609         614         613
         610         611         616         615
         611         612         617         616
         612         613         618         617
         613         614         619         618
         615         616         621         620
         616         617         622         621
         617         618         623         622
         618         619         624         623
         625         626         631         630
         626         627         632         631
         627         628         633         632
         628         629         634         633
         630         631         636         635
         631         632         637         636
         632         633         638         637
         633         634         639         638
         635         636         641         640
         636         637         642         641
         637         638         643         642
         638         639         644         643
         640         641         646         645
         641         642         647         646
         642         643         648         647
         643         644         649         648
         650         651         656         655
         651         652         657         656
         652         653         658         657
         653         654         659         658
         655         656         661         660
         656         657         662         661
         657         658         663         662
         658         659         664         663
         660         661         666         665
         661         662         667         666
         662         663         668         667
         663         664         669         668
         665         666         671         670
         666         667         672         671
         667         668         673         672
         668         669         674         673
         675         676         681         680
         676         677         682         681
         677         678         683         682
         678         679         684         683
         680         681         686         685
         681         682         687         686
         682         683         688         687
         683         684         689         688
         685         686         691         690
         686         687         692         691
         687         688         693         692
         688         689         694         693
         690         691         696         695
         691         692         697         696
         692         693         698         697
         693         694         699         698
         700         701         706         705
         701         702         707         706
         702         703         708         707
         703         704         709         708
         705         706         711         710
         706         707         712         711
         707         708         713         712
         708         709         714         713
         710         711         716         715
         711         712         717         716
         712         713         718         717
         713         714         719         718
         715         716         721         720
         716         717         722         721
         717         718         723         722
         718         719         724         723
         725         726         731         730
         726         727         732         731
         727         728         733         732
         728         729         734         733
         730         731         736         735
         731         732         737         736
         732         733         738         737
         733         734         739         738
         735         736         741         740
         736         737         742         741
         737         738         743         742
         738         739         744         743
         740         741         746         745
         741         742         747         746
         742         743         748         747
         743         744         749         748
         750         751         756         755
         751         752         757         756
         752         753         758         757
         753         754         759         758
         755         756         761         760
         756         757         762         761
         757         758         763         762
         758         759         764         763
         760         761         766         765
         761         762         767         766
         762         763         768         767
         763         764         769         768
         765         766         771         770
         766         767         772         771
         767         768         773         772
         768         769         774         773
         775         776         781         780
         776         777         782         781
         777         778         783         782
         778         779         784         783
         780         781         786         785
         781         782         787         786
         782         783         788         787
         783         784         789         788
         785         786         791         790
         786         787         792         791
         787         788         793         792
         788         789         794         793
         790         791         796         795
         791         792         797         796
         792         793         798         797
         793         794         799         798
         800         801         806         805
         801         802         807         806
         802         803         808         807
         803         804         809         808
         805         806         811         810
         806         807         812         811
         807         808         813         812
         808         809         814         813
         810         811         816         815
         811         812         817         816
         812         813         818         817
         813         814         819         818
         815         816         821         820
         816         817         822         821
         817         818         823         822
         818         819         824         823
         825         826         831         830
         826         827         832         831
         827         828         833         832
         828         829         834         833
         830         831         836         835
         831         832         837         836
         832         833         838         837
         833         834         839         838
         835         836         841         840
         836         837         842         841
         837         838         843         842
         838         839         844         843
         840         841         846         845
         841         842         847         846
         842         843         848         847
         843         844         849         848
         850         851         856         855
         851         852         857         856
         852         853         858         857
         853         854         859         858
         855         856         861         860
         856         857         862         861
         857         858         863         862
         858         859         864         863
         860         861         866         865
         861         862         867         866
         862         863         868         867
         863         864         869         868
         865         866         871         870
         866         867         872         871
         867         868         873         872
         868         869         874         873
         875         876         881         880
         876         877         882         881
         877         878         883         882
         878         879         884         883
         880         881         886         885
         881         882         887         886
         882         883         888         887
         883         884         889         888
         885         886         891         890
         886         887         892         891
         887         888         893         892
         888         889         894         893
         890         891         896         895
         891         892         897         896
         892         893         898         897
         893         894         899         898
         900         901         906         905
         901         902         907         906
         902         903         908         907
         903         904         909         908
         905         906         911         910
         906         907         912         911
         907         908         913         912
         908         909         914         913
         910         911         916         915
         911         912         917         916
         912         913         918         917
         913         914         919         918
         915         916         921         920
         916         917         922         921
         917         918         923         922
         918         919         924         923
         925         926         931         930
         926         927         932         931
         927         928         933         932
         928         929         934         933
         930         931         936         935
         931         932         937         936
         932         933         938         937
         933         934         939         938
         935         936         941         940
         936         937         942         941
         937         938         943         942
         938         939         944         943
         940         941         946         945
         941         942         947         946
         942         943         948         947
         943         944         949         948
         950         951         956         955
         951         952         957         956
         952         953         958         957
         953         954         959         958
         955         956         961         960
         956         957         962         961
         957         958         963         962
         958         959         964         963
         960         961         966         965
         961         962         967         966
         962         963         968         967
         963         964         969         968
         965         966         971         970
         966         967         972         971
         967         968         973         972
         968         969         974         973
         975         976         981         980
         976         977         982         981
         977         978         983         982
         978         979         984         983
         980         981         986         985
         981         982         987         986
         982         983         988         987
         983         984         989         988
         985         986         991         990
         986         987         992         991
         987         988         993         992
         988         989         994         993
         990         991         996         995
         991         992         997         996
         992         993         998         997
         993         994         999         998
        1000        1001        1006        1005
        1001        1002        1007        1006
        1002        1003        1008        1007
        1003        1004        1009        1008
        1005        1006        1011        1010
        1006        1007        1012        1011
        1007        1008        1013        1012
        1008        1009        1014        1013
        1010        1011        1016        1015
        1011        1012        1017        1016
        1012        1013        1018        1017
        1013        1014        1019        1018
        1015        1016        1021        1020
        1016        1017        1022        1021
        1017        1018        1023        1022
        1018        1019        1024        1023
        1025        1026        1031        1030
        1026        1027        1032        1031
        1027        1028        1033        1032
        1028        1029        1034        1033
        1030        1031        1036        1035
        1031        1032        1037        1036
        1032        1033        1038        1037
        1033        1034        1039        1038
        1035        1036        1041        1040
        1036        1037        1042        1041
        1037        1038        1043        1042
        1038        1039        1044        1043
        1040        1041        1046        1045
        1041        1042        1047        1046
        1042        1043        1048        1047
        1043        1044        1049        1048
        1050        1051        1056        1055
        1051        1052        1057        1056
        1052        1053        1058        1057
        1053        1054        1059        1058
        1055        1056        1061        1060
        1056        1057        1062        1061
        1057        1058        1063        1062
        1058        1059        1064        1063
        1060        1061        1066        1065
        1061        1062        1067        1066
        1062        1063        1068        1067
        1063        1064        1069        1068
        1065        1066        1071        1070
        1066        1067        1072        1071
        1067        1068        1073        1072
        1068        1069        1074        1073
        1075        1076        1081        1080
        1076        1077        1082        1081
        1077        1078        1083        1082
        1078        1079        1084        1083
        1080        1081        1086        1085
        1081        1082        1087        1086
        1082        1083        1088        1087
        1083        1084        1089        1088
        1085        1086        1091        1090
        1086        1087        1092        1091
        1087        1088        1093        1092
        1088        1089        1094        1093
        1090        1091        1096        1095
        1091        1092        1097        1096
        1092        1093        1098        1097
        1093        1094        1099        1098
        1100        1101        1106        1105
        1101        1102        1107        1106
        1102        1103        1108        1107
        1103        1104        1109        1108
        1105        1106        1111        1110
        1106        1107        1112        1111
        1107        1108        1113        1112
        1108        1109        1114        1113
        1110        1111        1116        1115
        1111        1112        1117        1116
        1112        1113        1118        1117
        1113        1114        1119        1118
        1115        1116        1121        1120
        1116        1117        1122        1121
        1117        1118        1123        1122
        1118        1119        1124        1123
        1125        1126        1131        1130
        1126        1127        1132        1131
        1127        1128        1133        1132
        1128        1129        1134        1133
        1130        1131        1136        1135
        1131        1132        1137        1136
        1132        1133        1138        1137
        1133        1134        1139        1138
        1135        1136        1141        1140
        1136        1137        1142        1141
        1137        1138        1143        1142
        1138        1139        1144        1143
        1140        1141        1146        1145
        1141        1142        1147        1146
        1142        1143        1148        1147
        1143        1144        1149        1148
        1150        1151        1156        1155
        1151        1152        1157        1156
        1152        1153        1158        1157
        1153        1154        1159        1158
        1155        1156        1161        1160
        1156        1157        1162        1161
        1157        1158        1163        1162
        1158        1159        1164        1163
        1160        1161        1166        1165
        1161        1162        1167        1166
        1162        1163        1168        1167
        1163        1164        1169        1168
        1165        1166        1171        1170
        1166        1167        1172        1171
        1167        1168        1173        1172
        1168        1169        1174        1173
        1175        1176        1181        1180
        1176        1177        1182        1181
        1177        1178        1183        1182
        1178        1179        1184        1183
        1180        1181        1186        1185
        1181        1182        1187        1186
        1182        1183        1188        1187
        1183        1184        1189        1188
        1185        1186        1191        1190
        1186        1187        1192        1191
        1187        1188        1193        1192
        1188        1189        1194        1193
        1190        1191        1196        1195
        1191        1192        1197        1196
        1192        1193        1198        1197
        1193        1194        1199        1198
        1200        1201        1206        1205
        1201        1202        1207        1206
        1202        1203        1208        1207
        1203        1204        1209        1208
        1205        1206        1211        1210
        1206        1207        1212        1211
        1207        1208        1213        1212
        1208        1209        1214        1213
        1210        1211        1216        1215
        1211        1212        1217        1216
        1212        1213        1218        1217
        1213        1214        1219        1218
        1215        1216        1221        1220
        1216        1217        1222        1221
        1217        1218        1223        1222
        1218        1219        1224        1223
        1225        1226        1231        1230
        1226        1227        1232        1231
        1227        1228        1233        1232
        1228        1229        1234        1233
        1230        1231        1236        1235
        1231        1232        1237        1236
        1232        1233        1238        1237
        1233        1234        1239        1238
        1235        1236        1241        1240
        1236        1237        1242        1241
        1237        1238        1243        1242
        1238        1239        1244        1243
        1240        1241        1246        1245
        1241        1242        1247        1246
        1242        1243        1248        1247
        1243        1244        1249        1248
        1250        1251        1256        1255
        1251        1252        1257        1256
        1252        1253        1258        1257
        1253        1254        1259        1258
        1255        1256        1261        1260
        1256        1257        1262        1261
        1257        1258        1263        1262
        1258        1259        1264        1263
        1260        1261        1266        1265
        1261        1262        1267        1266
        1262        1263        1268        1267
        1263        1264        1269        1268
        1265        1266        1271        1270
        1266        1267        1272        1271
        1267        1268        1273        1272
        1268        1269        1274        1273
        1275        1276        1281        1280
        1276        1277        1282        1281
        1277        1278        1283        1282
        1278        1279        1284        1283
        1280        1281        1286        1285
        1281        1282        1287        1286
        1282        1283        1288        1287
        1283        1284        1289        1288
        1285        1286        1291        1290
        1286        1287        1292        1291
        1287        1288        1293        1292
        1288        1289        1294        1293
        1290        1291        1296        1295
        1291        1292        1297        1296
        1292        1293        1298        1297
        1293        1294        1299        1298
        1300        1301        1306        1305
        1301        1302        1307        1306
        1302        1303        1308        1307
        1303        1304        1309        1308
        1305        1306        1311        1310
        1306        1307        1312        1311
        1307        1308        1313        1312
        1308        1309        1314        1313
        1310        1311        1316        1315
        1311        1312        1317        1316
        1312        1313        1318        1317
        1313        1314        1319        1318
        1315        1316        1321        1320
        1316        1317        1322        1321
        1317        1318        1323        1322
        1318        1319        1324        1323
        1325        1326        1331        1330
        1326        1327        1332        1331
        1327        1328        1333        1332
        1328        1329        1334        1333
        1330        1331        1336        1335
        1331        1332        1337        1336
        1332        1333        1338        1337
        1333        1334        1339        1338
        1335        1336        1341        1340
        1336        1337        1342        1341
        1337        1338        1343        1342
        1338        1339        1344        1343
        1340        1341        1346        1345
        1341        1342        1347        1346
        1342        1343        1348        1347
        1343        1344        1349        1348
        1350        1351        1356        1355
        1351        1352        1357        1356
        1352        1353        1358        1357
        1353        1354        1359        1358
        1355        1356        1361        1360
        1356        1357        1362        1361
        1357        1358        1363        1362
        1358        1359        1364        1363
        1360        1361        1366        1365
        1361        1362        1367        1366
        1362        1363        1368        1367
        1363        1364        1369        1368
        1365        1366        1371        1370
        1366        1367        1372        1371
        1367        1368        1373        1372
        1368        1369        1374        1373
        1375        1376        1381        1380
        1376        1377        1382        1381
        1377        1378        1383        1382
        1378        1379        1384        1383
        1380        1381        1386        1385
        1381        1382        1387        1386
        1382        1383        1388        1387
        1383        1384        1389        1388
        1385        1386        1391        1390
        1386        1387        1392        1391
        1387        1388        1393        1392
        1388        1389        1394        1393
        1390        1391        1396        1395
        1391        1392        1397        1396
        1392        1393        1398        1397
        1393        1394        1399        1398
        1400        1401        1406        1405
        1401        1402        1407        1406
        1402        1403        1408        1407
        1403        1404        1409        1408
        1405        1406        1411        1410
        1406        1407        1412        1411
        1407        1408        1413        1412
        1408        1409        1414        1413
        1410        1411        1416        1415
        1411        1412        1417        1416
        1412        1413        1418        1417
        1413        1414        1419        1418
        1415        1416        1421        1420
        1416        1417        1422        1421
        1417        1418        1423        1422
        1418        1419        1424        1423
        1425        1426        1431        1430
        1426        1427        1432        1431
        1427        1428        1433        1432
        1428        1429        1434        1433
        1430        1431        1436        1435
        1431        1432        1437        1436
        1432        1433        1438        1437
        1433        1434        1439        1438
        1435        1436        1441        1440
        1436        1437        1442        1441
        1437        1438        1443        1442
        1438        1439        1444        1443
        1440        1441        1446        1445
        1441        1442        1447        1446
        1442        1443        1448        1447
        1443        1444        1449        1448
        1450        1451        1456        1455
        1451        1452        1457        1456
        1452        1453        1458        1457
        1453        1454        1459        1458
        1455        1456        1461        1460
        1456        1457        1462        1461
        1457        1458        1463        1462
        1458        1459        1464        1463
        1460        1461        1466        1465
        1461        1462        1467        1466
        1462        1463        1468        1467
        1463        1464        1469        1468
        1465        1466        1471        1470
        1466        1467        1472        1471
        1467        1468        1473        1472
        1468        1469        1474        1473
        1475        1476        1481        1480
        1476        1477        1482        1481
        1477        1478        1483        1482
        1478        1479        1484        1483
        1480        1481        1486        1485
        1481        1482        1487        1486
        1482        1483        1488        1487
        1483        1484        1489        1488
        1485        1486        1491        1490
        1486        1487        1492        1491
        1487        1488        1493        1492
        1488        1489        1494        1493
        1490        1491        1496        1495
        1491        1492        1497        1496
        1492        1493        1498        1497
        1493        1494        1499        1498
        1500        1501        1506        1505
        1501        1502        1507        1506
        1502        1503        1508        1507
        1503        1504        1509        1508
        1505        1506        1511        1510
        1506        1507        1512        1511
        1507        1508        1513        1512
        1508        1509        1514        1513
        1510        1511        1516        1515
        1511        1512        1517        1516
        1512        1513        1518        1517
        1513        1514        1519        1518
        1515        1516        1521        1520
        1516        1517        1522        1521
        1517        1518        1523        1522
        1518        1519        1524        1523
        1525        1526        1531        1530
        1526        1527        1532        1531
        1527        1528        1533        1532
        1528        1529        1534        1533
        1530        1531        1536        1535
        1531        1532        1537        1536
        1532        1533        1538        1537
        1533        1534        1539        1538
        1535        1536        1541        1540
        1536        1537        1542        1541
        1537        1538        1543        1542
        1538        1539        1544        1543
        1540        1541        1546        1545
        1541        1542        1547        1546
        1542        1543        1548        1547
        1543        1544        1549        1548
        1550        1551        1556        1555
        1551        1552        1557        1556
        1552        1553        1558        1557
        1553        1554        1559        1558
        1555        1556        1561        1560
        1556        1557        1562        1561
        1557        1558        1563        1562
        1558        1559        1564        1563
        1560        1561        1566        1565
        1561        1562        1567        1566
        1562        1563        1568        1567
        1563        1564        1569        1568
        1565        1566        1571        1570
        1566        1567        1572        1571
        1567        1568        1573        1572
        1568        1569        1574        1573
        1575        1576        1581        1580
        1576        1577        1582        1581
        1577        1578        1583        1582
        1578        1579        1584        1583
        1580        1581        1586        1585
        1581        1582        1587        1586
        1582        1583        1588        1587
        1583        1584        1589        1588
        1585        1586        1591        1590
        1586        1587        1592        1591
        1587        1588        1593        1592
        1588        1589        1594        1593
        1590        1591        1596        1595
        1591        1592        1597        1596
        1592        1593        1598        1597
        1593        1594        1599        1598
 </DataArray>
 <DataArray  type="Int32"  Name="offsets"  format="ascii"> 
           4
           8
          12
          16
          20
          24
          28
          32
          36
          40
          44
          48
          52
          56
          60
          64
          68
          72
          76
          80
          84
          88
          92
          96
         100
         104
         108
         112
         116
         120
         124
         128
         132
         136
         140
         144
         148
         152
         156
         160
         164
         168
         172
         176
         180
         184
         188
         192
         196
         200
         204
         208
         212
         216
         220
         224
         228
         232
         236
         240
         244
         248
         252
         256
         260
         264
         268
         272
         276
         280
         284
         288
         292
         296
         300
         304
         308
         312
         316
         320
         324
         328
         332
         336
         340
         344
         348
         352
         356
         360
         364
         368
         372
         376
         380
         384
         388
         392
         396
         400
         404
         408
         412
         416
         420
         424
         428
         432
         436
         440
         444
         448
         452
         456
         460
         464
         468
         472
         476
         480
         484
         488
         492
         496
         500
         504
         508
         512
         516
         520
         524
         528
         532
         536
         540
         544
         548
         552
         556
         560
         564
         568
         572
         576
         580
         584
         588
         592
         596
         600
         604
         608
         612
         616
         620
         624
         628
         632
         636
         640
         644
         648
         652
         656
         660
         664
         668
         672
         676
         680
         684
         688
         692
         696
         700
         704
         708
         712
         716
         720
         724
         728
         732
         736
         740
         744
         748
         752
         756
         760
         764
         768
         772
         776
         780
         784
         788
         792
         796
         800
         804
         808
         812
         816
         820
         824
         828
         832
         836
         840
         844
         848
         852
         856
         860
         864
         868
         872
         876
         880
         884
         888
         892
         896
         900
         904
         908
         912
         916
         920
         924
         928
         932
         936
         940
         944
         948
         952
         956
         960
         964
         968
         972
         976
         980
         984
         988
         992
         996
        1000
        1004
        1008
        1012
        1016
        1020
        1024
        1028
        1032
        1036
        1040
        1044
        1048
        1052
        1056
        1060
        1064
        1068
        1072
        1076
        1080
        1084
        1088
        1092
        1096
        1100
        1104
        1108
        1112
        1116
        1120
        1124
        1128
        1132
        1136
        1140
        1144
        1148
        1152
        1156
        1160
        1164
        1168
        1172
        1176
        1180
        1184
        1188
        1192
        1196
        1200
        1204
        1208
        1212
        1216
        1220
        1224
        1228
        1232
        1236
        1240
        1244
        1248
        1252
        1256
        1260
        1264
        1268
        1272
        1276
        1280
        1284
        1288
        1292
        1296
        1300
        1304
        1308
        1312
        1316
        1320
        1324
        1328
        1332
        1336
        1340
        1344
        1348
        1352
        1356
        1360
        1364
        1368
        1372
        1376
        1380
        1384
        1388
        1392
        1396
        1400
        1404
        1408
        1412
        1416
        1420
        1424
        1428
        1432
        1436
        1440
        1444
        1448
        1452
        1456
        1460
        1464
        1468
        1472
        1476
        1480
        1484
        1488
        1492
        1496
        1500
        1504
        1508
        1512
        1516
        1520
        1524
        1528
        1532
        1536
        1540
        1544
        1548
        1552
        1556
        1560
        1564
        1568
        1572
        1576
        1580
        1584
        1588
        1592
        1596
        1600
        1604
        1608
        1612
        1616
        1620
        1624
        1628
        1632
        1636
        1640
        1644
        1648
        1652
        1656
        1660
        1664
        1668
        1672
        1676
        1680
        1684
        1688
        1692
        1696
        1700
        1704
        1708
        1712
        1716
        1720
        1724
        1728
        1732
        1736
        1740
        1744
        1748
        1752
        1756
        1760
        1764
        1768
        1772
        1776
        1780
        1784
        1788
        1792
        1796
        1800
        1804
        1808
        1812
        1816
        1820
        1824
        1828
        1832
        1836
        1840
        1844
        1848
        1852
        1856
        1860
        1864
        1868
        1872
        1876
        1880
        1884
        1888
        1892
        1896
        1900
        1904
        1908
        1912
        1916
        1920
        1924
        1928
        1932
        1936
        1940
        1944
        1948
        1952
        1956
        1960
        1964
        1968
        1972
        1976
        1980
        1984
        1988
        1992
        1996
        2000
        2004
        2008
        2012
        2016
        2020
        2024
        2028
        2032
        2036
        2040
        2044
        2048
        2052
        2056
        2060
        2064
        2068
        2072
        2076
        2080
        2084
        2088
        2092
        2096
        2100
        2104
        2108
        2112
        2116
        2120
        2124
        2128
        2132
        2136
        2140
        2144
        2148
        2152
        2156
        2160
        2164
        2168
        2172
        2176
        2180
        2184
        2188
        2192
        2196
        2200
        2204
        2208
        2212
        2216
        2220
        2224
        2228
        2232
        2236
        2240
        2244
        2248
        2252
        2256
        2260
        2264
        2268
        2272
        2276
        2280
        2284
        2288
        2292
        2296
        2300
        2304
        2308
        2312
        2316
        2320
        2324
        2328
        2332
        2336
        2340
        2344
        2348
        2352
        2356
        2360
        2364
        2368
        2372
        2376
        2380
        2384
        2388
        2392
        2396
        2400
        2404
        2408
        2412
        2416
        2420
        2424
        2428
        2432
        2436
        2440
        2444
        2448
        2452
        2456
        2460
        2464
        2468
        2472
        2476
        2480
        2484
        2488
        2492
        2496
        2500
        2504
        2508
        2512
        2516
        2520
        2524
        2528
        2532
        2536
        2540
        2544
        2548
        2552
        2556
        2560
        2564
        2568
        2572
        2576
        2580
        2584
        2588
        2592
        2596
        2600
        2604
        2608
        2612
        2616
        2620
        2624
        2628
        2632
        2636
        2640
        2644
        2648
        2652
        2656
        2660
        2664
        2668
        2672
        2676
        2680
        2684
        2688
        2692
        2696
        2700
        2704
        2708
        2712
        2716
        2720
        2724
        2728
        2732
        2736
        2740
        2744
        2748
        2752
        2756
        2760
        2764
        2768
        2772
        2776
        2780
        2784
        2788
        2792
        2796
        2800
        2804
        2808
        2812
        2816
        2820
        2824
        2828
        2832
        2836
        2840
        2844
        2848
        2852
        2856
        2860
        2864
        2868
        2872
        2876
        2880
        2884
        2888
        2892
        2896
        2900
        2904
        2908
        2912
        2916
        2920
        2924
        2928
        2932
        2936
        2940
        2944
        2948
        2952
        2956
        2960
        2964
        2968
        2972
        2976
        2980
        2984
        2988
        2992
        2996
        3000
        3004
        3008
        3012
        3016
        3020
        3024
        3028
        3032
        3036
        3040
        3044
        3048
        3052
        3056
        3060
        3064
        3068
        3072
        3076
        3080
        3084
        3088
        3092
        3096
        3100
        3104
        3108
        3112
        3116
        3120
        3124
        3128
        3132
        3136
        3140
        3144
        3148
        3152
        3156
        3160
        3164
        3168
        3172
        3176
        3180
        3184
        3188
        3192
        3196
        3200
        3204
        3208
        3212
        3216
        3220
        3224
        3228
        3232
        3236
        3240
        3244
        3248
        3252
        3256
        3260
        3264
        3268
        3272
        3276
        3280
        3284
        3288
        3292
        3296
        3300
        3304
        3308
        3312
        3316
        3320
        3324
        3328
        3332
        3336
        3340
        3344
        3348
        3352
        3356
        3360
        3364
        3368
        3372
        3376
        3380
        3384
        3388
        3392
        3396
        3400
        3404
        3408
        3412
        3416
        3420
        3424
        3428
        3432
        3436
        3440
        3444
        3448
        3452
        3456
        3460
        3464
        3468
        3472
        3476
        3480
        3484
        3488
        3492
        3496
        3500
        3504
        3508
        3512
        3516
        3520
        3524
        3528
        3532
        3536
        3540
        3544
        3548
        3552
        3556
        3560
        3564
        3568
        3572
        3576
        3580
        3584
        3588
        3592
        3596
        3600
        3604
        3608
        3612
        3616
        3620
        3624
        3628
        3632
        3636
        3640
        3644
        3648
        3652
        3656
        3660
        3664
        3668
        3672
        3676
        3680
        3684
        3688
        3692
        3696
        3700
        3704
        3708
        3712
        3716
        3720
        3724
        3728
        3732
        3736
        3740
        3744
        3748
        3752
        3756
        3760
        3764
        3768
        3772
        3776
        3780
        3784
        3788
        3792
        3796
        3800
        3804
        3808
        3812
        3816
        3820
        3824
        3828
        3832
        3836
        3840
        3844
        3848
        3852
        3856
        3860
        3864
        3868
        3872
        3876
        3880
        3884
        3888
        3892
        3896
        3900
        3904
        3908
        3912
        3916
        3920
        3924
        3928
        3932
        3936
        3940
        3944
        3948
        3952
        3956
        3960
        3964
        3968
        3972
        3976
        3980
        3984
        3988
        3992
        3996
        4000
        4004
        4008
        4012
        4016
        4020
        4024
        4028
        4032
        4036
        4040
        4044
        4048
        4052
        4056
        4060
        4064
        4068
        4072
        4076
        4080
        4084
        4088
        4092
        4096
 </DataArray>
 <DataArray  type="UInt8"  Name="types"  format="ascii">
 9
 9
 9
 9
 9
 9
 9
 9
 9
 9
 9
 9
 9
 9
 9
 9
 9
 9
 9
 9
 9
 9
 9
 9
 9
 9
 9
 9
 9
 9
 9
 9
 9
 9
 9
 9
 9
 9
 9
 9
 9
 9
 9
 9
 9
 9
 9
 9
 9
 9
 9
 9
 9
 9
 9
 9
 9
 9
 9
 9
 9
 9
 9
 9
 9
 9
 9
 9
 9
 9
 9
 9
 9
 9
 9
 9
 9
 9
 9
 9
 9
 9
 9
 9
 9
 9
 9
 9
 9
 9
 9
 9
 9
 9
 9
 9
 9
 9
 9
 9
 9
 9
 9
 9
 9
 9
 9
 9
 9
 9
 9
 9
 9
 9
 9
 9
 9
 9
 9
 9
 9
 9
 9
 9
 9
 9
 9
 9
 9
 9
 9
 9
 9
 9
 9
 9
 9
 9
 9
 9
 9
 9
 9
 9
 9
 9
 9
 9
 9
 9
 9
 9
 9
 9
 9
 9
 9
 9
 9
 9
 9
 9
 9
 9
 9
 9
 9
 9
 9
 9
 9
 9
 9
 9
 9
 9
 9
 9
 9
 9
 9
 9
 9
 9
 9
 9
 9
 9
 9
 9
 9
 9
 9
 9
 9
 9
 9
 9
 9
 9
 9
 9
 9
 9
 9
 9
 9
 9
 9
 9
 9
 9
 9
 9
 9
 9
 9
 9
 9
 9
 9
 9
 9
 9
 9
 9
 9
 9
 9
 9
 9
 9
 9
 9
 9
 9
 9
 9
 9
 9
 9
 9
 9
 9
 9
 9
 9
 9
 9
 9
 9
 9
 9
 9
 9
 9
 9
 9
 9
 9
 9
 9
 9
 9
 9
 9
 9
 9
 9
 9
 9
 9
 9
 9
 9
 9
 9
 9
 9
 9
 9
 9
 9
 9
 9
 9
 9
 9
 9
 9
 9
 9
 9
 9
 9
 9
 9
 9
 9
 9
 9
 9
 9
 9
 9
 9
 9
 9
 9
 9
 9
 9
 9
 9
 9
 9
 9
 9
 9
 9
 9
 9
 9
 9
 9
 9
 9
 9
 9
 9
 9
 9
 9
 9
 9
 9
 9
 9
 9
 9
 9
 9
 9
 9
 9
 9
 9
 9
 9
 9
 9
 9
 9
 9
 9
 9
 9
 9
 9
 9
 9
 9
 9
 9
 9
 9
 9
 9
 9
 9
 9
 9
 9
 9
 9
 9
 9
 9
 9
 9
 9
 9
 9
 9
 9
 9
 9
 9
 9
 9
 9
 9
 9
 9
 9
 9
 9
 9
 9
 9
 9
 9
 9
 9
 9
 9
 9
 9
 9
 9
 9
 9
 9
 9
 9
 9
 9
 9
 9
 9
 9
 9
 9
 9
 9
 9
 9
 9
 9
 9
 9
 9
 9
 9
 9
 9
 9
 9
 9
 9
 9
 9
 9
 9
 9
 9
 9
 9
 9
 9
 9
 9
 9
 9
 9
 9
 9
 9
 9
 9
 9
 9
 9
 9
 9
 9
 9
 9
 9
 9
 9
 9
 9
 9
 9
 9
 9
 9
 9
 9
 9
 9
 9
 9
 9
 9
 9
 9
 9
 9
 9
 9
 9
 9
 9
 9
 9
 9
 9
 9
 9
 9
 9
 9
 9
 9
 9
 9
 9
 9
 9
 9
 9
 9
 9
 9
 9
 9
 9
 9
 9
 9
 9
 9
 9
 9
 9
 9
 9
 9
 9
 9
 9
 9
 9
 9
 9
 9
 9
 9
 9
 9
 9
 9
 9
 9
 9
 9
 9
 9
 9
 9
 9
 9
 9
 9
 9
 9
 9
 9
 9
 9
 9
 9
 9
 9
 9
 9
 9
 9
 9
 9
 9
 9
 9
 9
 9
 9
 9
 9
 9
 9
 9
 9
 9
 9
 9
 9
 9
 9
 9
 9
 9
 9
 9
 9
 9
 9
 9
 9
 9
 9
 9
 9
 9
 9
 9
 9
 9
 9
 9
 9
 9
 9
 9
 9
 9
 9
 9
 9
 9
 9
 9
 9
 9
 9
 9
 9
 9
 9
 9
 9
 9
 9
 9
 9
 9
 9
 9
 9
 9
 9
 9
 9
 9
 9
 9
 9
 9
 9
 9
 9
 9
 9
 9
 9
 9
 9
 9
 9
 9
 9
 9
 9
 9
 9
 9
 9
 9
 9
 9
 9
 9
 9
 9
 9
 9
 9
 9
 9
 9
 9
 9
 9
 9
 9
 9
 9
 9
 9
 9
 9
 9
 9
 9
 9
 9
 9
 9
 9
 9
 9
 9
 9
 9
 9
 9
 9
 9
 9
 9
 9
 9
 9
 9
 9
 9
 9
 9
 9
 9
 9
 9
 9
 9
 9
 9
 9
 9
 9
 9
 9
 9
 9
 9
 9
 9
 9
 9
 9
 9
 9
 9
 9
 9
 9
 9
 9
 9
 9
 9
 9
 9
 9
 9
 9
 9
 9
 9
 9
 9
 9
 9
 9
 9
 9
 9
 9
 9
 9
 9
 9
 9
 9
 9
 9
 9
 9
 9
 9
 9
 9
 9
 9
 9
 9
 9
 9
 9
 9
 9
 9
 9
 9
 9
 9
 9
 9
 9
 9
 9
 9
 9
 9
 9
 9
 9
 9
 9
 9
 9
 9
 9
 9
 9
 9
 9
 9
 9
 9
 9
 9
 9
 9
 9
 9
 9
 9
 9
 9
 9
 9
 9
 9
 9
 9
 9
 9
 9
 9
 9
 9
 9
 9
 9
 9
 9
 9
 9
 9
 9
 9
 9
 9
 9
 9
 9
 9
 9
 9
 9
 9
 9
 9
 9
 9
 9
 9
 9
 9
 9
 9
 9
 9
 9
 9
 9
 9
 9
 9
 9
 9
 9
 9
 9
 9
 9
 9
 9
 9
 9
 9
 9
 9
 9
 9
 9
 9
 9
 9
 9
 9
 9
 9
 9
 9
 9
 9
 9
 9
 9
 9
 9
 9
 9
 9
 9
 9
 9
 9
 9
 9
 9
 9
 9
 9
 9
 9
 9
 9
 9
 9
 9
 9
 9
 9
 9
 9
 9
 9
 9
 9
 9
 9
 9
 9
 9
 9
 9
 9
 9
 9
 9
 9
 9
 9
 9
 9
 9
 9
 9
 9
 9
 9
 9
 9
 9
 9
 9
 9
 9
 9
 9
 9
 9
 9
 9
 9
 9
 9
 9
 9
 9
 9
 9
 9
 9
 9
 9
 9
 9
 9
 9
 9
 9
 9
 9
 9
 9
 9
 9
 9
 9
 9
 9
 9
 9
 9
 9
 9
 9
 9
 9
 9
 9
 9
 9
 9
 9
 9
 9
 9
 9
 9
 </DataArray>
 </Cells> 
 <PointData>
 <DataArray  type="Float64" Name="disp" NumberOfComponents="3" format="ascii">
   6.5197322774129596E-002   6.2782663849704726E-002   0.0000000000000000     
   6.8396880033147436E-002   6.8175035628474587E-002   0.0000000000000000     
   7.1436845155094991E-002   7.3743761964388393E-002   0.0000000000000000     
   7.4317218139972274E-002   7.9488842857446146E-002   0.0000000000000000     
   7.7037998987779271E-002   8.5410278307647844E-002   0.0000000000000000     
   6.0116619228785667E-002   6.1884593132950402E-002   0.0000000000000000     
   6.3110007009808330E-002   6.7297954814646857E-002   0.0000000000000000     
   6.5953147294710801E-002   7.2891085338654474E-002   0.0000000000000000     
   6.8646040083493051E-002   7.8663984704973280E-002   0.0000000000000000     
   7.1188685376155136E-002   8.4616652913603235E-002   0.0000000000000000     
   5.5178241318481910E-002   6.1040854348330481E-002   0.0000000000000000     
   5.7969661303882342E-002   6.6476280384779679E-002   0.0000000000000000     
   6.0620828703196662E-002   7.2093653048410658E-002   0.0000000000000000     
   6.3131743516424879E-002   7.7892972339223446E-002   0.0000000000000000     
   6.5502405743566999E-002   8.3874238257218015E-002   0.0000000000000000     
   5.0382189043218319E-002   6.0251447495844969E-002   0.0000000000000000     
   5.2975842915369442E-002   6.5710012338873053E-002   0.0000000000000000     
   5.5439889380552582E-002   7.1351465093656946E-002   0.0000000000000000     
   5.7774328438767730E-002   7.7175805760196656E-002   0.0000000000000000     
   5.9979160090014853E-002   8.3183034338492168E-002   0.0000000000000000     
   4.5728462402994885E-002   5.9516372575493859E-002   0.0000000000000000     
   4.8128551844269667E-002   6.4999150676926992E-002   0.0000000000000000     
   5.0410329326778566E-002   7.0664521474393338E-002   0.0000000000000000     
   5.2573794850521584E-002   7.6512484967892924E-002   0.0000000000000000     
   5.4618948415498712E-002   8.2543041157425723E-002   0.0000000000000000     
   7.7037998987779271E-002   8.5410278307647844E-002   0.0000000000000000     
   7.9648387513146096E-002   9.1500293413435213E-002   0.0000000000000000     
   8.2197583530702834E-002   9.7751113273250020E-002   0.0000000000000000     
   8.4685587040449498E-002  0.10416273788709224        0.0000000000000000     
   8.7112398042386061E-002  0.11073516725496191        0.0000000000000000     
   7.1188685376155136E-002   8.4616652913603235E-002   0.0000000000000000     
   7.3628343540532687E-002   9.0738544577510835E-002   0.0000000000000000     
   7.6012274944461458E-002   9.7019114309662591E-002   0.0000000000000000     
   7.8340479587941408E-002  0.10345836211005847        0.0000000000000000     
   8.0612957470972552E-002  0.11005628797869849        0.0000000000000000     
   6.5502405743566999E-002   8.3874238257218015E-002   0.0000000000000000     
   6.7777124559371321E-002   9.0025084104785880E-002   0.0000000000000000     
   7.0000209138586261E-002   9.6333143184318543E-002   0.0000000000000000     
   7.2171659481211736E-002  0.10279841549581606        0.0000000000000000     
   7.4291475587247802E-002  0.10942090103927841        0.0000000000000000     
   5.9979160090014853E-002   8.3183034338492168E-002   0.0000000000000000     
   6.2094730569662006E-002   8.9359911995260319E-002   0.0000000000000000     
   6.4161386113077215E-002   9.5693199897217959E-002   0.0000000000000000     
   6.6179126720260509E-002  0.10218289804436506        0.0000000000000000     
   6.8147952391211852E-002  0.10882900643670165        0.0000000000000000     
   5.4618948415498712E-002   8.2543041157425723E-002   0.0000000000000000     
   5.6581161571404727E-002   8.8743028248934208E-002   0.0000000000000000     
   5.8495805867934382E-002   9.5099284448360785E-002   0.0000000000000000     
   6.0362881305087691E-002  0.10161180975570547        0.0000000000000000     
   6.2182387882864648E-002  0.10828060417096824        0.0000000000000000     
   8.7112398042386061E-002  0.11073516725496191        0.0000000000000000     
   8.9450405061120064E-002  0.11745365249908062        0.0000000000000000     
   9.1671996621258994E-002  0.12430344474167009        0.0000000000000000     
   9.3777172722802879E-002  0.13128454398273026        0.0000000000000000     
   9.5765933365751704E-002  0.13839695022226120        0.0000000000000000     
   8.0612957470972552E-002  0.11005628797869849        0.0000000000000000     
   8.2803046176049153E-002  0.11679990522400571        0.0000000000000000     
   8.4884083285665546E-002  0.12367622715440318        0.0000000000000000     
   8.6856068799821648E-002  0.13068525376989087        0.0000000000000000     
   8.8719002718517515E-002  0.13782698507046884        0.0000000000000000     
   7.4291475587247802E-002  0.10942090103927841        0.0000000000000000     
   7.6334549910232946E-002  0.11618885684018206        0.0000000000000000     
   7.8275774903705644E-002  0.12309053992400350        0.0000000000000000     
   8.0115150567665883E-002  0.13012595029074273        0.0000000000000000     
   8.1852676902113702E-002  0.13729508794039971        0.0000000000000000     
   6.8147952391211852E-002  0.10882900643670165        0.0000000000000000     
   7.0044916263671389E-002  0.11562050734760966        0.0000000000000000     
   7.1847071475379318E-002  0.12254638305047104        0.0000000000000000     
   7.3554418026335611E-002  0.12960663354528576        0.0000000000000000     
   7.5166955916540310E-002  0.13680125883205385        0.0000000000000000     
   6.2182387882864648E-002  0.10828060417096824        0.0000000000000000     
   6.3934145236364523E-002  0.11509485674628857        0.0000000000000000     
   6.5597973000686580E-002  0.12204375653380582        0.0000000000000000     
   6.7173871175830818E-002  0.12912730353352003        0.0000000000000000     
   6.8661839761797266E-002  0.13634549774543120        0.0000000000000000     
   9.5765933365751704E-002  0.13839695022226120        0.0000000000000000     
   9.7654952270156678E-002  0.14563076091927105        0.0000000000000000     
   9.9460903156069022E-002  0.15297607353276799        0.0000000000000000     
  0.10118378602348872       0.16043288806275202        0.0000000000000000     
  0.10282360087241577       0.16800120450922315        0.0000000000000000     
   8.8719002718517515E-002  0.13782698507046884        0.0000000000000000     
   9.0488091050908409E-002  0.14509005228127467        0.0000000000000000     
   9.2178539806149581E-002  0.15246308662744609        0.0000000000000000     
   9.3790348984241018E-002  0.15994608810898306        0.0000000000000000     
   9.5323518585182745E-002  0.16753905672588559        0.0000000000000000     
   8.1852676902113702E-002  0.13729508794039971        0.0000000000000000     
   8.3502118850174903E-002  0.14458558678613631        0.0000000000000000     
   8.5077241354975283E-002  0.15198508074111433        0.0000000000000000     
   8.6578044416514871E-002  0.15949356980533377        0.0000000000000000     
   8.8004528034793639E-002  0.16711105397879461        0.0000000000000000     
   7.5166955916540310E-002  0.13680125883205385        0.0000000000000000     
   7.6697035667956187E-002  0.14411736443385592        0.0000000000000000     
   7.8157007802546197E-002  0.15154205587377270        0.0000000000000000     
   7.9546872320310255E-002  0.15907533315180419        0.0000000000000000     
   8.0866629221248418E-002  0.16671719626795029        0.0000000000000000     
   6.8661839761797266E-002  0.13634549774543120        0.0000000000000000     
   7.0072841504252276E-002  0.14368538522443353        0.0000000000000000     
   7.1417839148862253E-002  0.15113401202542115        0.0000000000000000     
   7.2696832695627170E-002  0.15869137814839421        0.0000000000000000     
   7.3909822144547055E-002  0.16635748359335256        0.0000000000000000     
  0.10282360087241577       0.16800120450922315        0.0000000000000000     
  0.10437729315129603       0.17566959620065684        0.0000000000000000     
  0.10584180830857527       0.18342663646552848        0.0000000000000000     
  0.10721714634425357       0.19127232530383809        0.0000000000000000     
  0.10850330725833085       0.19920666271558568        0.0000000000000000     
   9.5323518585182745E-002  0.16753905672588559        0.0000000000000000     
   9.6774491194050918E-002  0.17523185173721917        0.0000000000000000     
   9.8139709395921620E-002  0.18301433240204934        0.0000000000000000     
   9.9419173190794907E-002  0.19088649872037608        0.0000000000000000     
  0.10061288257867074       0.19884835069219942        0.0000000000000000     
   8.8004528034793639E-002  0.16711105397879461        0.0000000000000000     
   8.9352638056411998E-002  0.17482813938801697        0.0000000000000000     
   9.0618320327970375E-002  0.18263543215952097        0.0000000000000000     
   9.1801574849468728E-002  0.19053293229330651        0.0000000000000000     
   9.2902401620907113E-002  0.19852063978937365        0.0000000000000000     
   8.0866629221248418E-002  0.16671719626795029        0.0000000000000000     
   8.2111733738379281E-002  0.17445845915305022        0.0000000000000000     
   8.3277641104721495E-002  0.18228993573794330        0.0000000000000000     
   8.4364351320275088E-002  0.19021162602262937        0.0000000000000000     
   8.5371864385040019E-002  0.19822353000710841        0.0000000000000000     
   7.3909822144547055E-002  0.16635748359335256        0.0000000000000000     
   7.5051778239952738E-002  0.17412281103231905        0.0000000000000000     
   7.6117671726175021E-002  0.18197784313731641        0.0000000000000000     
   7.7107502603213918E-002  0.18992257990834463        0.0000000000000000     
   7.8021270871069415E-002  0.19795702134540366        0.0000000000000000     
  0.10850330725833085       0.19920666271558568        0.0000000000000000     
  0.10970775275460820       0.20722619620346394        0.0000000000000000     
  0.11083794453688660       0.21532747327016560        0.0000000000000000     
  0.11189388260516606       0.22351049391569064        0.0000000000000000     
  0.11287556695944660       0.23177525814003910        0.0000000000000000     
  0.10061288257867074       0.19884835069219942        0.0000000000000000     
  0.10172748329498579       0.20689373858011026        0.0000000000000000     
  0.10276962107517680       0.21501651264669946        0.0000000000000000     
  0.10373929591924376       0.22321667289196706        0.0000000000000000     
  0.10463650782718664       0.23149421931591305        0.0000000000000000     
   9.2902401620907113E-002  0.19852063978937365        0.0000000000000000     
   9.3926189954199962E-002  0.20659086065314353        0.0000000000000000     
   9.4878329161261848E-002  0.21473590089003733        0.0000000000000000     
   9.5758819242092660E-002  0.22295576050005503        0.0000000000000000     
   9.6567660196692467E-002  0.23125043948319651        0.0000000000000000     
   8.5371864385040019E-002  0.19822353000710841        0.0000000000000000     
   8.6303872732250722E-002  0.20631756242256394        0.0000000000000000     
   8.7164068795141630E-002  0.21448563800017925        0.0000000000000000     
   8.7952452573712772E-002  0.22272775673995443        0.0000000000000000     
   8.8669024067964120E-002  0.23104391864188950        0.0000000000000000     
   7.8021270871069415E-002  0.19795702134540366        0.0000000000000000     
   7.8860531629138031E-002  0.20607384388837133        0.0000000000000000     
   7.9626839976816258E-002  0.21426572397712526        0.0000000000000000     
   8.0320195914104081E-002  0.22253266161166546        0.0000000000000000     
   8.0940599441001529E-002  0.23087465679199193        0.0000000000000000     
  0.11287556695944660       0.23177525814003910        0.0000000000000000     
  0.11381053388738510       0.24013831200812097        0.0000000000000000     
  0.11472631967663843       0.24861620158484632        0.0000000000000000     
  0.11562292432720664       0.25720892687021513        0.0000000000000000     
  0.11650034783908966       0.26591648786422745        0.0000000000000000     
  0.10463650782718664       0.23149421931591305        0.0000000000000000     
  0.10546589718742198       0.23987273894823125        0.0000000000000000     
  0.10623210438836628       0.24837581881861534        0.0000000000000000     
  0.10693512943001951       0.25700345892706539        0.0000000000000000     
  0.10757497231238167       0.26575565927358141        0.0000000000000000     
   9.6567660196692467E-002  0.23125043948319651        0.0000000000000000     
   9.7295470922436622E-002  0.23964657892103086        0.0000000000000000     
   9.7932870316700504E-002  0.24817081989512696        0.0000000000000000     
   9.8479858379484031E-002  0.25682316240548486        0.0000000000000000     
   9.8936435110787285E-002  0.26560360645210435        0.0000000000000000     
   8.8669024067964120E-002  0.23104391864188950        0.0000000000000000     
   8.9299255092429086E-002  0.23945983192651990        0.0000000000000000     
   8.9828617461641128E-002  0.24800120481438115        0.0000000000000000     
   9.0257111175600244E-002  0.25666803730547327        0.0000000000000000     
   9.0584736234306448E-002  0.26546032939979636        0.0000000000000000     
   8.0940599441001529E-002  0.23087465679199193        0.0000000000000000     
   8.1477249697399320E-002  0.23931249796469822        0.0000000000000000     
   8.1919345823188189E-002  0.24786697357637788        0.0000000000000000     
   8.2266887818368148E-002  0.25653808362703096        0.0000000000000000     
   8.2519875682939142E-002  0.26532582811665723        0.0000000000000000     
  0.11650034783908966       0.26591648786422745        0.0000000000000000     
  0.11729907492036681       0.27490353273400753        0.0000000000000000     
  0.11795959027911737       0.28433470964667967        0.0000000000000000     
  0.11848189391534136       0.29421001860224394        0.0000000000000000     
  0.11886598582903872       0.30452945960070033        0.0000000000000000     
  0.10757497231238167       0.26575565927358141        0.0000000000000000     
  0.10813271108577562       0.27476454702455205        0.0000000000000000     
  0.10858942380052405       0.28416224934636602        0.0000000000000000     
  0.10894511045662703       0.29394876623902327        0.0000000000000000     
  0.10919977105408454       0.30412409770252380        0.0000000000000000     
   9.8936435110787285E-002  0.26560360645210435        0.0000000000000000     
   9.9313635281604681E-002  0.27461039143802429        0.0000000000000000     
   9.9622493662930717E-002  0.28394175676628292        0.0000000000000000     
   9.9863010254765391E-002  0.29359770243688021        0.0000000000000000     
  0.10003518505710872       0.30357822844981652        0.0000000000000000     
   9.0584736234306448E-002  0.26546032939979636        0.0000000000000000     
   9.0841847507854026E-002  0.27444106597442408        0.0000000000000000     
   9.1058799866337345E-002  0.28367323190643029        0.0000000000000000     
   9.1235593309756446E-002  0.29315682719581510        0.0000000000000000     
   9.1372227838111247E-002  0.30289185184257833        0.0000000000000000     
   8.2519875682939142E-002  0.26532582811665723        0.0000000000000000     
   8.2717347764523635E-002  0.27425657063375153        0.0000000000000000     
   8.2898342410743966E-002  0.28335667476680826        0.0000000000000000     
   8.3062859621600135E-002  0.29262614051582764        0.0000000000000000     
   8.3210899397092156E-002  0.30206496788080939        0.0000000000000000     
   4.5728462402994885E-002   5.9516372575493859E-002   0.0000000000000000     
   4.8128551844269667E-002   6.4999150676926992E-002   0.0000000000000000     
   5.0410329326778566E-002   7.0664521474393338E-002   0.0000000000000000     
   5.2573794850521584E-002   7.6512484967892924E-002   0.0000000000000000     
   5.4618948415498712E-002   8.2543041157425723E-002   0.0000000000000000     
   4.1238788578452382E-002   5.8838683895605051E-002   0.0000000000000000     
   4.3445002644079127E-002   6.4344627742839361E-002   0.0000000000000000     
   4.5544454137805633E-002   7.0032475928067273E-002   0.0000000000000000     
   4.7537143059631921E-002   7.5902228451288814E-002   0.0000000000000000     
   4.9423069409557985E-002   8.1953885312503957E-002   0.0000000000000000     
   3.6934894750231574E-002   5.8221435764506412E-002   0.0000000000000000     
   3.8942409868293927E-002   6.3747375880508036E-002   0.0000000000000000     
   4.0854569409564792E-002   6.9454982192126202E-002   0.0000000000000000     
   4.2671373374044169E-002   7.5344254699360916E-002   0.0000000000000000     
   4.4392821761732065E-002   8.1415193402212149E-002   0.0000000000000000     
   3.2816780918332455E-002   5.7664628182197947E-002   0.0000000000000000     
   3.4620773516914082E-002   6.3207395089933033E-002   0.0000000000000000     
   3.6340675142056043E-002   6.8932040266570127E-002   0.0000000000000000     
   3.7976485793758327E-002   7.4838563712109216E-002   0.0000000000000000     
   3.9528205472020954E-002   8.0926965426550312E-002   0.0000000000000000     
   2.8884447082755040E-002   5.7168261148679671E-002   0.0000000000000000     
   3.0480093589939597E-002   6.2724685371114364E-002   0.0000000000000000     
   3.2002771335279387E-002   6.8463650151399047E-002   0.0000000000000000     
   3.3452480318774402E-002   7.4385155489533755E-002   0.0000000000000000     
   3.4829220540424644E-002   8.0489201385518433E-002   0.0000000000000000     
   5.4618948415498712E-002   8.2543041157425723E-002   0.0000000000000000     
   5.6581161571404727E-002   8.8743028248934208E-002   0.0000000000000000     
   5.8495805867934382E-002   9.5099284448360785E-002   0.0000000000000000     
   6.0362881305087691E-002  0.10161180975570547        0.0000000000000000     
   6.2182387882864648E-002  0.10828060417096824        0.0000000000000000     
   4.9423069409557985E-002   8.1953885312503957E-002   0.0000000000000000     
   5.1232430778041002E-002   8.8174730111361996E-002   0.0000000000000000     
   5.2995424755538159E-002   9.4552046447512209E-002   0.0000000000000000     
   5.4712051342049456E-002  0.10108583432095460        0.0000000000000000     
   5.6382310537574885E-002  0.10777609373168914        0.0000000000000000     
   4.4392821761732065E-002   8.1415193402212149E-002   0.0000000000000000     
   4.6044551403012376E-002   8.7655314828098227E-002   0.0000000000000000     
   4.7652199128269013E-002   9.4052135504437459E-002   0.0000000000000000     
   4.9215764937501953E-002  0.10060565543122982        0.0000000000000000     
   5.0735248830711219E-002  0.10731587460847530        0.0000000000000000     
   3.9528205472020954E-002   8.0926965426550312E-002   0.0000000000000000     
   4.1017523446318843E-002   8.7184782399142902E-002   0.0000000000000000     
   4.2466128986126915E-002   9.3599551619136523E-002   0.0000000000000000     
   4.3874022091445204E-002  0.10017127308653115        0.0000000000000000     
   4.5241202762273676E-002  0.10689994680132678        0.0000000000000000     
   3.4829220540424644E-002   8.0489201385518433E-002   0.0000000000000000     
   3.6151346907960395E-002   8.6763132824496006E-002   0.0000000000000000     
   3.7437214329111901E-002   9.3194294791609400E-002   0.0000000000000000     
   3.8686822803879181E-002   9.9782687286858601E-002   0.0000000000000000     
   3.9900172332262229E-002  0.10652831031024357        0.0000000000000000     
   6.2182387882864648E-002  0.10828060417096824        0.0000000000000000     
   6.3934145236364523E-002  0.11509485674628857        0.0000000000000000     
   6.5597973000686580E-002  0.12204375653380582        0.0000000000000000     
   6.7173871175830818E-002  0.12912730353352003        0.0000000000000000     
   6.8661839761797266E-002  0.13634549774543120        0.0000000000000000     
   5.6382310537574885E-002  0.10777609373168914        0.0000000000000000     
   5.7988850224422281E-002  0.11461196810076971        0.0000000000000000     
   5.9514318284899462E-002  0.12158260084925021        0.0000000000000000     
   6.0958714719006449E-002  0.12868799197713057        0.0000000000000000     
   6.2322039526743221E-002  0.13592814148441085        0.0000000000000000     
   5.0735248830711219E-002  0.10731587460847530        0.0000000000000000     
   5.2195644623954651E-002  0.11417190447560417        0.0000000000000000     
   5.3581946133290044E-002  0.12116285647204651        0.0000000000000000     
   5.4894153358717439E-002  0.12828873059780241        0.0000000000000000     
   5.6132266300236801E-002  0.13554952685287186        0.0000000000000000     
   4.5241202762273676E-002  0.10689994680132678        0.0000000000000000     
   4.6554528434961620E-002  0.11377466587079187        0.0000000000000000     
   4.7800856545858333E-002  0.12078452340219480        0.0000000000000000     
   4.8980187094963781E-002  0.12792951939553557        0.0000000000000000     
   5.0092520082277978E-002  0.13520965385081421        0.0000000000000000     
   3.9900172332262229E-002  0.10652831031024357        0.0000000000000000     
   4.1065501657443201E-002  0.11342025228633287        0.0000000000000000     
   4.2171049522604288E-002  0.12044760163969501        0.0000000000000000     
   4.3216815927745483E-002  0.12761035837033000        0.0000000000000000     
   4.4202800872866765E-002  0.13490852247823781        0.0000000000000000     
   6.8661839761797266E-002  0.13634549774543120        0.0000000000000000     
   7.0072841504252276E-002  0.14368538522443353        0.0000000000000000     
   7.1417839148862253E-002  0.15113401202542115        0.0000000000000000     
   7.2696832695627170E-002  0.15869137814839421        0.0000000000000000     
   7.3909822144547055E-002  0.16635748359335256        0.0000000000000000     
   6.2322039526743221E-002  0.13592814148441085        0.0000000000000000     
   6.3613900698607978E-002  0.14329024263951065        0.0000000000000000     
   6.4843906225098932E-002  0.15076148871084966        0.0000000000000000     
   6.6012056106216035E-002  0.15834187969842781        0.0000000000000000     
   6.7118350341959343E-002  0.16603141560224519        0.0000000000000000     
   5.6132266300236801E-002  0.13554952685287186        0.0000000000000000     
   5.7304577590568194E-002  0.14293253016072899        0.0000000000000000     
   5.8419379862431703E-002  0.15042502544484804        0.0000000000000000     
   5.9476673115827272E-002  0.15802701270522895        0.0000000000000000     
   6.0476457350754964E-002  0.16573849194187182        0.0000000000000000     
   5.0092520082277978E-002  0.13520965385081421        0.0000000000000000     
   5.1144872180132910E-002  0.14261224778808845        0.0000000000000000     
   5.2144260060860544E-002  0.15012462222741627        0.0000000000000000     
   5.3090683724460880E-002  0.15774677716879762        0.0000000000000000     
   5.3984143170933925E-002  0.16547871261223246        0.0000000000000000     
   4.4202800872866765E-002  0.13490852247823781        0.0000000000000000     
   4.5134784467302118E-002  0.14232939552158910        0.0000000000000000     
   4.6018546820385482E-002  0.14986027905855442        0.0000000000000000     
   4.6854087932116852E-002  0.15750117308913372        0.0000000000000000     
   4.7641407802496233E-002  0.16525207761332708        0.0000000000000000     
   7.3909822144547055E-002  0.16635748359335256        0.0000000000000000     
   7.5051778239952738E-002  0.17412281103231905        0.0000000000000000     
   7.6117671726175021E-002  0.18197784313731641        0.0000000000000000     
   7.7107502603213918E-002  0.18992257990834463        0.0000000000000000     
   7.8021270871069415E-002  0.19795702134540366        0.0000000000000000     
   6.7118350341959343E-002  0.16603141560224519        0.0000000000000000     
   6.8157420325730397E-002  0.17382006170174163        0.0000000000000000     
   6.9123897450930810E-002  0.18169778327635711        0.0000000000000000     
   7.0017781717560540E-002  0.18966458032609165        0.0000000000000000     
   7.0839073125619614E-002  0.19772045285094522        0.0000000000000000     
   6.0476457350754964E-002  0.16573849194187182        0.0000000000000000     
   6.1413308760310245E-002  0.17354907783723630        0.0000000000000000     
   6.2281803537588644E-002  0.18144838507378236        0.0000000000000000     
   6.3081941682590181E-002  0.18943641365150982        0.0000000000000000     
   6.3813723195314837E-002  0.19751316357041879        0.0000000000000000     
   5.3984143170933925E-002  0.16547871261223246        0.0000000000000000     
   5.4819443543692295E-002  0.17330985943880314        0.0000000000000000     
   5.5591389986148605E-002  0.18122964852959197        0.0000000000000000     
   5.6299982498302877E-002  0.18923807988459909        0.0000000000000000     
   5.6945221080155081E-002  0.19733515350382441        0.0000000000000000     
   4.7641407802496233E-002  0.16525207761332708        0.0000000000000000     
   4.8375824675876540E-002  0.17310240650644207        0.0000000000000000     
   4.9052656796610652E-002  0.18104157364378623        0.0000000000000000     
   4.9671904164698598E-002  0.18906957902535951        0.0000000000000000     
   5.0233566780140362E-002  0.19718642265116199        0.0000000000000000     
   7.8021270871069415E-002  0.19795702134540366        0.0000000000000000     
   7.8860531629138031E-002  0.20607384388837133        0.0000000000000000     
   7.9626839976816258E-002  0.21426572397712526        0.0000000000000000     
   8.0320195914104081E-002  0.22253266161166546        0.0000000000000000     
   8.0940599441001529E-002  0.23087465679199193        0.0000000000000000     
   7.0839073125619614E-002  0.19772045285094522        0.0000000000000000     
   7.1587371937620006E-002  0.20585899583713221        0.0000000000000000     
   7.2262278416073716E-002  0.21407380427086709        0.0000000000000000     
   7.2863792560980703E-002  0.22236487815214986        0.0000000000000000     
   7.3391914372340980E-002  0.23073221748098047        0.0000000000000000     
   6.3813723195314837E-002  0.19751316357041879        0.0000000000000000     
   6.4475598950454738E-002  0.20567230905541314        0.0000000000000000     
   6.5066019822702006E-002  0.21390752433139670        0.0000000000000000     
   6.5584985812056670E-002  0.22221880939836958        0.0000000000000000     
   6.6032496918518702E-002  0.23060616425633171        0.0000000000000000     
   5.6945221080155081E-002  0.19733515350382441        0.0000000000000000     
   5.7525212667642184E-002  0.20551378354321398        0.0000000000000000     
   5.8038064196701170E-002  0.21376688415871403        0.0000000000000000     
   5.8483775667331983E-002  0.22209445535032460        0.0000000000000000     
   5.8862347079534666E-002  0.23049649711804562        0.0000000000000000     
   5.0233566780140362E-002  0.19718642265116199        0.0000000000000000     
   5.0736213089182400E-002  0.20538341930053483        0.0000000000000000     
   5.1178411538071171E-002  0.21365188375281913        0.0000000000000000     
   5.1560162126806662E-002  0.22199181600801493        0.0000000000000000     
   5.1881464855388901E-002  0.23040321606612213        0.0000000000000000     
   8.0940599441001529E-002  0.23087465679199193        0.0000000000000000     
   8.1477249697399320E-002  0.23931249796469822        0.0000000000000000     
   8.1919345823188189E-002  0.24786697357637788        0.0000000000000000     
   8.2266887818368148E-002  0.25653808362703096        0.0000000000000000     
   8.2519875682939142E-002  0.26532582811665723        0.0000000000000000     
   7.3391914372340980E-002  0.23073221748098047        0.0000000000000000     
   7.3843136596830894E-002  0.23918960905762421        0.0000000000000000     
   7.4213951981126805E-002  0.24775083968234626        0.0000000000000000     
   7.4504360525228644E-002  0.25641590935514663        0.0000000000000000     
   7.4714362229136466E-002  0.26518481807602534        0.0000000000000000     
   6.6032496918518702E-002  0.23060616425633171        0.0000000000000000     
   6.6410597650207417E-002  0.23907619722735599        0.0000000000000000     
   6.6721332515242107E-002  0.24763551663351521        0.0000000000000000     
   6.6964701513622799E-002  0.25628412247480958        0.0000000000000000     
   6.7140704645349450E-002  0.26502201475123882        0.0000000000000000     
   5.8862347079534666E-002  0.23049649711804562        0.0000000000000000     
   5.9179632857528836E-002  0.23897226247389355        0.0000000000000000     
   5.9441487425534130E-002  0.24752100442988484        0.0000000000000000     
   5.9647910783550528E-002  0.25614272298601959        0.0000000000000000     
   5.9798902931578045E-002  0.26483741814229772        0.0000000000000000     
   5.1881464855388901E-002  0.23040321606612213        0.0000000000000000     
   5.2150242218795190E-002  0.23887780479723689        0.0000000000000000     
   5.2374416712002846E-002  0.24740730307145514        0.0000000000000000     
   5.2553988335011889E-002  0.25599171088877687        0.0000000000000000     
   5.2688957087822286E-002  0.26463102824920204        0.0000000000000000     
   8.2519875682939142E-002  0.26532582811665723        0.0000000000000000     
   8.2717347764523635E-002  0.27425657063375153        0.0000000000000000     
   8.2898342410743966E-002  0.28335667476680826        0.0000000000000000     
   8.3062859621600135E-002  0.29262614051582764        0.0000000000000000     
   8.3210899397092156E-002  0.30206496788080939        0.0000000000000000     
   7.4714362229136466E-002  0.26518481807602534        0.0000000000000000     
   7.4885012112848467E-002  0.27405122685587585        0.0000000000000000     
   7.5057365196362857E-002  0.28300879670559176        0.0000000000000000     
   7.5231421479679622E-002  0.29205752762517295        0.0000000000000000     
   7.5407180962798762E-002  0.30119741961461949        0.0000000000000000     
   6.7140704645349450E-002  0.26502201475123882        0.0000000000000000     
   6.7289716614063494E-002  0.27381935608066643        0.0000000000000000     
   6.7452112123406335E-002  0.28264630908095562        0.0000000000000000     
   6.7627891173378002E-002  0.29150287375210632        0.0000000000000000     
   6.7817053763978438E-002  0.30038905009411854        0.0000000000000000     
   5.9798902931578045E-002  0.26483741814229772        0.0000000000000000     
   5.9931461268168666E-002  0.27356095830812321        0.0000000000000000     
   6.0082583191874414E-002  0.28226921189289977        0.0000000000000000     
   6.0252268702695233E-002  0.29096217889662762        0.0000000000000000     
   6.0440517800631165E-002  0.29963985931930665        0.0000000000000000     
   5.2688957087822286E-002  0.26463102824920204        0.0000000000000000     
   5.2810246075164026E-002  0.27327603353824609        0.0000000000000000     
   5.2948778401767052E-002  0.28187750514142440        0.0000000000000000     
   5.3104554067631357E-002  0.29043544305873692        0.0000000000000000     
   5.3277573072756948E-002  0.29894984729018359        0.0000000000000000     
   2.8884447082755040E-002   5.7168261148679671E-002   0.0000000000000000     
   3.0480093589939597E-002   6.2724685371114364E-002   0.0000000000000000     
   3.2002771335279387E-002   6.8463650151399047E-002   0.0000000000000000     
   3.3452480318774402E-002   7.4385155489533755E-002   0.0000000000000000     
   3.4829220540424644E-002   8.0489201385518433E-002   0.0000000000000000     
   2.5074168220213050E-002   5.6731684525673169E-002   0.0000000000000000     
   2.6462055933266986E-002   6.2299334429582333E-002   0.0000000000000000     
   2.7787401918792514E-002   6.8050391135681940E-002   0.0000000000000000     
   2.9050206176789637E-002   7.3984854643972003E-002   0.0000000000000000     
   3.0250468707258355E-002   8.0102724954452517E-002   0.0000000000000000     
   2.1322219307420242E-002   5.6354248174900028E-002   0.0000000000000000     
   2.2508346392792769E-002   6.1931429970867244E-002   0.0000000000000000     
   2.3641110822153113E-002   6.7692842508487769E-002   0.0000000000000000     
   2.4720512595501284E-002   7.3638485787761540E-002   0.0000000000000000     
   2.5746551712837282E-002   7.9768359808688613E-002   0.0000000000000000     
   1.7628600344376612E-002   5.6035952096360260E-002   0.0000000000000000     
   1.8618964968516949E-002   6.1620971994969159E-002   0.0000000000000000     
   1.9563898045361197E-002   6.7391004269816507E-002   0.0000000000000000     
   2.0463399574909349E-002   7.3346048920902365E-002   0.0000000000000000     
   2.1317469557161416E-002   7.9486105948226707E-002   0.0000000000000000     
   1.3993311331082161E-002   5.5776796290053866E-002   0.0000000000000000     
   1.4793911660439524E-002   6.1367960501888016E-002   0.0000000000000000     
   1.5555763588416748E-002   6.7144876419668209E-002   0.0000000000000000     
   1.6278867115013831E-002   7.3107544043394479E-002   0.0000000000000000     
   1.6963222240230773E-002   7.9255963373066785E-002   0.0000000000000000     
   3.4829220540424644E-002   8.0489201385518433E-002   0.0000000000000000     
   3.6151346907960395E-002   8.6763132824496006E-002   0.0000000000000000     
   3.7437214329111901E-002   9.3194294791609400E-002   0.0000000000000000     
   3.8686822803879181E-002   9.9782687286858601E-002   0.0000000000000000     
   3.9900172332262229E-002  0.10652831031024357        0.0000000000000000     
   3.0250468707258355E-002   8.0102724954452517E-002   0.0000000000000000     
   3.1403824769516753E-002   8.6391045985649464E-002   0.0000000000000000     
   3.2525909622882924E-002   9.2836861656088759E-002   0.0000000000000000     
   3.3616723267356874E-002   9.9440171965770471E-002   0.0000000000000000     
   3.4676265702938587E-002  0.10620097691469453        0.0000000000000000     
   2.5746551712837282E-002   7.9768359808688613E-002   0.0000000000000000     
   2.6732760012567656E-002   8.6069201764095132E-002   0.0000000000000000     
   2.7692669333098982E-002   9.2527748846807339E-002   0.0000000000000000     
   2.8626279674431251E-002   9.9144001056825137E-002   0.0000000000000000     
   2.9533591036564465E-002  0.10591795839414862        0.0000000000000000     
   2.1317469557161416E-002   7.9486105948226707E-002   0.0000000000000000     
   2.2138152637113089E-002   8.5797600159833079E-002   0.0000000000000000     
   2.2937493459760053E-002   9.2266956363765029E-002   0.0000000000000000     
   2.3715492025102314E-002   9.8894174560022627E-002   0.0000000000000000     
   2.4472148333139866E-002  0.10567925474860580        0.0000000000000000     
   1.6963222240230773E-002   7.9255963373066785E-002   0.0000000000000000     
   1.7620002643153054E-002   8.5576241172863235E-002   0.0000000000000000     
   1.8260382002866147E-002   9.2054484206961940E-002   0.0000000000000000     
   1.8884360319370061E-002   9.8690692475362884E-002   0.0000000000000000     
   1.9491937592664786E-002  0.10548486597806608        0.0000000000000000     
   3.9900172332262229E-002  0.10652831031024357        0.0000000000000000     
   4.1065501657443201E-002  0.11342025228633287        0.0000000000000000     
   4.2171049522604288E-002  0.12044760163969501        0.0000000000000000     
   4.3216815927745483E-002  0.12761035837033000        0.0000000000000000     
   4.4202800872866765E-002  0.13490852247823781        0.0000000000000000     
   3.4676265702938587E-002  0.10620097691469453        0.0000000000000000     
   3.5693869014158594E-002  0.11310838820255163        0.0000000000000000     
   3.6658865285547425E-002  0.12015151752903243        0.0000000000000000     
   3.7571254517105065E-002  0.12733036489413690        0.0000000000000000     
   3.8431036708831537E-002  0.13464493029786506        0.0000000000000000     
   2.9533591036564465E-002  0.10591795839414862        0.0000000000000000     
   3.0404935227866997E-002  0.11283879809977268        0.0000000000000000     
   3.1230644056707207E-002  0.11989569741469228        0.0000000000000000     
   3.2010717523085090E-002  0.12708865633890742        0.0000000000000000     
   3.2745155627000658E-002  0.13441767487241812        0.0000000000000000     
   2.4472148333139866E-002  0.10567925474860580        0.0000000000000000     
   2.5198700298568407E-002  0.11261148197799599        0.0000000000000000     
   2.5886385836083634E-002  0.11968014129667456        0.0000000000000000     
   2.6535204945685540E-002  0.12688523270464155        0.0000000000000000     
   2.7145157627374131E-002  0.13422675620189695        0.0000000000000000     
   1.9491937592664786E-002  0.10548486597806608        0.0000000000000000     
   2.0075164226262834E-002  0.11242643983722156        0.0000000000000000     
   2.0626090623676711E-002  0.11950484917497929        0.0000000000000000     
   2.1144716784906419E-002  0.12672009399133932        0.0000000000000000     
   2.1631042709951954E-002  0.13407217428630164        0.0000000000000000     
   4.4202800872866765E-002  0.13490852247823781        0.0000000000000000     
   4.5134784467302118E-002  0.14232939552158910        0.0000000000000000     
   4.6018546820385482E-002  0.14986027905855442        0.0000000000000000     
   4.6854087932116852E-002  0.15750117308913372        0.0000000000000000     
   4.7641407802496233E-002  0.16525207761332708        0.0000000000000000     
   3.8431036708831537E-002  0.13464493029786506        0.0000000000000000     
   3.9242949132576962E-002  0.14208245380201276        0.0000000000000000     
   4.0011729060191473E-002  0.14963017546837584        0.0000000000000000     
   4.0737376491675074E-002  0.15728809529695428        0.0000000000000000     
   4.1419891427027768E-002  0.16505621328774808        0.0000000000000000     
   3.2745155627000658E-002  0.13441767487241812        0.0000000000000000     
   3.3438000856458573E-002  0.14186990307014130        0.0000000000000000     
   3.4093295699463490E-002  0.14943249098699399        0.0000000000000000     
   3.4711040156015435E-002  0.15710543862297610        0.0000000000000000     
   3.5291234226114389E-002  0.16488874597808773        0.0000000000000000     
   2.7145157627374131E-002  0.13422675620189695        0.0000000000000000     
   2.7719939638946950E-002  0.14169174332597476        0.0000000000000000     
   2.8263246738201554E-002  0.14926722561440883        0.0000000000000000     
   2.8775078925137938E-002  0.15695320306719923        0.0000000000000000     
   2.9255436199756100E-002  0.16474967568434601        0.0000000000000000     
   2.1631042709951954E-002  0.13407217428630164        0.0000000000000000     
   2.2088765480042103E-002  0.14154797456951304        0.0000000000000000     
   2.2521582176405645E-002  0.14913437935062041        0.0000000000000000     
   2.2929492799042581E-002  0.15683138862962373        0.0000000000000000     
   2.3312497347952908E-002  0.16463900240652293        0.0000000000000000     
   4.7641407802496233E-002  0.16525207761332708        0.0000000000000000     
   4.8375824675876540E-002  0.17310240650644207        0.0000000000000000     
   4.9052656796610652E-002  0.18104157364378623        0.0000000000000000     
   4.9671904164698598E-002  0.18906957902535951        0.0000000000000000     
   5.0233566780140362E-002  0.19718642265116199        0.0000000000000000     
   4.1419891427027768E-002  0.16505621328774808        0.0000000000000000     
   4.2055184798747716E-002  0.17292396666854512        0.0000000000000000     
   4.2639167539333098E-002  0.18088079266713319        0.0000000000000000     
   4.3171839648783912E-002  0.18892669128351225        0.0000000000000000     
   4.3653201127100152E-002  0.19706166251768237        0.0000000000000000     
   3.5291234226114389E-002  0.16488874597808773        0.0000000000000000     
   3.5830256554190580E-002  0.17277178755350425        0.0000000000000000     
   3.6324485784674225E-002  0.18074393785040113        0.0000000000000000     
   3.6773921917565337E-002  0.18880519686877842        0.0000000000000000     
   3.7178564952863917E-002  0.19695556460863606        0.0000000000000000     
   2.9255436199756100E-002  0.16474967568434601        0.0000000000000000     
   2.9701039942205118E-002  0.17264586916131952        0.0000000000000000     
   3.0108611532634045E-002  0.18063100919359018        0.0000000000000000     
   3.0478150971042891E-002  0.18870509578115807        0.0000000000000000     
   3.0809658257431660E-002  0.19686812892402314        0.0000000000000000     
   2.3312497347952908E-002  0.16463900240652293        0.0000000000000000     
   2.3667534962791330E-002  0.17254621149199087        0.0000000000000000     
   2.3991544783212550E-002  0.18054200669670029        0.0000000000000000     
   2.4284526809216566E-002  0.18862638802065115        0.0000000000000000     
   2.4546481040803377E-002  0.19679935546384353        0.0000000000000000     
   5.0233566780140362E-002  0.19718642265116199        0.0000000000000000     
   5.0736213089182400E-002  0.20538341930053483        0.0000000000000000     
   5.1178411538071171E-002  0.21365188375281913        0.0000000000000000     
   5.1560162126806662E-002  0.22199181600801493        0.0000000000000000     
   5.1881464855388901E-002  0.23040321606612213        0.0000000000000000     
   4.3653201127100152E-002  0.19706166251768237        0.0000000000000000     
   4.4082621175728517E-002  0.20527506752151306        0.0000000000000000     
   4.4459468996115740E-002  0.21355626744687392        0.0000000000000000     
   4.4783744588261801E-002  0.22190526229376492        0.0000000000000000     
   4.5055447952166698E-002  0.23032205206218609        0.0000000000000000     
   3.7178564952863917E-002  0.19695556460863606        0.0000000000000000     
   3.7538457887933731E-002  0.20518257940028606        0.0000000000000000     
   3.7853643720138580E-002  0.21347377957404040        0.0000000000000000     
   3.8124122449478451E-002  0.22182916512989906        0.0000000000000000     
   3.8349894075953350E-002  0.23024873606786214        0.0000000000000000     
   3.0809658257431660E-002  0.19686812892402314        0.0000000000000000     
   3.1103723225798022E-002  0.20510595493685380        0.0000000000000000     
   3.1360935710139683E-002  0.21340442013431854        0.0000000000000000     
   3.1581295710456619E-002  0.22176352451641734        0.0000000000000000     
   3.1764803226748857E-002  0.23018326808315023        0.0000000000000000     
   2.4546481040803377E-002  0.19679935546384353        0.0000000000000000     
   2.4778417189321399E-002  0.20504519413121625        0.0000000000000000     
   2.4981344966119048E-002  0.21334818912770831        0.0000000000000000     
   2.5155264371196324E-002  0.22170834045331972        0.0000000000000000     
   2.5300175404553225E-002  0.23012564810805047        0.0000000000000000     
   5.1881464855388901E-002  0.23040321606612213        0.0000000000000000     
   5.2150242218795190E-002  0.23887780479723689        0.0000000000000000     
   5.2374416712002846E-002  0.24740730307145514        0.0000000000000000     
   5.2553988335011889E-002  0.25599171088877687        0.0000000000000000     
   5.2688957087822286E-002  0.26463102824920204        0.0000000000000000     
   4.5055447952166698E-002  0.23032205206218609        0.0000000000000000     
   4.5283289864031476E-002  0.23879145062379542        0.0000000000000000     
   4.5475981100057156E-002  0.24729827185025086        0.0000000000000000     
   4.5633521660243745E-002  0.25584251574155259        0.0000000000000000     
   4.5755911544591250E-002  0.26442418229770043        0.0000000000000000     
   3.8349894075953350E-002  0.23024873606786214        0.0000000000000000     
   3.8539639923262696E-002  0.23871182637997848        0.0000000000000000     
   3.8702041315105913E-002  0.24719777005829718        0.0000000000000000     
   3.8837098251483015E-002  0.25570656710281819        0.0000000000000000     
   3.8944810732393982E-002  0.26423821751354143        0.0000000000000000     
   3.1764803226748857E-002  0.23018326808315023        0.0000000000000000     
   3.1919292396488864E-002  0.23863893206578612        0.0000000000000000     
   3.2052597357149139E-002  0.24710579769559385        0.0000000000000000     
   3.2164718108729680E-002  0.25558386497257363        0.0000000000000000     
   3.2255654651230481E-002  0.26407313389672515        0.0000000000000000     
   2.5300175404553225E-002  0.23012564810805047        0.0000000000000000     
   2.5422247283709981E-002  0.23857276768121832        0.0000000000000000     
   2.5527649226186822E-002  0.24702235476214110        0.0000000000000000     
   2.5616381231983752E-002  0.25547440935081889        0.0000000000000000     
   2.5688443301100768E-002  0.26392893144725166        0.0000000000000000     
   5.2688957087822286E-002  0.26463102824920204        0.0000000000000000     
   5.2810246075164026E-002  0.27327603353824609        0.0000000000000000     
   5.2948778401767052E-002  0.28187750514142440        0.0000000000000000     
   5.3104554067631357E-002  0.29043544305873692        0.0000000000000000     
   5.3277573072756948E-002  0.29894984729018359        0.0000000000000000     
   4.5755911544591250E-002  0.26442418229770043        0.0000000000000000     
   4.5867338905847196E-002  0.27299330984207826        0.0000000000000000     
   4.5991991896759128E-002  0.28149993669807011        0.0000000000000000     
   4.6129870517327039E-002  0.28994406286567576        0.0000000000000000     
   4.6280974767550928E-002  0.29832568834489548        0.0000000000000000     
   3.8944810732393982E-002  0.26423821751354143        0.0000000000000000     
   3.9044007631015801E-002  0.27274151529066271        0.0000000000000000     
   3.9153517820525452E-002  0.28116525443437745        0.0000000000000000     
   3.9273341300922936E-002  0.28950943494468595        0.0000000000000000     
   3.9403478072208245E-002  0.29777405682158808        0.0000000000000000     
   3.2255654651230481E-002  0.26407313389672515        0.0000000000000000     
   3.2340252250669839E-002  0.27252064988399932        0.0000000000000000     
   3.2433356173066023E-002  0.28087345835034677        0.0000000000000000     
   3.2534966418419041E-002  0.28913155929576745        0.0000000000000000     
   3.2645082986728892E-002  0.29729495272026141        0.0000000000000000     
   2.5688443301100768E-002  0.26392893144725166        0.0000000000000000     
   2.5756072764809318E-002  0.27233071362208827        0.0000000000000000     
   2.5831506954380849E-002  0.28062454844597784        0.0000000000000000     
   2.5914745869815372E-002  0.28881043591892019        0.0000000000000000     
   2.6005789511112872E-002  0.29688837604091545        0.0000000000000000     
   1.3993311331082161E-002   5.5776796290053866E-002   0.0000000000000000     
   1.4793911660439524E-002   6.1367960501888016E-002   0.0000000000000000     
   1.5555763588416748E-002   6.7144876419668209E-002   0.0000000000000000     
   1.6278867115013831E-002   7.3107544043394479E-002   0.0000000000000000     
   1.6963222240230773E-002   7.9255963373066785E-002   0.0000000000000000     
   1.0414136346144541E-002   5.5575908834015669E-002   0.0000000000000000     
   1.1024625246026407E-002   6.1171708284238124E-002   0.0000000000000000     
   1.1603331893048822E-002   6.6953887846418370E-002   0.0000000000000000     
   1.2150256287211794E-002   7.2922447520556433E-002   0.0000000000000000     
   1.2665398428515315E-002   7.9077387306652300E-002   0.0000000000000000     
   6.8888594681714068E-003   5.5432417806280485E-002   0.0000000000000000     
   7.3025445027435042E-003   6.1031528134633743E-002   0.0000000000000000     
   7.6932274009864684E-003   6.6817467438442524E-002   0.0000000000000000     
   8.0609081629003047E-003   7.2790235717706861E-002   0.0000000000000000     
   8.4055867884850113E-003   7.8949832972426720E-002   0.0000000000000000     
   3.4174806971627599E-003   5.5346323206848340E-002   0.0000000000000000     
   3.6276694305908143E-003   6.0947420053074880E-002   0.0000000000000000     
   3.8254501122296828E-003   6.6735615195740672E-002   0.0000000000000000     
   4.0108227420793648E-003   7.2710908634845736E-002   0.0000000000000000     
   4.1837873201398612E-003   7.8873300370390031E-002   0.0000000000000000     
   3.3118599009063221E-011   5.5317625035719215E-002   0.0000000000000000     
   2.9568340397662096E-011   6.0919384039561528E-002   0.0000000000000000     
   2.6778465621150882E-011   6.6708331118312800E-002   0.0000000000000000     
   2.4748974977685176E-011   7.2684466271973044E-002   0.0000000000000000     
   2.3479867572798185E-011   7.8847789500542248E-002   0.0000000000000000     
   1.6963222240230773E-002   7.9255963373066785E-002   0.0000000000000000     
   1.7620002643153054E-002   8.5576241172863235E-002   0.0000000000000000     
   1.8260382002866147E-002   9.2054484206961940E-002   0.0000000000000000     
   1.8884360319370061E-002   9.8690692475362884E-002   0.0000000000000000     
   1.9491937592664786E-002  0.10548486597806608        0.0000000000000000     
   1.2665398428515315E-002   7.9077387306652300E-002   0.0000000000000000     
   1.3158811501946876E-002   8.5404533204166189E-002   0.0000000000000000     
   1.3640548692493966E-002   9.1889711212558345E-002   0.0000000000000000     
   1.4110610000156580E-002   9.8532921331828727E-002   0.0000000000000000     
   1.4568995424934726E-002  0.10533416356197736        0.0000000000000000     
   8.4055867884850113E-003   7.8949832972426720E-002   0.0000000000000000     
   8.7350806847538778E-003   8.5281884654722487E-002   0.0000000000000000     
   9.0572072587201957E-003   9.1772016216714533E-002   0.0000000000000000     
   9.3719665103839667E-003   9.8420227658402915E-002   0.0000000000000000     
   9.6793584397451889E-003  0.10522651897978751        0.0000000000000000     
   4.1837873201398612E-003   7.8873300370390031E-002   0.0000000000000000     
   4.3488101915740594E-003   8.5208295524532143E-002   0.0000000000000000     
   4.5103577015448443E-003   9.1701399219430588E-002   0.0000000000000000     
   4.6684298500522152E-003   9.8352611455085406E-002   0.0000000000000000     
   4.8230266370961729E-003  0.10516193223149653        0.0000000000000000     
   2.3479867572798185E-011   7.8847789500542248E-002   0.0000000000000000     
   2.2407419452905031E-011   8.5183765813595116E-002   0.0000000000000000     
   2.0967906176529855E-011   9.1677860220706453E-002   0.0000000000000000     
   1.9161327025388718E-011   9.8330072721876230E-002   0.0000000000000000     
   1.6987681660668441E-011  0.10514040331710442        0.0000000000000000     
   1.9491937592664786E-002  0.10548486597806608        0.0000000000000000     
   2.0075164226262834E-002  0.11242643983722156        0.0000000000000000     
   2.0626090623676711E-002  0.11950484917497929        0.0000000000000000     
   2.1144716784906419E-002  0.12672009399133932        0.0000000000000000     
   2.1631042709951954E-002  0.13407217428630164        0.0000000000000000     
   1.4568995424934726E-002  0.10533416356197736        0.0000000000000000     
   1.5008826480183490E-002  0.11228302283109155        0.0000000000000000     
   1.5423224679257970E-002  0.11936908406725857        0.0000000000000000     
   1.5812190022158164E-002  0.12659234727047849        0.0000000000000000     
   1.6175722508884077E-002  0.13395281244075125        0.0000000000000000     
   9.6793584397451889E-003  0.10522651897978751        0.0000000000000000     
   9.9741865295636008E-003  0.11218058211324816        0.0000000000000000     
   1.0251254262598949E-002  0.11927210899116464        0.0000000000000000     
   1.0510561638851230E-002  0.12650109961353689        0.0000000000000000     
   1.0752108658320445E-002  0.13386755398036498        0.0000000000000000     
   4.8230266370961729E-003  0.10516193223149653        0.0000000000000000     
   4.9712443744031679E-003  0.11211911768369141        0.0000000000000000     
   5.1101793736996462E-003  0.11921392394669743        0.0000000000000000     
   5.2398316349856087E-003  0.12644635102051457        0.0000000000000000     
   5.3602011582610564E-003  0.13381639890514288        0.0000000000000000     
   1.6987681660668441E-011  0.10514040331710442        0.0000000000000000     
   1.4702188251558557E-011  0.11209862954242127        0.0000000000000000     
   1.2560061172540993E-011  0.11919452893385696        0.0000000000000000     
   1.0561304245428407E-011  0.12642810149141148        0.0000000000000000     
   8.7059144615597717E-012  0.13379934721508485        0.0000000000000000     
   2.1631042709951954E-002  0.13407217428630164        0.0000000000000000     
   2.2088765480042103E-002  0.14154797456951304        0.0000000000000000     
   2.2521582176405645E-002  0.14913437935062041        0.0000000000000000     
   2.2929492799042581E-002  0.15683138862962373        0.0000000000000000     
   2.3312497347952908E-002  0.16463900240652293        0.0000000000000000     
   1.6175722508884077E-002  0.13395281244075125        0.0000000000000000     
   1.6517419665778372E-002  0.14143722296499406        0.0000000000000000     
   1.6840879019183720E-002  0.14903232223012405        0.0000000000000000     
   1.7146100569100122E-002  0.15673811023614131        0.0000000000000000     
   1.7433084315527578E-002  0.16455458698304576        0.0000000000000000     
   1.0752108658320445E-002  0.13386755398036498        0.0000000000000000     
   1.0978843482190106E-002  0.14135811467665554        0.0000000000000000     
   1.1193714271643732E-002  0.14895942428741518        0.0000000000000000     
   1.1396721026681322E-002  0.15667148281264393        0.0000000000000000     
   1.1587863747302876E-002  0.16449429025234177        0.0000000000000000     
   5.3602011582610564E-003  0.13381639890514288        0.0000000000000000     
   5.4730369292773067E-003  0.14131064970449753        0.0000000000000000     
   5.5800879337856834E-003  0.14891568552249373        0.0000000000000000     
   5.6813541717861812E-003  0.15663150635913156        0.0000000000000000     
   5.7768356432788054E-003  0.16445811221441092        0.0000000000000000     
   8.7059144615597717E-012  0.13379934721508485        0.0000000000000000     
   7.0399751566502244E-012  0.14129482804851998        0.0000000000000000     
   5.6095711842979457E-012  0.14890110593535977        0.0000000000000000     
   4.4147015145108714E-012  0.15661818087560417        0.0000000000000000     
   3.4553649004565035E-012  0.16444605286925323        0.0000000000000000     
   2.3312497347952908E-002  0.16463900240652293        0.0000000000000000     
   2.3667534962791330E-002  0.17254621149199087        0.0000000000000000     
   2.3991544783212550E-002  0.18054200669670029        0.0000000000000000     
   2.4284526809216566E-002  0.18862638802065115        0.0000000000000000     
   2.4546481040803377E-002  0.19679935546384353        0.0000000000000000     
   1.7433084315527578E-002  0.16455458698304576        0.0000000000000000     
   1.7699077155440168E-002  0.17247050009770645        0.0000000000000000     
   1.7941325985811978E-002  0.18047459720699227        0.0000000000000000     
   1.8159830806643011E-002  0.18856687831090327        0.0000000000000000     
   1.8354591617933260E-002  0.19674734340943950        0.0000000000000000     
   1.1587863747302876E-002  0.16449429025234177        0.0000000000000000     
   1.1765002059642565E-002  0.17241642053065426        0.0000000000000000     
   1.1925995589834563E-002  0.18042644757172702        0.0000000000000000     
   1.2070844337878871E-002  0.18852437137556000        0.0000000000000000     
   1.2199548303775485E-002  0.19671019194215325        0.0000000000000000     
   5.7768356432788054E-003  0.16445811221441092        0.0000000000000000     
   5.8653096753985227E-003  0.17238397279083437        0.0000000000000000     
   5.9455535952803026E-003  0.18039755779090452        0.0000000000000000     
   6.0175674029241477E-003  0.18849886721462131        0.0000000000000000     
   6.0813510983300581E-003  0.19668790106198478        0.0000000000000000     
   3.4553649004565035E-012  0.16444605286925323        0.0000000000000000     
   2.7080388712713566E-012  0.17237315687824684        0.0000000000000000     
   2.1491985708471661E-012  0.18038792786452482        0.0000000000000000     
   1.7788442702344753E-012  0.18849036582808726        0.0000000000000000     
   1.5969729878773098E-012  0.19668047076893408        0.0000000000000000     
   2.4546481040803377E-002  0.19679935546384353        0.0000000000000000     
   2.4778417189321399E-002  0.20504519413121625        0.0000000000000000     
   2.4981344966119048E-002  0.21334818912770831        0.0000000000000000     
   2.5155264371196324E-002  0.22170834045331972        0.0000000000000000     
   2.5300175404553225E-002  0.23012564810805047        0.0000000000000000     
   1.8354591617933260E-002  0.19674734340943950        0.0000000000000000     
   1.8526822322348625E-002  0.20499896877661453        0.0000000000000000     
   1.8677736822555011E-002  0.21330473068644201        0.0000000000000000     
   1.8807335118552412E-002  0.22166462913892193        0.0000000000000000     
   1.8915617210340831E-002  0.23007866413405434        0.0000000000000000     
   1.2199548303775485E-002  0.19671019194215325        0.0000000000000000     
   1.2313221168724473E-002  0.20496595066628953        0.0000000000000000     
   1.2412976613925899E-002  0.21327368894275162        0.0000000000000000     
   1.2498814639379754E-002  0.22163340677153959        0.0000000000000000     
   1.2570735245086052E-002  0.23004510415265336        0.0000000000000000     
   6.0813510983300581E-003  0.19668790106198478        0.0000000000000000     
   6.1376137284489402E-003  0.20494613980024129        0.0000000000000000     
   6.1870643402317073E-003  0.21325506389663729        0.0000000000000000     
   6.2297029336783570E-003  0.22161467335117274        0.0000000000000000     
   6.2655295087888909E-003  0.23002496816384771        0.0000000000000000     
   1.5969729878773098E-012  0.19668047076893408        0.0000000000000000     
   1.5220255611403388E-012  0.20493953617846977        0.0000000000000000     
   1.4724392495210625E-012  0.21324885554809886        0.0000000000000000     
   1.4482141343346439E-012  0.22160842887782134        0.0000000000000000     
   1.4493484537525525E-012  0.23001825616763719        0.0000000000000000     
   2.5300175404553225E-002  0.23012564810805047        0.0000000000000000     
   2.5422247283709981E-002  0.23857276768121832        0.0000000000000000     
   2.5527649226186822E-002  0.24702235476214110        0.0000000000000000     
   2.5616381231983752E-002  0.25547440935081889        0.0000000000000000     
   2.5688443301100768E-002  0.26392893144725166        0.0000000000000000     
   1.8915617210340831E-002  0.23007866413405434        0.0000000000000000     
   1.9006811399233922E-002  0.23851781818893592        0.0000000000000000     
   1.9085145986545364E-002  0.24695307382066356        0.0000000000000000     
   1.9150620972275139E-002  0.25538443102923719        0.0000000000000000     
   1.9203236356423261E-002  0.26381188981465675        0.0000000000000000     
   1.2570735245086052E-002  0.23004510415265336        0.0000000000000000     
   1.2631291557368583E-002  0.23847856855159985        0.0000000000000000     
   1.2683036702551151E-002  0.24690358743388591        0.0000000000000000     
   1.2725970680633761E-002  0.25532016079951148        0.0000000000000000     
   1.2760093491616404E-002  0.26372828864847658        0.0000000000000000     
   6.2655295087888909E-003  0.23002496816384771        0.0000000000000000     
   6.2956877581139548E-003  0.23845501876921016        0.0000000000000000     
   6.3213213742041932E-003  0.24687389560180825        0.0000000000000000     
   6.3424303570596046E-003  0.25528159866164191        0.0000000000000000     
   6.3590147066801932E-003  0.26367812794871109        0.0000000000000000     
   1.4493484537525525E-012  0.23001825616763719        0.0000000000000000     
   1.4700393680122659E-012  0.23844716884176681        0.0000000000000000     
   1.5044846878725648E-012  0.24686399832443048        0.0000000000000000     
   1.5526811065168233E-012  0.25526874461562832        0.0000000000000000     
   1.6146294370966707E-012  0.26366140771536017        0.0000000000000000     
   2.5688443301100768E-002  0.26392893144725166        0.0000000000000000     
   2.5756072764809318E-002  0.27233071362208827        0.0000000000000000     
   2.5831506954380849E-002  0.28062454844597784        0.0000000000000000     
   2.5914745869815372E-002  0.28881043591892019        0.0000000000000000     
   2.6005789511112872E-002  0.29688837604091545        0.0000000000000000     
   1.9203236356423261E-002  0.26381188981465675        0.0000000000000000     
   1.9253024563150922E-002  0.27217805089371988        0.0000000000000000     
   1.9310018016619326E-002  0.28042551498322377        0.0000000000000000     
   1.9374216716828468E-002  0.28855428208316852        0.0000000000000000     
   1.9445620663778355E-002  0.29656435219355426        0.0000000000000000     
   1.2760093491616404E-002  0.26372828864847658        0.0000000000000000     
   1.2792663035411345E-002  0.27206900608768431        0.0000000000000000     
   1.2830937211930843E-002  0.28028334822403783        0.0000000000000000     
   1.2874916021174899E-002  0.28837131505753699        0.0000000000000000     
   1.2924599463143508E-002  0.29633290658818195        0.0000000000000000     
   6.3590147066801932E-003  0.26367812794871109        0.0000000000000000     
   6.3749881815905818E-003  0.27200357920398177        0.0000000000000000     
   6.3942645403154011E-003  0.28019804816841992        0.0000000000000000     
   6.4168437828546520E-003  0.28826153484202555        0.0000000000000000     
   6.4427259092083326E-003  0.29619403922479848        0.0000000000000000     
   1.6146294370966707E-012  0.26366140771536017        0.0000000000000000     
   1.6886359931883588E-012  0.27198177024261216        0.0000000000000000     
   1.7730055704850978E-012  0.28016961481637009        0.0000000000000000     
   1.8677349705904789E-012  0.28822494143663402        0.0000000000000000     
   1.9728281508424317E-012  0.29614775010340394        0.0000000000000000     
   3.3118599009063221E-011   5.5317625035719215E-002   0.0000000000000000     
   2.9568340397662096E-011   6.0919384039561528E-002   0.0000000000000000     
   2.6778465621150882E-011   6.6708331118312800E-002   0.0000000000000000     
   2.4748974977685176E-011   7.2684466271973044E-002   0.0000000000000000     
   2.3479867572798185E-011   7.8847789500542248E-002   0.0000000000000000     
  -3.4174806344843432E-003   5.5346323276447361E-002   0.0000000000000000     
  -3.6276693744743153E-003   6.0947420086374895E-002   0.0000000000000000     
  -3.8254500612873053E-003   6.6735615204394680E-002   0.0000000000000000     
  -4.0108226949233140E-003   7.2710908630506707E-002   0.0000000000000000     
  -4.1837872753823406E-003   7.8873300364710977E-002   0.0000000000000000     
  -6.8888594161693332E-003   5.5432417912587052E-002   0.0000000000000000     
  -7.3025444556875478E-003   6.1031528185796186E-002   0.0000000000000000     
  -7.6932273578877563E-003   6.6817467452222029E-002   0.0000000000000000     
  -8.0609081227699490E-003   7.2790235711864590E-002   0.0000000000000000     
  -8.4055867503341312E-003   7.8949832964723882E-002   0.0000000000000000     
  -1.0414136311936370E-002   5.5575908944138268E-002   0.0000000000000000     
  -1.1024625214071365E-002   6.1171708337825391E-002   0.0000000000000000     
  -1.1603331863022884E-002   6.6953887861794875E-002   0.0000000000000000     
  -1.2150256258790931E-002   7.2922447516046721E-002   0.0000000000000000     
  -1.2665398401375509E-002   7.9077387300580906E-002   0.0000000000000000     
  -1.3993311321785456E-002   5.5776796371101028E-002   0.0000000000000000     
  -1.4793911649625754E-002   6.1367960542462525E-002   0.0000000000000000     
  -1.5555763576692689E-002   6.7144876433113218E-002   0.0000000000000000     
  -1.6278867102986257E-002   7.3107544043053072E-002   0.0000000000000000     
  -1.6963222228506467E-002   7.9255963372282107E-002   0.0000000000000000     
   2.3479867572798185E-011   7.8847789500542248E-002   0.0000000000000000     
   2.2407419452905031E-011   8.5183765813595116E-002   0.0000000000000000     
   2.0967906176529855E-011   9.1677860220706453E-002   0.0000000000000000     
   1.9161327025388718E-011   9.8330072721876230E-002   0.0000000000000000     
   1.6987681660668441E-011  0.10514040331710442        0.0000000000000000     
  -4.1837872753823406E-003   7.8873300364710977E-002   0.0000000000000000     
  -4.3488101488576222E-003   8.5208295522874428E-002   0.0000000000000000     
  -4.5103576615423985E-003   9.1701399220863955E-002   0.0000000000000000     
  -4.6684298134366687E-003   9.8352611458679601E-002   0.0000000000000000     
  -4.8230266045404344E-003  0.10516193223632136        0.0000000000000000     
  -8.4055867503341312E-003   7.8949832964723882E-002   0.0000000000000000     
  -8.7350806483326524E-003   8.5281884653332918E-002   0.0000000000000000     
  -9.0572072245178568E-003   9.1772016220224878E-002   0.0000000000000000     
  -9.3719664788897462E-003   9.8420227665399720E-002   0.0000000000000000     
  -9.6793584114483171E-003  0.10522651898885749        0.0000000000000000     
  -1.2665398401375509E-002   7.9077387300580906E-002   0.0000000000000000     
  -1.3158811476017667E-002   8.5404533204970684E-002   0.0000000000000000     
  -1.3640548667958463E-002   9.1889711218789250E-002   0.0000000000000000     
  -1.4110609977197899E-002   9.8532921342036631E-002   0.0000000000000000     
  -1.4568995403735973E-002  0.10533416357471280        0.0000000000000000     
  -1.6963222228506467E-002   7.9255963372282107E-002   0.0000000000000000     
  -1.7620002631912671E-002   8.5576241177787671E-002   0.0000000000000000     
  -1.8260381991864222E-002   9.2054484216557042E-002   0.0000000000000000     
  -1.8884360308361135E-002   9.8690692488590248E-002   0.0000000000000000     
  -1.9491937581403395E-002  0.10548486599388730        0.0000000000000000     
   1.6987681660668441E-011  0.10514040331710442        0.0000000000000000     
   1.4702188251558557E-011  0.11209862954242127        0.0000000000000000     
   1.2560061172540993E-011  0.11919452893385696        0.0000000000000000     
   1.0561304245428407E-011  0.12642810149141148        0.0000000000000000     
   8.7059144615597717E-012  0.13379934721508485        0.0000000000000000     
  -4.8230266045404344E-003  0.10516193223632136        0.0000000000000000     
  -4.9712443461242470E-003  0.11211911768908653        0.0000000000000000     
  -5.1101793494586680E-003  0.11921392395227241        0.0000000000000000     
  -5.2398316145436958E-003  0.12644635102587906        0.0000000000000000     
  -5.3602011413793303E-003  0.13381639890990643        0.0000000000000000     
  -9.6793584114483171E-003  0.10522651898885749        0.0000000000000000     
  -9.9741865046610468E-003  0.11218058212333595        0.0000000000000000     
  -1.0251254240995411E-002  0.11927210900157306        0.0000000000000000     
  -1.0510561620451400E-002  0.12650109962356876        0.0000000000000000     
  -1.0752108643029020E-002  0.13386755398932312        0.0000000000000000     
  -1.4568995403735973E-002  0.10533416357471280        0.0000000000000000     
  -1.5008826460908216E-002  0.11228302284516961        0.0000000000000000     
  -1.5423224662050164E-002  0.11936908408175888        0.0000000000000000     
  -1.5812190007161813E-002  0.12659234728448063        0.0000000000000000     
  -1.6175722496243161E-002  0.13395281245333487        0.0000000000000000     
  -1.9491937581403395E-002  0.10548486599388730        0.0000000000000000     
  -2.0075164214865746E-002  0.11242643985458742        0.0000000000000000     
  -2.0626090612622924E-002  0.11950484919282986        0.0000000000000000     
  -2.1144716774674922E-002  0.12672009400861464        0.0000000000000000     
  -2.1631042701021754E-002  0.13407217430194174        0.0000000000000000     
   8.7059144615597717E-012  0.13379934721508485        0.0000000000000000     
   7.0399751566502244E-012  0.14129482804851998        0.0000000000000000     
   5.6095711842979457E-012  0.14890110593535977        0.0000000000000000     
   4.4147015145108714E-012  0.15661818087560417        0.0000000000000000     
   3.4553649004565035E-012  0.16444605286925323        0.0000000000000000     
  -5.3602011413793303E-003  0.13381639890990643        0.0000000000000000     
  -5.4730369156084629E-003  0.14131064970851293        0.0000000000000000     
  -5.5800879228739900E-003  0.14891568552585691        0.0000000000000000     
  -5.6813541631759064E-003  0.15663150636193829        0.0000000000000000     
  -5.7768356365142199E-003  0.16445811221675716        0.0000000000000000     
  -1.0752108643029020E-002  0.13386755398932312        0.0000000000000000     
  -1.0978843469754581E-002  0.14135811468426640        0.0000000000000000     
  -1.1193714261654386E-002  0.14895942429382877        0.0000000000000000     
  -1.1396721018728436E-002  0.15667148281801044        0.0000000000000000     
  -1.1587863740976728E-002  0.16449429025681120        0.0000000000000000     
  -1.6175722496243161E-002  0.13395281245333487        0.0000000000000000     
  -1.6517419655398380E-002  0.14143722297578029        0.0000000000000000     
  -1.6840879010731617E-002  0.14903232223927548        0.0000000000000000     
  -1.7146100562242878E-002  0.15673811024382048        0.0000000000000000     
  -1.7433084309932158E-002  0.16455458698941530        0.0000000000000000     
  -2.1631042701021754E-002  0.13407217430194174        0.0000000000000000     
  -2.2088765472539854E-002  0.14154797458305468        0.0000000000000000     
  -2.2521582170105681E-002  0.14913437936219692        0.0000000000000000     
  -2.2929492793719235E-002  0.15683138863936857        0.0000000000000000     
  -2.3312497343380513E-002  0.16463900241456950        0.0000000000000000     
   3.4553649004565035E-012  0.16444605286925323        0.0000000000000000     
   2.7080388712713566E-012  0.17237315687824684        0.0000000000000000     
   2.1491985708471661E-012  0.18038792786452482        0.0000000000000000     
   1.7788442702344753E-012  0.18849036582808726        0.0000000000000000     
   1.5969729878773098E-012  0.19668047076893408        0.0000000000000000     
  -5.7768356365142199E-003  0.16445811221675716        0.0000000000000000     
  -5.8653096700692344E-003  0.17238397279278456        0.0000000000000000     
  -5.9455535910212676E-003  0.18039755779249142        0.0000000000000000     
  -6.0175673993703143E-003  0.18849886721587777        0.0000000000000000     
  -6.0813510951163762E-003  0.19668790106294359        0.0000000000000000     
  -1.1587863740976728E-002  0.16449429025681120        0.0000000000000000     
  -1.1765002054573656E-002  0.17241642053434053        0.0000000000000000     
  -1.1925995585693613E-002  0.18042644757470780        0.0000000000000000     
  -1.2070844334336592E-002  0.18852437137791292        0.0000000000000000     
  -1.2199548300502601E-002  0.19671019194395589        0.0000000000000000     
  -1.7433084309932158E-002  0.16455458698941530        0.0000000000000000     
  -1.7699077150805227E-002  0.17247050010291481        0.0000000000000000     
  -1.7941325981867842E-002  0.18047459721117393        0.0000000000000000     
  -1.8159830803119999E-002  0.18856687831419264        0.0000000000000000     
  -1.8354591614561704E-002  0.19674734341197092        0.0000000000000000     
  -2.3312497343380513E-002  0.16463900241456950        0.0000000000000000     
  -2.3667534958763940E-002  0.17254621149850741        0.0000000000000000     
  -2.3991544779543947E-002  0.18054200670188988        0.0000000000000000     
  -2.4284526805720522E-002  0.18862638802471698        0.0000000000000000     
  -2.4546481037293677E-002  0.19679935546698868        0.0000000000000000     
   1.5969729878773098E-012  0.19668047076893408        0.0000000000000000     
   1.5220255611403388E-012  0.20493953617846977        0.0000000000000000     
   1.4724392495210625E-012  0.21324885554809886        0.0000000000000000     
   1.4482141343346439E-012  0.22160842887782134        0.0000000000000000     
   1.4493484537525525E-012  0.23001825616763719        0.0000000000000000     
  -6.0813510951163762E-003  0.19668790106294359        0.0000000000000000     
  -6.1376137253690635E-003  0.20494613980093954        0.0000000000000000     
  -6.1870643372379935E-003  0.21325506389711624        0.0000000000000000     
  -6.2297029307231593E-003  0.22161467335147358        0.0000000000000000     
  -6.2655295058245660E-003  0.23002496816401169        0.0000000000000000     
  -1.2199548300502601E-002  0.19671019194395589        0.0000000000000000     
  -1.2313221165537132E-002  0.20496595066761517        0.0000000000000000     
  -1.2412976610785682E-002  0.21327368894366913        0.0000000000000000     
  -1.2498814636248252E-002  0.22163340677211768        0.0000000000000000     
  -1.2570735241924841E-002  0.23004510415296089        0.0000000000000000     
  -1.8354591614561704E-002  0.19674734341197092        0.0000000000000000     
  -1.8526822318982169E-002  0.20499896877849660        0.0000000000000000     
  -1.8677736819170621E-002  0.21330473068775749        0.0000000000000000     
  -1.8807335115127062E-002  0.22166462913975360        0.0000000000000000     
  -1.8915617206851480E-002  0.23007866413448494        0.0000000000000000     
  -2.4546481037293677E-002  0.19679935546698868        0.0000000000000000     
  -2.4778417185704189E-002  0.20504519413358385        0.0000000000000000     
  -2.4981344962392821E-002  0.21334818912938139        0.0000000000000000     
  -2.5155264367359587E-002  0.22170834045438131        0.0000000000000000     
  -2.5300175400604474E-002  0.23012564810858363        0.0000000000000000     
   1.4493484537525525E-012  0.23001825616763719        0.0000000000000000     
   1.4700393680122659E-012  0.23844716884176681        0.0000000000000000     
   1.5044846878725648E-012  0.24686399832443048        0.0000000000000000     
   1.5526811065168233E-012  0.25526874461562832        0.0000000000000000     
   1.6146294370966707E-012  0.26366140771536017        0.0000000000000000     
  -6.2655295058245660E-003  0.23002496816401169        0.0000000000000000     
  -6.2956877551034914E-003  0.23845501876925862        0.0000000000000000     
  -6.3213213711212253E-003  0.24687389560174264        0.0000000000000000     
  -6.3424303538777592E-003  0.25528159866146372        0.0000000000000000     
  -6.3590147033730946E-003  0.26367812794842171        0.0000000000000000     
  -1.2570735241924841E-002  0.23004510415296089        0.0000000000000000     
  -1.2631291554146978E-002  0.23847856855167465        0.0000000000000000     
  -1.2683036699246180E-002  0.24690358743373464        0.0000000000000000     
  -1.2725970677222453E-002  0.25532016079914094        0.0000000000000000     
  -1.2760093488075793E-002  0.26372828864789349        0.0000000000000000     
  -1.8915617206851480E-002  0.23007866413448494        0.0000000000000000     
  -1.9006811395660413E-002  0.23851781818901474        0.0000000000000000     
  -1.9085145982870387E-002  0.24695307382040640        0.0000000000000000     
  -1.9150620968481399E-002  0.25538443102865999        0.0000000000000000     
  -1.9203236352493464E-002  0.26381188981377535        0.0000000000000000     
  -2.5300175400604474E-002  0.23012564810858363        0.0000000000000000     
  -2.5422247279643796E-002  0.23857276768127902        0.0000000000000000     
  -2.5527649221993843E-002  0.24702235476175813        0.0000000000000000     
  -2.5616381227654611E-002  0.25547440935002091        0.0000000000000000     
  -2.5688443296626104E-002  0.26392893144606744        0.0000000000000000     
   1.6146294370966707E-012  0.26366140771536017        0.0000000000000000     
   1.6886359931883588E-012  0.27198177024261216        0.0000000000000000     
   1.7730055704850978E-012  0.28016961481637009        0.0000000000000000     
   1.8677349705904789E-012  0.28822494143663402        0.0000000000000000     
   1.9728281508424317E-012  0.29614775010340394        0.0000000000000000     
  -6.3590147033730946E-003  0.26367812794842171        0.0000000000000000     
  -6.3749881781349996E-003  0.27200357920357821        0.0000000000000000     
  -6.3942645366912272E-003  0.28019804816789434        0.0000000000000000     
  -6.4168437790417827E-003  0.28826153484137013        0.0000000000000000     
  -6.4427259051866642E-003  0.29619403922400556        0.0000000000000000     
  -1.2760093488075793E-002  0.26372828864789349        0.0000000000000000     
  -1.2792663031720823E-002  0.27206900608688261        0.0000000000000000     
  -1.2830937208072171E-002  0.28028334822299855        0.0000000000000000     
  -1.2874916017129829E-002  0.28837131505624120        0.0000000000000000     
  -1.2924599458893803E-002  0.29633290658661071        0.0000000000000000     
  -1.9203236352493464E-002  0.26381188981377535        0.0000000000000000     
  -1.9253024559068847E-002  0.27217805089252539        0.0000000000000000     
  -1.9310018012369822E-002  0.28042551498168272        0.0000000000000000     
  -1.9374216712396409E-002  0.28855428208124739        0.0000000000000000     
  -1.9445620659148587E-002  0.29656435219121946        0.0000000000000000     
  -2.5688443296626104E-002  0.26392893144606744        0.0000000000000000     
  -2.5756072760179053E-002  0.27233071362050648        0.0000000000000000     
  -2.5831506949584193E-002  0.28062454844394691        0.0000000000000000     
  -2.5914745864841514E-002  0.28881043591638861        0.0000000000000000     
  -2.6005789505951022E-002  0.29688837603783169        0.0000000000000000     
  -1.3993311321785456E-002   5.5776796371101028E-002   0.0000000000000000     
  -1.4793911649625754E-002   6.1367960542462525E-002   0.0000000000000000     
  -1.5555763576692689E-002   6.7144876433113218E-002   0.0000000000000000     
  -1.6278867102986257E-002   7.3107544043053072E-002   0.0000000000000000     
  -1.6963222228506467E-002   7.9255963372282107E-002   0.0000000000000000     
  -1.7628600354179812E-002   5.6035952137762253E-002   0.0000000000000000     
  -1.8618964974829452E-002   6.1620972018348041E-002   0.0000000000000000     
  -1.9563898049269040E-002   6.7391004281410011E-002   0.0000000000000000     
  -2.0463399577498570E-002   7.3346048926948154E-002   0.0000000000000000     
  -2.1317469559518049E-002   7.9486105954962485E-002   0.0000000000000000     
  -2.1322219317582655E-002   5.6354248188408902E-002   0.0000000000000000     
  -2.2508346402161192E-002   6.1931429984122391E-002   0.0000000000000000     
  -2.3641110831123805E-002   6.7692842521918248E-002   0.0000000000000000     
  -2.4720512604470505E-002   7.3638485801796452E-002   0.0000000000000000     
  -2.5746551722201284E-002   7.9768359823756990E-002   0.0000000000000000     
  -2.5074168211994000E-002   5.6731684523040969E-002   0.0000000000000000     
  -2.6462055931620966E-002   6.2299334439785581E-002   0.0000000000000000     
  -2.7787401922256986E-002   6.8050391154637915E-002   0.0000000000000000     
  -2.9050206183902059E-002   7.3984854667597938E-002   0.0000000000000000     
  -3.0250468716556185E-002   8.0102724978665704E-002   0.0000000000000000     
  -2.8884447037413833E-002   5.7168261141658454E-002   0.0000000000000000     
  -3.0480093563208778E-002   6.2724685385337611E-002   0.0000000000000000     
  -3.2002771322668579E-002   6.8463650179569013E-002   0.0000000000000000     
  -3.3452480315793232E-002   7.4385155524352653E-002   0.0000000000000000     
  -3.4829220542582751E-002   8.0489201419688544E-002   0.0000000000000000     
  -1.6963222228506467E-002   7.9255963372282107E-002   0.0000000000000000     
  -1.7620002631912671E-002   8.5576241177787671E-002   0.0000000000000000     
  -1.8260381991864222E-002   9.2054484216557042E-002   0.0000000000000000     
  -1.8884360308361135E-002   9.8690692488590248E-002   0.0000000000000000     
  -1.9491937581403395E-002  0.10548486599388730        0.0000000000000000     
  -2.1317469559518049E-002   7.9486105954962485E-002   0.0000000000000000     
  -2.2138152639437001E-002   8.5797600170163441E-002   0.0000000000000000     
  -2.2937493461364974E-002   9.2266956377261428E-002   0.0000000000000000     
  -2.3715492025301963E-002   9.8894174576256488E-002   0.0000000000000000     
  -2.4472148331247969E-002  0.10567925476714857        0.0000000000000000     
  -2.5746551722201284E-002   7.9768359823756990E-002   0.0000000000000000     
  -2.6732760022010013E-002   8.6069201780477528E-002   0.0000000000000000     
  -2.7692669341590558E-002   9.2527748864635551E-002   0.0000000000000000     
  -2.8626279680942911E-002   9.9144001076231100E-002   0.0000000000000000     
  -2.9533591040067073E-002  0.10591795841526416        0.0000000000000000     
  -3.0250468716556185E-002   8.0102724978665704E-002   0.0000000000000000     
  -3.1403824779631710E-002   8.6391046008729933E-002   0.0000000000000000     
  -3.2525909632540963E-002   9.2836861678679411E-002   0.0000000000000000     
  -3.3616723275283977E-002   9.9440171988514112E-002   0.0000000000000000     
  -3.4676265707860719E-002  0.10620097693823408        0.0000000000000000     
  -3.4829220542582751E-002   8.0489201419688544E-002   0.0000000000000000     
  -3.6151346912302082E-002   8.6763132854920655E-002   0.0000000000000000     
  -3.7437214334216214E-002   9.3194294819392981E-002   0.0000000000000000     
  -3.8686822808325153E-002   9.9782687313105550E-002   0.0000000000000000     
  -3.9900172334628878E-002  0.10652831033605831        0.0000000000000000     
  -1.9491937581403395E-002  0.10548486599388730        0.0000000000000000     
  -2.0075164214865746E-002  0.11242643985458742        0.0000000000000000     
  -2.0626090612622924E-002  0.11950484919282986        0.0000000000000000     
  -2.1144716774674922E-002  0.12672009400861464        0.0000000000000000     
  -2.1631042701021754E-002  0.13407217430194174        0.0000000000000000     
  -2.4472148331247969E-002  0.10567925476714857        0.0000000000000000     
  -2.5198700294629985E-002  0.11261148199808302        0.0000000000000000     
  -2.5886385830875012E-002  0.11968014131720515        0.0000000000000000     
  -2.6535204939983036E-002  0.12688523272451496        0.0000000000000000     
  -2.7145157621954068E-002  0.13422675622001243        0.0000000000000000     
  -2.9533591040067073E-002  0.10591795841526416        0.0000000000000000     
  -3.0404935228297274E-002  0.11283879812214999        0.0000000000000000     
  -3.1230644054967723E-002  0.11989569743730387        0.0000000000000000     
  -3.2010717520078433E-002  0.12708865636072578        0.0000000000000000     
  -3.2745155623629389E-002  0.13441767489241566        0.0000000000000000     
  -3.4676265707860719E-002  0.10620097693823408        0.0000000000000000     
  -3.5693869015867616E-002  0.11310838822678834        0.0000000000000000     
  -3.6658865284901074E-002  0.12015151755312603        0.0000000000000000     
  -3.7571254514961093E-002  0.12733036491724706        0.0000000000000000     
  -3.8431036706047715E-002  0.13464493031915148        0.0000000000000000     
  -3.9900172334628878E-002  0.10652831033605831        0.0000000000000000     
  -4.1065501657340991E-002  0.11342025231199807        0.0000000000000000     
  -4.2171049520675054E-002  0.12044760166467158        0.0000000000000000     
  -4.3216815924631065E-002  0.12761035839407883        0.0000000000000000     
  -4.4202800869209039E-002  0.13490852250021987        0.0000000000000000     
  -2.1631042701021754E-002  0.13407217430194174        0.0000000000000000     
  -2.2088765472539854E-002  0.14154797458305468        0.0000000000000000     
  -2.2521582170105681E-002  0.14913437936219692        0.0000000000000000     
  -2.2929492793719235E-002  0.15683138863936857        0.0000000000000000     
  -2.3312497343380513E-002  0.16463900241456950        0.0000000000000000     
  -2.7145157621954068E-002  0.13422675622001243        0.0000000000000000     
  -2.7719939634137429E-002  0.14169174334181991        0.0000000000000000     
  -2.8263246733882440E-002  0.14926722562805980        0.0000000000000000     
  -2.8775078921189100E-002  0.15695320307873212        0.0000000000000000     
  -2.9255436196057406E-002  0.16474967569383686        0.0000000000000000     
  -3.2745155623629389E-002  0.13441767489241566        0.0000000000000000     
  -3.3438000853149519E-002  0.14186990308780639        0.0000000000000000     
  -3.4093295696167737E-002  0.14943249100233080        0.0000000000000000     
  -3.4711040152684051E-002  0.15710543863598880        0.0000000000000000     
  -3.5291234222698448E-002  0.16488874598878045        0.0000000000000000     
  -3.8431036706047715E-002  0.13464493031915148        0.0000000000000000     
  -3.9242949129576127E-002  0.14208245382101412        0.0000000000000000     
  -4.0011729056961577E-002  0.14963017548500981        0.0000000000000000     
  -4.0737376488204101E-002  0.15728809531113852        0.0000000000000000     
  -4.1419891423303663E-002  0.16505621329940032        0.0000000000000000     
  -4.4202800869209039E-002  0.13490852250021987        0.0000000000000000     
  -4.5134784463417246E-002  0.14232939554144308        0.0000000000000000     
  -4.6018546816263980E-002  0.14986027907609689        0.0000000000000000     
  -4.6854087927749227E-002  0.15750117310418135        0.0000000000000000     
  -4.7641407797873021E-002  0.16525207762569644        0.0000000000000000     
  -2.3312497343380513E-002  0.16463900241456950        0.0000000000000000     
  -2.3667534958763940E-002  0.17254621149850741        0.0000000000000000     
  -2.3991544779543947E-002  0.18054200670188988        0.0000000000000000     
  -2.4284526805720522E-002  0.18862638802471698        0.0000000000000000     
  -2.4546481037293677E-002  0.19679935546698868        0.0000000000000000     
  -2.9255436196057406E-002  0.16474967569383686        0.0000000000000000     
  -2.9701039938643134E-002  0.17264586916894176        0.0000000000000000     
  -3.0108611529102051E-002  0.18063100919961464        0.0000000000000000     
  -3.0478150967434156E-002  0.18870509578585554        0.0000000000000000     
  -3.0809658253639446E-002  0.19686812892766437        0.0000000000000000     
  -3.5291234222698448E-002  0.16488874598878045        0.0000000000000000     
  -3.5830256550636132E-002  0.17277178756204134        0.0000000000000000     
  -3.6324485780922275E-002  0.18074393785710716        0.0000000000000000     
  -3.6773921913556870E-002  0.18880519687397782        0.0000000000000000     
  -3.7178564948539924E-002  0.19695556461265334        0.0000000000000000     
  -4.1419891423303663E-002  0.16505621329940032        0.0000000000000000     
  -4.2055184794742941E-002  0.17292396667780621        0.0000000000000000     
  -4.2639167535004602E-002  0.18088079267436738        0.0000000000000000     
  -4.3171839644088675E-002  0.18892669128908379        0.0000000000000000     
  -4.3653201121995118E-002  0.19706166252195548        0.0000000000000000     
  -4.7641407797873021E-002  0.16525207762569644        0.0000000000000000     
  -4.8375824670963553E-002  0.17310240651623637        0.0000000000000000     
  -4.9052656791349063E-002  0.18104157365139539        0.0000000000000000     
  -4.9671904159029556E-002  0.18906957903117355        0.0000000000000000     
  -5.0233566774005020E-002  0.19718642265557085        0.0000000000000000     
  -2.4546481037293677E-002  0.19679935546698868        0.0000000000000000     
  -2.4778417185704189E-002  0.20504519413358385        0.0000000000000000     
  -2.4981344962392821E-002  0.21334818912938139        0.0000000000000000     
  -2.5155264367359587E-002  0.22170834045438131        0.0000000000000000     
  -2.5300175400604474E-002  0.23012564810858363        0.0000000000000000     
  -3.0809658253639446E-002  0.19686812892766437        0.0000000000000000     
  -3.1103723221779952E-002  0.20510595493961420        0.0000000000000000     
  -3.1360935705917671E-002  0.21340442013627778        0.0000000000000000     
  -3.1581295706052628E-002  0.22176352451765516        0.0000000000000000     
  -3.1764803222184806E-002  0.23018326808374637        0.0000000000000000     
  -3.7178564948539924E-002  0.19695556461265334        0.0000000000000000     
  -3.7538457883286240E-002  0.20518257940332488        0.0000000000000000     
  -3.7853643715210598E-002  0.21347377957618358        0.0000000000000000     
  -3.8124122444312993E-002  0.22182916513122941        0.0000000000000000     
  -3.8349894070593429E-002  0.23024873606846244        0.0000000000000000     
  -4.3653201121995118E-002  0.19706166252195548        0.0000000000000000     
  -4.4082621170223060E-002  0.20527506752471594        0.0000000000000000     
  -4.4459468990271575E-002  0.21355626744909884        0.0000000000000000     
  -4.4783744582140669E-002  0.22190526229510416        0.0000000000000000     
  -4.5055447945830357E-002  0.23032205206273176        0.0000000000000000     
  -5.0233566774005020E-002  0.19718642265557085        0.0000000000000000     
  -5.0736213082590395E-002  0.20538341930378742        0.0000000000000000     
  -5.1178411531100615E-002  0.21365188375502359        0.0000000000000000     
  -5.1560162119535680E-002  0.22199181600927922        0.0000000000000000     
  -5.1881464847895589E-002  0.23040321606655445        0.0000000000000000     
  -2.5300175400604474E-002  0.23012564810858363        0.0000000000000000     
  -2.5422247279643796E-002  0.23857276768127902        0.0000000000000000     
  -2.5527649221993843E-002  0.24702235476175813        0.0000000000000000     
  -2.5616381227654611E-002  0.25547440935002091        0.0000000000000000     
  -2.5688443296626104E-002  0.26392893144606744        0.0000000000000000     
  -3.1764803222184806E-002  0.23018326808374637        0.0000000000000000     
  -3.1919292391775253E-002  0.23863893206580095        0.0000000000000000     
  -3.2052597352285023E-002  0.24710579769506832        0.0000000000000000     
  -3.2164718103714109E-002  0.25558386497154856        0.0000000000000000     
  -3.2255654646062511E-002  0.26407313389524156        0.0000000000000000     
  -3.8349894070593429E-002  0.23024873606846244        0.0000000000000000     
  -3.8539639917732911E-002  0.23871182637991409        0.0000000000000000     
  -3.8702041309412412E-002  0.24719777005761587        0.0000000000000000     
  -3.8837098245631939E-002  0.25570656710156775        0.0000000000000000     
  -3.8944810726391492E-002  0.26423821751176968        0.0000000000000000     
  -4.5055447945830357E-002  0.23032205206273176        0.0000000000000000     
  -4.5283289857516763E-002  0.23879145062361845        0.0000000000000000     
  -4.5475981093376000E-002  0.24729827184940065        0.0000000000000000     
  -4.5633521653408095E-002  0.25584251574007838        0.0000000000000000     
  -4.5755911537613034E-002  0.26442418229565173        0.0000000000000000     
  -5.1881464847895589E-002  0.23040321606655445        0.0000000000000000     
  -5.2150242211126803E-002  0.23887780479691401        0.0000000000000000     
  -5.2374416704175808E-002  0.24740730307042275        0.0000000000000000     
  -5.2553988327042590E-002  0.25599171088708061        0.0000000000000000     
  -5.2688957079727164E-002  0.26463102824688778        0.0000000000000000     
  -2.5688443296626104E-002  0.26392893144606744        0.0000000000000000     
  -2.5756072760179053E-002  0.27233071362050648        0.0000000000000000     
  -2.5831506949584193E-002  0.28062454844394691        0.0000000000000000     
  -2.5914745864841514E-002  0.28881043591638861        0.0000000000000000     
  -2.6005789505951022E-002  0.29688837603783169        0.0000000000000000     
  -3.2255654646062511E-002  0.26407313389524156        0.0000000000000000     
  -3.2340252245345695E-002  0.27252064988204283        0.0000000000000000     
  -3.2433356167579114E-002  0.28087345834784783        0.0000000000000000     
  -3.2534966412762760E-002  0.28913155929265633        0.0000000000000000     
  -3.2645082980896648E-002  0.29729495271646855        0.0000000000000000     
  -3.8944810726391492E-002  0.26423821751176968        0.0000000000000000     
  -3.9044007624863021E-002  0.27274151528835133        0.0000000000000000     
  -3.9153517814218435E-002  0.28116525443144202        0.0000000000000000     
  -3.9273341294457774E-002  0.28950943494104198        0.0000000000000000     
  -3.9403478065581012E-002  0.29777405681715091        0.0000000000000000     
  -4.5755911537613034E-002  0.26442418229565173        0.0000000000000000     
  -4.5867338898731000E-002  0.27299330983943171        0.0000000000000000     
  -4.5991991889502176E-002  0.28149993669472967        0.0000000000000000     
  -4.6129870509926542E-002  0.28994406286154534        0.0000000000000000     
  -4.6280974760004118E-002  0.29832568833987894        0.0000000000000000     
  -5.2688957079727164E-002  0.26463102824688778        0.0000000000000000     
  -5.2810246066949673E-002  0.27327603353528424        0.0000000000000000     
  -5.2948778393430311E-002  0.28187750513771065        0.0000000000000000     
  -5.3104554059169071E-002  0.29043544305416674        0.0000000000000000     
  -5.3277573064165959E-002  0.29894984728465251        0.0000000000000000     
  -2.8884447037413833E-002   5.7168261141658454E-002   0.0000000000000000     
  -3.0480093563208778E-002   6.2724685385337611E-002   0.0000000000000000     
  -3.2002771322668579E-002   6.8463650179569013E-002   0.0000000000000000     
  -3.3452480315793232E-002   7.4385155524352653E-002   0.0000000000000000     
  -3.4829220542582751E-002   8.0489201419688544E-002   0.0000000000000000     
  -3.2816780834564740E-002   5.7664628180322475E-002   0.0000000000000000     
  -3.4620773463262020E-002   6.3207395113243359E-002   0.0000000000000000     
  -3.6340675111141717E-002   6.8932040305917208E-002   0.0000000000000000     
  -3.7976485778203825E-002   7.4838563758344037E-002   0.0000000000000000     
  -3.9528205464448372E-002   8.0926965470523859E-002   0.0000000000000000     
  -3.6934894644169304E-002   5.8221435775094144E-002   0.0000000000000000     
  -3.8942409798118062E-002   6.3747375915967672E-002   0.0000000000000000     
  -4.0854569366459516E-002   6.9454982242888139E-002   0.0000000000000000     
  -4.2671373349193652E-002   7.5344254755855572E-002   0.0000000000000000     
  -4.4392821746320463E-002   8.1415193454869958E-002   0.0000000000000000     
  -4.1238788466227513E-002   5.8838683925973474E-002   0.0000000000000000     
  -4.3445002567776933E-002   6.4344627793510550E-002   0.0000000000000000     
  -4.5544454088621990E-002   7.0032475990481818E-002   0.0000000000000000     
  -4.7537143028762684E-002   7.5902228516887257E-002   0.0000000000000000     
  -4.9423069388199029E-002   8.1953885372726881E-002   0.0000000000000000     
  -4.5728462300739389E-002   5.9516372632960453E-002   0.0000000000000000     
  -4.8128551772238626E-002   6.4999150745872009E-002   0.0000000000000000     
  -5.0410329277629132E-002   7.0664521548698234E-002   0.0000000000000000     
  -5.2573794816910949E-002   7.6512485041439066E-002   0.0000000000000000     
  -5.4618948390084049E-002   8.2543041224094602E-002   0.0000000000000000     
  -3.4829220542582751E-002   8.0489201419688544E-002   0.0000000000000000     
  -3.6151346912302082E-002   8.6763132854920655E-002   0.0000000000000000     
  -3.7437214334216214E-002   9.3194294819392981E-002   0.0000000000000000     
  -3.8686822808325153E-002   9.9782687313105550E-002   0.0000000000000000     
  -3.9900172334628878E-002  0.10652831033605831        0.0000000000000000     
  -3.9528205464448372E-002   8.0926965470523859E-002   0.0000000000000000     
  -4.1017523442313415E-002   8.7184782436995789E-002   0.0000000000000000     
  -4.2466128984237066E-002   9.3599551652299010E-002   0.0000000000000000     
  -4.3874022090219331E-002  0.10017127311643347        0.0000000000000000     
  -4.5241202760260210E-002  0.10689994682939920        0.0000000000000000     
  -4.4392821746320463E-002   8.1415193454869958E-002   0.0000000000000000     
  -4.6044551391958004E-002   8.7655314872901458E-002   0.0000000000000000     
  -4.7652199120224316E-002   9.4052135542920134E-002   0.0000000000000000     
  -4.9215764931119420E-002  0.10060565546492602        0.0000000000000000     
  -5.0735248824643295E-002  0.10731587463891910        0.0000000000000000     
  -4.9423069388199029E-002   8.1953885372726881E-002   0.0000000000000000     
  -5.1232430761235834E-002   8.8174730162637618E-002   0.0000000000000000     
  -5.2995424742177950E-002   9.4552046491256383E-002   0.0000000000000000     
  -5.4712051331025392E-002  0.10108583435858320        0.0000000000000000     
  -5.6382310527778146E-002  0.10777609376461801        0.0000000000000000     
  -5.4618948390084049E-002   8.2543041224094602E-002   0.0000000000000000     
  -5.6581161550146905E-002   8.8743028306204300E-002   0.0000000000000000     
  -5.8495805850097997E-002   9.5099284497307743E-002   0.0000000000000000     
  -6.0362881289937283E-002  0.10161180979740496        0.0000000000000000     
  -6.2182387869664776E-002  0.10828060420649593        0.0000000000000000     
  -3.9900172334628878E-002  0.10652831033605831        0.0000000000000000     
  -4.1065501657340991E-002  0.11342025231199807        0.0000000000000000     
  -4.2171049520675054E-002  0.12044760166467158        0.0000000000000000     
  -4.3216815924631065E-002  0.12761035839407883        0.0000000000000000     
  -4.4202800869209039E-002  0.13490852250021987        0.0000000000000000     
  -4.5241202760260210E-002  0.10689994682939920        0.0000000000000000     
  -4.6554528431605013E-002  0.11377466589766819        0.0000000000000000     
  -4.7800856541499084E-002  0.12078452342771236        0.0000000000000000     
  -4.8980187089942423E-002  0.12792951941953173        0.0000000000000000     
  -5.0092520076935050E-002  0.13520965387312633        0.0000000000000000     
  -5.0735248824643295E-002  0.10731587463891910        0.0000000000000000     
  -5.2195644617547249E-002  0.11417190450368771        0.0000000000000000     
  -5.3581946126582590E-002  0.12116285649802012        0.0000000000000000     
  -5.4894153351749318E-002  0.12828873062191637        0.0000000000000000     
  -5.6132266293047434E-002  0.13554952687537644        0.0000000000000000     
  -5.6382310527778146E-002  0.10777609376461801        0.0000000000000000     
  -5.7988850215167712E-002  0.11461196813005664        0.0000000000000000     
  -5.9514318275925578E-002  0.12158260087559490        0.0000000000000000     
  -6.0958714710051723E-002  0.12868799200123274        0.0000000000000000     
  -6.2322039517546203E-002  0.13592814150697016        0.0000000000000000     
  -6.2182387869664776E-002  0.10828060420649593        0.0000000000000000     
  -6.3934145224466388E-002  0.11509485677677500        0.0000000000000000     
  -6.5597972989528033E-002  0.12204375656043664        0.0000000000000000     
  -6.7173871164849672E-002  0.12912730355748081        0.0000000000000000     
  -6.8661839750431344E-002  0.13634549776790753        0.0000000000000000     
  -4.4202800869209039E-002  0.13490852250021987        0.0000000000000000     
  -4.5134784463417246E-002  0.14232939554144308        0.0000000000000000     
  -4.6018546816263980E-002  0.14986027907609689        0.0000000000000000     
  -4.6854087927749227E-002  0.15750117310418135        0.0000000000000000     
  -4.7641407797873021E-002  0.16525207762569644        0.0000000000000000     
  -5.0092520076935050E-002  0.13520965387312633        0.0000000000000000     
  -5.1144872174630922E-002  0.14261224780849172        0.0000000000000000     
  -5.2144260055184036E-002  0.15012462224562337        0.0000000000000000     
  -5.3090683718594378E-002  0.15774677718452135        0.0000000000000000     
  -5.3984143164861963E-002  0.16547871262518563        0.0000000000000000     
  -5.6132266293047434E-002  0.13554952687537644        0.0000000000000000     
  -5.7304577583175191E-002  0.14293253018155844        0.0000000000000000     
  -5.8419379854830866E-002  0.15042502546362052        0.0000000000000000     
  -5.9476673108014445E-002  0.15802701272156258        0.0000000000000000     
  -6.0476457342725921E-002  0.16573849195538476        0.0000000000000000     
  -6.2322039517546203E-002  0.13592814150697016        0.0000000000000000     
  -6.3613900689050082E-002  0.14329024266064336        0.0000000000000000     
  -6.4843906215204514E-002  0.15076148873008829        0.0000000000000000     
  -6.6012056096009422E-002  0.15834187971530517        0.0000000000000000     
  -6.7118350331464904E-002  0.16603141561629378        0.0000000000000000     
  -6.8661839750431344E-002  0.13634549776790753        0.0000000000000000     
  -7.0072841492255566E-002  0.14368538524574634        0.0000000000000000     
  -7.1417839136304895E-002  0.15113401204502680        0.0000000000000000     
  -7.2696832682579343E-002  0.15869137816574894        0.0000000000000000     
  -7.3909822131078898E-002  0.16635748360791275        0.0000000000000000     
  -4.7641407797873021E-002  0.16525207762569644        0.0000000000000000     
  -4.8375824670963553E-002  0.17310240651623637        0.0000000000000000     
  -4.9052656791349063E-002  0.18104157365139539        0.0000000000000000     
  -4.9671904159029556E-002  0.18906957903117355        0.0000000000000000     
  -5.0233566774005020E-002  0.19718642265557085        0.0000000000000000     
  -5.3984143164861963E-002  0.16547871262518563        0.0000000000000000     
  -5.4819443537372080E-002  0.17330985944904190        0.0000000000000000     
  -5.5591389979510034E-002  0.18122964853751586        0.0000000000000000     
  -5.6299982491275817E-002  0.18923807989060748        0.0000000000000000     
  -5.6945221072669444E-002  0.19733515350831679        0.0000000000000000     
  -6.0476457342725921E-002  0.16573849195538476        0.0000000000000000     
  -6.1413308752042643E-002  0.17354907784793303        0.0000000000000000     
  -6.2281803529041939E-002  0.18144838508205338        0.0000000000000000     
  -6.3081941673723788E-002  0.18943641365774602        0.0000000000000000     
  -6.3813723186088231E-002  0.19751316357501075        0.0000000000000000     
  -6.7118350331464904E-002  0.16603141561629378        0.0000000000000000     
  -6.8157420314975237E-002  0.17382006171290965        0.0000000000000000     
  -6.9123897439944751E-002  0.18169778328500810        0.0000000000000000     
  -7.0017781706373475E-002  0.18966458033258912        0.0000000000000000     
  -7.0839073114261353E-002  0.19772045285565271        0.0000000000000000     
  -7.3909822131078898E-002  0.16635748360791275        0.0000000000000000     
  -7.5051778226169846E-002  0.17412281104397184        0.0000000000000000     
  -7.6117671712218490E-002  0.18197784314637988        0.0000000000000000     
  -7.7107502589224816E-002  0.18992257991513684        0.0000000000000000     
  -7.8021270857188824E-002  0.19795702135024271        0.0000000000000000     
  -5.0233566774005020E-002  0.19718642265557085        0.0000000000000000     
  -5.0736213082590395E-002  0.20538341930378742        0.0000000000000000     
  -5.1178411531100615E-002  0.21365188375502359        0.0000000000000000     
  -5.1560162119535680E-002  0.22199181600927922        0.0000000000000000     
  -5.1881464847895589E-002  0.23040321606655445        0.0000000000000000     
  -5.6945221072669444E-002  0.19733515350831679        0.0000000000000000     
  -5.7525212659704138E-002  0.20551378354645664        0.0000000000000000     
  -5.8038064188393107E-002  0.21376688416083997        0.0000000000000000     
  -5.8483775658736352E-002  0.22209445535146669        0.0000000000000000     
  -5.8862347070733893E-002  0.23049649711833686        0.0000000000000000     
  -6.3813723186088231E-002  0.19751316357501075        0.0000000000000000     
  -6.4475598940880133E-002  0.20567230905864109        0.0000000000000000     
  -6.5066019812844406E-002  0.21390752433343033        0.0000000000000000     
  -6.5584985801981036E-002  0.22221880939937852        0.0000000000000000     
  -6.6032496908290050E-002  0.23060616425648564        0.0000000000000000     
  -7.0839073114261353E-002  0.19772045285565271        0.0000000000000000     
  -7.1587371926118387E-002  0.20585899584034067        0.0000000000000000     
  -7.2262278404454525E-002  0.21407380427279463        0.0000000000000000     
  -7.2863792549269737E-002  0.22236487815301464        0.0000000000000000     
  -7.3391914360564039E-002  0.23073221748100065        0.0000000000000000     
  -7.8021270857188824E-002  0.19795702135024271        0.0000000000000000     
  -7.8860531615418908E-002  0.20607384389155542        0.0000000000000000     
  -7.9626839963223436E-002  0.21426572397893287        0.0000000000000000     
  -8.0320195900602437E-002  0.22253266161237506        0.0000000000000000     
  -8.0940599427555882E-002  0.23087465679188196        0.0000000000000000     
  -5.1881464847895589E-002  0.23040321606655445        0.0000000000000000     
  -5.2150242211126803E-002  0.23887780479691401        0.0000000000000000     
  -5.2374416704175808E-002  0.24740730307042275        0.0000000000000000     
  -5.2553988327042590E-002  0.25599171088708061        0.0000000000000000     
  -5.2688957079727164E-002  0.26463102824688778        0.0000000000000000     
  -5.8862347070733893E-002  0.23049649711833686        0.0000000000000000     
  -5.9179632848573478E-002  0.23897226247341896        0.0000000000000000     
  -5.9441487416442888E-002  0.24752100442868138        0.0000000000000000     
  -5.9647910774342131E-002  0.25614272298412405        0.0000000000000000     
  -5.9798902922271184E-002  0.26483741813974709        0.0000000000000000     
  -6.6032496908290050E-002  0.23060616425648564        0.0000000000000000     
  -6.6410597639867217E-002  0.23907619722675144        0.0000000000000000     
  -6.6721332504808328E-002  0.24763551663217556        0.0000000000000000     
  -6.6964701503113427E-002  0.25628412247275822        0.0000000000000000     
  -6.7140704634782472E-002  0.26502201474849912        0.0000000000000000     
  -7.3391914360564039E-002  0.23073221748100065        0.0000000000000000     
  -7.3843136585007990E-002  0.23918960905691142        0.0000000000000000     
  -7.4213951969272149E-002  0.24775083968090555        0.0000000000000000     
  -7.4504360513356488E-002  0.25641590935298303        0.0000000000000000     
  -7.4714362217261021E-002  0.26518481807314392        0.0000000000000000     
  -8.0940599427555882E-002  0.23087465679188196        0.0000000000000000     
  -8.1477249683995834E-002  0.23931249796389892        0.0000000000000000     
  -8.1919345809834301E-002  0.24786697357487111        0.0000000000000000     
  -8.2266887805071312E-002  0.25653808362479863        0.0000000000000000     
  -8.2519875669706838E-002  0.26532582811368138        0.0000000000000000     
  -5.2688957079727164E-002  0.26463102824688778        0.0000000000000000     
  -5.2810246066949673E-002  0.27327603353528424        0.0000000000000000     
  -5.2948778393430311E-002  0.28187750513771065        0.0000000000000000     
  -5.3104554059169071E-002  0.29043544305416674        0.0000000000000000     
  -5.3277573064165959E-002  0.29894984728465251        0.0000000000000000     
  -5.9798902922271184E-002  0.26483741813974709        0.0000000000000000     
  -5.9931461258769747E-002  0.27356095830488153        0.0000000000000000     
  -6.0082583182377469E-002  0.28226921188885851        0.0000000000000000     
  -6.0252268693094357E-002  0.29096217889167786        0.0000000000000000     
  -6.0440517790920426E-002  0.29963985931333981        0.0000000000000000     
  -6.7140704634782472E-002  0.26502201474849912        0.0000000000000000     
  -6.7289716603441935E-002  0.27381935607719615        0.0000000000000000     
  -6.7452112112718232E-002  0.28264630907664678        0.0000000000000000     
  -6.7627891162611378E-002  0.29150287374685091        0.0000000000000000     
  -6.7817053753121373E-002  0.30038905008780881        0.0000000000000000     
  -7.4714362217261021E-002  0.26518481807314392        0.0000000000000000     
  -7.4885012100966250E-002  0.27405122685222805        0.0000000000000000     
  -7.5057365184452621E-002  0.28300879670107532        0.0000000000000000     
  -7.5231421467720147E-002  0.29205752761968595        0.0000000000000000     
  -7.5407180950768829E-002  0.30119741960805968        0.0000000000000000     
  -8.2519875669706838E-002  0.26532582811368138        0.0000000000000000     
  -8.2717347751342679E-002  0.27425657062997733        0.0000000000000000     
  -8.2898342397580621E-002  0.28335667476214449        0.0000000000000000     
  -8.3062859608420664E-002  0.29262614051018276        0.0000000000000000     
  -8.3210899383862794E-002  0.30206496787409221        0.0000000000000000     
  -4.5728462300739389E-002   5.9516372632960453E-002   0.0000000000000000     
  -4.8128551772238626E-002   6.4999150745872009E-002   0.0000000000000000     
  -5.0410329277629132E-002   7.0664521548698234E-002   0.0000000000000000     
  -5.2573794816910949E-002   7.6512485041439066E-002   0.0000000000000000     
  -5.4618948390084049E-002   8.2543041224094602E-002   0.0000000000000000     
  -5.0382188957805260E-002   6.0251447584271312E-002   0.0000000000000000     
  -5.2975842852197370E-002   6.5710012427383141E-002   0.0000000000000000     
  -5.5439889334251827E-002   7.1351465179434720E-002   0.0000000000000000     
  -5.7774328403968622E-002   7.7175805840426076E-002   0.0000000000000000     
  -5.9979160061347771E-002   8.3183034410357196E-002   0.0000000000000000     
  -5.5178241247525441E-002   6.1040854468122276E-002   0.0000000000000000     
  -5.7969661248347439E-002   6.6476280492375001E-002   0.0000000000000000     
  -6.0620828659260932E-002   7.2093653144588654E-002   0.0000000000000000     
  -6.3131743480265901E-002   7.7892972424763257E-002   0.0000000000000000     
  -6.5502405711362371E-002   8.3874238332898782E-002   0.0000000000000000     
  -6.0116619169899944E-002   6.1884593284513345E-002   0.0000000000000000     
  -6.3110006960688830E-002   6.7297954940847629E-002   0.0000000000000000     
  -6.5953147252656455E-002   7.2891085444160050E-002   0.0000000000000000     
  -6.8646040045802798E-002   7.8663984794450623E-002   0.0000000000000000     
  -7.1188685340127900E-002   8.4616652991719388E-002   0.0000000000000000     
  -6.5197322724928786E-002   6.2782664033444513E-002   0.0000000000000000     
  -6.8396879989221546E-002   6.8175035772800985E-002   0.0000000000000000     
  -7.1436845114438388E-002   7.3743762078148867E-002   0.0000000000000000     
  -7.4317218100579313E-002   7.9488842949488214E-002   0.0000000000000000     
  -7.7037998947644307E-002   8.5410278386818986E-002   0.0000000000000000     
  -5.4618948390084049E-002   8.2543041224094602E-002   0.0000000000000000     
  -5.6581161550146905E-002   8.8743028306204300E-002   0.0000000000000000     
  -5.8495805850097997E-002   9.5099284497307743E-002   0.0000000000000000     
  -6.0362881289937283E-002  0.10161180979740496        0.0000000000000000     
  -6.2182387869664776E-002  0.10828060420649593        0.0000000000000000     
  -5.9979160061347771E-002   8.3183034410357196E-002   0.0000000000000000     
  -6.2094730544304873E-002   8.9359912057676558E-002   0.0000000000000000     
  -6.4161386090755543E-002   9.5693199950832586E-002   0.0000000000000000     
  -6.6179126700699809E-002  0.10218289808982536        0.0000000000000000     
  -6.8147952374137635E-002  0.10882900647465481        0.0000000000000000     
  -6.5502405711362371E-002   8.3874238332898782E-002   0.0000000000000000     
  -6.7777124529323343E-002   9.0025084171129394E-002   0.0000000000000000     
  -7.0000209110921821E-002   9.6333143241589245E-002   0.0000000000000000     
  -7.2171659456157750E-002  0.10279841554427833        0.0000000000000000     
  -7.4291475565031198E-002  0.10942090107919668        0.0000000000000000     
  -7.1188685340127900E-002   8.4616652991719388E-002   0.0000000000000000     
  -7.3628343505202337E-002   9.0738544646562877E-002   0.0000000000000000     
  -7.6012274910596755E-002   9.7019114369577733E-002   0.0000000000000000     
  -7.8340479556311127E-002  0.10345836216076393        0.0000000000000000     
  -8.0612957442345479E-002  0.11005628802012148        0.0000000000000000     
  -7.7037998947644307E-002   8.5410278386818986E-002   0.0000000000000000     
  -7.9648387471941834E-002   9.1500293483976994E-002   0.0000000000000000     
  -8.2197583489780374E-002   9.7751113334798051E-002   0.0000000000000000     
  -8.4685587001159912E-002  0.10416273793928214        0.0000000000000000     
  -8.7112398006080463E-002  0.11073516729742927        0.0000000000000000     
  -6.2182387869664776E-002  0.10828060420649593        0.0000000000000000     
  -6.3934145224466388E-002  0.11509485677677500        0.0000000000000000     
  -6.5597972989528033E-002  0.12204375656043664        0.0000000000000000     
  -6.7173871164849672E-002  0.12912730355748081        0.0000000000000000     
  -6.8661839750431344E-002  0.13634549776790753        0.0000000000000000     
  -6.8147952374137635E-002  0.10882900647465481        0.0000000000000000     
  -7.0044916248534428E-002  0.11562050737919477        0.0000000000000000     
  -7.1847071461355605E-002  0.12254638307731901        0.0000000000000000     
  -7.3554418012601153E-002  0.12960663356902749        0.0000000000000000     
  -7.5166955902271071E-002  0.13680125885432029        0.0000000000000000     
  -7.4291475565031198E-002  0.10942090107919668        0.0000000000000000     
  -7.6334549890462997E-002  0.11618885687266788        0.0000000000000000     
  -7.8275774885373989E-002  0.12309053995101550        0.0000000000000000     
  -8.0115150549764189E-002  0.13012595031423962        0.0000000000000000     
  -8.1852676883633596E-002  0.13729508796234022        0.0000000000000000     
  -8.0612957442345479E-002  0.11005628802012148        0.0000000000000000     
  -8.2803046150252066E-002  0.11679990525719428        0.0000000000000000     
  -8.4884083261583199E-002  0.12367622718152621        0.0000000000000000     
  -8.6856068776338780E-002  0.13068525379311721        0.0000000000000000     
  -8.8719002694518906E-002  0.13782698509196739        0.0000000000000000     
  -8.7112398006080463E-002  0.11073516729742927        0.0000000000000000     
  -8.9450405027901650E-002  0.11745365253277405        0.0000000000000000     
  -9.1671996589983151E-002  0.12430344476885104        0.0000000000000000     
  -9.3777172692324939E-002  0.13128454400566028        0.0000000000000000     
  -9.5765933334927014E-002  0.13839695024320170        0.0000000000000000     
  -6.8661839750431344E-002  0.13634549776790753        0.0000000000000000     
  -7.0072841492255566E-002  0.14368538524574634        0.0000000000000000     
  -7.1417839136304895E-002  0.15113401204502680        0.0000000000000000     
  -7.2696832682579343E-002  0.15869137816574894        0.0000000000000000     
  -7.3909822131078898E-002  0.16635748360791275        0.0000000000000000     
  -7.5166955902271071E-002  0.13680125885432029        0.0000000000000000     
  -7.6697035652810469E-002  0.14411736445517068        0.0000000000000000     
  -7.8157007786664498E-002  0.15154205589355202        0.0000000000000000     
  -7.9546872303833172E-002  0.15907533316946434        0.0000000000000000     
  -8.0866629204316448E-002  0.16671719628290765        0.0000000000000000     
  -8.1852676883633596E-002  0.13729508796234022        0.0000000000000000     
  -8.3502118830733621E-002  0.14458558680721958        0.0000000000000000     
  -8.5077241334815701E-002  0.15198508076078013        0.0000000000000000     
  -8.6578044395879863E-002  0.15949356982302171        0.0000000000000000     
  -8.8004528013926109E-002  0.16711105399394446        0.0000000000000000     
  -8.8719002694518906E-002  0.13782698509196739        0.0000000000000000     
  -9.0488091026024980E-002  0.14509005230189312        0.0000000000000000     
  -9.2178539780758517E-002  0.15246308664671102        0.0000000000000000     
  -9.3790348958719461E-002  0.15994608812642108        0.0000000000000000     
  -9.5323518559907838E-002  0.16753905674102332        0.0000000000000000     
  -9.5765933334927014E-002  0.13839695024320170        0.0000000000000000     
  -9.7654952238684617E-002  0.14563076093919128        0.0000000000000000     
  -9.9460903124492905E-002  0.15297607355134488        0.0000000000000000     
 -0.10118378599235194       0.16043288807966244        0.0000000000000000     
 -0.10282360084226166       0.16800120452414408        0.0000000000000000     
  -7.3909822131078898E-002  0.16635748360791275        0.0000000000000000     
  -7.5051778226169846E-002  0.17412281104397184        0.0000000000000000     
  -7.6117671712218490E-002  0.18197784314637988        0.0000000000000000     
  -7.7107502589224816E-002  0.18992257991513684        0.0000000000000000     
  -7.8021270857188824E-002  0.19795702135024271        0.0000000000000000     
  -8.0866629204316448E-002  0.16671719628290765        0.0000000000000000     
  -8.2111733721182550E-002  0.17445845916514052        0.0000000000000000     
  -8.3277641087499688E-002  0.18228993574742164        0.0000000000000000     
  -8.4364351303267832E-002  0.19021162602975097        0.0000000000000000     
  -8.5371864368486983E-002  0.19822353001212861        0.0000000000000000     
  -8.8004528013926109E-002  0.16711105399394446        0.0000000000000000     
  -8.9352638035569434E-002  0.17482813940043657        0.0000000000000000     
  -9.0618320307424893E-002  0.18263543216938630        0.0000000000000000     
  -9.1801574829492485E-002  0.19053293230079354        0.0000000000000000     
  -9.2902401601772183E-002  0.19852063979465845        0.0000000000000000     
  -9.5323518559907838E-002  0.16753905674102332        0.0000000000000000     
  -9.6774491169330457E-002  0.17523185174986003        0.0000000000000000     
  -9.8139709371994080E-002  0.18301433241227374        0.0000000000000000     
  -9.9419173167898736E-002  0.19088649872826449        0.0000000000000000     
 -0.10061288255704443       0.19884835069783219        0.0000000000000000     
 -0.10282360084226166       0.16800120452414408        0.0000000000000000     
 -0.10437729312246563       0.17566959621341088        0.0000000000000000     
 -0.10584180828120728       0.18342663647608409        0.0000000000000000     
 -0.10721714631848663       0.19127232531216376        0.0000000000000000     
 -0.10850330723430368       0.19920666272164980        0.0000000000000000     
  -7.8021270857188824E-002  0.19795702135024271        0.0000000000000000     
  -7.8860531615418908E-002  0.20607384389155542        0.0000000000000000     
  -7.9626839963223436E-002  0.21426572397893287        0.0000000000000000     
  -8.0320195900602437E-002  0.22253266161237506        0.0000000000000000     
  -8.0940599427555882E-002  0.23087465679188196        0.0000000000000000     
  -8.5371864368486983E-002  0.19822353001212861        0.0000000000000000     
  -8.6303872716219213E-002  0.20631756242577787        0.0000000000000000     
  -8.7164068779526580E-002  0.21448563800192211        0.0000000000000000     
  -8.7952452558409069E-002  0.22272775674056133        0.0000000000000000     
  -8.8669024052866696E-002  0.23104391864169560        0.0000000000000000     
  -9.2902401601772183E-002  0.19852063979465845        0.0000000000000000     
  -9.3926189935956847E-002  0.20659086065650054        0.0000000000000000     
  -9.4878329143739309E-002  0.21473590089183944        0.0000000000000000     
  -9.5758819225119543E-002  0.22295576050067503        0.0000000000000000     
  -9.6567660180097561E-002  0.23125043948300747        0.0000000000000000     
 -0.10061288255704443       0.19884835069783219        0.0000000000000000     
 -0.10172748327463181       0.20689373858372340        0.0000000000000000     
 -0.10276962105586163       0.21501651264868474        0.0000000000000000     
 -0.10373929590073384       0.22321667289271613        0.0000000000000000     
 -0.10463650780924851       0.23149421931581771        0.0000000000000000     
 -0.10850330723430368       0.19920666272164980        0.0000000000000000     
 -0.10970775273224412       0.20722619620744653        0.0000000000000000     
 -0.11083794451589353       0.21532747327245816        0.0000000000000000     
 -0.11189388258525201       0.22351049391668468        0.0000000000000000     
 -0.11287556694031947       0.23177525814012614        0.0000000000000000     
  -8.0940599427555882E-002  0.23087465679188196        0.0000000000000000     
  -8.1477249683995834E-002  0.23931249796389892        0.0000000000000000     
  -8.1919345809834301E-002  0.24786697357487111        0.0000000000000000     
  -8.2266887805071312E-002  0.25653808362479863        0.0000000000000000     
  -8.2519875669706838E-002  0.26532582811368138        0.0000000000000000     
  -8.8669024052866696E-002  0.23104391864169560        0.0000000000000000     
  -8.9299255077481252E-002  0.23945983192567377        0.0000000000000000     
  -8.9828617446834499E-002  0.24800120481284471        0.0000000000000000     
  -9.0257111160926509E-002  0.25666803730320842        0.0000000000000000     
  -9.0584736219757211E-002  0.26546032939676495        0.0000000000000000     
  -9.6567660180097561E-002  0.23125043948300747        0.0000000000000000     
  -9.7295470906114748E-002  0.23964657892019564        0.0000000000000000     
  -9.7932870300612457E-002  0.24817081989359846        0.0000000000000000     
  -9.8479858363590689E-002  0.25682316240321590        0.0000000000000000     
  -9.8936435095049458E-002  0.26560360644904801        0.0000000000000000     
 -0.10463650780924851       0.23149421931581771        0.0000000000000000     
 -0.10546589716989632       0.23987273894746464        0.0000000000000000     
 -0.10623210437116810       0.24837581881713244        0.0000000000000000     
 -0.10693512941306386       0.25700345892482113        0.0000000000000000     
 -0.10757497229558358       0.26575565927053063        0.0000000000000000     
 -0.11287556694031947       0.23177525814012614        0.0000000000000000     
 -0.11381053386882597       0.24013831200748073        0.0000000000000000     
 -0.11472631965850148       0.24861620158344672        0.0000000000000000     
 -0.11562292430934602       0.25720892686802405        0.0000000000000000     
 -0.11650034782135957       0.26591648786121280        0.0000000000000000     
  -8.2519875669706838E-002  0.26532582811368138        0.0000000000000000     
  -8.2717347751342679E-002  0.27425657062997733        0.0000000000000000     
  -8.2898342397580621E-002  0.28335667476214449        0.0000000000000000     
  -8.3062859608420664E-002  0.29262614051018276        0.0000000000000000     
  -8.3210899383862794E-002  0.30206496787409221        0.0000000000000000     
  -9.0584736219757211E-002  0.26546032939676495        0.0000000000000000     
  -9.0841847493403474E-002  0.27444106597056739        0.0000000000000000     
  -9.1058799851942096E-002  0.28367323190166871        0.0000000000000000     
  -9.1235593295373063E-002  0.29315682719006902        0.0000000000000000     
  -9.1372227823696445E-002  0.30289185183576833        0.0000000000000000     
  -9.8936435095049458E-002  0.26560360644904801        0.0000000000000000     
  -9.9313635265980832E-002  0.27461039143412147        0.0000000000000000     
  -9.9622493647376895E-002  0.28394175676146288        0.0000000000000000     
  -9.9863010239237604E-002  0.29359770243107219        0.0000000000000000     
 -0.10003518504156299       0.30357822844294957        0.0000000000000000     
 -0.10757497229558358       0.26575565927053063        0.0000000000000000     
 -0.10813271106907478       0.27476454702063968        0.0000000000000000     
 -0.10858942378388499       0.28416224934152695        0.0000000000000000     
 -0.10894511044001422       0.29394876623319249        0.0000000000000000     
 -0.10919977103746241       0.30412409769563614        0.0000000000000000     
 -0.11650034782135957       0.26591648786121280        0.0000000000000000     
 -0.11729907490268529       0.27490353273012202        0.0000000000000000     
 -0.11795959026146641       0.28433470964186092        0.0000000000000000     
 -0.11848189389770289       0.29421001859642953        0.0000000000000000     
 -0.11886598581139474       0.30452945959382788        0.0000000000000000     
 </DataArray>
 <DataArray  type="Float64" Name="stress" NumberOfComponents="3" format="ascii">
   6333430834.7214422        123574819.39909244        112488470.64655796     
   6009654833.3861170        65711158.864457607        88919907.911022559     
   5688431293.9647903        16355704.709821701        72011903.753762454     
   5369760216.4574785       -24491543.064791918        61764458.174768686     
   5053641600.8641510       -56830584.459428787        58177571.174045093     
   5922968131.2561693        104753318.05756950        231830054.92949980     
   5619588388.0263615        55071482.460800648        213885591.30055165     
   5317978442.7865438        11288973.497350216        203081884.95805922     
   5018138295.5367250       -26594208.832787752        199418935.90203720     
   4720067946.2769127       -58578064.529562235        202896744.13247472     
   5520684517.7199116        88385543.694757223        352421634.51664841     
   5239073028.9047270        47297131.928572655        339188162.08294505     
   4958448674.1555500        9499167.0490369797        333575645.64389759     
   4678811453.4723644       -25008350.943835735        335584085.19950259     
   4400161366.8551731       -56225422.050066233        345213480.74976796     
   5126579994.1126471        74471496.310642004        474263209.40801108     
   4868108756.0212345        42388107.267787457        464827620.25821221     
   4609841988.0718079        10986285.364907742        463493185.81126904     
   4351779690.2643776       -19733969.397986889        470259906.06717175     
   4093921862.5989418       -49772657.020904303        485127781.02592552     
   4740654560.4344101        63011175.905231237        597354779.60357094     
   4506695569.3758736        40344408.478445768        590803965.82635260     
   4272158384.5353236        15750328.444954395        592834505.46017218     
   4037043005.9127693       -10771064.195225477        603446398.50503790     
   3801349433.5082107       -39219769.442091942        622639644.96094668     
   5053641600.8641510       -56830584.459428787        58177571.174045093     
   4945633827.5964127       -25224445.367333889        48709672.217846967     
   4836070467.8799849        1196405.5624310970        43785053.836830325     
   4724951521.7148552        22431968.329862118        43403716.030993879     
   4612276989.1010199        38482242.934965372        47565658.800338909     
   4720067946.2769127       -58578064.529562235        202896744.13247472     
   4621742532.6187487       -29678176.517747164        196134809.45892268     
   4522280461.4286766       -4567146.9456157684        192902082.62069845     
   4421681732.7067137        16755024.186870337        193198563.61778468     
   4319946346.4528532        34288336.879709005        197024252.45018974     
   4400161366.8551731       -56225422.050066233        345213480.74976796     
   4308620962.1212606       -30900990.324107409        341646260.76179993     
   4216362828.7722464       -7968987.3151588440        340594175.86928380     
   4123386966.8081284        12570586.976778984        342057226.07223219     
   4029693376.2289109        30717732.551716805        346035411.37063634     
   4093921862.5989418       -49772657.020904303        485127781.02592552     
   4006269116.1039586       -28892886.786421776        485244026.12646258     
   3918317569.9106765       -9009115.5462706089        486861333.58259940     
   3830067224.0190892        9878656.6995275021        489979703.39433366     
   3741518078.4292021        27770429.950996399        494599135.56165993     
   3801349433.5082107       -39219769.442091942        622639644.96094668     
   3714686994.5668440       -23653865.904656887        626928105.55292928     
   3628144684.8439693       -7687531.6389245987        631703555.76064599     
   3541722504.3395953        8679233.3551447392        636965995.58409309     
   3455420453.0537167        25446429.077539921        642715425.02327991     
   4612276989.1010199        38482242.934965372        47565658.800338909     
   4382812005.0489130        18657897.769631863        34965082.084329553     
   4154350419.9692364        2178215.8457584381        27862101.721531063     
   3926892233.8620253       -10956802.836587667        26256717.711942796     
   3700437446.7272406       -20747158.277490139        30148930.055564113     
   4319946346.4528532        34288336.879709005        197024252.45018974     
   4105516079.4972229        17450991.306539536        186123332.24032328     
   3891851792.6742907        3166912.8423628807        180600675.07636148     
   3678953485.9840531       -8563898.5128386021        180456280.95827320     
   3466821159.4264989       -17741442.759085178        185690149.88608634     
   4029693376.2289109        30717732.551716805        346035411.37063634     
   3829956874.0631413        16765100.878757715        336557159.02054220     
   3630748933.1903048        4574340.1822466850        332337836.40902394     
   3432069553.6104116       -5854549.5377910137        333377443.53607047     
   3233918735.3234615       -14521568.281358957        339675980.40168393     
   3741518078.4292021        27770429.950996399        494599135.56165993     
   3556134388.7466459        16600226.486224651        486266562.42496574     
   3371041841.5172806        6400497.8654167652        483073585.71951675     
   3186240436.7411003       -2828755.9114375114        485020205.44531751     
   3001730174.4181118       -11087534.844331264        492106421.60235870     
   3455420453.0537167        25446429.077539921        642715425.02327991     
   3284048623.5477519        16956368.128993392        635251542.45359647     
   3112730517.6552196        8645385.8918814659        632807923.00783932     
   2941466135.3761239        513482.36622607708        635384566.68600631     
   2770255476.7104545       -7439342.4480028152        642981473.48809886     
   3700437446.7272406       -20747158.277490139        30148930.055564113     
   3544269008.8743119       -9673299.4343552589        23819761.290617861     
   3386951002.4881268       -2431335.7020869255        20800816.577323157     
   3228483427.5686784        978732.91931438446        21092095.915666554     
   3068866284.1159863        556906.42989397049        24693599.305644844     
   3466821159.4264989       -17741442.759085178        185690149.88608634     
   3318841158.0043626       -7714820.4080269337        178437465.96756163     
   3170067793.4099617       -332741.96451902390        174415025.21156144     
   3020501065.6433048        4404792.5714806318        173622827.61807621     
   2870140974.7043815        6497783.1999020576        176060873.18711674     
   3233918735.3234615       -14521568.281358957        339675980.40168393     
   3093898653.5060616       -5610737.4701811075        331915354.25073421     
   2953441413.8773861        1842900.6367398500        327304990.37319452     
   2812547016.4374614        7839346.0394926071        325844888.76905662     
   2671215461.1862564        12378598.737994313        327535049.43831044     
   3001730174.4181118       -11087534.844331264        492106421.60235870     
   2869441495.3793936       -3361050.6208635569        484253426.14014864     
   2737071863.8904018        4095592.1016956568        479470712.06221390     
   2604621279.9511414        11282393.323361516        477758279.36857629     
   2472089743.5616121        18199353.044123888        479116128.05921543     
   2770255476.7104545       -7439342.4480028152        642981473.48809886     
   2645469683.6243629       -965759.86005151272        635451681.63578773     
   2520959143.4489942        6425332.4302978516        630912190.27863789     
   2396723856.1843562        14733934.423087597        629362999.41665459     
   2272763821.8304396        23960046.118281722        630804109.04983771     
   3068866284.1159863        556906.42989397049        24693599.305644844     
   2896194592.1683583       -4281821.8158926964        14355405.123294823     
   2724342444.2213683       -6388736.7262394428        6580221.4787409501     
   2553309840.2749681       -5763838.3012889624        1368048.3719588846     
   2383096780.3291769       -2407126.5409524441       -1281114.1970295955     
   2870140974.7043815        6497783.1999020576        176060873.18711674     
   2704619358.5374112        3587267.4269820452        166382983.85713676     
   2539591073.3451104        2321188.2362923622        159197170.17304257     
   2375056119.1275129        2699545.6279366016        154503432.13486364     
   2211014495.8845935        4722339.6018404961        152301769.74259359     
   2671215461.1862564        12378598.737994313        327535049.43831044     
   2512641249.6802449        11335494.101937652        318136883.09710616     
   2354234156.1230006        10849449.295110464        311159857.50993115     
   2195994180.5145254        10920464.317503095        306603972.67676651     
   2037921322.8547943        11548539.169068933        304469228.59762156     
   2472089743.5616121        18199353.044123888        479116128.05921543     
   2320260265.5968876        18962858.209042430        469617102.84322232     
   2168271692.5550075        19196046.450129390        462468283.48937494     
   2016124024.4359763        18898917.767367125        457669669.99764729     
   1863817261.2397897        18071472.160755515        455221262.36805975     
   2272763821.8304396        23960046.118281722        630804109.04983771     
   2127476406.2873378        26469359.748312950        620823643.09548521     
   1981703682.6411576        27360979.701416254        613122448.11138356     
   1835445650.8919024        26634905.977600217        607700524.09752762     
   1688702311.0395651        24291138.576849461        604557871.05391490     
   2383096780.3291769       -2407126.5409524441       -1281114.1970295955     
   2243117850.3321948        6220209.7289429903       -6906270.8312963909     
   2099814136.0214198        3764931.6195397377       -10848280.241600065     
   1953185637.3967919       -9772960.8693774939       -13107142.427935494     
   1803232354.4583712       -34393467.737605095       -13682857.390318049     
   2211014495.8845935        4722339.6018404961        152301769.74259359     
   2074167382.5863380        12328086.468322992        142744303.04928118     
   1935128872.3194501        12629176.772708058        134148530.30106775     
   1793898965.0839293        5625610.5149664879        126514451.49791619     
   1650477660.8797572       -8682612.3049464226        119842066.63984570     
   2037921322.8547943        11548539.169068933        304469228.59762156     
   1902144731.1727319        17514308.107358217        292301737.08133012     
   1765310129.8672173        19953378.300799012        280374486.23123699     
   1627417518.9382405        18865749.749369681        268687476.04732978     
   1488466898.3858078        14251422.453098178        257240706.52962288     
   1863817261.2397897        18071472.160755515        455221262.36805975     
   1727049896.0913813        21778874.646053314        441766031.26483023     
   1590357908.6647048        25737536.203792036        427829587.54890817     
   1453741298.9597545        29947456.833953440        413411931.22030026     
   1317200066.9765408        34408636.536574185        398513062.27899200     
   1688702311.0395651        24291138.576849461        604557871.05391490     
   1548882877.3422971        25121786.084448457        591137185.59978306     
   1410272208.7119284        29981650.481717288        576513834.25409389     
   1272870305.1484900        38870731.768739939        560687817.01681781     
   1136677166.6519432        51789029.945424378        543659133.88796115     
   1803232354.4583712       -34393467.737605095       -13682857.390318049     
   1771869859.9924498       -16175828.372359514       -8322605.5742043806     
   1748619562.8239110        29082468.650816798       -41648097.620887555     
   1733481462.9527802        101381423.33203197       -113659333.53039959     
   1726455560.3790340        200721035.67118341       -224356313.30269566     
   1650477660.8797572       -8682612.3049464226        119842066.63984570     
   1527641285.3301966       -13771378.007443845        135336567.78603145     
   1409003325.5543351       -4865424.4642780423        124530690.05399647     
   1294563781.5521789        18035248.324561000        87424433.443743974     
   1184322653.3236911        54930640.358984172        24017797.955292549     
   1488466898.3858078        14251422.453098178        257240706.52962288     
   1309543398.8514423       -3527721.1874885559        278303378.56155413     
   1130904533.5670896       -20358083.994715452        285451036.69987285     
   952550302.53273892       -36239665.968588591        278683680.94455820     
   774480705.74837208       -51172467.109187961        258001311.29564184     
   1317200066.9765408        34408636.536574185        398513062.27899200     
   1117576200.5562074        14555142.087540925        420577826.75236821     
   914323186.86218441       -17395509.940443218        441112942.31672162     
   707441025.89446425       -61443319.547401696        460118408.97204506     
   496929717.65305257       -117588286.73335686        477594226.71834612     
   1136677166.6519432        51789029.945424378        543659133.88796115     
   951739690.44447517        40477211.817627728        562159912.35847557     
   759259285.43961847        4022297.6985357702        591516406.90455663     
   559235951.63738191       -57575712.411819220        631728617.52619922     
   351669689.03774482       -144316818.51351556        682796544.22340310     
   1726455560.3790340        200721035.67118341       -224356313.30269566     
   1456248239.9748502        184584991.82745737       -96662369.409391463     
   1153848789.8554893        61141848.933128059        60153810.479935698     
   819257210.02086222       -169608393.01208663        246092226.36531013     
   452473500.47102356       -507665734.00799650        461152878.24667424     
   1184322653.3236911        54930640.358984172        24017797.955292549     
   977416192.71813345        11809213.671494782        155501698.71597973     
   732673589.51988149       -157432688.32495269        312783728.59736556     
   450094843.72891116       -452795065.63045621        495863887.59945273     
   129679955.34526265       -874277918.24489808        704742175.72224367     
   774480705.74837208       -51172467.109187961        258001311.29564184     
   621377656.72620404       -124128511.10501155        386690487.23332357     
   424794452.23385262       -342018406.66812146        537853685.41637266     
   184731092.27135432       -704842153.79842138        711490905.84480941     
  -98812423.161368310       -1212599752.4960606        907602148.51858342     
   496929717.65305257       -117588286.73335686        477594226.71834612     
   388132631.99905741       -223228182.50209311        596903996.14262891     
   230211377.99740815       -492615306.09635413        735363680.93695402     
   23165955.648081481       -925749657.51618433        892973281.10131514     
  -233003635.04887673       -1522631236.7614863        1069732796.6357563     
   351669689.03774482       -144316818.51351556        682796544.22340310     
   277681118.53669626       -285489800.51973897        786142225.44390368     
   148924366.81050456       -609223386.60978961        905313715.15911341     
  -34600566.140810549       -1115517576.7835793        1040311013.3690408     
  -272893680.31726986       -1804372371.0411777        1191134120.0736866     
   4740654560.4344101        63011175.905231237        597354779.60357094     
   4506695569.3758736        40344408.478445768        590803965.82635260     
   4272158384.5353236        15750328.444954395        592834505.46017218     
   4037043005.9127693       -10771064.195225477        603446398.50503790     
   3801349433.5082107       -39219769.442091942        622639644.96094668     
   4357671729.0804052        64162180.176172018        751907336.75508654     
   4146074500.6708384        42118545.639062405        741286174.70270479     
   3934184050.1513782        19097504.068963051        739141215.22548342     
   3722000377.5220208       -4900944.5341224670        745472458.32342052     
   3509523482.7827673       -29876800.170200348        760279903.99653089     
   3964661906.5255966        62305087.086868525        903953123.54466152     
   3775126009.8053503        40794456.151544094        889594080.16790855     
   3585581862.6473141        19256323.756933689        883606088.53043807     
   3396029465.0514970       -2309310.0969593525        885989148.63225353     
   3206468817.0178890       -23902445.410135627        896743260.47334981     
   3561625092.7700014        57439896.637331009        1053492139.9722985     
   3393850096.7794037        36372140.015888929        1035727682.2219758     
   3226351822.0231395        16226787.508872390        1026229125.3750532     
   3059130268.5011959       -2996160.8837255239        1024996469.4315368     
   2892185436.2135854       -21296705.161900401        1032029714.3914194     
   3148561287.8135991        49566608.827551007        1200524386.0379932     
   3002246761.5930023        28851597.232097387        1179686980.8648939     
   2856493928.2788453        10008895.324773431        1167010325.7593207     
   2711302787.8711238       -6961496.8944220543        1162494420.7212656     
   2566673340.3698449       -22059579.425492764        1166139265.7507341     
   3801349433.5082107       -39219769.442091942        622639644.96094668     
   3714686994.5668440       -23653865.904656887        626928105.55292928     
   3628144684.8439693       -7687531.6389245987        631703555.76064599     
   3541722504.3395953        8679233.3551447392        636965995.58409309     
   3455420453.0537167        25446429.077539921        642715425.02327991     
   3509523482.7827673       -29876800.170200348        760279903.99653089     
   3424395238.3958364       -16886312.483778477        761188049.21202707     
   3339403127.0309825       -3442048.0570907593        763383681.20389533     
   3254547148.6882067        10455993.109848261        766866799.97213566     
   3169827303.3675041        24807811.017040133        771637405.51674414     
   3206468817.0178890       -23902445.410135627        896743260.47334981     
   3125161901.9300704       -12801233.151307702        894289761.41653931     
   3044007123.6679134       -1192898.1402846575        893924246.29674077     
   2963004482.2314086        10922559.622922421        895646715.11394548     
   2882153977.6205640        23545140.138324022        899457167.86815715     
   2892185436.2135854       -21296705.161900401        1032029714.3914194     
   2816986985.1695495       -11398627.907273173        1026233242.1664821     
   2741956674.7547560       -940081.88850176334        1023325251.0391892     
   2667094504.9691939        10078932.894372344        1023305741.0095356     
   2592400475.8128729        21658416.441383362        1026174712.0775265     
   2566673340.3698449       -22059579.425492764        1166139265.7507341     
   2499870488.1142650       -12678496.751664281        1157018491.4618437     
   2433251780.2915125       -2683599.3017446995        1151586695.4312351     
   2366817216.9015698        7925112.9242017269        1149843877.6589041     
   2300566797.9444480        19147639.926222563        1151790038.1448483     
   3455420453.0537167        25446429.077539921        642715425.02327991     
   3284048623.5477519        16956368.128993392        635251542.45359647     
   3112730517.6552196        8645385.8918814659        632807923.00783932     
   2941466135.3761239        513482.36622607708        635384566.68600631     
   2770255476.7104545       -7439342.4480028152        642981473.48809886     
   3169827303.3675041        24807811.017040133        771637405.51674414     
   3011996904.9170213        17564891.618071079        763571632.67121017     
   2854253513.2023325        10611994.671764731        760614280.23298371     
   2696597128.2234435        3949120.1781194210        762765348.20207131     
   2539027749.9803476       -2423731.8628742695        770024836.57846153     
   2882153977.6205640        23545140.138324022        899457167.86815715     
   2738116888.1780763        17624925.674693584        890828335.05620265     
   2594200088.5937557        12105677.404938221        887396079.93493664     
   2450403578.8675985        6987395.3290667534        889160402.50436592     
   2306727358.9996023        2270079.4470657110        896121302.76448846     
   2592400475.8128729        21658416.441383362        1026174712.0775265     
   2462408573.3309145        17136470.298841476        1017021649.6085725     
   2332570243.8294859        13126434.091401935        1013153322.1136971     
   2202885487.3085871        9628307.8190559149        1014569729.5928929     
   2073354303.7682168        6642091.4818118811        1021270872.0461699     
   2300566797.9444480        19147639.926222563        1151790038.1448483     
   2184871960.3755455        16099525.490540624        1142151576.3283277     
   2069363978.9095297        13674264.731163740        1137886006.7692621     
   1954042853.5464137        11871857.648110867        1138993329.4676628     
   1838908584.2861922        10692304.241373181        1145473544.4235168     
   2770255476.7104545       -7439342.4480028152        642981473.48809886     
   2645469683.6243629       -965759.86005151272        635451681.63578773     
   2520959143.4489942        6425332.4302978516        630912190.27863789     
   2396723856.1843562        14733934.423087597        629362999.41665459     
   2272763821.8304396        23960046.118281722        630804109.04983771     
   2539027749.9803476       -2423731.8628742695        770024836.57846153     
   2422164584.6973310        3908514.2528557777        762492300.09405887     
   2305539622.0864496        11034769.275710702        758096408.30275178     
   2189152862.1477060        18955033.205694914        756837161.20453918     
   2073004304.8811004        27669306.042789578        758714558.79941833     
   2306727358.9996023        2270079.4470657110        896121302.76448846     
   2198204947.7994566        8586426.9745219946        888542796.36964273     
   2089883689.0328584        15573282.613802791        884247278.86582148     
   1981763582.6998127        23230646.364922523        883234750.25302351     
   1873844628.8003106        31558518.227868795        885505210.53125453     
   2073354303.7682168        6642091.4818118811        1021270872.0461699     
   1973590772.9307411        13067978.304923534        1013603170.4625293     
   1873991344.2882340        20040872.444591641        1009364801.9678464     
   1774556017.8406777        27560773.900774479        1008555766.5621182     
   1675284793.5880961        35627682.673520744        1011176064.2453393     
   1838908584.2861922        10692304.241373181        1145473544.4235168     
   1748322060.0911903        17353168.244091034        1137673422.3727293     
   1657862587.8525612        24437538.768056035        1133448977.6088300     
   1567530167.5703089        31945415.813272059        1132800210.1318161     
   1477324799.2444315        39876799.379737556        1135727119.9416857     
   2272763821.8304396        23960046.118281722        630804109.04983771     
   2127476406.2873378        26469359.748312950        620823643.09548521     
   1981703682.6411576        27360979.701416254        613122448.11138356     
   1835445650.8919024        26634905.977600217        607700524.09752762     
   1688702311.0395651        24291138.576849461        604557871.05391490     
   2073004304.8811004        27669306.042789578        758714558.79941833     
   1934164905.9656830        29465604.510293007        748762410.26564217     
   1795014300.9440832        30224549.290515780        741655545.51272845     
   1655552489.8163133        29946140.383495927        737393964.54068172     
   1515779472.5823555        28630377.789194524        735977667.34950435     
   1873844628.8003106        31558518.227868795        885505210.53125453     
   1743070425.9714937        33126955.370501161        875784498.41443741     
   1612159119.0333962        34238378.815532386        869475082.88909900     
   1481110707.9860175        34892788.562966406        866576963.95524502     
   1349925192.8293645        35090184.612811863        867090141.61288023     
   1675284793.5880961        35627682.673520744        1011176064.2453393     
   1554192966.3047817        37453412.328948200        1001889907.5418612     
   1433138136.9090908        39402468.276459694        996581060.24048221     
   1312120305.4010286        41474850.516055524        995249522.34120715     
   1191139471.7805707        43670559.047685087        997895293.84404278     
   1477324799.2444315        39876799.379737556        1135727119.9416857     
   1367532526.9655414        42444975.385649979        1127078637.6479235     
   1257951354.5711751        45716817.673315585        1122973477.5668900     
   1148581282.0613282        49692326.242702425        1123411639.6985784     
   1039422309.4359982        54371501.093824506        1128393124.0429914     
   1688702311.0395651        24291138.576849461        604557871.05391490     
   1548882877.3422971        25121786.084448457        591137185.59978306     
   1410272208.7119284        29981650.481717288        576513834.25409389     
   1272870305.1484900        38870731.768739939        560687817.01681781     
   1136677166.6519432        51789029.945424378        543659133.88796115     
   1515779472.5823555        28630377.789194524        735977667.34950435     
   1374324227.4109511        26823828.583399057        726800765.99578738     
   1233189341.1609261        26085142.448891044        718176797.87201786     
   1092374813.8322828        26414319.385642946        710105762.97819638     
   951880645.42502356        27811359.393676162        702587661.31431592     
   1349925192.8293645        35090184.612811863        867090141.61288023     
   1211850133.6738863        32151237.940657377        861120550.52312112     
   1073207027.2942610        27318800.521339953        857459491.78483379     
   933995873.69049513        20592872.354892075        856106965.39801013     
   794216672.86257648        11973453.441276401        857062971.36265790     
   1191139471.7805707        43670559.047685087        997895293.84404278     
   1061460596.1310928        41104014.156188846        994096539.18179536     
   930325267.11193514        33682624.699110329        994361915.99253213     
   797733484.72310436        21406390.676443398        998691424.27626157     
   663685248.96460187        4275312.0882117152        1007085064.0329937     
   1039422309.4359982        54371501.093824506        1128393124.0429914     
   923155614.78257298        53682157.229989052        1125728731.9717910     
   804544060.61394989        45176614.982166231        1128884070.4951217     
   683587646.93012381        28854874.350330323        1137859139.6129458     
   560286373.73109412        4716935.3344936967        1152653939.3253047     
   1136677166.6519432        51789029.945424378        543659133.88796115     
   951739690.44447517        40477211.817627728        562159912.35847557     
   759259285.43961847        4022297.6985357702        591516406.90455663     
   559235951.63738191       -57575712.411819220        631728617.52619922     
   351669689.03774482       -144316818.51351556        682796544.22340310     
   951880645.42502356        27811359.393676162        702587661.31431592     
   792419222.06571376        10877058.771122694        720727441.54112077     
   624302606.28285098       -34907883.263285846        748905965.38204408     
   447530798.07641912       -109543466.70958245        787123232.83708251     
   262103797.44643560       -213029691.56772375        835379243.90623808     
   794216672.86257648        11973453.441276401        857062971.36265790     
   657897095.31872857       -11283591.785832852        873544112.44854856     
   511810061.72513759       -67098823.845397055        899247024.68710530     
   355955572.08181643       -155472242.73741078        934171708.07832885     
   190333626.38875806       -276403848.46187228        978318162.62222636     
   663685248.96460187        4275312.0882117152        1007085064.0329937     
   548173310.20349741       -26004739.853270501        1020609925.0807548     
   421781651.76648617       -92550524.047786772        1042539584.8197514     
   284510273.65356052       -195362040.49534190        1072874043.2499636     
   136359175.86472833       -334439289.19592494        1111613300.3713968     
   560286373.73109412        4716935.3344936967        1152653939.3253047     
   463247866.72003257       -33286385.431181610        1161924879.4377480     
   354217376.40688723       -111262983.87046406        1178783645.7799752     
   233194902.79165471       -229212859.98337874        1203230238.3519659     
   100180445.87434587       -387136013.76986998        1235264657.1537409     
   351669689.03774482       -144316818.51351556        682796544.22340310     
   277681118.53669626       -285489800.51973897        786142225.44390368     
   148924366.81050456       -609223386.60978961        905313715.15911341     
  -34600566.140810549       -1115517576.7835793        1040311013.3690408     
  -272893680.31726986       -1804372371.0411777        1191134120.0736866     
   262103797.44643560       -213029691.56772375        835379243.90623808     
   223478084.88881436       -352682545.49503201        884805223.05462348     
   140623818.27726567       -639763912.93544245        945256793.33887100     
   13540997.611805260       -1074273793.8889036        1016733954.7589842     
  -157770377.10759199       -1656212188.3554540        1099236707.3149443     
   190333626.38875806       -276403848.46187228        978318162.62222636     
   173355865.03498596       -418651046.33210230        986120671.39826083     
   122689176.79849315       -673194667.14474976        1000148553.9512855     
   38333561.679296553       -1040034710.8997420        1020401810.2813281     
  -79710980.322627425       -1519171177.5971577        1046880440.3883663     
   136359175.86472833       -334439289.19592494        1111613300.3713968     
   127314458.97520989       -483395303.03097355        1090088570.4748106     
   95120442.374182463       -709515649.23771477        1069988996.9963585     
   39777126.061650813       -1012800327.8161465        1051314579.9360563     
  -38715489.962396622       -1393249338.7662814        1034065319.2939140     
   100180445.87434587       -387136013.76986998        1235264657.1537409     
   85353866.709486306       -546915315.59160900        1196708920.2842712     
   57917615.004325479       -748726859.21436357        1154778122.4740896     
   17871690.758886039       -992570644.63805497        1109472263.7232118     
  -34783906.026879549       -1278446671.8628061        1060791344.0316119     
   3148561287.8135991        49566608.827551007        1200524386.0379932     
   3002246761.5930023        28851597.232097387        1179686980.8648939     
   2856493928.2788453        10008895.324773431        1167010325.7593207     
   2711302787.8711238       -6961496.8944220543        1162494420.7212656     
   2566673340.3698449       -22059579.425492764        1166139265.7507341     
   2736646957.1893229        39541632.328339458        1251568700.4159012     
   2611260214.6869407        21852880.168858886        1235800398.5951807     
   2486408387.4981251        5947179.0545971394        1227271274.3126438     
   2362091475.6228752       -8175471.0144406557        1225981327.5682960     
   2238309479.0611920       -20515070.038259387        1231930558.3621376     
   2338704630.8184881        33708257.105160236        1301377836.7180550     
   2231612607.6647987        18255845.070793033        1290647397.7246881     
   2125028722.2318006        4497225.4387403727        1286234563.7401729     
   2018952974.5194983       -7567601.7909958363        1288139334.7645164     
   1913385364.5278881       -17938636.618423104        1296361710.7977142     
   1954734308.7010951        32066483.158012033        1349951794.9444473     
   1863303940.5265689        18060491.937898993        1344227978.2534180     
   1772354932.4798670        5659034.4771989584        1343900194.0419130     
   1681887284.5609858       -5137889.2240976095        1348968442.3099282     
   1591900996.7699285       -14330279.165982783        1359432723.0574677     
   1584735990.8371434        34616310.486899436        1397290575.0950832     
   1506334213.2722611        21266820.770188391        1396542140.1813786     
   1428387018.2423260        9432606.1699752212        1400268165.2178619     
   1350894405.7473459       -886333.31372839212        1408468650.2045302     
   1273856375.7873147       -9689997.6809352040        1421143595.1413891     
   2566673340.3698449       -22059579.425492764        1166139265.7507341     
   2499870488.1142650       -12678496.751664281        1157018491.4618437     
   2433251780.2915125       -2683599.3017446995        1151586695.4312351     
   2366817216.9015698        7925112.9242017269        1149843877.6589041     
   2300566797.9444480        19147639.926222563        1151790038.1448483     
   2238309479.0611920       -20515070.038259387        1231930558.3621376     
   2180847399.5649920       -11919598.115332723        1224203005.3822224     
   2123535522.8829813       -2823450.1450978518        1220152978.7476006     
   2066373849.0151637        6773373.8724467754        1219780478.4582782     
   2009362377.9615448        16870873.937312961        1223085504.5142515     
   1913385364.5278881       -17938636.618423104        1296361710.7977142     
   1865231338.0396831       -10138591.371830106        1289987780.5717056     
   1817193572.7470515       -1951008.8066638708        1287279924.7780166     
   1769272068.6499884        6624111.0770645142        1288238143.4166384     
   1721466825.7484934        15586768.279357195        1292862436.4875832     
   1591900996.7699285       -14330279.165982783        1359432723.0574677     
   1553022303.5383534       -7335476.5211212635        1354372817.0303047     
   1514225929.8837216       -66275.286446571350        1352967533.5224812     
   1475511875.8060369        7477324.5380510092        1355216872.5339921     
   1436880141.3052983        15295322.952367425        1361120834.0648420     
   1273856375.7873147       -9689997.6809352040        1421143595.1413891     
   1244220296.0609922       -3510253.5632285476        1417358114.7580166     
   1214632594.2929900        2830750.4155468345        1417215804.9809983     
   1185093270.4833133        9333014.2554067969        1420716665.8103359     
   1155602324.6319506        15996537.956315219        1427860697.2460294     
   2300566797.9444480        19147639.926222563        1151790038.1448483     
   2184871960.3755455        16099525.490540624        1142151576.3283277     
   2069363978.9095297        13674264.731163740        1137886006.7692621     
   1954042853.5464137        11871857.648110867        1138993329.4676628     
   1838908584.2861922        10692304.241373181        1145473544.4235168     
   2009362377.9615448        16870873.937312961        1223085504.5142515     
   1907512959.9726908        14057868.894025326        1214759698.9889328     
   1805869962.6679463        11932932.797765970        1211657067.9464071     
   1704433386.0473075        10496065.648527503        1213777611.3866770     
   1603203230.1107707        9747267.4462934732        1221121329.3097467     
   1721466825.7484934        15586768.279357195        1292862436.4875832     
   1633035062.2692280        12880543.107335985        1285872112.5982099     
   1544829284.0552840        10927602.153040588        1283955245.4169700     
   1456849491.1066558        9727945.4164671302        1287111834.9438648     
   1369095683.4233441        9281572.8976221085        1295341881.1788907     
   1436880141.3052983        15295322.952367425        1361120834.0648420     
   1361438267.2651546        12567548.130457461        1355488817.1561651     
   1286241943.0715413        10658272.796983063        1354780539.1809547     
   1211291168.7244611        9567496.9519504905        1358996000.1392169     
   1136585944.2239110        9295220.5953539014        1368135200.0309536     
   1155602324.6319506        15996537.956315219        1427860697.2460294     
   1092722574.9604695        13118883.963400424        1423609812.6627910     
   1030107939.7167273        11124944.729621649        1424132949.2383649     
   967758418.90072393        10014720.254970670        1429430106.9727466     
   905674012.51246512        9788210.5394650698        1439501285.8659351     
   1838908584.2861922        10692304.241373181        1145473544.4235168     
   1748322060.0911903        17353168.244091034        1137673422.3727293     
   1657862587.8525612        24437538.768056035        1133448977.6088300     
   1567530167.5703089        31945415.813272059        1132800210.1318161     
   1477324799.2444315        39876799.379737556        1135727119.9416857     
   1603203230.1107707        9747267.4462934732        1221121329.3097467     
   1522121792.6248000        15523784.397547126        1214201191.2617421     
   1441150879.2580070        21668715.079390526        1211221061.1764412     
   1360290490.0103812        28182059.491793215        1212180939.0538509     
   1279540624.8819282        35063817.634770453        1217080824.8939695     
   1369095683.4233441        9281572.8976221085        1295341881.1788907     
   1298560277.4344761        14486026.233841538        1289282444.6569297     
   1228118867.7275763        20003800.509955406        1287527346.7734971     
   1157771454.3026495        25834895.725979865        1290076587.5285974     
   1087518037.1596940        31979311.881907284        1296930166.9222357     
   1136585944.2239110        9295220.5953539014        1368135200.0309536     
   1077637514.5202053        14239893.752932668        1362917182.5583003     
   1018766553.2612743        19442795.059758902        1362367834.4000008     
   959973060.44711208        24903924.515818119        1366487155.5560582     
   901257036.07772279        30623282.121121317        1375275146.0264735     
   905674012.51246512        9788210.5394650698        1439501285.8659351     
   859353503.88200176        14785386.954867274        1435105404.9658499     
   813093935.85910046        19985698.728810012        1435742524.0559516     
   766895308.44377112        25389145.861325920        1441412643.1362274     
   720757621.63600898        30995728.352399290        1452115762.2066865     
   1477324799.2444315        39876799.379737556        1135727119.9416857     
   1367532526.9655414        42444975.385649979        1127078637.6479235     
   1257951354.5711751        45716817.673315585        1122973477.5668900     
   1148581282.0613282        49692326.242702425        1123411639.6985784     
   1039422309.4359982        54371501.093824506        1128393124.0429914     
   1279540624.8819282        35063817.634770453        1217080824.8939695     
   1181633856.4472885        37095962.113889217        1210711848.9965985     
   1083812689.6042347        39413445.231636107        1209065945.7344146     
   986077124.35275650        42016266.987961650        1212143115.1074190     
   888427160.69287145        44904427.382930875        1219943357.1156199     
   1087518037.1596940        31979311.881907284        1296930166.9222357     
   1002010345.2049186        33629496.624903142        1292694282.7461536     
   916462756.54879022        35146692.363386333        1293361221.6277332     
   830875271.19131637        36530899.097383797        1298930983.5669680     
   745247889.13248682        37782116.826866567        1309403568.5638616     
   901257036.07772279        30623282.121121317        1375275146.0264735     
   828661993.23842943        32045578.918669671        1373025938.8965962     
   755901555.40484953        32916559.068607181        1375859305.2468481     
   682975722.57698560        33236222.570927054        1383775245.0772181     
   609884494.75483072        33004569.425607502        1396773758.3877137     
   720757621.63600898        30995728.352399290        1452115762.2066865     
   661588800.54782557        32344208.995225072        1451706817.4479227     
   602129086.17240441        32723045.347261757        1456560196.5917518     
   542378478.50977671        32132237.408608109        1466675899.6381676     
   482336977.55991805        30571785.179184794        1482053926.5871739     
   1039422309.4359982        54371501.093824506        1128393124.0429914     
   923155614.78257298        53682157.229989052        1125728731.9717910     
   804544060.61394989        45176614.982166231        1128884070.4951217     
   683587646.93012381        28854874.350330323        1137859139.6129458     
   560286373.73109412        4716935.3344936967        1152653939.3253047     
   888427160.69287145        44904427.382930875        1219943357.1156199     
   787005783.49814761        43295430.810599267        1217298361.0866046     
   683279640.15787005        34003880.419760466        1220465336.9794290     
   577248730.67204010        17029776.210410744        1229444284.7940674     
   468913055.04066515       -7626881.8174218535        1244235204.5305607     
   745247889.13248682        37782116.826866567        1309403568.5638616     
   658649661.76022220        35246817.255149454        1306824744.1749516     
   569786761.61205363        25162608.430422068        1310050133.0351884     
   478659188.68799126        7529490.3527153432        1319079735.1445792     
   385266942.98802525       -17652536.978007346        1333913550.5031173     
   609884494.75483072        33004569.425607502        1396773758.3877137     
   538087249.56879771        29536316.563654900        1394307881.2368305     
   464065424.97651440        18652799.014199272        1397638458.6624119     
   387819020.97796917        354016.77720777690        1406765490.6644654     
   309348037.57318223       -25360030.147267103        1421688977.2429838     
   482336977.55991805        30571785.179184794        1482053926.5871739     
   425318546.92387640        26163928.736104667        1479747772.2722433     
   366115630.25122857        14474452.171009213        1483230313.8610942     
   304728227.54198939       -4496644.5160612762        1492501551.3537323     
   241156338.79614329       -30749361.325152338        1507561484.7501519     
   560286373.73109412        4716935.3344936967        1152653939.3253047     
   463247866.72003257       -33286385.431181610        1161924879.4377480     
   354217376.40688723       -111262983.87046406        1178783645.7799752     
   233194902.79165471       -229212859.98337874        1203230238.3519659     
   100180445.87434587       -387136013.76986998        1235264657.1537409     
   468913055.04066515       -7626881.8174218535        1244235204.5305607     
   391109931.65321857       -42006301.072060451        1242689535.7042458     
   303161556.67505383       -110203225.62910423        1247516204.6253123     
   205067930.10619065       -212217655.48846889        1258715211.2937651     
   96829051.946620867       -348049590.65019190        1276286555.7095962     
   385266942.98802525       -17652536.978007346        1333913550.5031173     
   323226378.98878080       -49449901.992284745        1323705793.0679770     
   252887295.11020732       -108908999.93765330        1318654884.8978357     
   174249691.35230821       -196029830.81411076        1318760825.9926836     
   87313567.715079561       -310812394.62166542        1324023616.3525286     
   309348037.57318223       -25360030.147267103        1421688977.2429838     
   259597208.72673991       -55617188.191770807        1404973651.5289721     
   203394591.71235287       -107380306.79609559        1392199686.5975554     
   140740186.53001177       -180649385.96027038        1383367082.4487410     
   71633993.179717958       -275424425.68428159        1378475839.0825365     
   241156338.79614329       -30749361.325152338        1507561484.7501519     
   200222420.86709851       -60508159.670520350        1486493111.0872059     
   154683446.48148501       -105617146.20445362        1468150609.7244680     
   104539415.63930318       -166076320.92694658        1452533980.6619325     
   49790328.340542659       -241885683.83803526        1439643223.8996115     
   100180445.87434587       -387136013.76986998        1235264657.1537409     
   85353866.709486306       -546915315.59160900        1196708920.2842712     
   57917615.004325479       -748726859.21436357        1154778122.4740896     
   17871690.758886039       -992570644.63805497        1109472263.7232118     
  -34783906.026879549       -1278446671.8628061        1060791344.0316119     
   96829051.946620867       -348049590.65019190        1276286555.7095962     
   79885585.469373852       -489171842.03930455        1221975122.2971501     
   51540816.913349122       -668298433.69099545        1165104901.7929661     
   11794746.278541982       -885429365.60530722        1105675894.1970358     
  -39352626.435059786       -1140564637.7822566        1043688099.5093844     
   87313567.715079561       -310812394.62166542        1324023616.3525286     
   70585424.922514081       -432577932.27900088        1255366251.9355292     
   43664350.512677401       -588319908.66056263        1184966374.2757707     
   6550344.4855770767       -778038323.76635253        1112823983.3732471     
  -40756593.158795655       -1001733177.5963740        1038939079.2279518     
   71633993.179717958       -275424425.68428159        1378475839.0825365     
   57453385.068901420       -377133586.31072819        1296882309.1994238     
   34288215.802327603       -508791284.12302667        1214362539.9225230     
   2138485.3800075650       -670397519.12114918        1130916531.2518234     
  -38995806.198077798       -861952291.30515528        1046544283.1873463     
   49790328.340542659       -241885683.83803526        1439643223.8996115     
   40489465.908535272       -322838804.13448811        1346523294.0888219     
   23412412.782287329       -429712560.07840937        1253293398.7332175     
  -1440831.0381945968       -562506951.66977179        1159953537.8327913     
  -34070265.552911848       -721221978.90860212        1066503711.3875589     
   1584735990.8371434        34616310.486899436        1397290575.0950832     
   1506334213.2722611        21266820.770188391        1396542140.1813786     
   1428387018.2423260        9432606.1699752212        1400268165.2178619     
   1350894405.7473459       -886333.31372839212        1408468650.2045302     
   1273856375.7873147       -9689997.6809352040        1421143595.1413891     
   1212602909.0016699        33177528.278061092        1440283172.5204978     
   1148060662.9218457        21443126.312449694        1435056684.8147781     
   1083859354.8845873        10845184.488719106        1435644202.6663516     
   1019998984.8898873        1383702.8068531156        1442045726.0752270     
   956479552.93775356       -6941318.7331258655        1454261255.0413938     
   824435886.40681064        26928563.841408670        1482364073.4532351     
   777580444.97521317        17957431.575849324        1472526947.7143786     
   730952297.09379125        9743944.4775392115        1469843373.1399298     
   684551442.76254237        2288102.5464737117        1474313349.7298827     
   638377881.98147011       -4410094.2173381746        1485936877.4842412     
   420234923.05256486        15869417.176940247        1523533277.8932948     
   394893559.43235981        10809736.560380235        1508952928.8801839     
   369665844.86994326        6128886.1364470124        1502865676.6385884     
   344551779.36531091        1826865.9051292092        1505271521.1685057     
   319551362.91846514       -2096324.1335661113        1516170462.4699323     
   18.938931467050104        88.284653900614501        1563790785.8406754     
   6.2932860388144398        41.266046623756253        1544334628.3121932     
  -1.7869589050237189        9.4654402676669669        1534711113.1623330     
  -5.3018099297255317       -7.1171867049125321        1534920240.3910909     
  -4.2512590059994801       -8.4818064888430946        1544962009.9984710     
   1273856375.7873147       -9689997.6809352040        1421143595.1413891     
   1244220296.0609922       -3510253.5632285476        1417358114.7580166     
   1214632594.2929900        2830750.4155468345        1417215804.9809983     
   1185093270.4833133        9333014.2554067969        1420716665.8103359     
   1155602324.6319506        15996537.956315219        1427860697.2460294     
   956479552.93775356       -6941318.7331258655        1454261255.0413938     
   935570962.85161543       -1910968.5596293807        1450117642.1563768     
   914698656.14293396        3240326.2053891420        1449309556.9907346     
   893862632.81170321        8512565.5619121790        1451836999.5444689     
   873062892.85792685        13905749.509943724        1457699969.8175743     
   638377881.98147011       -4410094.2173381746        1485936877.4842412     
   625317801.85843039       -792831.89116111398        1481421021.7532375     
   612281910.53197324        2905059.7569600940        1479933050.8546243     
   599270208.00210166        6683580.7270334065        1481472964.7884009     
   586282694.26881230        10542731.019044906        1486040763.5545685     
   319551362.91846514       -2096324.1335661113        1516170462.4699323     
   313460813.08143055       -155843.55783970654        1511268253.5485916     
   307382357.46010745        1824951.0702595115        1509086286.5726626     
   301315996.05450147        3846059.7507484108        1509624561.5421383     
   295261728.86461025        5907482.4836198539        1512883078.4570265     
  -4.2512590059994801       -8.4818064888430946        1544962009.9984710     
  -3.4793835852768558       -3.5596676018910944        1539659337.5424461     
  -3.0726632090342672       0.14528745651609065        1536769264.1448486     
  -3.0310937711240582        2.6330732408990527        1536291789.8056779     
  -3.3546825573848285        3.9036642508226951        1538226914.5249333     
   1155602324.6319506        15996537.956315219        1427860697.2460294     
   1092722574.9604695        13118883.963400424        1423609812.6627910     
   1030107939.7167273        11124944.729621649        1424132949.2383649     
   967758418.90072393        10014720.254970670        1429430106.9727466     
   905674012.51246512        9788210.5394650698        1439501285.8659351     
   873062892.85792685        13905749.509943724        1457699969.8175743     
   823355010.59998035        10983088.165549427        1452532729.3225856     
   773845964.12864995        8723212.7765396535        1452734059.6833906     
   724535753.44392359        7126123.3428737521        1458303960.8999887     
   675424378.54580653        6191819.8645744622        1469242432.9723773     
   586282694.26881230        10542731.019044906        1486040763.5545685     
   551445392.84436154        8084676.3491686285        1479879842.0665133     
   516740648.56539065        6068478.8308926523        1479682041.1312315     
   482168461.43189591        4494138.4642052650        1485447360.7487259     
   447728831.44388205        3361655.2491157949        1497175800.9189997     
   295261728.86461025        5907482.4836198539        1512883078.4570265     
   276993721.69360626        4423648.5142422616        1505651150.8945758     
   258791993.02695307        3160742.8926973790        1504976893.5818899     
   240656542.86464429        2118765.6189679503        1510860306.5189593     
   222587371.20668358        1297716.6930657178        1523301389.7057948     
  -3.3546825573848285        3.9036642508226951        1538226914.5249333     
  -2.8522818264773702        4.6607777390264591        1529846655.8067751     
  -2.4866617922290328        4.9619555716998196        1528618617.0353591     
  -2.2578300264218454        4.8071721626246502        1534542798.2106900     
  -2.1657835781196102        4.1964383890890335        1547619199.3327620     
   905674012.51246512        9788210.5394650698        1439501285.8659351     
   859353503.88200176        14785386.954867274        1435105404.9658499     
   813093935.85910046        19985698.728810012        1435742524.0559516     
   766895308.44377112        25389145.861325920        1441412643.1362274     
   720757621.63600898        30995728.352399290        1452115762.2066865     
   675424378.54580653        6191819.8645744622        1469242432.9723773     
   641616044.77439296        10219316.289119273        1465693953.7923012     
   607853416.46788454        14399164.263349414        1466960996.8192031     
   574136493.62629557        18731363.787310332        1473043562.0530882     
   540465276.24961162        23215914.860950738        1483941649.4939451     
   447728831.44388205        3361655.2491157949        1497175800.9189997     
   425811307.43665498        6233062.1543274969        1494456949.1258273     
   403924253.75168753        9206036.8004015088        1496336141.7564354     
   382067670.38897443        12280579.187324509        1502813378.8108208     
   360241557.34851772        15456689.315103248        1513888660.2889903     
   222587371.20668358        1297716.6930657178        1523301389.7057948     
   211939291.86879632        2826624.5505153313        1521394390.9664297     
   201306447.71050370        4406316.3399473876        1523867958.8676417     
   190688838.73181793        6036792.0614030212        1530722093.4094348     
   180086464.93272763        7718051.7148418874        1541956794.5918088     
  -2.1657835781196102        4.1964383890890335        1547619199.3327620     
  -1.9291951278235704        3.4776466733804940        1546506279.3141057     
  -1.6556576165006109        2.8820191883177455        1549556448.1528273     
  -1.3451832367785910        2.4095145979185317        1556769705.8489282     
 -0.99776249533563055        2.0601638526997279        1568146052.4024091     
   720757621.63600898        30995728.352399290        1452115762.2066865     
   661588800.54782557        32344208.995225072        1451706817.4479227     
   602129086.17240441        32723045.347261757        1456560196.5917518     
   542378478.50977671        32132237.408608109        1466675899.6381676     
   482336977.55991805        30571785.179184794        1482053926.5871739     
   540465276.24961162        23215914.860950738        1483941649.4939451     
   495090336.93196487        23927778.196458429        1483376241.5253198     
   449497227.65101963        23912408.320970953        1488306099.6254289     
   403685948.40678978        23169805.234534904        1498731223.7942879     
   357656499.19926637        21699968.937120155        1514651614.0318844     
   360241557.34851772        15456689.315103248        1513888660.2889903     
   329326048.84755975        15731600.057130128        1513251632.9884129     
   298265093.70723718        15521688.667948350        1518342813.9227321     
   267058691.92756468        14826955.147593811        1529162203.0919454     
   235706843.50852400        13647399.496018320        1545709800.4960577     
   180086464.93272763        7718051.7148418874        1541956794.5918088     
   164295936.29460853        7755674.5772338063        1541332991.8372047     
   148432684.34106582        7550886.3882153407        1546670339.4836531     
   132496709.07209872        7103687.1477820054        1557968837.5311496     
   116488010.48769501        6414076.8558921479        1575228485.9796946     
 -0.99776249533563055        2.0601638526997279        1568146052.4024091     
 -0.72688549318827544        1.7567813046783520        1567620318.0717049     
 -0.44749991258373523        1.4817606848475924        1573288676.3081942     
 -0.15960758355996280        1.2350972808597214        1585151127.1118898     
  0.13677941563255419        1.0167466685434374        1603207670.4827919     
   482336977.55991805        30571785.179184794        1482053926.5871739     
   425318546.92387640        26163928.736104667        1479747772.2722433     
   366115630.25122857        14474452.171009213        1483230313.8610942     
   304728227.54198939       -4496644.5160612762        1492501551.3537323     
   241156338.79614329       -30749361.325152338        1507561484.7501519     
   357656499.19926637        21699968.937120155        1514651614.0318844     
   315821185.20656949        18672629.232291281        1510962925.4420574     
   272347506.69021738        10184074.448615670        1512846280.6575699     
   227235463.65021676       -3765695.4138887823        1520301679.6784379     
   180485056.08657032       -23176680.355215505        1533329122.5046406     
   235706843.50852400        13647399.496018320        1545709800.4960577     
   208435640.16362616        11814874.730770312        1541275719.3964415     
   180072193.80802903        6341539.9298573509        1542197030.0037301     
   150616504.44173285       -2772604.9067159221        1548473732.3179207     
   120068572.06473948       -15527559.778949380        1560105826.3390181     
   116488010.48769501        6414076.8558921479        1575228485.9796946     
   103161911.79505192        5590665.2315584086        1570686154.1353972     
   89289691.604669482        2946848.6147634760        1571282561.8995702     
   74871349.916528538       -1517372.9945593998        1577017709.2722042     
   59906886.730646983       -7801999.5963550843        1587891596.2533009     
  0.13677941563255419        1.0167466685434374        1603207670.4827919     
  0.10085128702848470       0.73467857255691171        1599194229.6589298     
   8.0126930731475657E-002  0.50328971759392094        1600102876.3450882     
   7.4605500348973980E-002  0.32257693540125942        1605933610.5412755     
   8.4288437035867331E-002  0.19254607066263854        1616686432.2474844     
   241156338.79614329       -30749361.325152338        1507561484.7501519     
   200222420.86709851       -60508159.670520350        1486493111.0872059     
   154683446.48148501       -105617146.20445362        1468150609.7244680     
   104539415.63930318       -166076320.92694658        1452533980.6619325     
   49790328.340542659       -241885683.83803526        1439643223.8996115     
   180485056.08657032       -23176680.355215505        1533329122.5046406     
   149031072.33653855       -45721842.732711494        1507736846.8681273     
   114123296.24402505       -79779646.251809075        1485046270.7688253     
   75761727.809062988       -125350090.91240464        1465257394.2067380     
   33946367.031631909       -182433176.71456218        1448370217.1818635     
   120068572.06473948       -15527559.778949380        1560105826.3390181     
   98596886.027997494       -30708377.128328577        1531332790.1954086     
   74822671.762897149       -53564288.572239093        1505637280.8260074     
   48745929.269444689       -84095294.110656351        1483019298.2308238     
   20366658.547631681       -122301393.74360597        1463478842.4098597     
   59906886.730646983       -7801999.5963550843        1587891596.2533009     
   48919861.941493973       -15467762.857318599        1557280941.0690463     
   36781573.038091816       -26971073.165775262        1529923639.8960145     
   23492020.020442061       -42311930.521726571        1505819692.7341955     
   9051202.8885428719       -61490334.925174646        1484969099.5835953     
   8.4288437035867331E-002  0.19254607066263854        1616686432.2474844     
   7.7019160280236476E-002   8.0296666751586643E-002   1585581299.4890516     
   6.9606774556706150E-002  -3.2426991494901983E-002   1557905347.9788325     
   6.2058051005701248E-002 -0.14560580305569623        1533658577.7168422     
   5.4359630350167221E-002 -0.25928499274370170        1512840988.7030621     
   49790328.340542659       -241885683.83803526        1439643223.8996115     
   40489465.908535272       -322838804.13448811        1346523294.0888219     
   23412412.782287329       -429712560.07840937        1253293398.7332175     
  -1440831.0381945968       -562506951.66977179        1159953537.8327913     
  -34070265.552911848       -721221978.90860212        1066503711.3875589     
   33946367.031631909       -182433176.71456218        1448370217.1818635     
   29822663.604272619       -242292433.94649836        1347771854.4624019     
   19866817.155746073       -321592167.91565871        1246398072.7379959     
   4078827.6860682368       -420332378.62200391        1144248872.0086057     
  -17541304.804775119       -538513066.06554532        1041324252.2742867     
   20366658.547631681       -122301393.74360597        1463478842.4098597     
   19518818.524505325       -161637176.59119004        1357670102.4003305     
   14782883.153300300       -213933277.26570028        1250420489.9256938     
   6158852.4340117872       -279189695.76715201        1141730004.9859588     
  -6353273.6333470345       -357406432.09551442        1031598647.5811231     
   9051202.8885428719       -61490334.925174646        1484969099.5835953     
   9577930.6692455262       -80873032.068521172        1376218037.9025853     
   8160610.7749526501       -106735888.12851529        1265360650.2963262     
   4799243.2056644037       -139078903.10516393        1152396936.7648270     
  -506172.03862764686       -177902076.99848953        1037326897.3081000     
   5.4359630350167221E-002 -0.25928499274370170        1512840988.7030621     
   3.8494116319418126E-002 -0.37848643633128753        1403415660.9691658     
   2.0711912038930830E-002 -0.50407823519678141        1291218553.8498924     
   9.9988698639488782E-004 -0.63609930052215224        1176249667.3452237     
  -2.0617573582470211E-002 -0.77447736868374339        1058509001.4551828     
   18.938931467050104        88.284653900614501        1563790785.8406754     
   6.2932860388144398        41.266046623756253        1544334628.3121932     
  -1.7869589050237189        9.4654402676669669        1534711113.1623330     
  -5.3018099297255317       -7.1171867049125321        1534920240.3910909     
  -4.2512590059994801       -8.4818064888430946        1544962009.9984710     
  -420234904.71726620       -15869309.622055650        1523533241.5291905     
  -394893555.62116897       -10809686.301082492        1508952901.9168313     
  -369665849.96173757       -6128874.4356627315        1502865658.8795991     
  -344551787.73897594       -1826874.0258091837        1505271512.4174902     
  -319551368.95288080        2096314.9284907579        1516170462.5305057     
  -824435885.06075394       -26928524.534955472        1482364015.6613669     
  -777580447.94718862       -17957412.991678536        1472526904.6293941     
  -730952302.27235711       -9743939.5775121450        1469843344.3690434     
  -684551448.03626215       -2288104.2924678922        1474313334.8803222     
  -638377885.23889875        4410092.8634691834        1485936876.1632307     
  -1212602922.0915308       -33177556.454042137        1440283108.2372096     
  -1148060670.6847756       -21443138.805743456        1435056636.4498744     
  -1083859358.7188201       -10845185.960115910        1435644169.6306660     
  -1019998986.1936677       -1383697.9171606898        1442045707.7795875     
  -956479553.10931468        6941325.3231281638        1454261250.8966429     
  -1584736015.8095958       -34616405.379311919        1397290519.2567148     
  -1506334223.8339295       -21266863.743283510        1396542097.3782728     
  -1428387019.3011274       -9432613.5834737420        1400268134.6644628     
  -1350894402.2111950        886345.10010313988        1408468631.1152875     
  -1273856372.5641267        9690012.3074684143        1421143586.7307451     
  -4.2512590059994801       -8.4818064888430946        1544962009.9984710     
  -3.4793835852768558       -3.5596676018910944        1539659337.5424461     
  -3.0726632090342672       0.14528745651609065        1536769264.1448486     
  -3.0310937711240582        2.6330732408990527        1536291789.8056779     
  -3.3546825573848285        3.9036642508226951        1538226914.5249333     
  -319551368.95288080        2096314.9284907579        1516170462.5305057     
  -313460818.53755099        155840.58701732755        1511268253.0755384     
  -307382362.78525269       -1824949.2978928983        1509086285.6564043     
  -301316001.69598132       -3846054.7262272686        1509624560.2731006     
  -295261735.26974189       -5907475.6980010271        1512883076.9256339     
  -638377885.23889875        4410092.8634691834        1485936876.1632307     
  -625317805.24466968        792833.23901599646        1481421019.6951325     
  -612281914.21134698       -2905056.2551246881        1479933048.2402737     
  -599270212.13892770       -6683575.6189454198        1481472961.7986548     
  -586282699.02741170       -10542724.852441162        1486040760.3702731     
  -956479553.10931468        6941325.3231281638        1454261250.8966429     
  -935570963.60074067        1910974.3963261247        1450117637.4012282     
  -914698657.35094428       -3240320.7264040709        1449309551.8964565     
  -893862634.35993123       -8512560.0450773835        1451836994.3823309     
  -873062894.62769473       -13905743.559672713        1457699964.8588498     
  -1273856372.5641267        9690012.3074684143        1421143586.7307451     
  -1244220293.6057594        3510264.0589552522        1417358106.1938243     
  -1214632592.2040515       -2830742.7117514014        1417215796.6249566     
  -1185093268.3589940       -9333008.0046275258        1420716658.0241394     
  -1155602322.0705888       -15996531.819680929        1427860690.3913727     
  -3.3546825573848285        3.9036642508226951        1538226914.5249333     
  -2.8522818264773702        4.6607777390264591        1529846655.8067751     
  -2.4866617922290328        4.9619555716998196        1528618617.0353591     
  -2.2578300264218454        4.8071721626246502        1534542798.2106900     
  -2.1657835781196102        4.1964383890890335        1547619199.3327620     
  -295261735.26974189       -5907475.6980010271        1512883076.9256339     
  -276993727.27260703       -4423640.5036703497        1505651149.5093544     
  -258791998.00047097       -3160734.3926695436        1504976892.2721519     
  -240656547.45333070       -2118757.3649864346        1510860305.2140296     
  -222587375.63118547       -1297709.4206212461        1523301388.3349822     
  -586282699.02741170       -10542724.852441162        1486040760.3702731     
  -551445397.15745211       -8084669.3074785769        1479879839.2362938     
  -516740652.60069919       -6068471.4732037187        1479682038.5137229     
  -482168465.35715628       -4494131.3496291935        1485447358.2025657     
  -447728835.42681998       -3361648.9367423654        1497175798.3028154     
  -873062894.62769473       -13905743.559672713        1457699964.8588498     
  -823355012.50681579       -10983081.750643641        1452532724.9875910     
  -773845966.28735626       -8723206.2796815038        1452734055.7600734     
  -724535755.96931481       -7126117.1467785239        1458303957.1763031     
  -675424381.55269372       -6191814.3519427180        1469242429.2362726     
  -1155602322.0705888       -15996531.819680929        1427860690.3913727     
  -1092722573.3206954       -13118877.833156824        1423609806.7632511     
  -1030107939.0604322       -11124938.812068343        1424132944.0112047     
  -967758419.28980148       -10014714.756420493        1429430102.1352353     
  -905674014.00880075       -9788205.6662064195        1439501281.1353436     
  -2.1657835781196102        4.1964383890890335        1547619199.3327620     
  -1.9291951278235704        3.4776466733804940        1546506279.3141057     
  -1.6556576165006109        2.8820191883177455        1549556448.1528273     
  -1.3451832367785910        2.4095145979185317        1556769705.8489282     
 -0.99776249533563055        2.0601638526997279        1568146052.4024091     
  -222587375.63118547       -1297709.4206212461        1523301388.3349822     
  -211939295.75815076       -2826618.4109253362        1521394389.8421721     
  -201306451.01721495       -4406311.1748927906        1523867957.9672906     
  -190688841.40837938       -6036787.7125267088        1530722092.7103369     
  -180086466.93164924       -7718048.0238455385        1541956794.0713086     
  -447728835.42681998       -3361648.9367423654        1497175798.3028154     
  -425811310.88720095       -6233056.6895107329        1494456946.9719703     
  -403924256.64873123       -9206032.1127753854        1496336140.0195992     
  -382067672.71140558       -12280575.206520289        1502813377.4457037     
  -360241559.07522994       -15456685.970766440        1513888659.2502840     
  -675424381.55269372       -6191814.3519427180        1469242429.2362726     
  -641616047.31635571       -10219311.358138293        1465693950.7035012     
  -607853418.55021262       -14399159.931649357        1466960994.3097541     
  -574136495.25426447       -18731360.072475374        1473043560.0550289     
  -540465277.42850518       -23215911.780600727        1483941647.9393232     
  -905674014.00880075       -9788205.6662064195        1439501281.1353436     
  -859353505.04560947       -14785382.416792244        1435105401.0367634     
  -813093936.72166193       -19985694.631523788        1435742520.8377509     
  -766895309.03694093       -25389142.310344905        1441412640.5383096     
  -720757621.99146891       -30995725.453328252        1452115760.1384411     
 -0.99776249533563055        2.0601638526997279        1568146052.4024091     
 -0.72688549318827544        1.7567813046783520        1567620318.0717049     
 -0.44749991258373523        1.4817606848475924        1573288676.3081942     
 -0.15960758355996280        1.2350972808597214        1585151127.1118898     
  0.13677941563255419        1.0167466685434374        1603207670.4827919     
  -180086466.93164924       -7718048.0238455385        1541956794.0713086     
  -164295937.77118087       -7755671.4813871011        1541332991.4286215     
  -148432685.27071279       -7550883.8055929914        1546670339.1693790     
  -132496709.43023771       -7103684.9964441955        1557968837.2935758     
  -116488010.24976276       -6414075.0539617687        1575228485.8012197     
  -360241559.07522994       -15456685.970766440        1513888659.2502840     
  -329326050.12163651       -15731597.311423555        1513251632.1823668     
  -298265094.49653578       -15521686.413723037        1518342813.3141327     
  -267058692.19993949       -14826953.277703837        1529162202.6455796     
  -235706843.23183885       -13647397.903337047        1545709800.1767094     
  -540465277.42850518       -23215911.780600727        1483941647.9393232     
  -495090337.77824289       -23927775.733301908        1483376240.3329258     
  -449497228.12497610       -23912406.342651621        1488306098.7424519     
  -403685948.46871024       -23169803.608672500        1498731223.1678944     
  -357656498.80945122       -21699967.531383201        1514651613.6092577     
  -720757621.99146891       -30995725.453328252        1452115760.1384411     
  -661588800.74099612       -32344206.747004330        1451706815.8803098     
  -602129086.15602207       -32723043.592341930        1456560195.4543386     
  -542378478.23655963       -32132235.989384711        1466675898.8605275     
  -482336976.98258656       -30571783.938059583        1482053926.0988748     
  0.13677941563255419        1.0167466685434374        1603207670.4827919     
  0.10085128702848470       0.73467857255691171        1599194229.6589298     
   8.0126930731475657E-002  0.50328971759392094        1600102876.3450882     
   7.4605500348973980E-002  0.32257693540125942        1605933610.5412755     
   8.4288437035867331E-002  0.19254607066263854        1616686432.2474844     
  -116488010.24976276       -6414075.0539617687        1575228485.8012197     
  -103161911.60755408       -5590663.9026720598        1570686154.0111246     
  -89289691.445822656       -2946847.6863048300        1571282561.8249536     
  -74871349.764575198        1517373.5951179229        1577017709.2427027     
  -59906886.563795909        7801999.9416409135        1587891596.2643762     
  -235706843.23183885       -13647397.903337047        1545709800.1767094     
  -208435639.92893532       -11814873.523928776        1541275719.1754215     
  -180072193.60219190       -6341539.0650527552        1542197029.8719563     
  -150616504.25160125        2772605.4733117595        1548473732.2663081     
  -120068571.87717085        15527560.091145255        1560105826.3584743     
  -357656498.80945122       -21699967.531383201        1514651613.6092577     
  -315821184.86328566       -18672628.129069567        1510962925.1518216     
  -272347506.38896358       -10184073.632900998        1512846280.4861012     
  -227235463.38647777        3765695.9571472406        1520301679.6120937     
  -180485055.85583046        23176680.641065851        1533329122.5297935     
  -482336976.98258656       -30571783.938059583        1482053926.0988748     
  -425318546.41060632       -26163927.718101472        1479747771.9403267     
  -366115629.80614716       -14474451.389879495        1483230313.6673851     
  -304728227.16920185        4496645.0466300994        1492501551.2800553     
  -241156338.49978015        30749361.591392756        1507561484.7783370     
   8.4288437035867331E-002  0.19254607066263854        1616686432.2474844     
   7.7019160280236476E-002   8.0296666751586643E-002   1585581299.4890516     
   6.9606774556706150E-002  -3.2426991494901983E-002   1557905347.9788325     
   6.2058051005701248E-002 -0.14560580305569623        1533658577.7168422     
   5.4359630350167221E-002 -0.25928499274370170        1512840988.7030621     
  -59906886.563795909        7801999.9416409135        1587891596.2643762     
  -48919861.792674877        15467762.973722760        1557280941.0882220     
  -36781572.905165352        26971073.060429782        1529923639.9216166     
  -23492019.901280284        42311930.201722279        1505819692.7645545     
  -9051202.7810059972        61490334.397645161        1484969099.6170325     
  -120068571.87717085        15527560.091145255        1560105826.3584743     
  -98596885.866731018        30708377.205848552        1531332790.2338843     
  -74822671.623382792        53564288.430245459        1505637280.8801687     
  -48745929.147132255        84095293.764316052        1483019298.2973154     
  -20366658.437974066        122301393.20808128        1463478842.4853256     
  -180485055.85583046        23176680.641065851        1533329122.5297935     
  -149031072.14515013        45721842.776671283        1507736846.9260485     
  -114123296.08504233        79779646.077032268        1485046270.8544922     
  -75761727.675501466        125350090.54217142        1465257394.3151252     
  -33946366.916538194        182433176.17205191        1448370217.3079362     
  -241156338.49978015        30749361.591392756        1507561484.7783370     
  -200222420.62793827        60508159.686169982        1486493111.1647055     
  -154683446.29014686        105617146.00077890        1468150609.8445861     
  -104539415.48640539        166076320.53522137        1452533980.8179762     
  -49790328.216706723        241885683.28952122        1439643224.0848787     
   5.4359630350167221E-002 -0.25928499274370170        1512840988.7030621     
   3.8494116319418126E-002 -0.37848643633128753        1403415660.9691658     
   2.0711912038930830E-002 -0.50407823519678141        1291218553.8498924     
   9.9988698639488782E-004 -0.63609930052215224        1176249667.3452237     
  -2.0617573582470211E-002 -0.77447736868374339        1058509001.4551828     
  -9051202.7810059972        61490334.397645161        1484969099.6170325     
  -9577930.5884837173        80873031.323073715        1376218037.9309883     
  -8160610.7269559950        106735887.14518780        1265360650.3187916     
  -4799243.1964305416        139078901.86396217        1152396936.7804360     
   506172.00310812145        177902075.47944692        1037326897.3159232     
  -20366658.437974066        122301393.20808128        1463478842.4853256     
  -19518818.439271122        161637175.85750434        1357670102.4632051     
  -14782883.100637391        213933276.30668977        1250420489.9741611     
  -6158852.4220964462        279189694.55557299        1141730005.0181766     
   6353273.5963794440        357406430.60423487        1031598647.5952682     
  -33946366.916538194        182433176.17205191        1448370217.3079362     
  -29822663.513867512        242292433.22479892        1347771854.5658236     
  -19866817.100361764        321592166.98033220        1246398072.8160043     
  -4078827.6759991646        420332377.43871611        1144248872.0584605     
   17541304.759197861        538513064.59988701        1041324252.2932332     
  -49790328.216706723        241885683.28952122        1439643224.0848787     
  -40489465.812283620        322838803.42492759        1346523294.2388327     
  -23412412.726089537        429712559.16623855        1253293398.8443134     
   1440831.0418442786        562506950.51334941        1159953537.9013042     
   34070265.491561651        721221977.46640265        1066503711.4098181     
  -1584736015.8095958       -34616405.379311919        1397290519.2567148     
  -1506334223.8339295       -21266863.743283510        1396542097.3782728     
  -1428387019.3011274       -9432613.5834737420        1400268134.6644628     
  -1350894402.2111950        886345.10010313988        1408468631.1152875     
  -1273856372.5641267        9690012.3074684143        1421143586.7307451     
  -1954734321.5651629       -32066551.853983402        1349951772.1470189     
  -1863303942.9534264       -18060518.892557025        1344227959.7953143     
  -1772354928.5566020       -5659033.3141596317        1343900180.0008605     
  -1681887278.3746758        5137904.8812308311        1348968432.7636547     
  -1591900992.4076598        14330295.693595350        1359432718.0837033     
  -2338704642.6613121       -33708302.930827737        1301377843.0266142     
  -2231612610.5774608       -18255858.593197823        1290647400.6342711     
  -2125028719.4805558       -4497217.5453804731        1286234564.1917932     
  -2018952969.3705950        7567620.2126188278        1288139333.6991842     
  -1913385360.2475774        17938654.680806756        1296361709.1564398     
  -2736646979.0980382       -39541658.609845996        1251568731.8955083     
  -2611260226.7060246       -21852882.845191121        1235800419.8951430     
  -2486408392.0729942       -5947166.2771494389        1227271287.2372653     
  -2362091475.1989474        8175491.0942776203        1225981333.9218683     
  -2238309476.0838861        20515089.269099236        1231930559.9489594     
  -3148561330.8753462       -49566618.891039014        1200524438.7536891     
  -3002246791.3391199       -28851591.648547292        1179687017.5779316     
  -2856493946.3339195       -10008879.509469509        1167010349.1372716     
  -2711302795.8597374        6961517.5262073278        1162494433.4317124     
  -2566673339.9165773        22059599.458477020        1166139270.4612570     
  -1273856372.5641267        9690012.3074684143        1421143586.7307451     
  -1244220293.6057594        3510264.0589552522        1417358106.1938243     
  -1214632592.2040515       -2830742.7117514014        1417215796.6249566     
  -1185093268.3589940       -9333008.0046275258        1420716658.0241394     
  -1155602322.0705888       -15996531.819680929        1427860690.3913727     
  -1591900992.4076598        14330295.693595350        1359432718.0837033     
  -1553022299.1190922        7335488.8465291858        1354372811.8898218     
  -1514225925.0370955        66284.644225001335        1352967528.5046327     
  -1475511870.1616640       -7477316.9132947922        1355216867.9281349     
  -1436880134.4928043       -15295315.826055765        1361120830.1603312     
  -1913385360.2475774        17938654.680806756        1296361709.1564398     
  -1865231333.0841191        10138605.098598242        1289987778.7140286     
  -1817193566.7771473        1951019.3281023502        1287279922.9209533     
  -1769272061.3266556       -6624102.6306618452        1288238141.7772105     
  -1721466816.7326515       -15586760.777713418        1292862435.2828004     
  -2238309476.0838861        20515089.269099236        1231930559.9489594     
  -2180847395.5008502        11919612.815149426        1224203006.6664524     
  -2123535517.4242082        2823461.3398852348        1220152979.8739183     
  -2066373841.8539672       -6773365.1567199230        1219780479.5713620     
  -2009362368.7901299       -16870866.674667120        1223085505.7587769     
  -2566673339.9165773        22059599.458477020        1166139270.4612570     
  -2499870486.3692708        12678511.996203661        1157018495.7470863     
  -2433251776.9782820        2683610.6795451641        1151586699.3635304     
  -2366817211.7436032       -7925104.4914835691        1149843881.3105898     
  -2300566790.6652422       -19147633.516904235        1151790041.5882657     
  -1155602322.0705888       -15996531.819680929        1427860690.3913727     
  -1092722573.3206954       -13118877.833156824        1423609806.7632511     
  -1030107939.0604322       -11124938.812068343        1424132944.0112047     
  -967758419.28980148       -10014714.756420493        1429430102.1352353     
  -905674014.00880075       -9788205.6662064195        1439501281.1353436     
  -1436880134.4928043       -15295315.826055765        1361120830.1603312     
  -1361438262.1801469       -12567541.793961048        1355488813.5230989     
  -1286241939.7037535       -10658267.216085911        1354780535.6629362     
  -1211291167.0636225       -9567492.0924179554        1358995996.5798466     
  -1136585944.2597537       -9295216.4229545593        1368135196.2738338     
  -1721466816.7326515       -15586760.777713418        1292862435.2828004     
  -1633035055.4258125       -12880537.070632815        1285872111.0653832     
  -1544829279.3018725       -10927597.306539476        1283955243.5260372     
  -1456849488.3608253       -9727941.4854335189        1287111832.6647601     
  -1369095682.6026735       -9281569.6072993875        1295341878.4815497     
  -2009362368.7901299       -16870866.674667120        1223085505.7587769     
  -1907512953.0576944       -14057863.663167953        1214759699.3901112     
  -1805869957.8547904       -11932929.083441019        1211657067.6005065     
  -1704433383.1814070       -10496062.935454130        1213777610.3899672     
  -1603203229.0375550       -9747265.2192293406        1221121327.7584956     
  -2300566790.6652422       -19147633.516904235        1151790041.5882657     
  -2184871955.0757928       -16099521.571567774        1142151578.4972785     
  -2069363975.3625028       -13674262.546765924        1137886007.8863456     
  -1954042851.5253763       -11871856.442507625        1138993329.7554750     
  -1838908583.5643997       -10692303.258748293        1145473544.1046667     
  -905674014.00880075       -9788205.6662064195        1439501281.1353436     
  -859353505.04560947       -14785382.416792244        1435105401.0367634     
  -813093936.72166193       -19985694.631523788        1435742520.8377509     
  -766895309.03694093       -25389142.310344905        1441412640.5383096     
  -720757621.99146891       -30995725.453328252        1452115760.1384411     
  -1136585944.2597537       -9295216.4229545593        1368135196.2738338     
  -1077637514.3766346       -14239889.751332045        1362917179.3616281     
  -1018766552.9791827       -19442791.365270734        1362367831.6985190     
  -959973060.06740344       -24903921.264784515        1366487153.2845073     
  -901257035.64129603       -30623279.449867010        1375275144.1195865     
  -1369095682.6026735       -9281569.6072993875        1295341878.4815497     
  -1298560276.5152626       -14486022.928147852        1289282442.2682154     
  -1228118866.7599537       -20003797.356006026        1287527344.6535056     
  -1157771453.3367510       -25834892.890882969        1290076585.6374187     
  -1087518036.2456491       -31979309.532763600        1296930165.2199521     
  -1603203229.0375550       -9747265.2192293406        1221121327.7584956     
  -1522121791.4614942       -15523781.947247088        1214201189.7565300     
  -1441150878.0639675       -21668712.603707433        1211221059.7027128     
  -1360290488.8449831       -28182057.188643515        1212180937.5970426     
  -1279540623.8045282       -35063815.702014565        1217080823.4395168     
  -1838908583.5643997       -10692303.258748293        1145473544.1046667     
  -1748322059.2153320       -17353166.808631659        1137673421.8265674     
  -1657862586.8912282       -24437537.108387947        1133448976.8461361     
  -1567530166.5921035       -31945414.158078492        1132800209.1633813     
  -1477324798.3179355       -39876797.957624078        1135727118.7782958     
  -720757621.99146891       -30995725.453328252        1452115760.1384411     
  -661588800.74099612       -32344206.747004330        1451706815.8803098     
  -602129086.15602207       -32723043.592341930        1456560195.4543386     
  -542378478.23655963       -32132235.989384711        1466675898.8605275     
  -482336976.98258656       -30571783.938059583        1482053926.0988748     
  -901257035.64129603       -30623279.449867010        1375275144.1195865     
  -828661992.77481163       -32045576.839840919        1373025937.4420731     
  -755901554.87562239       -32916557.454138905        1375859304.1977046     
  -682975721.94373131       -33236221.292756736        1383775244.3864896     
  -609884493.97912323       -33004568.355658293        1396773758.0084221     
  -1087518036.2456491       -31979309.532763600        1296930165.2199521     
  -1002010344.3317497       -33629494.789617598        1292694281.4376216     
  -916462755.68694127       -35146690.943444788        1293361220.6894341     
  -830875270.31121600       -36530897.994216025        1298930982.9753897     
  -745247888.20457494       -37782115.941931546        1309403568.2954807     
  -1279540623.8045282       -35063815.702014565        1217080823.4395168     
  -1181633855.4118104       -37095960.596322834        1210711847.8669560     
  -1083812688.5899785       -39413444.060256183        1209065944.9295225     
  -986077123.33902609       -42016266.093782842        1212143114.6272261     
  -888427159.65894306       -44904426.696879685        1219943356.9600525     
  -1477324798.3179355       -39876797.957624078        1135727118.7782958     
  -1367532526.0150015       -42444974.259987175        1127078636.7300756     
  -1257951353.5847411       -45716816.804596901        1122973476.9179718     
  -1148581281.0271513       -49692325.591440499        1123411639.3419955     
  -1039422308.3422240       -54371500.620495081        1128393124.0021420     
  -482336976.98258656       -30571783.938059583        1482053926.0988748     
  -425318546.41060632       -26163927.718101472        1479747771.9403267     
  -366115629.80614716       -14474451.389879495        1483230313.6673851     
  -304728227.16920185        4496645.0466300994        1492501551.2800553     
  -241156338.49978015        30749361.591392756        1507561484.7783370     
  -609884493.97912323       -33004568.355658293        1396773758.0084221     
  -538087248.90293968       -29536315.719474643        1394307880.9961731     
  -464065424.42058879       -18652798.396058485        1397638458.5439620     
  -387819020.53207004       -354016.38542005420        1406765490.6517749     
  -309348037.23738432        25360030.312441617        1421688977.3196256     
  -745247888.20457494       -37782115.941931546        1309403568.2954807     
  -658649660.98299253       -35246816.597176999        1306824744.0321748     
  -569786760.98154628       -25162607.986212164        1310050133.0033209     
  -478659188.20025003       -7529490.1090770662        1319079735.2089181     
  -385266942.63909060        17652537.034263149        1333913550.6489673     
  -888427159.65894306       -44904426.696879685        1219943356.9600525     
  -787005782.65074837       -43295430.351170301        1217298361.0483232     
  -683279639.48901272       -34003880.160321921        1220465337.0454638     
  -577248730.17372465       -17029776.124302506        1229444284.9514802     
  -468913054.70489609        7626881.7568565905        1244235204.7663677     
  -1039422308.3422240       -54371500.620495081        1128393124.0021420     
  -923155613.90622532       -53682156.981503189        1125728732.0446224     
  -804544059.94297969       -45176614.918355167        1128884070.6703970     
  -683587646.45251584       -28854874.431146175        1137859139.8794672     
  -560286373.43480730       -4716935.5197883546        1152653939.6718302     
  -241156338.49978015        30749361.591392756        1507561484.7783370     
  -200222420.62793827        60508159.686169982        1486493111.1647055     
  -154683446.29014686        105617146.00077890        1468150609.8445861     
  -104539415.48640539        166076320.53522137        1452533980.8179762     
  -49790328.216706723        241885683.28952122        1439643224.0848787     
  -309348037.23738432        25360030.312441617        1421688977.3196256     
  -259597208.44978988        55617188.154727712        1404973651.6551955     
  -203394591.48821506        107380306.57695021        1392199686.7676427     
  -140740186.35266045        180649385.57910344        1383367082.6569619     
  -71633993.043123111        275424425.16120124        1378475839.3231533     
  -385266942.63909060        17652537.034263149        1333913550.6489673     
  -323226378.69756073        49449901.895533070        1323705793.2597761     
  -252887294.87402332        108908999.69681947        1318654885.1308181     
  -174249691.16847837        196029830.43812996        1318760826.2620978     
  -87313567.580928490        310812394.11946791        1324023616.6536076     
  -468913054.70489609        7626881.7568565905        1244235204.7663677     
  -391109931.37125176        42006300.908560619        1242689535.9784441     
  -303161556.44757980        110203225.36035430        1247516204.9341192     
  -205067929.93386179        212217655.11230022        1258715211.6333907     
  -96829051.830128759        348049590.16430116        1276286556.0762560     
  -560286373.43480730       -4716935.5197883546        1152653939.6718302     
  -463247866.47087491        33286385.193791926        1161924879.8112056     
  -354217376.20888686        111262983.56755231        1178783646.1775379     
  -233194902.64882991        229212859.60154212        1203230238.7708354     
  -100180445.79071245        387136013.29573941        1235264657.5910859     
  -49790328.216706723        241885683.28952122        1439643224.0848787     
  -40489465.812283620        322838803.42492759        1346523294.2388327     
  -23412412.726089537        429712559.16623855        1253293398.8443134     
   1440831.0418442786        562506950.51334941        1159953537.9013042     
   34070265.491561651        721221977.46640265        1066503711.4098181     
  -71633993.043123111        275424425.16120124        1378475839.3231533     
  -57453384.963347703        377133585.64195621        1296882309.3866694     
  -34288215.738232225        508791283.27383989        1214362540.0538640     
  -2138485.3677949607        670397518.05679488        1130916531.3247285     
   38995806.147971928        861952289.99085617        1046544283.1992714     
  -87313567.580928490        310812394.11946791        1324023616.6536076     
  -70585424.819637775        432577931.64743370        1255366252.1675210     
  -43664350.449451834        588319907.87172568        1184966374.4372535     
  -6550344.4703610539        778038322.79236567        1112823983.4628108     
   40756593.117613494        1001733176.4092790        1038939079.2442029     
  -96829051.830128759        348049590.16430116        1276286556.0762560     
  -79885585.381166577        489171841.44133782        1221975122.5813744     
  -51540816.859736621        668298432.95992815        1165104901.9944863     
  -11794746.265860796        885429364.72002161        1105675894.3155696     
   39352626.400488853        1140564636.7216721        1043688099.5446484     
  -100180445.79071245        387136013.29573941        1235264657.5910859     
  -85353866.647931367        546915315.02365792        1196708920.6282525     
  -57917614.969121248        748726858.53834569        1154778122.7255514     
  -17871690.754260778        992570643.83985686        1109472263.8829885     
   34783905.996594608        1278446670.9280343        1060791344.1005620     
  -3148561330.8753462       -49566618.891039014        1200524438.7536891     
  -3002246791.3391199       -28851591.648547292        1179687017.5779316     
  -2856493946.3339195       -10008879.509469509        1167010349.1372716     
  -2711302795.8597374        6961517.5262073278        1162494433.4317124     
  -2566673339.9165773        22059599.458477020        1166139270.4612570     
  -3561625158.5210648       -57439899.458057165        1053492184.3692211     
  -3393850145.8158722       -36372134.339913607        1035727713.4838576     
  -3226351855.0639915       -16226775.732830524        1026229145.0989872     
  -3059130286.2654352        2996176.3631742001        1024996479.2146109     
  -2892185439.4201975        21296721.948121309        1032029715.8307315     
  -3964661981.3375516       -62305078.576305866        903953155.95223176     
  -3775126067.5622554       -40794447.212161064        889594103.36458421     
  -3585581903.1625814       -19256313.766752958        883606103.04281974     
  -3396029488.1385269        2309321.7599244118        885989154.98694527     
  -3206468822.4900923        23902459.367878199        896743259.19695890     
  -4357671799.3247995       -64162156.245781183        751907353.50272346     
  -4146074556.5782900       -42118530.265311003        741286187.22011054     
  -3934184090.6296892       -19097493.611227751        739141222.96877110     
  -3722000401.4790115        4900953.7164590359        745472460.74871624     
  -3509523489.1262536        29876811.717749357        760279900.55994391     
  -4740654612.4828167       -63011132.466490507        597354777.02070236     
  -4506695612.8639536       -40344383.499343634        590803965.05043364     
  -4272158417.4653153       -15750315.266257763        592834504.87684143     
  -4037043026.2868924        10771072.232767105        603446396.49992204     
  -3801349439.3286777        39219778.997754812        622639639.91968179     
  -2566673339.9165773        22059599.458477020        1166139270.4612570     
  -2499870486.3692708        12678511.996203661        1157018495.7470863     
  -2433251776.9782820        2683610.6795451641        1151586699.3635304     
  -2366817211.7436032       -7925104.4914835691        1149843881.3105898     
  -2300566790.6652422       -19147633.516904235        1151790041.5882657     
  -2892185439.4201975        21296721.948121309        1032029715.8307315     
  -2816986986.6139417        11398641.277388096        1026233243.8594048     
  -2741956674.3009462        940092.29577600956        1023325252.9586096     
  -2667094502.4812140       -10078924.996704340        1023305743.1283455     
  -2592400471.1547408       -21658410.600050926        1026174714.3686098     
  -3206468822.4900923        23902459.367878199        896743259.19695890     
  -3125161905.4536943        12801244.980037808        894289760.90870714     
  -3044007125.2475080        1192907.8248370886        893924246.43089652     
  -2963004481.8715301       -10922552.097737074        895646715.76353514     
  -2882153975.3257637       -23545134.787675023        899457168.90662098     
  -3509523489.1262536        29876811.717749357        760279900.55994391     
  -3424395242.8885279        16886323.104174852        761188046.89498723     
  -3339403129.8179626        3442057.2667269707        763383679.78039253     
  -3254547149.9145546       -10455985.794575453        766866799.21616268     
  -3169827303.1783071       -24807806.079748511        771637405.20228815     
  -3801349439.3286777        39219778.997754812        622639639.91968179     
  -3714686998.9184422        23653875.649773121        626928101.81825268     
  -3628144688.0123115        7687540.6214530468        631703553.00709605     
  -3541722506.6102896       -8679226.0872375965        636965993.48622084     
  -3455420454.7123718       -25446424.476274729        642715423.25562334     
  -2300566790.6652422       -19147633.516904235        1151790041.5882657     
  -2184871955.0757928       -16099521.571567774        1142151578.4972785     
  -2069363975.3625028       -13674262.546765924        1137886007.8863456     
  -1954042851.5253763       -11871856.442507625        1138993329.7554750     
  -1838908583.5643997       -10692303.258748293        1145473544.1046667     
  -2592400471.1547408       -21658410.600050926        1026174714.3686098     
  -2462408570.0908899       -17136467.005217433        1017021650.9933155     
  -2332570241.7577372       -13126432.512702942        1013153322.8145349     
  -2202885486.1552954       -9628307.1225618124        1014569729.8322713     
  -2073354303.2835472       -6642090.8347340822        1021270872.0465279     
  -2882153975.3257637       -23545134.787675023        899457168.90662098     
  -2738116886.7404900       -17624922.929211259        890828335.58338130     
  -2594200087.7404594       -12105676.354900718        887396080.17311609     
  -2450403578.3256793       -6987395.0647557974        889160402.67582119     
  -2306727358.4961481       -2270079.0587692261        896121303.09150183     
  -3169827303.1783071       -24807806.079748511        771637405.20228815     
  -3011996905.0245886       -17564889.343546510        763571632.26747143     
  -2854253513.3106656       -10611994.073336482        760614279.96208286     
  -2696597128.0365324       -3949120.2690902948        762765348.28612518     
  -2539027749.2021980        2423732.0691642761        770024837.23959827     
  -3455420454.7123718       -25446424.476274729        642715423.25562334     
  -3284048624.9431944       -16956366.248253703        635251541.04559195     
  -3112730518.4683542       -8645385.6680085659        632807922.18144596     
  -2941466135.2878528       -513482.73557138443        635384566.66318262     
  -2770255475.4016881        7439342.5490757227        642981474.49081087     
  -1838908583.5643997       -10692303.258748293        1145473544.1046667     
  -1748322059.2153320       -17353166.808631659        1137673421.8265674     
  -1657862586.8912282       -24437537.108387947        1133448976.8461361     
  -1567530166.5921035       -31945414.158078492        1132800209.1633813     
  -1477324798.3179355       -39876797.957624078        1135727118.7782958     
  -2073354303.2835472       -6642090.8347340822        1021270872.0465279     
  -1973590772.2701020       -13067977.170266747        1013603170.2421156     
  -1873991343.5144188       -20040871.031664968        1009364801.5247055     
  -1774556017.0164971       -27560772.418944597        1008555765.8942943     
  -1675284792.7763460       -35627681.332113862        1011176063.3508784     
  -2306727358.4961481       -2270079.0587692261        896121303.09150183     
  -2198204947.1345348       -8586426.0748054981        888542796.48919320     
  -2089883688.2634835       -15573281.392698288        884247278.76320684     
  -1981763581.8829942       -23230645.012468457        883234749.91354465     
  -1873844627.9930558       -31558516.934083700        885505209.94020545     
  -2539027749.2021980        2423732.0691642761        770024837.23959827     
  -2422164583.8086348       -3908513.5222489834        762492300.56779468     
  -2305539621.1384292       -11034768.191505551        758096408.56163740     
  -2189152861.1915765       -18955031.938608050        756837161.22113252     
  -2073004303.9680746       -27669304.763544321        758714558.54627323     
  -2770255475.4016881        7439342.5490757227        642981474.49081087     
  -2645469682.2923985        965760.48741209507        635451682.47792041     
  -2520959142.1392512       -6425331.4280680418        630912190.91999984     
  -2396723854.9422531       -14733933.197382212        629362999.81705952     
  -2272763820.7013993       -23960044.820503592        630804109.16908598     
  -1477324798.3179355       -39876797.957624078        1135727118.7782958     
  -1367532526.0150015       -42444974.259987175        1127078636.7300756     
  -1257951353.5847411       -45716816.804596901        1122973476.9179718     
  -1148581281.0271513       -49692325.591440499        1123411639.3419955     
  -1039422308.3422240       -54371500.620495081        1128393124.0021420     
  -1675284792.7763460       -35627681.332113862        1011176063.3508784     
  -1554192965.4214559       -37453411.197677553        1001889906.9234964     
  -1433138135.9539454       -39402467.354503095        996581059.89146268     
  -1312120304.3738163       -41474849.802601516        995249522.25478125     
  -1191139470.6810751       -43670558.541993678        997895294.01344681     
  -1873844627.9930558       -31558516.934083700        885505209.94020545     
  -1743070425.1312737       -33126954.226353645        875784498.11649954     
  -1612159118.1715868       -34238377.858934581        869475082.84737110     
  -1481110707.1139927       -34892787.831832886        866576964.13281810     
  -1349925191.9584944       -35090184.145052731        867090141.97284555     
  -2073004303.9680746       -27669304.763544321        758714558.54627323     
  -1934164905.1444650       -29465603.346043587        748762410.30908036     
  -1795014300.2376630       -30224548.317896128        741655545.78568959     
  -1655552489.2476737       -29946139.679123819        737393964.97610998     
  -1515779472.1744797       -28630377.429676533        735977667.88032782     
  -2272763820.7013993       -23960044.820503592        630804109.16908598     
  -2127476405.4610338       -26469358.556766629        620823643.50124276     
  -1981703682.1521819       -27360978.731400371        613122448.70643198     
  -1835445650.7748480       -26634905.344437003        607700524.78464794     
  -1688702311.3290412       -24291138.395886540        604557871.73590016     
  -1039422308.3422240       -54371500.620495081        1128393124.0021420     
  -923155613.90622532       -53682156.981503189        1125728732.0446224     
  -804544059.94297969       -45176614.918355167        1128884070.6703970     
  -683587646.45251584       -28854874.431146175        1137859139.8794672     
  -560286373.43480730       -4716935.5197883546        1152653939.6718302     
  -1191139470.6810751       -43670558.541993678        997895294.01344681     
  -1061460595.2712728       -41104013.921885669        994096539.40926838     
  -930325266.47228754       -33682624.671185255        994361916.28292966     
  -797733484.28414345       -21406390.789950788        998691424.63443100     
  -663685248.70682180       -4275312.2781172395        1007085064.4637586     
  -1349925191.9584944       -35090184.145052731        867090141.97284555     
  -1211850133.0190508       -32151237.777082205        861120550.89426661     
  -1073207026.8284923       -27318800.572071195        857459492.18806934     
  -933995873.38683200       -20592872.530053675        856106965.85424852     
  -794216672.69406319       -11973453.651000887        857062971.89280951     
  -1515779472.1744797       -28630377.429676533        735977667.88032782     
  -1374324227.1495667       -26823828.547105849        726800766.49960971     
  -1233189341.0115983       -26085142.621030867        718176798.38581741     
  -1092374813.7605886       -26414319.651466906        710105763.53894901     
  -951880645.39653718       -27811359.638454318        702587661.95899272     
  -1688702311.3290412       -24291138.395886540        604557871.73590016     
  -1548882877.6628160       -25121786.231943071        591137186.22530329     
  -1410272209.0216103       -29981650.818063796        576513834.87617445     
  -1272870305.4054248       -38870732.154252887        560687817.68850482     
  -1136677166.8142552       -51789030.240494192        543659134.66229820     
  -560286373.43480730       -4716935.5197883546        1152653939.6718302     
  -463247866.47087491        33286385.193791926        1161924879.8112056     
  -354217376.20888686        111262983.56755231        1178783646.1775379     
  -233194902.64882991        229212859.60154212        1203230238.7708354     
  -100180445.79071245        387136013.29573941        1235264657.5910859     
  -663685248.70682180       -4275312.2781172395        1007085064.4637586     
  -548173309.98623323        26004739.648034424        1020609925.5153376     
  -421781651.59679937        92550523.803678364        1042539585.2575653     
  -284510273.53850317        195362040.18886507        1072874043.6904261     
  -136359175.81135780        334439288.80353779        1111613300.8139338     
  -794216672.69406319       -11973453.651000887        857062971.89280951     
  -657897095.17773402        11283591.599439144        873544112.95585811     
  -511810061.62175995        67098823.648695827        899247025.17323053     
  -355955572.02613991        155472242.49677214        934171708.54492831     
  -190333626.39087063        276403848.14367926        978318163.07095206     
  -951880645.39653718       -27811359.638454318        702587661.95899272     
  -792419222.04537868       -10877058.952001750        720727442.13276696     
  -624302606.28378379        34907883.102571398        748905965.92454672     
  -447530798.11173773        109543466.52530426        787123233.33433139     
  -262103797.52925712        213029691.31616360        835379244.36212873     
  -1136677166.8142552       -51789030.240494192        543659134.66229820     
  -951739690.58916891       -40477212.006286323        562159913.04605889     
  -759259285.58284831       -4022297.8346419036        591516407.51150703     
  -559235951.79529643        57575712.274440646        631728618.05864251     
  -351669689.22650814        144316818.32098866        682796544.68746531     
  -100180445.79071245        387136013.29573941        1235264657.5910859     
  -85353866.647931367        546915315.02365792        1196708920.6282525     
  -57917614.969121248        748726858.53834569        1154778122.7255514     
  -17871690.754260778        992570643.83985686        1109472263.8829885     
   34783905.996594608        1278446670.9280343        1060791344.1005620     
  -136359175.81135780        334439288.80353779        1111613300.8139338     
  -127314458.93563294        483395302.55464715        1090088570.8132098     
  -95120442.349485070        709515648.67382634        1069988997.2338749     
  -39777126.052923739        1012800327.1610428        1051314580.0759397     
   38715489.954032063        1393249338.0162632        1034065319.3394039     
  -190333626.39087063        276403848.14367926        978318163.07095206     
  -173355865.03574398        418651045.94193345        986120671.73578513     
  -122689176.79582077        673194666.68950963        1000148554.1832716     
  -38333561.671098471        1040034710.3863924        1020401810.4134099     
   79710980.338406444        1519171177.0325866        1046880440.4262028     
  -262103797.52925712        213029691.31616360        835379244.36212873     
  -223478084.94828224        352682545.18548161        884805223.39596152     
  -140623818.30812976        639763912.58539712        945256793.57371581     
  -13540997.608801663        1074273793.5158949        1016733954.8953723     
   157770377.14970452        1656212187.9769874        1099236707.3609402     
  -351669689.22650814        144316818.32098866        682796544.68746531     
  -277681118.67324710        285489800.28528184        786142225.79376221     
  -148924366.88641143        609223386.36149621        905313715.40522301     
   34600566.133979082        1115517576.5495267        1040311013.5218539     
   272893680.38792253        1804372370.8494503        1191134120.1436408     
  -4740654612.4828167       -63011132.466490507        597354777.02070236     
  -4506695612.8639536       -40344383.499343634        590803965.05043364     
  -4272158417.4653153       -15750315.266257763        592834504.87684143     
  -4037043026.2868924        10771072.232767105        603446396.49992204     
  -3801349439.3286777        39219778.997754812        622639639.91968179     
  -5126580026.9784641       -74471446.338189602        474263198.95304501     
  -4868108785.0503740       -42388078.872236490        464827613.18938595     
  -4609842011.0812740       -10986271.269556761        463493180.82872987     
  -4351779705.0711451        19733976.469872713        470259901.87107801     
  -4093921867.0199947        49772664.346034527        485127776.31643373     
  -5520684534.3084574       -88385488.060188293        352421615.42762762     
  -5239073045.4816418       -47297100.718587160        339188148.17535776     
  -4958448688.3525648       -9499152.3694591522        333575635.93241727     
  -4678811462.9212313        25008356.987214565        335584078.69880867     
  -4400161369.1876335        56225427.351419449        345213476.47453332     
  -5922968134.4728231       -104753257.63249898        231830026.44444621     
  -5619588394.1577511       -55071449.038388968        213885570.00834280     
  -5317978449.2792034       -11288958.565968513        203081870.18789816     
  -5018138299.8371468        26594213.784806252        199418926.98311344     
  -4720067945.8315840        58578068.013916492        202896740.39399156     
  -6333430827.4715281       -123574755.05511475        112488432.00350766     
  -6009654831.0787125       -65711123.831645727        88919878.688348278     
  -5688431293.8611708       -16355689.859070301        72011883.595174193     
  -5369760215.8188782        24491546.862665176        61764446.724000625     
  -5053641596.9518528        56830586.333511353        58177568.074802436     
  -3801349439.3286777        39219778.997754812        622639639.91968179     
  -3714686998.9184422        23653875.649773121        626928101.81825268     
  -3628144688.0123115        7687540.6214530468        631703553.00709605     
  -3541722506.6102896       -8679226.0872375965        636965993.48622084     
  -3455420454.7123718       -25446424.476274729        642715423.25562334     
  -4093921867.0199947        49772664.346034527        485127776.31643373     
  -4006269119.9264207        28892894.350177050        485244022.63346565     
  -3918317573.3912802        9009122.4928593636        486861330.95076346     
  -3830067227.4145837       -9878651.2259304523        489979701.26833141     
  -3741518081.9963217       -27770426.806172371        494599133.58616352     
  -4400161369.1876335        56225427.351419449        345213476.47453332     
  -4308620964.8107481        30900995.887671232        341646257.64664692     
  -4216362832.0466323        7968992.3813536167        340594173.52901417     
  -4123386970.8952870       -12570583.167536259        342057224.12163281     
  -4029693381.3567195       -30717730.759009123        346035409.42451042     
  -4720067945.8315840        58578068.013916492        202896740.39399156     
  -4621742533.5714226        29678180.262263775        196134806.85779634     
  -4522280463.9783602        4567150.2869353294        192902080.74183822     
  -4421681737.0524025       -16755021.912067175        193198562.04612339     
  -4319946352.7935543       -34288336.334767580        197024250.77065772     
  -5053641596.9518528        56830586.333511353        58177568.074802436     
  -4945633826.2084475        25224447.473944902        48709670.266903713     
  -4836070469.1864758       -1196403.7904007435        43785052.589242712     
  -4724951525.8859425       -22431967.459541559        43403715.041810542     
  -4612276996.3068438       -38482243.533469439        47565657.624605037     
  -3455420454.7123718       -25446424.476274729        642715423.25562334     
  -3284048624.9431944       -16956366.248253703        635251541.04559195     
  -3112730518.4683542       -8645385.6680085659        632807922.18144596     
  -2941466135.2878528       -513482.73557138443        635384566.66318262     
  -2770255475.4016881        7439342.5490757227        642981474.49081087     
  -3741518081.9963217       -27770426.806172371        494599133.58616352     
  -3556134391.3320026       -16600225.342482567        486266561.23110151     
  -3371041842.8761907       -6400497.9071533680        483073585.47203183     
  -3186240436.6288924        2828755.4997893572        485020206.30895591     
  -3001730172.5901117        11087534.878357887        492106423.74187690     
  -4029693381.3567195       -30717730.759009123        346035409.42451042     
  -3829956877.6540866       -16765100.416686058        336557158.19121391     
  -3630748935.0741401       -4574340.4833292961        332337836.80401921     
  -3432069553.6168756        5854549.0410799980        333377445.26292533     
  -3233918733.2823114        14521568.156511784        339675983.56793422     
  -4319946352.7935543       -34288336.334767580        197024250.77065772     
  -4105516083.9094501       -17450991.470894098        186123331.92591822     
  -3891851795.0622025       -3166913.3965404034        180600676.17740196     
  -3678953486.2518187        8563897.8882727623        180456283.52508029     
  -3466821157.4782910        17741442.383553028        185690153.96898854     
  -4612276996.3068438       -38482243.533469439        47565657.624605037     
  -4382812010.0980949       -18657898.505059958        34965082.435234755     
  -4154350422.8403854       -2178216.6468012333        27862103.592178930     
  -3926892234.5336919        10956802.041399956        26256721.095439006     
  -3700437445.1780605        20747157.559416771        30148934.945022184     
  -2770255475.4016881        7439342.5490757227        642981474.49081087     
  -2645469682.2923985        965760.48741209507        635451682.47792041     
  -2520959142.1392512       -6425331.4280680418        630912190.91999984     
  -2396723854.9422531       -14733933.197382212        629362999.81705952     
  -2272763820.7013993       -23960044.820503592        630804109.16908598     
  -3001730172.5901117        11087534.878357887        492106423.74187690     
  -2869441493.7509847        3361050.8890675306        484253427.97059834     
  -2737071862.4668427       -4095591.6168503761        479470713.51983231     
  -2604621278.7376966       -11282392.639416337        477758280.38956696     
  -2472089742.5635309       -18199352.178582430        479116128.57981342     
  -3233918733.2823114        14521568.156511784        339675983.56793422     
  -3093898651.9546890        5610737.2671658993        331915357.00629157     
  -2953441412.7808847       -1842900.8015912771        327304992.63069302     
  -2812547015.7609158       -7839346.0497868061        325844890.44113183     
  -2671215460.8947673       -12378598.477382660        327535050.43761748     
  -3466821157.4782910        17741442.383553028        185690153.96898854     
  -3318841156.9034915        7714819.6217656136        178437469.58499885     
  -3170067793.0813665        332741.01774728298        174415028.25258791     
  -3020501066.0119104       -4404793.4285013676        173622829.97175083     
  -2870140975.6951032       -6497783.7169278860        176060874.74250042     
  -3700437445.1780605        20747157.559416771        30148934.945022184     
  -3544269008.5974197        9673297.9528076649        23819765.706712276     
  -3386951003.3682885        2431333.8411557674        20800820.385519225     
  -3228483429.4906721       -978734.77554559708        21092098.981420934     
  -3068866286.9645400       -556907.89718317986        24693601.494447831     
  -2272763820.7013993       -23960044.820503592        630804109.16908598     
  -2127476405.4610338       -26469358.556766629        620823643.50124276     
  -1981703682.1521819       -27360978.731400371        613122448.70643198     
  -1835445650.7748480       -26634905.344437003        607700524.78464794     
  -1688702311.3290412       -24291138.395886540        604557871.73590016     
  -2472089742.5635309       -18199352.178582430        479116128.57981342     
  -2320260265.0484219       -18962857.308381677        469617103.42686957     
  -2168271692.5011110       -19196045.664189458        462468284.08767056     
  -2016124024.9216075       -18898917.246011734        457669670.56221312     
  -1863817262.3099055       -18071472.053845882        455221262.85050428     
  -2671215460.8947673       -12378598.477382660        327535050.43761748     
  -2512641249.8457346       -11335493.622980595        318136883.92390347     
  -2354234156.8007855       -10849448.782215476        311159858.16465104     
  -2195994181.7599187       -10920463.955048919        306603973.15985334     
  -2037921324.7231500       -11548539.141535878        304469228.90952015     
  -2870140975.6951032       -6497783.7169278860        176060874.74250042     
  -2704619359.8529615       -3587267.5005638599        166382984.99235311     
  -2539591075.0511880       -2321188.0854299068        159197170.93738291     
  -2375056121.2897997       -2699545.4715818167        154503432.57757080     
  -2211014498.5687804       -4722339.6589601040        152301769.91294336     
  -3068866286.9645400       -556907.89718317986        24693601.494447831     
  -2896194595.0701132        4281821.0588886738        14355406.632198082     
  -2724342447.2523408        6388736.4260905981        6580222.4058384513     
  -2553309843.5112152        5763838.2044699192        1368048.8153710184     
  -2383096783.8467660        2407126.3939491510       -1281114.1392194286     
  -1688702311.3290412       -24291138.395886540        604557871.73590016     
  -1548882877.6628160       -25121786.231943071        591137186.22530329     
  -1410272209.0216103       -29981650.818063796        576513834.87617445     
  -1272870305.4054248       -38870732.154252887        560687817.68850482     
  -1136677166.8142552       -51789030.240494192        543659134.66229820     
  -1863817262.3099055       -18071472.053845882        455221262.85050428     
  -1727049897.0261633       -21778874.760520697        441766031.72512192     
  -1590357909.4342601       -25737536.440008402        427829588.03727919     
  -1453741299.5341949       -29947457.092275441        413411931.78697544     
  -1317200067.3259561       -34408636.717298090        398513062.97421509     
  -2037921324.7231500       -11548539.141535878        304469228.90952015     
  -1902144732.7473783       -17514308.196472049        292301737.39139235     
  -1765310131.1302645       -19953378.446951866        280374486.58688200     
  -1627417519.8717988       -18865749.892921090        268687476.49599189     
  -1488466898.9719858       -14251422.534400582        257240707.11872214     
  -2211014498.5687804       -4722339.6589601040        152301769.91294336     
  -2074167384.8264675       -12328086.539822221        142744303.22411856     
  -1935128874.1096275       -12629176.838913321        134148530.52498904     
  -1793898966.4182587       -5625610.5562437773        126514451.81555742     
  -1650477661.7523556        8682612.3081949949        119842067.09582774     
  -2383096783.8467660        2407126.3939491510       -1281114.1392194286     
  -2243117853.2633982       -6220209.7904316187       -6906270.7766990392     
  -2099814138.3723359       -3764931.6158552170       -10848280.148406023     
  -1953185639.1735480        9772960.9178136587       -13107142.254337339     
  -1803232355.6670659        34393467.810474992       -13682857.094482897     
  -1136677166.8142552       -51789030.240494192        543659134.66229820     
  -951739690.58916891       -40477212.006286323        562159913.04605889     
  -759259285.58284831       -4022297.8346419036        591516407.51150703     
  -559235951.79529643        57575712.274440646        631728618.05864251     
  -351669689.22650814        144316818.32098866        682796544.68746531     
  -1317200067.3259561       -34408636.717298090        398513062.97421509     
  -1117576200.8743415       -14555142.217448533        420577827.33422142     
  -914323187.15821934        17395509.830776930        441112942.80240953     
  -707441026.17759418        61443319.427331030        460118409.37878209     
  -496929717.93245357        117588286.57228172        477594227.06333649     
  -1488466898.9719858       -14251422.534400582        257240707.11872214     
  -1309543399.3610067        3527721.1109482050        278303379.01879799     
  -1130904534.0022273        20358083.915612936        285451037.05354059     
  -952550302.89568257        36239665.879504621        278683681.22296757     
  -774480706.04134810        51172467.002696693        258001311.52707979     
  -1650477661.7523556        8682612.3081949949        119842067.09582774     
  -1527641286.0491500        13771377.978931427        135336568.09977549     
  -1409003326.1148946        4865424.4198237658        124530690.26489748     
  -1294563781.9495726       -18035248.369052470        87424433.591202065     
  -1184322653.5532143       -54930640.387816429        24017798.078677185     
  -1803232355.6670659        34393467.810474992       -13682857.094482897     
  -1771869860.9388020        16175828.386428833       -8322605.4228331577     
  -1748619563.4961917       -29082468.656507730       -41648097.563511014     
  -1733481463.3392794       -101381423.31841445       -113659333.51651855     
  -1726455560.4680178       -200721035.59915751       -224356313.28186360     
  -351669689.22650814        144316818.32098866        682796544.68746531     
  -277681118.67324710        285489800.28528184        786142225.79376221     
  -148924366.88641143        609223386.36149621        905313715.40522301     
   34600566.133979082        1115517576.5495267        1040311013.5218539     
   272893680.38792253        1804372370.8494503        1191134120.1436408     
  -496929717.93245357        117588286.57228172        477594227.06333649     
  -388132632.20217097        223228182.31770778        596903996.40576553     
  -230211378.11772808        492615305.91033232        735363681.12200701     
  -23165955.679130614        925749657.35014844        892973281.21205997     
   233003635.11363959        1522631236.6371903        1069732796.6759484     
  -774480706.04134810        51172467.002696693        258001311.52707979     
  -621377656.93789864        124128510.98808923        386690487.41299266     
  -424794452.35969090        342018406.55599952        537853685.54137778     
  -184731092.30672976        704842153.70642960        711490905.91222560     
   98812423.220998287        1212599752.4394093        907602148.52557266     
  -1184322653.5532143       -54930640.387816429        24017798.078677185     
  -977416192.88042510       -11809213.703573883        155501698.81544614     
  -732673589.61231017        157432688.29843727        312783728.66334403     
  -450094843.74881482        452795065.61838853        495863887.62235707     
  -129679955.28997499        874277918.25612855        704742175.69252062     
  -1726455560.4680178       -200721035.59915751       -224356313.28186360     
  -1456248240.0297720       -184584991.75730985       -96662369.386872292     
  -1153848789.8755639       -61141848.862265289        60153810.487895355     
  -819257210.00541234        169608393.08592957        246092226.34243789     
  -452473500.41929048        507665734.08735871        461152878.17677629     
 </DataArray>
 <DataArray  type="Float64" Name="VM" NumberOfComponents="1" format="ascii">
   6275581667.9171438     
   5979054109.0904961     
   5681640338.4564056     
   5383110892.0772762     
   5083294054.1054192     
   5885007196.2681398     
   5604513234.3648720     
   5323975431.6825390     
   5043329887.9656763     
   4762611312.9452820     
   5510936750.7971640     
   5248568940.2489233     
   4987285884.1508083     
   4727236129.9502640     
   4468724574.6704321     
   5155614525.1633158     
   4913463528.4706860     
   4673820344.6183395     
   4437080901.5774202     
   4203865577.6510558     
   4821779759.5274668     
   4601875773.8010635     
   4386189199.0962858     
   4175375212.4084349     
   3970380855.3752856     
   5083294054.1054192     
   4959011897.1528788     
   4836067048.0151129     
   4714375012.7200670     
   4593895582.1095314     
   4762611312.9452820     
   4649081233.2250862     
   4536885384.3232174     
   4425996130.4503555     
   4316415644.8155632     
   4468724574.6704321     
   4364456051.2819986     
   4261383851.3349104     
   4159525711.0540371     
   4058917436.9389668     
   4203865577.6510558     
   4107695826.6450343     
   4012442671.6130695     
   3918152235.2170649     
   3824880400.3497720     
   3970380855.3752856     
   3881551523.5044990     
   3793221925.5458164     
   3705443459.2008200     
   3618272967.7750416     
   4593895582.1095314     
   4373932189.8392334     
   4153542099.7922068     
   3932645051.0484996     
   3711221925.0634284     
   4316415644.8155632     
   4109482592.1408148     
   3902825266.5947475     
   3696480986.6535568     
   3490574825.8257647     
   4058917436.9389668     
   3865805643.8858848     
   3673839377.5777664     
   3483195440.5925250     
   3294167899.3849640     
   3824880400.3497720     
   3646464072.3960261     
   3470225927.1093597     
   3296495566.2226319     
   3125747102.9963522     
   3618272967.7750416     
   3455461027.0412025     
   3295996490.2895861     
   3140358823.6037002     
   2989189715.4524689     
   3711221925.0634284     
   3549355335.6167955     
   3388358871.4085526     
   3228200893.1483884     
   3068885926.5379229     
   3490574825.8257647     
   3337048126.9824700     
   3184595192.9839067     
   3033245138.1159635     
   2883070268.8729205     
   3294167899.3849640     
   3149619472.0645099     
   3006453450.9278860     
   2864778930.4437008     
   2724759987.8305135     
   3125747102.9963522     
   2991129263.7349195     
   2858329183.8491869     
   2727554190.6899462     
   2599081621.4911895     
   2989189715.4524689     
   2865739378.7957015     
   2744672815.2591577     
   2626305868.4402523     
   2511038713.2871437     
   3068885926.5379229     
   2898444526.2691998     
   2727566236.3937922     
   2556197731.3968544     
   2384302287.4509473     
   2883070268.8729205     
   2718147612.2696605     
   2553363381.0677772     
   2388744694.5652237     
   2224354676.6172743     
   2724759987.8305135     
   2566835745.0595522     
   2409866261.6579604     
   2254006745.6616774     
   2099482366.2444026     
   2599081621.4911895     
   2449814114.0754318     
   2302559253.6368551     
   2157636500.7482915     
   2015474790.9086154     
   2511038713.2871437     
   2372089698.0172896     
   2236388643.3048863     
   2104419875.9328337     
   1976804419.0639968     
   2384302287.4509473     
   2240046161.9668870     
   2098018345.8354740     
   1958222010.7153466     
   1820826985.2882946     
   2224354676.6172743     
   2082757692.5839949     
   1942789656.2751250     
   1804447584.9565568     
   1667803560.7578232     
   2099482366.2444026     
   1959966197.9055672     
   1821352148.4507720     
   1683662711.2235777     
   1546946147.5253212     
   2015474790.9086154     
   1879104610.9554632     
   1743009831.3313603     
   1607312363.6367569     
   1472180320.0633073     
   1976804419.0639968     
   1846371599.6901233     
   1715980453.5146136     
   1585983868.6955426     
   1456895822.8260469     
   1820826985.2882946     
   1780071267.7354300     
   1735760837.2012534     
   1696540211.6247108     
   1680895313.2070351     
   1667803560.7578232     
   1552373419.2641566     
   1427828113.3682611     
   1294527701.5596879     
   1158582100.9074230     
   1546946147.5253212     
   1397102134.3633242     
   1243715983.7237730     
   1084517993.9038434     
   917477576.45566392     
   1472180320.0633073     
   1327998140.3922682     
   1198305676.9971900     
   1087585611.5614483     
   1001742481.7653621     
   1456895822.8260469     
   1347959337.3641422     
   1274014071.1312695     
   1243181949.3501382     
   1262491238.5413201     
   1680895313.2070351     
   1383459369.5308864     
   1129341555.9017961     
   1010240780.0315818     
   1153320419.1358726     
   1158582100.9074230     
   1008207165.9931946     
   985110854.48379290     
   1161487171.3422117     
   1544195484.1507258     
   917477576.45566392     
   962931649.52725244     
   1144803127.0095580     
   1476411943.3520727     
   1957438917.2697482     
   1001742481.7653621     
   1164475437.8387401     
   1425255063.6718910     
   1808645572.7096488     
   2334716842.0812573     
   1262491238.5413201     
   1446355818.1890829     
   1715470366.2508466     
   2110383883.8477702     
   2663499628.8996902     
   4821779759.5274668     
   4601875773.8010635     
   4386189199.0962858     
   4175375212.4084349     
   3970380855.3752856     
   4517733490.8513680     
   4320369971.1177912     
   4128198755.7960873     
   3941920814.1836009     
   3762522774.4749589     
   4234005325.9619861     
   4058739859.5496817     
   3889730342.0173063     
   3727706300.1296940     
   3573667789.9429712     
   3976610407.4871645     
   3822864804.8588667     
   3676505775.3203921     
   3538263120.5338998     
   3409111344.8765221     
   3752813335.4221296     
   3619762773.4795060     
   3495254882.3858562     
   3379980152.3852997     
   3274837516.1216617     
   3970380855.3752856     
   3881551523.5044990     
   3793221925.5458164     
   3705443459.2008200     
   3618272967.7750416     
   3762522774.4749589     
   3677338037.6504045     
   3593241351.8645811     
   3510329188.9739633     
   3428710681.9824853     
   3573667789.9429712     
   3493718540.9118052     
   3415686410.7724233     
   3339715614.5089927     
   3265972258.8416281     
   3409111344.8765221     
   3335733711.1614537     
   3265346637.3477669     
   3198136509.8344145     
   3134320603.2618532     
   3274837516.1216617     
   3208938012.8387637     
   3147333323.9519267     
   3090234955.6127052     
   3037891485.0855002     
   3618272967.7750416     
   3455461027.0412025     
   3295996490.2895861     
   3140358823.6037002     
   2989189715.4524689     
   3428710681.9824853     
   3281562645.4661760     
   3138819628.2787294     
   3001072376.7705536     
   2869082860.2443357     
   3265972258.8416281     
   3135292808.0651875     
   3010154731.1958203     
   2891232133.3031163     
   2779363232.0111198     
   3134320603.2618532     
   3020687298.7062101     
   2913739329.1836476     
   2814185907.7827287     
   2722875935.4115710     
   3037891485.0855002     
   2941475810.8923006     
   2852807551.3527660     
   2772569874.6144724     
   2701548789.0465164     
   2989189715.4524689     
   2865739378.7957015     
   2744672815.2591577     
   2626305868.4402523     
   2511038713.2871437     
   2869082860.2443357     
   2757102285.0361919     
   2648456930.0259275     
   2543552937.8566918     
   2442887061.0847478     
   2779363232.0111198     
   2679893448.6169486     
   2584761064.7877111     
   2494433760.1629577     
   2409463074.3624873     
   2722875935.4115710     
   2636591479.7643485     
   2555609650.1416607     
   2480414223.9407744     
   2411554074.6776853     
   2701548789.0465164     
   2628591767.3377562     
   2561778918.4016213     
   2501560489.1858325     
   2448427252.3124514     
   2511038713.2871437     
   2372089698.0172896     
   2236388643.3048863     
   2104419875.9328337     
   1976804419.0639968     
   2442887061.0847478     
   2316636831.3186173     
   2195198216.6371388     
   2079284248.8249772     
   1969771344.4968452     
   2409463074.3624873     
   2298400476.8205323     
   2193853307.8428664     
   2096686256.1208606     
   2007908405.3084755     
   2411554074.6776853     
   2317338746.3000078     
   2231252949.1037817     
   2154187712.5047927     
   2087124261.9338882     
   2448427252.3124514     
   2371670438.7677932     
   2304393716.1697917     
   2247397105.4611926     
   2201511565.5868173     
   1976804419.0639968     
   1846371599.6901233     
   1715980453.5146136     
   1585983868.6955426     
   1456895822.8260469     
   1969771344.4968452     
   1854006478.5999768     
   1742584920.5086038     
   1636421918.9398749     
   1536640948.8262517     
   2007908405.3084755     
   1911867614.1904011     
   1824530419.5202317     
   1747082170.1524978     
   1680798852.1320362     
   2087124261.9338882     
   2012322447.6680634     
   1949761699.5269711     
   1900503626.5025752     
   1865561552.1911914     
   2201511565.5868173     
   2146470734.0677626     
   2106210632.5343602     
   2081482669.6256132     
   2072952856.9170191     
   1456895822.8260469     
   1347959337.3641422     
   1274014071.1312695     
   1243181949.3501382     
   1262491238.5413201     
   1536640948.8262517     
   1475727440.4266508     
   1447530939.9045689     
   1456020814.5565665     
   1504490406.9824104     
   1680798852.1320362     
   1652155349.5097361     
   1651281102.3094630     
   1680549772.8976309     
   1742571147.9173446     
   1865561552.1911914     
   1854820526.7250726     
   1867128231.2475312     
   1904697106.7133875     
   1970558224.8539863     
   2072952856.9170191     
   2069138635.4922731     
   2084671037.4160056     
   2122182529.3611708     
   2185481684.4362106     
   1262491238.5413201     
   1446355818.1890829     
   1715470366.2508466     
   2110383883.8477702     
   2663499628.8996902     
   1504490406.9824104     
   1613004990.8160841     
   1788734240.4209149     
   2066407047.5126116     
   2476205383.1111436     
   1742571147.9173446     
   1787511819.4010820     
   1884603083.7885439     
   2060744879.8535080     
   2341157032.9187660     
   1970558224.8539863     
   1968832770.0372503     
   2003641474.5601053     
   2093661875.2930050     
   2257559640.8610911     
   2185481684.4362106     
   2156251307.6177258     
   2146589939.9388139     
   2167035050.3529997     
   2228677022.5266604     
   3752813335.4221296     
   3619762773.4795060     
   3495254882.3858562     
   3379980152.3852997     
   3274837516.1216617     
   3475897187.3128476     
   3368041237.2952504     
   3268953848.6701479     
   3179299425.1198387     
   3099891606.1313243     
   3236138866.2298074     
   3152300786.4581547     
   3077240423.0086913     
   3011547086.0284781     
   2955900865.7777500     
   3037505978.2966890     
   2976478144.2021303     
   2923943810.7333503     
   2880375003.6190286     
   2846285036.9674349     
   2883572712.8436298     
   2844020032.9663157     
   2812322499.1648393     
   2788810793.0815735     
   2773823170.5626893     
   3274837516.1216617     
   3208938012.8387637     
   3147333323.9519267     
   3090234955.6127052     
   3037891485.0855002     
   3099891606.1313243     
   3046022205.5531535     
   2996952895.8822079     
   2952887347.4501953     
   2914058432.3311634     
   2955900865.7777500     
   2913813133.3123565     
   2876979398.9776649     
   2845579065.7623496     
   2819811822.4495544     
   2846285036.9674349     
   2815368790.3504858     
   2790079562.8762279     
   2770558903.8448882     
   2756960412.5472598     
   2773823170.5626893     
   2753030343.4849873     
   2738138773.7310939     
   2729245354.6807098     
   2726452914.9964662     
   3037891485.0855002     
   2941475810.8923006     
   2852807551.3527660     
   2772569874.6144724     
   2701548789.0465164     
   2914058432.3311634     
   2835297361.4595904     
   2764796184.7049265     
   2703161437.9951367     
   2651064061.5215688     
   2819811822.4495544     
   2757958722.3795428     
   2704692009.5002146     
   2660508137.0459933     
   2625934794.3127942     
   2756960412.5472598     
   2710832336.7917309     
   2673408637.9402618     
   2645059393.1037297     
   2626162784.2438383     
   2726452914.9964662     
   2694415358.9246316     
   2671001723.9393306     
   2656459319.1493983     
   2651031526.4289937     
   2701548789.0465164     
   2628591767.3377562     
   2561778918.4016213     
   2501560489.1858325     
   2448427252.3124514     
   2651064061.5215688     
   2591586434.5057340     
   2539158695.1827993     
   2494192563.7750421     
   2457121345.3708334     
   2625934794.3127942     
   2579613406.5288267     
   2541119648.2140656     
   2510793516.5017276     
   2488980444.4124103     
   2626162784.2438383     
   2592062823.9111805     
   2566436048.6164546     
   2549533844.5498128     
   2541603384.4489646     
   2651031526.4289937     
   2627657464.0356665     
   2613300731.3342032     
   2608124504.1932111     
   2612284907.3984370     
   2448427252.3124514     
   2371670438.7677932     
   2304393716.1697917     
   2247397105.4611926     
   2201511565.5868173     
   2457121345.3708334     
   2398180639.6180158     
   2349256894.6654358     
   2310964079.4791317     
   2283902427.4790325     
   2488980444.4124103     
   2446351180.2994504     
   2413975639.5600433     
   2392279394.7159386     
   2381654462.3222518     
   2541603384.4489646     
   2513315211.3321428     
   2495306687.8900619     
   2487842988.9484134     
   2491154395.0060992     
   2612284907.3984370     
   2596094253.6638279     
   2590102228.7944732     
   2594454402.0531468     
   2609269862.5182719     
   2201511565.5868173     
   2146470734.0677626     
   2106210632.5343602     
   2081482669.6256132     
   2072952856.9170191     
   2283902427.4790325     
   2243351230.3814631     
   2216619066.8821783     
   2204149596.0749936     
   2206326743.6050553     
   2381654462.3222518     
   2352704645.0338869     
   2336588719.1794443     
   2333555505.1046529     
   2343825771.9007392     
   2491154395.0060992     
   2471194158.6690326     
   2463174437.5632224     
   2467232024.1707191     
   2483502176.1780090     
   2609269862.5182719     
   2596037908.4301686     
   2594006039.5400424     
   2603254196.0718980     
   2623879226.8828239     
   2072952856.9170191     
   2069138635.4922731     
   2084671037.4160056     
   2122182529.3611708     
   2185481684.4362106     
   2206326743.6050553     
   2191801185.3166203     
   2192339185.4877896     
   2209909539.7841496     
   2247429156.0805445     
   2343825771.9007392     
   2319373876.1676021     
   2306492352.7074051     
   2306586034.7143574     
   2321741103.7408452     
   2483502176.1780090     
   2450872280.1657472     
   2426808679.3093500     
   2412256222.5926852     
   2408590191.6839843     
   2623879226.8828239     
   2585507813.4372754     
   2553001725.9831982     
   2526942074.9730024     
   2508136592.1379609     
   2185481684.4362106     
   2156251307.6177258     
   2146589939.9388139     
   2167035050.3529997     
   2228677022.5266604     
   2247429156.0805445     
   2182754721.7554607     
   2134509825.7075958     
   2112374313.7181253     
   2127300320.8817403     
   2321741103.7408452     
   2224965830.3812799     
   2141530158.9354761     
   2079811196.5314999     
   2049996697.1805954     
   2408590191.6839843     
   2283179670.1704144     
   2168298626.3409529     
   2070697381.0851541     
   1999158500.6946974     
   2508136592.1379609     
   2357607008.3094711     
   2215286587.1305447     
   2086164494.7098875     
   1977129282.7536559     
   2883572712.8436298     
   2844020032.9663157     
   2812322499.1648393     
   2788810793.0815735     
   2773823170.5626893     
   2766680727.3582582     
   2733504737.4204340     
   2710412679.7376065     
   2697679761.6891012     
   2695583042.7341924     
   2692661980.7804127     
   2663831320.7401786     
   2647372748.8157310     
   2643454018.6803718     
   2652241747.5303431     
   2670887734.8539290     
   2642462091.1315012     
   2628733627.8695159     
   2629756048.2918191     
   2645582348.9641719     
   2708565093.4841123     
   2674866040.1247163     
   2658197622.9377494     
   2658559841.9232039     
   2675952697.0810876     
   2773823170.5626893     
   2753030343.4849873     
   2738138773.7310939     
   2729245354.6807098     
   2726452914.9964662     
   2695583042.7341924     
   2680598450.5902324     
   2671182282.2847772     
   2667385578.7237101     
   2669261919.8720169     
   2652241747.5303431     
   2641087557.2150407     
   2635094754.8113523     
   2634283701.0911589     
   2638675610.7690039     
   2645582348.9641719     
   2636304564.9212594     
   2631720073.8921533     
   2631833238.0230932     
   2636648584.9720078     
   2675952697.0810876     
   2666768198.9713564     
   2661762445.0091143     
   2660935435.1943603     
   2664287169.5270929     
   2726452914.9964662     
   2694415358.9246316     
   2671001723.9393306     
   2656459319.1493983     
   2651031526.4289937     
   2669261919.8720169     
   2645476348.4659505     
   2631249131.5210996     
   2626745331.3248463     
   2632123535.1371522     
   2638675610.7690039     
   2621036468.0064983     
   2613866623.0638247     
   2617250709.2973447     
   2631268407.7889237     
   2636648584.9720078     
   2622303554.5544515     
   2619357108.4607830     
   2627833092.7640743     
   2647753640.0089893     
   2664287169.5270929     
   2649772135.6466708     
   2647645110.1009140     
   2657906092.8898306     
   2680555084.0134096     
   2651031526.4289937     
   2627657464.0356665     
   2613300731.3342032     
   2608124504.1932111     
   2612284907.3984370     
   2632123535.1371522     
   2617249511.3361955     
   2610912528.0671072     
   2613197509.7369304     
   2624184207.5212860     
   2631268407.7889237     
   2622766617.6445994     
   2622324648.0398688     
   2629976931.4005194     
   2645755350.4264002     
   2647753640.0089893     
   2643529810.5054388     
   2646918463.0082440     
   2657927370.8968635     
   2676563665.5398808     
   2680555084.0134096     
   2678627449.9963365     
   2683910497.3966656     
   2696404226.2143993     
   2716108636.4495397     
   2612284907.3984370     
   2596094253.6638279     
   2590102228.7944732     
   2594454402.0531468     
   2609269862.5182719     
   2624184207.5212860     
   2614393962.3340740     
   2614772674.2945929     
   2625401246.1989431     
   2646343980.0632005     
   2645755350.4264002     
   2640703280.9892392     
   2645877569.5014029     
   2661313894.7484307     
   2687039922.3273811     
   2676563665.5398808     
   2674490840.2408662     
   2682822375.1202059     
   2701567197.2525792     
   2730732096.5343485     
   2716108636.4495397     
   2715198037.8774767     
   2725015922.3385777     
   2745562289.8328648     
   2776837140.3603382     
   2609269862.5182719     
   2596037908.4301686     
   2594006039.5400424     
   2603254196.0718980     
   2623879226.8828239     
   2646343980.0632005     
   2634999309.7520776     
   2633935245.8226933     
   2643190766.4118490     
   2662816113.1026726     
   2687039922.3273811     
   2677258839.9294567     
   2677020603.7984099     
   2686340134.4288549     
   2705237976.0700374     
   2730732096.5343485     
   2722363288.8076091     
   2722958846.1320214     
   2732521947.8163404     
   2751057299.3191400     
   2776837140.3603382     
   2769885656.9402380     
   2771459479.1667933     
   2781558607.0400190     
   2800183040.5599022     
   2623879226.8828239     
   2585507813.4372754     
   2553001725.9831982     
   2526942074.9730024     
   2508136592.1379609     
   2662816113.1026726     
   2617427347.7764077     
   2577708461.7695403     
   2543990353.3609300     
   2516735190.9636078     
   2705237976.0700374     
   2654926071.2311873     
   2610231072.6526575     
   2571300488.8860512     
   2538340849.6421847     
   2751057299.3191400     
   2697917877.4852271     
   2650485124.1118941     
   2608795700.7528124     
   2572900936.1447191     
   2800183040.5599022     
   2746307370.2461214     
   2698371216.0826097     
   2656374578.0693922     
   2620317456.2064376     
   2508136592.1379609     
   2357607008.3094711     
   2215286587.1305447     
   2086164494.7098875     
   1977129282.7536559     
   2516735190.9636078     
   2348677869.6974778     
   2184200012.1010590     
   2026407375.6220634     
   1879874036.4684455     
   2538340849.6421847     
   2357852168.5434041     
   2177108802.1213880     
   1997585171.8209410     
   1821564253.6021867     
   2572900936.1447191     
   2385232702.2559767     
   2194480098.1955986     
   2001022125.5898025     
   1805464104.2651794     
   2620317456.2064376     
   2430787228.9364533     
   2236456138.9436240     
   2037324186.2279179     
   1833391370.7893753     
   2708565093.4841123     
   2674866040.1247163     
   2658197622.9377494     
   2658559841.9232039     
   2675952697.0810876     
   2670887677.6171222     
   2642462047.9280591     
   2628733598.9162250     
   2629756033.8324504     
   2645582349.2363634     
   2692661890.5525923     
   2663831252.7345529     
   2647372702.9729471     
   2643453994.9734211     
   2652241745.9315925     
   2766680626.7860885     
   2733504661.9518671     
   2710412628.4801245     
   2697679733.7638001     
   2695583037.2731786     
   2883572620.3092399     
   2844019964.4070430     
   2812322452.2049990     
   2788810765.3038507     
   2773823159.5591359     
   2675952697.0810876     
   2666768198.9713564     
   2661762445.0091143     
   2660935435.1943603     
   2664287169.5270929     
   2645582349.2363634     
   2636304564.5798321     
   2631720073.0383472     
   2631833236.7613750     
   2636648583.4107447     
   2652241745.9315925     
   2641087554.7140045     
   2635094751.6623802     
   2634283697.5509138     
   2638675607.0972738     
   2695583037.2731786     
   2680598444.1575184     
   2671182275.3371067     
   2667385571.7176919     
   2669261913.2644053     
   2773823159.5591359     
   2753030331.5314679     
   2738138761.5314035     
   2729245342.9382691     
   2726452904.4133658     
   2664287169.5270929     
   2649772135.6466708     
   2647645110.1009140     
   2657906092.8898306     
   2680555084.0134096     
   2636648583.4107447     
   2622303553.1625571     
   2619357107.1012406     
   2627833091.3029604     
   2647753638.3160167     
   2638675607.0972738     
   2621036464.8323607     
   2613866620.1218543     
   2617250706.3249488     
   2631268404.5273085     
   2669261913.2644053     
   2645476342.8865333     
   2631249126.5879259     
   2626745326.6538315     
   2632123530.3430891     
   2726452904.4133658     
   2694415350.1256595     
   2671001716.4429331     
   2656459312.4621134     
   2651031520.0457740     
   2680555084.0134096     
   2678627449.9963365     
   2683910497.3966656     
   2696404226.2143993     
   2716108636.4495397     
   2647753638.3160167     
   2643529809.1136436     
   2646918461.8897543     
   2657927370.0241256     
   2676563664.8854446     
   2631268404.5273085     
   2622766614.9495125     
   2622324645.8523998     
   2629976929.6628995     
   2645755349.0815763     
   2632123530.3430891     
   2617249507.3502464     
   2610912524.7966466     
   2613197507.0913486     
   2624184205.4114723     
   2651031520.0457740     
   2627657458.6918182     
   2613300726.9011331     
   2608124500.5449243     
   2612284904.4108610     
   2716108636.4495397     
   2715198037.8774767     
   2725015922.3385777     
   2745562289.8328648     
   2776837140.3603382     
   2676563664.8854446     
   2674490839.7091341     
   2682822374.6909623     
   2701567196.9057517     
   2730732096.2498183     
   2645755349.0815763     
   2640703279.9134789     
   2645877568.6541591     
   2661313894.0889764     
   2687039921.8144665     
   2624184205.4114723     
   2614393960.6714926     
   2614772673.0181046     
   2625401245.2460947     
   2646343979.3699021     
   2612284904.4108610     
   2596094251.3405356     
   2590102227.0536880     
   2594454400.8096638     
   2609269861.6830482     
   2776837140.3603382     
   2769885656.9402380     
   2771459479.1667933     
   2781558607.0400190     
   2800183040.5599022     
   2730732096.2498183     
   2722363288.6080465     
   2722958846.0119438     
   2732521947.7696176     
   2751057299.3391862     
   2687039921.8144665     
   2677258839.5716372     
   2677020603.5841060     
   2686340134.3453126     
   2705237976.1035557     
   2646343979.3699021     
   2634999309.2711639     
   2633935245.5356865     
   2643190766.2986350     
   2662816113.1416559     
   2609269861.6830482     
   2596037907.8542166     
   2594006039.1969471     
   2603254195.9331865     
   2623879226.9177856     
   2800183040.5599022     
   2746307370.2461214     
   2698371216.0826097     
   2656374578.0693922     
   2620317456.2064376     
   2751057299.3391862     
   2697917877.5170302     
   2650485124.1519046     
   2608795700.7967124     
   2572900936.1874166     
   2705237976.1035557     
   2654926071.2931786     
   2610231072.7360020     
   2571300488.9821711     
   2538340849.7412419     
   2662816113.1416559     
   2617427347.8659525     
   2577708461.8988237     
   2543990353.5171895     
   2516735191.1325626     
   2623879226.9177856     
   2585507813.5505991     
   2553001726.1602798     
   2526942075.1968951     
   2508136592.3902125     
   2620317456.2064376     
   2430787228.9364533     
   2236456138.9436240     
   2037324186.2279179     
   1833391370.7893753     
   2572900936.1874166     
   2385232702.2766752     
   2194480098.1834583     
   2001022125.5286708     
   1805464104.1309376     
   2538340849.7412419     
   2357852168.5950551     
   2177108802.1044617     
   1997585171.7041118     
   1821564253.3397155     
   2516735191.1325626     
   2348677869.7906771     
   2184200012.0880551     
   2026407375.4588158     
   1879874036.0930154     
   2508136592.3902125     
   2357607008.4550033     
   2215286587.1312976     
   2086164494.5122674     
   1977129282.2861466     
   2883572620.3092399     
   2844019964.4070430     
   2812322452.2049990     
   2788810765.3038507     
   2773823159.5591359     
   3037505934.7329712     
   2976478112.4326425     
   2923943789.3486853     
   2880374991.1879315     
   2846285032.0951037     
   3236138866.2560978     
   3152300787.3773451     
   3077240424.3909984     
   3011547087.4243846     
   2955900866.7902441     
   3475897228.3950610     
   3368041269.0007181     
   3268953871.5387568     
   3179299439.6652951     
   3099891612.9337234     
   3752813417.7685733     
   3619762836.1980519     
   3495254926.9493160     
   3379980180.2339735     
   3274837528.7824335     
   2773823159.5591359     
   2753030331.5314679     
   2738138761.5314035     
   2729245342.9382691     
   2726452904.4133658     
   2846285032.0951037     
   2815368783.9198608     
   2790079555.4855819     
   2770558896.0974097     
   2756960405.0501113     
   2955900866.7902441     
   2913813132.1054955     
   2876979396.0420504     
   2845579061.5970850     
   2819811817.5616131     
   3099891612.9337234     
   3046022209.5036254     
   2996952897.3640819     
   2952887346.8560777     
   2914058430.0625982     
   3274837528.7824335     
   3208938022.1094193     
   3147333330.1132784     
   3090234958.9527750     
   3037891485.8990517     
   2726452904.4133658     
   2694415350.1256595     
   2671001716.4429331     
   2656459312.4621134     
   2651031520.0457740     
   2756960405.0501113     
   2710832330.3616123     
   2673408632.2985649     
   2645059387.9550123     
   2626162779.2754450     
   2819811817.5616131     
   2757958717.9584460     
   2704692005.4663692     
   2660508133.3015685     
   2625934790.7407861     
   2914058430.0625982     
   2835297359.0738072     
   2764796182.3137617     
   2703161435.6958294     
   2651064059.3961430     
   3037891485.8990517     
   2941475810.9308271     
   2852807550.9068160     
   2772569873.9688039     
   2701548788.4815879     
   2651031520.0457740     
   2627657458.6918182     
   2613300726.9011331     
   2608124500.5449243     
   2612284904.4108610     
   2626162779.2754450     
   2592062819.6192560     
   2566436044.9086671     
   2549533841.3365088     
   2541603381.6427860     
   2625934790.7407861     
   2579613403.3005352     
   2541119645.2650905     
   2510793513.7706566     
   2488980441.8409119     
   2651064059.3961430     
   2591586432.4152131     
   2539158693.0826488     
   2494192561.6240311     
   2457121343.1318326     
   2701548788.4815879     
   2628591766.5168481     
   2561778917.2929220     
   2501560487.7609363     
   2448427250.5478935     
   2612284904.4108610     
   2596094251.3405356     
   2590102227.0536880     
   2594454400.8096638     
   2609269861.6830482     
   2541603381.6427860     
   2513315209.1146169     
   2495306686.2210455     
   2487842987.7845883     
   2491154394.3001275     
   2488980441.8409119     
   2446351178.2240863     
   2413975637.9798160     
   2392279393.6280899     
   2381654461.7210145     
   2457121343.1318326     
   2398180637.7553306     
   2349256893.2138410     
   2310964078.4746971     
   2283902426.9576616     
   2448427250.5478935     
   2371670437.2240415     
   2304393714.9122791     
   2247397104.5613704     
   2201511565.1211457     
   2609269861.6830482     
   2596037907.8542166     
   2594006039.1969471     
   2603254195.9331865     
   2623879226.9177856     
   2491154394.3001275     
   2471194158.2024894     
   2463174437.3125086     
   2467232024.1096897     
   2483502176.2780628     
   2381654461.7210145     
   2352704644.6664448     
   2336588719.0248637     
   2333555505.1387014     
   2343825772.0961337     
   2283902426.9576616     
   2243351230.1017618     
   2216619066.8262134     
   2204149596.2204323     
   2206326743.9254107     
   2201511565.1211457     
   2146470733.8636312     
   2106210632.5779049     
   2081482669.8970087     
   2072952857.3907058     
   2623879226.9177856     
   2585507813.5505991     
   2553001726.1602798     
   2526942075.1968951     
   2508136592.3902125     
   2483502176.2780628     
   2450872280.3475418     
   2426808679.5594506     
   2412256222.8942614     
   2408590192.0176454     
   2343825772.0961337     
   2319373876.4434981     
   2306492353.0509572     
   2306586035.1086059     
   2321741104.1652389     
   2206326743.9254107     
   2191801185.7122703     
   2192339185.9456906     
   2209909540.2866368     
   2247429156.6054544     
   2072952857.3907058     
   2069138636.0332391     
   2084671038.0095861     
   2122182529.9880121     
   2185481685.0716958     
   2508136592.3902125     
   2357607008.4550033     
   2215286587.1312976     
   2086164494.5122674     
   1977129282.2861466     
   2408590192.0176454     
   2283179670.3592343     
   2168298626.3471169     
   2070697380.8574772     
   1999158500.1693983     
   2321741104.1652389     
   2224965830.6278906     
   2141530158.9688098     
   2079811196.3064780     
   2049996696.6462719     
   2247429156.6054544     
   2182754722.0747504     
   2134509825.7901850     
   2112374313.5279779     
   2127300320.3834429     
   2185481685.0716958     
   2156251308.0249090     
   2146589940.0926392     
   2167035050.2284169     
   2228677022.1044064     
   3752813417.7685733     
   3619762836.1980519     
   3495254926.9493160     
   3379980180.2339735     
   3274837528.7824335     
   3976610499.9645505     
   3822864876.0338373     
   3676505825.8746185     
   3538263151.1070323     
   3409111356.1394053     
   4234005420.0806203     
   4058739932.3006763     
   3889730393.7094083     
   3727706331.0206137     
   3573667800.2654810     
   4517733577.6717777     
   4320370038.1673422     
   4128198803.3723741     
   3941920842.5413342     
   3762522783.8110547     
   4821779830.1864262     
   4601875827.9124498     
   4386189237.2452383     
   4175375235.1708250     
   3970380863.2737899     
   3274837528.7824335     
   3208938022.1094193     
   3147333330.1132784     
   3090234958.9527750     
   3037891485.8990517     
   3409111356.1394053     
   3335733719.6373062     
   3265346643.1437716     
   3198136513.0655913     
   3134320604.0508208     
   3573667800.2654810     
   3493718549.0139956     
   3415686416.6044846     
   3339715618.0264888     
   3265972260.0051174     
   3762522783.8110547     
   3677338045.3992515     
   3593241357.8370867     
   3510329192.9830074     
   3428710683.8424807     
   3970380863.2737899     
   3881551530.5951452     
   3793221931.5178137     
   3705443463.7430215     
   3618272970.5759673     
   3037891485.8990517     
   2941475810.9308271     
   2852807550.9068160     
   2772569873.9688039     
   2701548788.4815879     
   3134320604.0508208     
   3020687298.7966270     
   2913739328.8856654     
   2814185907.4110479     
   2722875935.2882919     
   3265972260.0051174     
   3135292808.4465241     
   3010154731.1210451     
   2891232133.1140323     
   2779363232.0706072     
   3428710683.8424807     
   3281562646.3144541     
   3138819628.4501839     
   3001072376.6260681     
   2869082860.1791501     
   3618272970.5759673     
   3455461028.4719486     
   3295996490.6855822     
   3140358823.3342571     
   2989189714.9320736     
   2701548788.4815879     
   2628591766.5168481     
   2561778917.2929220     
   2501560487.7609363     
   2448427250.5478935     
   2722875935.2882919     
   2636591479.4363098     
   2555609649.5591574     
   2480414223.0546904     
   2411554073.4407253     
   2779363232.0706072     
   2679893448.5576372     
   2584761064.5489440     
   2494433759.6818590     
   2409463073.5744619     
   2869082860.1791501     
   2757102284.9690189     
   2648456929.8923359     
   2543552937.5879846     
   2442887060.6075563     
   2989189714.9320736     
   2865739378.4158788     
   2744672814.9579120     
   2626305868.1504736     
   2511038712.9354281     
   2448427250.5478935     
   2371670437.2240415     
   2304393714.9122791     
   2247397104.5613704     
   2201511565.1211457     
   2411554073.4407253     
   2317338745.2737522     
   2231252948.3108644     
   2154187711.9727631     
   2087124261.6946061     
   2409463073.5744619     
   2298400476.2661591     
   2193853307.5032253     
   2096686255.9783614     
   2007908405.3459985     
   2442887060.6075563     
   2316636831.1515317     
   2195198216.7252889     
   2079284249.1098433     
   1969771344.9140480     
   2511038712.9354281     
   2372089698.1204300     
   2236388643.7819047     
   2104419876.6948516     
   1976804420.0102828     
   2201511565.1211457     
   2146470733.8636312     
   2106210632.5779049     
   2081482669.8970087     
   2072952857.3907058     
   2087124261.6946061     
   2012322447.6174340     
   1949761699.6777699     
   1900503626.8628914     
   1865561552.7640541     
   2007908405.3459985     
   1911867614.3314266     
   1824530419.8041043     
   1747082170.6178908     
   1680798852.8159492     
   1969771344.9140480     
   1854006479.0135565     
   1742584920.9809737     
   1636421919.5381575     
   1536640949.6217625     
   1976804420.0102828     
   1846371600.4977636     
   1715980454.2610798     
   1585983869.4657285     
   1456895823.7120411     
   2072952857.3907058     
   2069138636.0332391     
   2084671038.0095861     
   2122182529.9880121     
   2185481685.0716958     
   1865561552.7640541     
   1854820527.3435183     
   1867128231.8987017     
   1904697107.3802843     
   1970558225.5145125     
   1680798852.8159492     
   1652155350.2194149     
   1651281103.0310404     
   1680549773.6136258     
   1742571148.6056681     
   1536640949.6217625     
   1475727441.2354350     
   1447530940.7084699     
   1456020815.3330028     
   1504490407.7045801     
   1456895823.7120411     
   1347959338.2634549     
   1274014072.0216844     
   1243181950.1992602     
   1262491239.3088074     
   2185481685.0716958     
   2156251308.0249090     
   2146589940.0926392     
   2167035050.2284169     
   2228677022.1044064     
   1970558225.5145125     
   1968832770.4595690     
   2003641474.7220118     
   2093661875.1783252     
   2257559640.4695969     
   1742571148.6056681     
   1787511819.8495519     
   1884603083.9798005     
   2060744879.7836361     
   2341157032.6082029     
   1504490407.7045801     
   1613004991.3034151     
   1788734240.6622140     
   2066407047.5179920     
   2476205382.9199181     
   1262491239.3088074     
   1446355818.7304695     
   1715470366.5616016     
   2110383883.9536526     
   2663499628.8567867     
   4821779830.1864262     
   4601875827.9124498     
   4386189237.2452383     
   4175375235.1708250     
   3970380863.2737899     
   5155614578.8451042     
   4913463568.9222116     
   4673820372.7215405     
   4437080918.2977209     
   4203865584.0057306     
   5510936790.5940361     
   5248568969.3203402     
   4987285903.5729399     
   4727236140.9655962     
   4468724578.6676903     
   5885007225.4424019     
   5604513254.4726381     
   5323975443.8964090     
   5043329893.6877174     
   4762611313.7928638     
   6275581689.7953081     
   5979054122.7012081     
   5681640344.9778118     
   5383110892.9561625     
   5083294051.0401888     
   3970380863.2737899     
   3881551530.5951452     
   3793221931.5178137     
   3705443463.7430215     
   3618272970.5759673     
   4203865584.0057306     
   4107695832.8903666     
   4012442677.4653211     
   3918152240.3958216     
   3824880404.5751462     
   4468724578.6676903     
   4364456056.0006313     
   4261383856.5324306     
   4159525716.4948506     
   4058917442.3890448     
   4762611313.7928638     
   4649081235.7311430     
   4536885388.2949619     
   4425996135.7054520     
   4316415651.1746435     
   5083294051.0401888     
   4959011896.7688169     
   4836067050.1731348     
   4714375017.2952623     
   4593895588.9820499     
   3618272970.5759673     
   3455461028.4719486     
   3295996490.6855822     
   3140358823.3342571     
   2989189714.9320736     
   3824880404.5751462     
   3646464074.9863358     
   3470225928.3046284     
   3296495566.2960420     
   3125747102.2646108     
   4058917442.3890448     
   3865805647.4460287     
   3673839379.3971276     
   3483195440.8491874     
   3294167898.2942724     
   4316415651.1746435     
   4109482596.4152956     
   3902825268.8519664     
   3696480986.9840355     
   3490574824.3490682     
   4593895588.9820499     
   4373932194.5309887     
   4153542102.3006277     
   3932645051.3886619     
   3711221923.2715735     
   2989189714.9320736     
   2865739378.4158788     
   2744672814.9579120     
   2626305868.1504736     
   2511038712.9354281     
   3125747102.2646108     
   2991129263.1898217     
   2858329183.4520073     
   2727554190.3939424     
   2599081621.2388358     
   3294167898.2942724     
   3149619471.3102922     
   3006453450.5074883     
   2864778930.3459449     
   2724759988.0323462     
   3490574824.3490682     
   3337048126.0738201     
   3184595192.6851239     
   3033245138.4614601     
   2883070269.8868432     
   3711221923.2715735     
   3549355334.6850820     
   3388358871.4273849     
   3228200894.2027173     
   3068885928.7056627     
   2511038712.9354281     
   2372089698.1204300     
   2236388643.7819047     
   2104419876.6948516     
   1976804420.0102828     
   2599081621.2388358     
   2449814114.3132839     
   2302559254.3103290     
   2157636501.7982197     
   2015474792.2687843     
   2724759988.0323462     
   2566835745.7609129     
   2409866262.8204012     
   2254006747.2439446     
   2099482368.2017431     
   2883070269.8868432     
   2718147613.7497511     
   2553363382.9817300     
   2388744696.8773527     
   2224354679.2892380     
   3068885928.7056627     
   2898444528.8139386     
   2727566239.2808414     
   2556197734.5852327     
   2384302290.8948274     
   1976804420.0102828     
   1846371600.4977636     
   1715980454.2610798     
   1585983869.4657285     
   1456895823.7120411     
   2015474792.2687843     
   1879104612.0825462     
   1743009832.2831788     
   1607312364.4762120     
   1472180320.8598120     
   2099482368.2017431     
   1959966199.5230024     
   1821352149.7630520     
   1683662712.2677486     
   1546946148.3421574     
   2224354679.2892380     
   2082757694.8090243     
   1942789658.0662682     
   1804447586.3274286     
   1667803561.7235479     
   2384302290.8948274     
   2240046164.8669200     
   2098018348.1866848     
   1958222012.5128782     
   1820826986.5275152     
   1456895823.7120411     
   1347959338.2634549     
   1274014072.0216844     
   1243181950.1992602     
   1262491239.3088074     
   1472180320.8598120     
   1327998141.1578321     
   1198305677.7181523     
   1087585612.2240064     
   1001742482.3549387     
   1546946148.3421574     
   1397102135.0787811     
   1243715984.3292599     
   1084517994.4012129     
   917477576.85550714     
   1667803561.7235479     
   1552373420.0426195     
   1427828113.9554820     
   1294527701.9625733     
   1158582101.1309085     
   1820826986.5275152     
   1780071268.6867290     
   1735760837.8659816     
   1696540212.0114307     
   1680895313.3131642     
   1262491239.3088074     
   1446355818.7304695     
   1715470366.5616016     
   2110383883.9536526     
   2663499628.8567867     
   1001742482.3549387     
   1164475438.2644806     
   1425255063.9192355     
   1808645572.7959766     
   2334716842.0469894     
   917477576.85550714     
   962931649.84115851     
   1144803127.1969407     
   1476411943.4127357     
   1957438917.2303460     
   1158582101.1309085     
   1008207166.1804293     
   985110854.60867095     
   1161487171.3760967     
   1544195484.0965664     
   1680895313.3131642     
   1383459369.6078734     
   1129341555.9553986     
   1010240780.0433798     
   1153320419.0708463     
 </DataArray>
 <DataArray  type="Float64" Name="strain" NumberOfComponents="3" format="ascii">
  0.10493930648169525       -2.9607573850289004E-002   4.8745003946841781E-003
   9.9832358095446327E-002  -2.8953088185856291E-002   3.8531960094776441E-003
   9.4725409709197406E-002  -2.8169561391326925E-002   3.1205158293297064E-003
   8.9618461322948595E-002  -2.7256993466700588E-002   2.6764598542399765E-003
   8.4511512936699673E-002  -2.6215384411977904E-002   2.5210280842086208E-003
   9.8192368930648311E-002  -2.7868952021988025E-002   1.0045969046944991E-002
   9.3384449054802032E-002  -2.7180083899118468E-002   9.2683756230239056E-003
   8.8576529178955643E-002  -2.6401742655643545E-002   8.8002150148492331E-003
   8.3768609303109365E-002  -2.5533928291563424E-002   8.6414872224216122E-003
   7.8960689427263031E-002  -2.4576640806877270E-002   8.7921922457405710E-003
   9.1569480910191403E-002  -2.6130330193686935E-002   1.5271604162388097E-002
   8.7081398155435918E-002  -2.5407079612380756E-002   1.4698153690260951E-002
   8.2593315400680656E-002  -2.4633923919960471E-002   1.4454944644568896E-002
   7.8105232645925254E-002  -2.3810863116425753E-002   1.4541977025311778E-002
   7.3617149891169881E-002  -2.2937897201776969E-002   1.4959250832489945E-002
   8.5070642420324249E-002  -2.4391708365385872E-002   2.0551405741013815E-002
   8.0923205397348291E-002  -2.3634075325643045E-002   2.0142530211189197E-002
   7.6775768374372264E-002  -2.2866105184277244E-002   2.0084704718488326E-002
   7.2628331351396222E-002  -2.2087797941288335E-002   2.0377929262910776E-002
   6.8480894328420222E-002  -2.1299153596676446E-002   2.1022203844456772E-002
   7.8695853461047349E-002  -2.2653086537084866E-002   2.5885373782821408E-002
   7.4909870780539012E-002  -2.1861071038905278E-002   2.5601505185808615E-002
   7.1123888100030619E-002  -2.1098286448594045E-002   2.5689495236607462E-002
   6.7337905419522281E-002  -2.0364732766150938E-002   2.6149343935218311E-002
   6.3551922739013972E-002  -1.9660409991575922E-002   2.6981051281641022E-002
   8.4511512936699673E-002  -2.6215384411977904E-002   2.5210280842086208E-003
   8.2553352686776882E-002  -2.5148576560770963E-002   2.1107524627733687E-003
   8.0595192436854257E-002  -2.4160412246692742E-002   1.8973523329293140E-003
   7.8637032186931605E-002  -2.3250891469743240E-002   1.8808276946764013E-003
   7.6678871937008841E-002  -2.2420014229922347E-002   2.0611785480146860E-003
   7.8960689427263031E-002  -2.4576640806877270E-002   8.7921922457405710E-003
   7.7177433092901204E-002  -2.3603348938389529E-002   8.4991750765533169E-003
   7.5394176758539350E-002  -2.2687521422903645E-002   8.3590902468969330E-003
   7.3610920424177551E-002  -2.1829158260419063E-002   8.3719377567706699E-003
   7.1827664089815668E-002  -2.1028259450935782E-002   8.5377176061748883E-003
   7.3617149891169881E-002  -2.2937897201776969E-002   1.4959250832489945E-002
   7.1964854320308219E-002  -2.2058121316008095E-002   1.4804671299677996E-002
   7.0312558749446571E-002  -2.1214630599113882E-002   1.4759080954335632E-002
   6.8660263178584924E-002  -2.0407425051094330E-002   1.4822479796463395E-002
   6.7007967607723262E-002  -1.9636504671949273E-002   1.4994867826060909E-002
   6.8480894328420222E-002  -2.1299153596676446E-002   2.1022203844456772E-002
   6.6915616368998093E-002  -2.0512893693626827E-002   2.1027241132146712E-002
   6.5350338409575964E-002  -1.9741739775324563E-002   2.1097324455245973E-002
   6.3785060450153849E-002  -1.8985691841769986E-002   2.1232453813754458E-002
   6.2219782490731720E-002  -1.8244749892962736E-002   2.1432629207671930E-002
   6.3551922739013972E-002  -1.9660409991575922E-002   2.6981051281641022E-002
   6.2029719238970688E-002  -1.8967666071245171E-002   2.7166884573960270E-002
   6.0507515738927445E-002  -1.8268848951535258E-002   2.7373820749627992E-002
   5.8985312238884195E-002  -1.7563958632445562E-002   2.7601859808644033E-002
   5.7463108738840918E-002  -1.6852995113976255E-002   2.7851001751008797E-002
   7.6678871937008841E-002  -2.2420014229922347E-002   2.0611785480146860E-003
   7.2953577261967051E-002  -2.1603095062417366E-002   1.5151535569876140E-003
   6.9228282586925149E-002  -2.0735448502416876E-002   1.2073577412663461E-003
   6.5502987911883359E-002  -1.9817074549919919E-002   1.1377911008508546E-003
   6.1777693236841458E-002  -1.8847973204927704E-002   1.3064536357411116E-003
   7.1827664089815668E-002  -2.1028259450935782E-002   8.5377176061748883E-003
   6.8338013035087686E-002  -2.0236730542377124E-002   8.0653443970806760E-003
   6.4848361980359703E-002  -1.9406477082665408E-002   7.8260292533089970E-003
   6.1358710925631749E-002  -1.8537499071800911E-002   7.8197721748585053E-003
   5.7869059870903738E-002  -1.7629796509783913E-002   8.0465731617304082E-003
   6.7007967607723262E-002  -1.9636504671949273E-002   1.4994867826060909E-002
   6.3748789063325234E-002  -1.8870366022336410E-002   1.4584143557556828E-002
   6.0489610518927178E-002  -1.8077505662914078E-002   1.4401306244391038E-002
   5.7230431974529150E-002  -1.7257923593681911E-002   1.4446355886563053E-002
   5.3971253430131150E-002  -1.6411619814639955E-002   1.4719292484072971E-002
   6.2219782490731720E-002  -1.8244749892962736E-002   2.1432629207671930E-002
   5.9185905346679647E-002  -1.7504001502296154E-002   2.1071551038415182E-002
   5.6152028202627588E-002  -1.6748534243162791E-002   2.0933188714512392E-002
   5.3118151058575529E-002  -1.5978348115562795E-002   2.1017542235963759E-002
   5.0084273914523525E-002  -1.5193443119496081E-002   2.1324611602768877E-002
   5.7463108738840918E-002  -1.6852995113976255E-002   2.7851001751008797E-002
   5.4649361885150904E-002  -1.6137636982255538E-002   2.7527566839655848E-002
   5.1835615031460919E-002  -1.5419562823411406E-002   2.7421676663673039E-002
   4.9021868177770933E-002  -1.4698772637443517E-002   2.7533331223060273E-002
   4.6208121324080920E-002  -1.3975266424352317E-002   2.7862530517817619E-002
   6.1777693236841458E-002  -1.8847973204927704E-002   1.3064536357411116E-003
   5.9119516645076975E-002  -1.7882566701610814E-002   1.0321896559267740E-003
   5.6461340053312548E-002  -1.6975277274142081E-002   9.0136871835067023E-004
   5.3803163461548065E-002  -1.6126104922521485E-002   9.1399082301221735E-004
   5.1144986869783637E-002  -1.5335049646748367E-002   1.0700559699112766E-003
   5.7869059870903738E-002  -1.7629796509783913E-002   8.0465731617304082E-003
   5.5352593402112849E-002  -1.6722786130155598E-002   7.7322901919276710E-003
   5.2836126933321959E-002  -1.5855884666458459E-002   7.5579844258343298E-003
   5.0319660464531013E-002  -1.5029092118691849E-002   7.5236558634499684E-003
   4.7803193995740179E-002  -1.4242408486856872E-002   7.6293045047750585E-003
   5.3971253430131150E-002  -1.6411619814639955E-002   1.4719292484072971E-002
   5.1593031245785265E-002  -1.5563005558699994E-002   1.4382998684198484E-002
   4.9214809061439407E-002  -1.4736492058774600E-002   1.4183216249505096E-002
   4.6836586877093564E-002  -1.3932079314862431E-002   1.4119945179992453E-002
   4.4458364692747637E-002  -1.3149767326964712E-002   1.4193185475660119E-002
   5.0084273914523525E-002  -1.5193443119496081E-002   2.1324611602768877E-002
   4.7840830176094210E-002  -1.4403224987244695E-002   2.0984315132739774E-002
   4.5597386437664887E-002  -1.3617099451090416E-002   2.0777064189362603E-002
   4.3353942699235551E-002  -1.2835066511033015E-002   2.0702858772638305E-002
   4.1110498960806249E-002  -1.2057126167072663E-002   2.0761698882566001E-002
   4.6208121324080920E-002  -1.3975266424352317E-002   2.7862530517817619E-002
   4.4095990193039641E-002  -1.3243444415789341E-002   2.7536239537550800E-002
   4.1983859061998419E-002  -1.2497706843406675E-002   2.7339528245407640E-002
   3.9871727930957168E-002  -1.1738053707203655E-002   2.7272396641388363E-002
   3.7759596799915918E-002  -1.0964485007180835E-002   2.7334844725492968E-002
   5.1144986869783637E-002  -1.5335049646748367E-002   1.0700559699112766E-003
   4.8291318978552100E-002  -1.4552336657773335E-002   6.2206755534277569E-004
   4.5437651087320674E-002  -1.3728191166544168E-002   2.8514293074544117E-004
   4.2583983196089248E-002  -1.2862613173062989E-002   5.9282096118218330E-005
   3.9730315304857711E-002  -1.1955602677328425E-002  -5.5514948537949138E-005
   4.7803193995740179E-002  -1.4242408486856872E-002   7.6293045047750585E-003
   4.5059052971821945E-002  -1.3463309002237356E-002   7.2099293004759257E-003
   4.2314911947903711E-002  -1.2659268896120679E-002   6.8985440408318444E-003
   3.9570770923985532E-002  -1.1830288168505287E-002   6.6951487258440912E-003
   3.6826629900067354E-002  -1.0976366819392291E-002   6.5997433555123886E-003
   4.4458364692747637E-002  -1.3149767326964712E-002   1.4193185475660119E-002
   4.1820676690827729E-002  -1.2374281346702265E-002   1.3785931600874601E-002
   3.9182988688907794E-002  -1.1590346625696496E-002   1.3483593825430351E-002
   3.6545300686987914E-002  -1.0797963163947578E-002   1.3286172149326550E-002
   3.3907612685067895E-002  -9.9971309614561576E-003   1.3193666572563600E-002
   4.1110498960806249E-002  -1.2057126167072663E-002   2.0761698882566001E-002
   3.8576190135569580E-002  -1.1285253691167063E-002   2.0350074456539635E-002
   3.6041881310332813E-002  -1.0521424355272882E-002   2.0040292284539581E-002
   3.3507572485096102E-002  -9.7656381593904280E-003   1.9832352366564717E-002
   3.0973263659859383E-002  -9.0178951035196908E-003   1.9726254702615922E-002
   3.7759596799915918E-002  -1.0964485007180835E-002   2.7334844725492968E-002
   3.5325593306047398E-002  -1.0196226035631473E-002   2.6902357867471027E-002
   3.2891589812178879E-002  -9.4525020848488517E-003   2.6568639418159956E-002
   3.0457586318310373E-002  -8.7333131548328405E-003   2.6333689377559533E-002
   2.8023582824441839E-002  -8.0386592455836681E-003   2.6197507745669646E-002
   3.9730315304857711E-002  -1.1955602677328425E-002  -5.5514948537949138E-005
   3.7354196456891864E-002  -1.1111919089511924E-002  -2.9927173602284363E-004
   3.4978077608925962E-002  -1.0436321819781436E-002  -4.7009214380266950E-004
   3.2601958760960087E-002  -9.9288108681402504E-003  -5.6797617187720473E-004
   3.0225839912994212E-002  -9.5893862345852732E-003  -5.9292382024711543E-004
   3.6826629900067354E-002  -1.0976366819392291E-002   6.5997433555123886E-003
   3.4507815944097353E-002  -1.0165368805126307E-002   6.1855864654688508E-003
   3.2189001988127297E-002  -9.4651580820521164E-003   5.8131029797129363E-003
   2.9870188032157324E-002  -8.8757346501702056E-003   5.4822928982430352E-003
   2.7551374076187352E-002  -8.3970985094812267E-003   5.1931562210599802E-003
   3.3907612685067895E-002  -9.9971309614561576E-003   1.3193666572563600E-002
   3.1614840645675407E-002  -9.2188185207410234E-003   1.2666408606857638E-002
   2.9322068606282961E-002  -8.4939943443227695E-003   1.2149561070020271E-002
   2.7029296566890494E-002  -7.8226584322017081E-003   1.1643123962050958E-002
   2.4736524527497972E-002  -7.2048107843774023E-003   1.1147097282950325E-002
   3.0973263659859383E-002  -9.0178951035196908E-003   1.9726254702615922E-002
   2.8675270561626089E-002  -8.2722682363560174E-003   1.9143194688142642E-002
   2.6377277463392790E-002  -7.5228306065936584E-003   1.8539282127119354E-002
   2.4079284365159472E-002  -6.7695822142328811E-003   1.7914517019546345E-002
   2.1781291266926142E-002  -6.0125230592731338E-003   1.7268899365422988E-002
   2.8023582824441839E-002  -8.0386592455836681E-003   2.6197507745669646E-002
   2.5689105691949377E-002  -7.3257179519706783E-003   2.5615944709323935E-002
   2.3354628559456886E-002  -6.5516668688643531E-003   2.4982266151010735E-002
   2.1020151426964465E-002  -5.7165059962634504E-003   2.4296472070728770E-002
   1.8685674294471932E-002  -4.8202353341693094E-003   2.3558562468478317E-002
   3.0225839912994212E-002  -9.5893862345852732E-003  -5.9292382024711543E-004
   2.9612043475069294E-002  -9.1289464395015729E-003  -3.6064624154885649E-004
   2.8998247037144431E-002  -8.2583900032726087E-003  -1.8047508969051274E-003
   2.8384450599219513E-002  -6.9777169258967014E-003  -4.9252377863173158E-003
   2.7770654161294650E-002  -5.2869272073754470E-003  -9.7221069097834789E-003
   2.7551374076187352E-002  -8.3970985094812267E-003   5.1931562210599802E-003
   2.5529544978873830E-002  -7.8677293934417136E-003   5.8645846040613625E-003
   2.3507715881560309E-002  -7.1261070355096434E-003   5.3963299023398470E-003
   2.1485886784246844E-002  -6.1722314356848773E-003   3.7883921158955725E-003
   1.9464057686933267E-002  -5.0061025939687198E-003   1.0407712447293438E-003
   2.4736524527497972E-002  -7.2048107843774023E-003   1.1147097282950325E-002
   2.1843361920128146E-002  -6.6065123473820209E-003   1.2059813071000680E-002
   1.8950199312758403E-002  -5.9938240677473720E-003   1.2369544923661158E-002
   1.6057036705388592E-002  -5.3667459454735042E-003   1.2076292840930855E-002
   1.3163874098018807E-002  -4.7252779805616596E-003   1.1180056822811146E-002
   2.1781291266926142E-002  -6.0125230592731338E-003   1.7268899365422988E-002
   1.8553494298832421E-002  -5.3452953013220228E-003   1.8225039159269291E-002
   1.5325697330738623E-002  -4.8615410999849756E-003   1.9114894167057937E-002
   1.2097900362644746E-002  -4.5612604552623497E-003   1.9938464388788619E-002
   8.8701033945509933E-003  -4.4444533671545439E-003   2.0695749824461665E-002
   1.8685674294471932E-002  -4.8202353341693094E-003   2.3558562468478317E-002
   1.5659942114986447E-002  -4.0840782552619137E-003   2.4360262868867277E-002
   1.2634209935500962E-002  -3.7292581322224960E-003   2.5632377632530789E-002
   9.6084777560154627E-003  -3.7557749650505637E-003   2.7374906759468631E-002
   6.5827455765299914E-003  -4.1636287537473171E-003   2.9587850249680803E-002
   2.7770654161294650E-002  -5.2869272073754470E-003  -9.7221069097834789E-003
   2.3347879040443553E-002  -4.2048246694166291E-003  -4.1887026744069633E-003
   1.8925103919592512E-002  -4.7502131337253117E-003   2.6066651207972136E-003
   1.4502328798741471E-002  -6.9230926003057552E-003   1.0663996475830106E-002
   1.0079553677890374E-002  -1.0723463069155059E-002   1.9983291390689217E-002
   1.9464057686933267E-002  -5.0061025939687198E-003   1.0407712447293438E-003
   1.6231223810278084E-002  -4.6902607357324211E-003   6.7384069443591210E-003
   1.2998389933622789E-002  -6.2872460863486190E-003   1.3553961572552509E-002
   9.7655560569674671E-003  -9.7970586458188264E-003   2.1487435129309618E-002
   6.5327221803122004E-003  -1.5219698414141281E-002   3.0538827614630559E-002
   1.3163874098018807E-002  -4.7252779805616596E-003   1.1180056822811146E-002
   1.0976936834295126E-002  -5.1756968020478800E-003   1.6756587780110688E-002
   8.7899995705714856E-003  -7.8242790389712880E-003   2.3306993034709483E-002
   6.6030623068480121E-003  -1.2671024691330461E-002   3.0831272586608408E-002
   4.4161250431241639E-003  -1.9715933759127502E-002   3.9329426435805281E-002
   8.8701033945509933E-003  -4.4444533671545439E-003   2.0695749824461665E-002
   7.5850181124947555E-003  -5.6611328683635054E-003   2.5865839832847251E-002
   6.2999328304385732E-003  -9.3613119915929438E-003   3.1865759507268006E-002
   5.0148475483822799E-003  -1.5544990736843480E-002   3.8695508847723659E-002
   3.7297622663261532E-003  -2.4212169104113723E-002   4.6355087854216104E-002
   6.5827455765299914E-003  -4.1636287537473171E-003   2.9587850249680803E-002
   6.0554676448769662E-003  -6.1465689346791308E-003   3.4066163102569158E-002
   5.5281897132240243E-003  -1.0898344944215682E-002   3.9230260990228250E-002
   5.0009117815710546E-003  -1.8418956782355604E-002   4.5080143912658438E-002
   4.4736338499180572E-003  -2.8708404449099945E-002   5.1615811869859751E-002
   7.8695853461047349E-002  -2.2653086537084866E-002   2.5885373782821408E-002
   7.4909870780539012E-002  -2.1861071038905278E-002   2.5601505185808615E-002
   7.1123888100030619E-002  -2.1098286448594045E-002   2.5689495236607462E-002
   6.7337905419522281E-002  -2.0364732766150938E-002   2.6149343935218311E-002
   6.3551922739013972E-002  -1.9660409991575922E-002   2.6981051281641022E-002
   7.2307051250459220E-002  -2.0718988975799157E-002   3.2582651259387085E-002
   6.8890648949651995E-002  -2.0028396742703153E-002   3.2122400903783876E-002
   6.5474246648844825E-002  -1.9352628516274173E-002   3.2029452659770946E-002
   6.2057844348037627E-002  -1.8691684296512148E-002   3.2303806527348225E-002
   5.8641442047230458E-002  -1.8045564083417176E-002   3.2945462506516338E-002
   6.5766173006658935E-002  -1.8784891414513505E-002   3.9171302020268667E-002
   6.2714794549331446E-002  -1.8195722446501014E-002   3.8549076807276039E-002
   5.9663416092003901E-002  -1.7606970583954343E-002   3.8289597169652315E-002
   5.6612037634676413E-002  -1.7018635826873473E-002   3.8392863107397653E-002
   5.3560659177348834E-002  -1.6430718175258374E-002   3.8858874620511824E-002
   5.9073218729646701E-002  -1.6850793853227825E-002   4.5651326065466270E-002
   5.6382307579577282E-002  -1.6363048150298869E-002   4.4881532896285617E-002
   5.3691396429507966E-002  -1.5861312651634492E-002   4.4469928766252304E-002
   5.1000485279438568E-002  -1.5345587357234741E-002   4.4416513675366594E-002
   4.8309574129369259E-002  -1.4815872267099600E-002   4.4721287623628175E-002
   5.2228188419422228E-002  -1.4916696291942144E-002   5.2022723394979709E-002
   4.9893188040389558E-002  -1.4530373854096723E-002   5.1119769170812068E-002
   4.7558187661356888E-002  -1.4115654719314669E-002   5.0570447449570566E-002
   4.5223187282324176E-002  -1.3672538887595988E-002   5.0374758231254840E-002
   4.2888186903291547E-002  -1.3201026358940771E-002   5.0532701515865142E-002
   6.3551922739013972E-002  -1.9660409991575922E-002   2.6981051281641022E-002
   6.2029719238970688E-002  -1.8967666071245171E-002   2.7166884573960270E-002
   6.0507515738927445E-002  -1.8268848951535258E-002   2.7373820749627992E-002
   5.8985312238884195E-002  -1.7563958632445562E-002   2.7601859808644033E-002
   5.7463108738840918E-002  -1.6852995113976255E-002   2.7851001751008797E-002
   5.8641442047230458E-002  -1.8045564083417176E-002   3.2945462506516338E-002
   5.7157685535682831E-002  -1.7403414733375491E-002   3.2984815465854508E-002
   5.5673929024135163E-002  -1.6754383102773093E-002   3.3079959518835467E-002
   5.4190172512587537E-002  -1.6098469191610228E-002   3.3230894665459212E-002
   5.2706416001039869E-002  -1.5435672999886851E-002   3.3437620905725579E-002
   5.3560659177348834E-002  -1.6430718175258374E-002   3.8858874620511824E-002
   5.2150037864591041E-002  -1.5839163395505479E-002   3.8752556328050039E-002
   5.0739416551833311E-002  -1.5239917254010978E-002   3.8736717339525432E-002
   4.9328795239075532E-002  -1.4632979750775004E-002   3.8811357654937637E-002
   4.7918173926317781E-002  -1.4018350885797420E-002   3.8976477274286811E-002
   4.8309574129369259E-002  -1.4815872267099600E-002   4.4721287623628175E-002
   4.7006776225695525E-002  -1.4274912057635633E-002   4.4470107160547556E-002
   4.5703978322021777E-002  -1.3725451405248810E-002   4.4344094211698201E-002
   4.4401180418348042E-002  -1.3167490309939765E-002   4.4343248777079874E-002
   4.3098382514674301E-002  -1.2601028771707976E-002   4.4467570856692812E-002
   4.2888186903291547E-002  -1.3201026358940771E-002   5.0532701515865142E-002
   4.1727900618996075E-002  -1.2710660719765732E-002   5.0137467963346560E-002
   4.0567614334700602E-002  -1.2210985556486642E-002   4.9902090135353516E-002
   3.9407328050405158E-002  -1.1702000869104487E-002   4.9826568031885843E-002
   3.8247041766109685E-002  -1.1183706657618531E-002   4.9910901652943429E-002
   5.7463108738840918E-002  -1.6852995113976255E-002   2.7851001751008797E-002
   5.4649361885150904E-002  -1.6137636982255538E-002   2.7527566839655848E-002
   5.1835615031460919E-002  -1.5419562823411406E-002   2.7421676663673039E-002
   4.9021868177770933E-002  -1.4698772637443517E-002   2.7533331223060273E-002
   4.6208121324080920E-002  -1.3975266424352317E-002   2.7862530517817619E-002
   5.2706416001039869E-002  -1.5435672999886851E-002   3.3437620905725579E-002
   5.0112123957193333E-002  -1.4767236330950589E-002   3.3088104082419106E-002
   4.7517831913346714E-002  -1.4094400988148917E-002   3.2959952143429297E-002
   4.4923539869500123E-002  -1.3417166971481893E-002   3.3053165088756421E-002
   4.2329247825653504E-002  -1.2735534280949645E-002   3.3367742918400001E-002
   4.7918173926317781E-002  -1.4018350885797420E-002   3.8976477274286811E-002
   4.5547156841261136E-002  -1.3396835679645488E-002   3.8602561185768783E-002
   4.3176139756204573E-002  -1.2769239152886476E-002   3.8453830130513920E-002
   4.0805122671147970E-002  -1.2135561305520211E-002   3.8530284108522522E-002
   3.8434105586091380E-002  -1.1495802137546918E-002   3.8831923119794498E-002
   4.3098382514674301E-002  -1.2601028771707976E-002   4.4467570856692812E-002
   4.0954460537354367E-002  -1.2026435028340547E-002   4.4070938149704808E-002
   3.8810538560034427E-002  -1.1444077317624066E-002   4.3903310624926875E-002
   3.6666616582714501E-002  -1.0853955639558668E-002   4.3964688282358694E-002
   3.4522694605394554E-002  -1.0256069994144218E-002   4.4255071122000694E-002
   3.8247041766109685E-002  -1.1183706657618531E-002   4.9910901652943429E-002
   3.6334035045473057E-002  -1.0656034377035384E-002   4.9493234974227529E-002
   3.4421028324836345E-002  -1.0118915482361587E-002   4.9308393626668029E-002
   3.2508021604199674E-002  -9.5723499735968880E-003   4.9356377610265387E-002
   3.0595014883563004E-002  -9.0163378507414071E-003   4.9637186925019061E-002
   4.6208121324080920E-002  -1.3975266424352317E-002   2.7862530517817619E-002
   4.4095990193039641E-002  -1.3243444415789341E-002   2.7536239537550800E-002
   4.1983859061998419E-002  -1.2497706843406675E-002   2.7339528245407640E-002
   3.9871727930957168E-002  -1.1738053707203655E-002   2.7272396641388363E-002
   3.7759596799915918E-002  -1.0964485007180835E-002   2.7334844725492968E-002
   4.2329247825653504E-002  -1.2735534280949645E-002   3.3367742918400001E-002
   4.0349867173691240E-002  -1.2045681019272392E-002   3.3041333004075885E-002
   3.8370486521728947E-002  -1.1343785289170405E-002   3.2850844359785913E-002
   3.6391105869766627E-002  -1.0629847090643615E-002   3.2796276985530032E-002
   3.4411725217804390E-002  -9.9038664236923424E-003   3.2877630881308129E-002
   3.8434105586091380E-002  -1.1495802137546918E-002   3.8831923119794498E-002
   3.6593816995118329E-002  -1.0847917622755249E-002   3.8503521176017852E-002
   3.4753528404145292E-002  -1.0189863734934246E-002   3.8317382084185600E-002
   3.2913239813172263E-002  -9.5216404740836869E-003   3.8273505844297687E-002
   3.1072951222199163E-002  -8.8432478402037384E-003   3.8371892456354362E-002
   3.4522694605394554E-002  -1.0256069994144218E-002   4.4255071122000694E-002
   3.2827839657321070E-002  -9.6501542262383139E-003   4.3922804053376271E-002
   3.1132984709247611E-002  -9.0359421806979756E-003   4.3739141418606679E-002
   2.9438129761174089E-002  -8.4134338575238138E-003   4.3704083217691786E-002
   2.7743274813100665E-002  -7.7826292567151345E-003   4.3817629450631369E-002
   3.0595014883563004E-002  -9.0163378507414071E-003   4.9637186925019061E-002
   2.9051935160299386E-002  -8.4523908297211015E-003   4.9299181636151601E-002
   2.7508855437035740E-002  -7.8820206264618720E-003   4.9116122363049297E-002
   2.5965775713772121E-002  -7.3052272409636770E-003   4.9088009105712038E-002
   2.4422695990508503E-002  -6.7220106732265306E-003   4.9214841864139713E-002
   3.7759596799915918E-002  -1.0964485007180835E-002   2.7334844725492968E-002
   3.5325593306047398E-002  -1.0196226035631473E-002   2.6902357867471027E-002
   3.2891589812178879E-002  -9.4525020848488517E-003   2.6568639418159956E-002
   3.0457586318310373E-002  -8.7333131548328405E-003   2.6333689377559533E-002
   2.8023582824441839E-002  -8.0386592455836681E-003   2.6197507745669646E-002
   3.4411725217804390E-002  -9.9038664236923424E-003   3.2877630881308129E-002
   3.2088753743543252E-002  -9.1797311213235311E-003   3.2446371111511163E-002
   2.9765782269282143E-002  -8.4713290165451538E-003   3.2138406972218231E-002
   2.7442810795021075E-002  -7.7786601093566346E-003   3.1953738463429540E-002
   2.5119839320759951E-002  -7.1017243997585355E-003   3.1892365585145188E-002
   3.1072951222199163E-002  -8.8432478402037384E-003   3.8371892456354362E-002
   2.8885538989339057E-002  -8.1632362070157838E-003   3.7950661597958957E-002
   2.6698126756478945E-002  -7.4901559482414420E-003   3.7677253591860957E-002
   2.4510714523618794E-002  -6.8240070638806473E-003   3.7551668438060619E-002
   2.2323302290758684E-002  -6.1647895539332920E-003   3.7573906136558144E-002
   2.7743274813100665E-002  -7.7826292567151345E-003   4.3817629450631369E-002
   2.5715949043434955E-002  -7.1467412927081059E-003   4.3415229326813985E-002
   2.3688623273769215E-002  -6.5089828799377927E-003   4.3185179277087565E-002
   2.1661297504103533E-002  -5.8693540184042176E-003   4.3127479301452311E-002
   1.9633971734437757E-002  -5.2278547081081039E-003   4.3242129399908520E-002
   2.4422695990508503E-002  -6.7220106732265306E-003   4.9214841864139713E-002
   2.2579983905830769E-002  -6.1302463784002059E-003   4.8840074298076686E-002
   2.0737271821153008E-002  -5.5278098116339491E-003   4.8662184027898570E-002
   1.8894559736475289E-002  -4.9147009729282667E-003   4.8681171053605060E-002
   1.7051847651797514E-002  -4.2909198622829159E-003   4.8897035375196296E-002
   2.8023582824441839E-002  -8.0386592455836681E-003   2.6197507745669646E-002
   2.5689105691949377E-002  -7.3257179519706783E-003   2.5615944709323935E-002
   2.3354628559456886E-002  -6.5516668688643531E-003   2.4982266151010735E-002
   2.1020151426964465E-002  -5.7165059962634504E-003   2.4296472070728770E-002
   1.8685674294471932E-002  -4.8202353341693094E-003   2.3558562468478317E-002
   2.5119839320759951E-002  -7.1017243997585355E-003   3.1892365585145188E-002
   2.2771284647265522E-002  -6.4245573273314371E-003   3.1494699859817454E-002
   2.0422729973770981E-002  -5.7311943316564473E-003   3.1120994574454108E-002
   1.8074175300276496E-002  -5.0216354127340310E-003   3.0771249729055178E-002
   1.5725620626782011E-002  -4.2958805705638481E-003   3.0445465323620358E-002
   2.2323302290758684E-002  -6.1647895539332920E-003   3.7573906136558144E-002
   2.0036746038194816E-002  -5.5233967026918074E-003   3.7315223856001917E-002
   1.7750189785630983E-002  -4.9107217944489717E-003   3.7156577977342800E-002
   1.5463633533067126E-002  -4.3267648292042750E-003   3.7097968500580440E-002
   1.3177077280503227E-002  -3.7715258069582758E-003   3.7139395425715177E-002
   1.9633971734437757E-002  -5.2278547081081039E-003   4.3242129399908520E-002
   1.7485489864737268E-002  -4.6222360780523164E-003   4.3077516697877800E-002
   1.5337007995036700E-002  -4.0902492572411700E-003   4.3089016359676394E-002
   1.3188526125336188E-002  -3.6318942456747983E-003   4.3276628385304668E-002
   1.1040044255635640E-002  -3.2471710433528145E-003   4.3640352774763060E-002
   1.7051847651797514E-002  -4.2909198622829159E-003   4.8897035375196296E-002
   1.5117516126892938E-002  -3.7210754534130475E-003   4.8781578385444280E-002
   1.3183184601988335E-002  -3.2697767200336458E-003   4.8918309721455278E-002
   1.1248853077083745E-002  -2.9370236621451135E-003   4.9307229383227652E-002
   9.3145215521791003E-003  -2.7228162797472422E-003   4.9948337370763207E-002
   1.8685674294471932E-002  -4.8202353341693094E-003   2.3558562468478317E-002
   1.5659942114986447E-002  -4.0840782552619137E-003   2.4360262868867277E-002
   1.2634209935500962E-002  -3.7292581322224960E-003   2.5632377632530789E-002
   9.6084777560154627E-003  -3.7557749650505637E-003   2.7374906759468631E-002
   6.5827455765299914E-003  -4.1636287537473171E-003   2.9587850249680803E-002
   1.5725620626782011E-002  -4.2958805705638481E-003   3.0445465323620358E-002
   1.3152601740572950E-002  -3.7808117974765243E-003   3.1231522466781902E-002
   1.0579582854363945E-002  -3.7033110858023521E-003   3.2452591833221911E-002
   8.0065639681548978E-003  -4.0633784355418034E-003   3.4108673422940244E-002
   5.4335450819458786E-003  -4.8610138466942399E-003   3.6199767235936986E-002
   1.3177077280503227E-002  -3.7715258069582758E-003   3.7139395425715177E-002
   1.1021369547574641E-002  -3.4775453396908573E-003   3.7853578206103772E-002
   8.8656618146459448E-003  -3.6773640393823054E-003   3.8967371069774562E-002
   6.7099540817173280E-003  -4.3709819060325956E-003   4.0480774016727582E-002
   4.5542463487886625E-003  -5.5583989396416622E-003   4.2393787046963144E-002
   1.1040044255635640E-002  -3.2471710433528145E-003   4.3640352774763060E-002
   9.2662455359913097E-003  -3.1742788819053291E-003   4.4226430086832705E-002
   7.4924468163470367E-003  -3.6514169929622101E-003   4.5176715342189228E-002
   5.7186480967027177E-003  -4.6785853765235006E-003   4.6491208540831760E-002
   3.9448493770584299E-003  -6.2557840325890568E-003   4.8169909682760532E-002
   9.3145215521791003E-003  -2.7228162797472422E-003   4.9948337370763207E-002
   7.8872297058231178E-003  -2.8710124241198565E-003   5.0350078108969076E-002
   6.4599378594671075E-003  -3.6254699465421703E-003   5.1080624650465589E-002
   5.0326460131111389E-003  -4.9861888470145860E-003   5.2139976995251858E-002
   3.6053541667551148E-003  -6.9531691255362293E-003   5.3528135143328770E-002
   6.5827455765299914E-003  -4.1636287537473171E-003   2.9587850249680803E-002
   6.0554676448769662E-003  -6.1465689346791308E-003   3.4066163102569158E-002
   5.5281897132240243E-003  -1.0898344944215682E-002   3.9230260990228250E-002
   5.0009117815710546E-003  -1.8418956782355604E-002   4.5080143912658438E-002
   4.4736338499180572E-003  -2.8708404449099945E-002   5.1615811869859751E-002
   5.4335450819458786E-003  -4.8610138466942399E-003   3.6199767235936986E-002
   5.4880474756220654E-003  -6.9954328493612716E-003   3.8341559665700353E-002
   5.5425498692983077E-003  -1.1365850973643704E-002   4.0961127711351075E-002
   5.5970522629746056E-003  -1.7972268219540753E-002   4.4058471372889318E-002
   5.6515546566507369E-003  -2.6814684587052939E-002   4.7633590650314250E-002
   4.5542463487886625E-003  -5.5583989396416622E-003   4.2393787046963144E-002
   4.9825196489102774E-003  -7.8442967640433015E-003   4.2731895760591304E-002
   5.4107929490319687E-003  -1.1833357003071629E-002   4.3339770671222369E-002
   5.8390662491536530E-003  -1.7525579656725517E-002   4.4217411778857553E-002
   6.2673395492753303E-003  -2.4920964725006156E-002   4.5364819083495878E-002
   3.9448493770584299E-003  -6.2557840325890568E-003   4.8169909682760532E-002
   4.5388841647416994E-003  -8.6931606787256088E-003   4.7237171387241796E-002
   5.1329189524249481E-003  -1.2300863032499491E-002   4.6366189869842200E-002
   5.7269537401082472E-003  -1.7078891093910697E-002   4.5556965130562441E-002
   6.3209885277914629E-003  -2.3027244862959373E-002   4.4809497169402940E-002
   3.6053541667551148E-003  -6.9531691255362293E-003   5.3528135143328770E-002
   4.1571410231161510E-003  -9.5420245934075831E-003   5.1857386545651751E-002
   4.7089278794772427E-003  -1.2768369061927687E-002   5.0040385307210555E-002
   5.2607147358383760E-003  -1.6632202531095347E-002   4.8077131428005848E-002
   5.8125015921993706E-003  -2.1133525000912368E-002   4.5967624908036520E-002
   5.2228188419422228E-002  -1.4916696291942144E-002   5.2022723394979709E-002
   4.9893188040389558E-002  -1.4530373854096723E-002   5.1119769170812068E-002
   4.7558187661356888E-002  -1.4115654719314669E-002   5.0570447449570566E-002
   4.5223187282324176E-002  -1.3672538887595988E-002   5.0374758231254840E-002
   4.2888186903291547E-002  -1.3201026358940771E-002   5.0532701515865142E-002
   4.5413074458180352E-002  -1.3024207580474290E-002   5.4234643684689054E-002
   4.3411739177271383E-002  -1.2692086403953723E-002   5.3551350605791165E-002
   4.1410403896362427E-002  -1.2332922286580672E-002   5.3181755220214566E-002
   3.9409068615453458E-002  -1.1946715228355054E-002   5.3125857527959494E-002
   3.7407733334544502E-002  -1.1533465229276951E-002   5.3383657529025963E-002
   3.8809869228115662E-002  -1.1131718869006435E-002   5.6393039591115718E-002
   3.7102264235726018E-002  -1.0853798953810778E-002   5.5928053901403152E-002
   3.5394659243336304E-002  -1.0550189853846662E-002   5.5736831095407488E-002
   3.3687054250946619E-002  -1.0220891569114088E-002   5.5819371173129038E-002
   3.1979449258556919E-002  -9.8659040996131597E-003   5.6175674134567616E-002
   3.2418572729228191E-002  -9.2392301575386082E-003   5.8497911114259386E-002
   3.0964763215753321E-002  -9.0155115036678612E-003   5.8249879057648113E-002
   2.9510953702278457E-002  -8.7674574211126857E-003   5.8235675075149568E-002
   2.8057144188803586E-002  -8.4950679098732221E-003   5.8455299166763557E-002
   2.6603334675328719E-002  -8.1983429699493543E-003   5.8908751332490267E-002
   2.6239184961517892E-002  -7.3467414460707259E-003   6.0549258254120275E-002
   2.4999236117353413E-002  -7.1772240535248333E-003   6.0516826074526409E-002
   2.3759287273188892E-002  -6.9847249883787099E-003   6.0678287159440680E-002
   2.2519338429024406E-002  -6.7692442506322031E-003   6.1033641508862979E-002
   2.1279389584859920E-002  -6.5307818402854934E-003   6.1582889122793527E-002
   4.2888186903291547E-002  -1.3201026358940771E-002   5.0532701515865142E-002
   4.1727900618996075E-002  -1.2710660719765732E-002   5.0137467963346560E-002
   4.0567614334700602E-002  -1.2210985556486642E-002   4.9902090135353516E-002
   3.9407328050405158E-002  -1.1702000869104487E-002   4.9826568031885843E-002
   3.8247041766109685E-002  -1.1183706657618531E-002   4.9910901652943429E-002
   3.7407733334544502E-002  -1.1533465229276951E-002   5.3383657529025963E-002
   3.6407054649993192E-002  -1.1102896966413839E-002   5.3048796899896306E-002
   3.5406375965441841E-002  -1.0664735116833204E-002   5.2873295745729354E-002
   3.4405697280890490E-002  -1.0218979680535038E-002   5.2857154066525386E-002
   3.3405018596339181E-002  -9.7656306575191754E-003   5.3000371862284235E-002
   3.1979449258556919E-002  -9.8659040996131597E-003   5.6175674134567616E-002
   3.1137881924187202E-002  -9.4951332130622512E-003   5.5899470491440575E-002
   3.0296314589817512E-002  -9.1184846771796557E-003   5.5782130073714048E-002
   2.9454747255447816E-002  -8.7359584919655328E-003   5.5823652881387659E-002
   2.8613179921078105E-002  -8.3475546574198478E-003   5.6024038914461935E-002
   2.6603334675328719E-002  -8.1983429699493543E-003   5.8908751332490267E-002
   2.5920382441578165E-002  -7.8873694597104554E-003   5.8689488737979870E-002
   2.5237430207827594E-002  -7.5722342375260515E-003   5.8628593119307522E-002
   2.4554477974077026E-002  -7.2529373033960003E-003   5.8726064476472994E-002
   2.3871525740326468E-002  -6.9294786573203676E-003   5.8981902809476489E-002
   2.1279389584859920E-002  -6.5307818402854934E-003   6.1582889122793527E-002
   2.0754556202166013E-002  -6.2796057063587707E-003   6.1418851639514049E-002
   2.0229722819472100E-002  -6.0259837978725028E-003   6.1412684882509921E-002
   1.9704889436778190E-002  -5.7699161148264538E-003   6.1564388851781227E-002
   1.9180056054084266E-002  -5.5114026572211650E-003   6.1873963547327937E-002
   3.8247041766109685E-002  -1.1183706657618531E-002   4.9910901652943429E-002
   3.6334035045473057E-002  -1.0656034377035384E-002   4.9493234974227529E-002
   3.4421028324836345E-002  -1.0118915482361587E-002   4.9308393626668029E-002
   3.2508021604199674E-002  -9.5723499735968880E-003   4.9356377610265387E-002
   3.0595014883563004E-002  -9.0163378507414071E-003   4.9637186925019061E-002
   3.3405018596339181E-002  -9.7656306575191754E-003   5.3000371862284235E-002
   3.1721593321741390E-002  -9.3032669849630323E-003   5.2639586956187090E-002
   3.0038168047143612E-002  -8.8304676000436344E-003   5.2505139611010970E-002
   2.8354742772545821E-002  -8.3472325027610789E-003   5.2597029826756000E-002
   2.6671317497948044E-002  -7.8535616931156293E-003   5.2915257603422361E-002
   2.8613179921078105E-002  -8.3475546574198478E-003   5.6024038914461935E-002
   2.7152848322283790E-002  -7.9504995928905420E-003   5.5721124879255762E-002
   2.5692516723489531E-002  -7.5420197177257439E-003   5.5638060634735372E-002
   2.4232185124695261E-002  -7.1221150319254935E-003   5.5774846180900811E-002
   2.2771853525900956E-002  -6.6907855354896850E-003   5.6131481517751936E-002
   2.3871525740326468E-002  -6.9294786573203676E-003   5.8981902809476489E-002
   2.2627800047100289E-002  -6.5977322008181488E-003   5.8737848743433824E-002
   2.1384074353874107E-002  -6.2535718354079887E-003   5.8707156697841371E-002
   2.0140348660647931E-002  -5.8969975610897963E-003   5.8889826672699395E-002
   1.8896622967421749E-002  -5.5280093778636574E-003   5.9285858668007993E-002
   1.9180056054084266E-002  -5.5114026572211650E-003   6.1873963547327937E-002
   1.8146448496190820E-002  -5.2449648087456724E-003   6.1689758548720941E-002
   1.7112840938297347E-002  -4.9651239530899421E-003   6.1712427800329150E-002
   1.6079233380403880E-002  -4.6718800902541095E-003   6.1941971302152357E-002
   1.5045625822510428E-002  -4.3652332202379074E-003   6.2378389054190519E-002
   3.0595014883563004E-002  -9.0163378507414071E-003   4.9637186925019061E-002
   2.9051935160299386E-002  -8.4523908297211015E-003   4.9299181636151601E-002
   2.7508855437035740E-002  -7.8820206264618720E-003   4.9116122363049297E-002
   2.5965775713772121E-002  -7.3052272409636770E-003   4.9088009105712038E-002
   2.4422695990508503E-002  -6.7220106732265306E-003   4.9214841864139713E-002
   2.6671317497948044E-002  -7.8535616931156293E-003   5.2915257603422361E-002
   2.5291077621758931E-002  -7.3518792231648811E-003   5.2615384954675493E-002
   2.3910837745569832E-002  -6.8446091449668595E-003   5.2486245984312452E-002
   2.2530597869380720E-002  -6.3317514585220190E-003   5.2527840692333544E-002
   2.1150357993191621E-002  -5.8133061638301342E-003   5.2740169078738686E-002
   2.2771853525900956E-002  -6.6907855354896850E-003   5.6131481517751936E-002
   2.1570241159405396E-002  -6.2513676166083554E-003   5.5868905935133620E-002
   2.0368628792909828E-002  -5.8071976634719580E-003   5.5792851693518206E-002
   1.9167016426414260E-002  -5.3582756760802500E-003   5.5903318792905887E-002
   1.7965404059918699E-002  -4.9046016544333493E-003   5.6200307233296887E-002
   1.8896622967421749E-002  -5.5280093778636574E-003   5.9285858668007993E-002
   1.7889425773238758E-002  -5.1508560100521489E-003   5.9059744577526344E-002
   1.6882228579055778E-002  -4.7697861819770565E-003   5.9035939490666704E-002
   1.5875031384872777E-002  -4.3847998936385919E-003   5.9214443407429193E-002
   1.4867834190689773E-002  -3.9958971450365921E-003   5.9595256327813852E-002
   1.5045625822510428E-002  -4.3652332202379074E-003   6.2378389054190519E-002
   1.4248631463259026E-002  -4.0503444034955538E-003   6.2187900881853497E-002
   1.3451637104007624E-002  -3.7323747004820024E-003   6.2215509375757899E-002
   1.2654642744756223E-002  -3.4113241111967570E-003   6.2461214535903184E-002
   1.1857648385504821E-002  -3.0871926356400570E-003   6.2925016362289754E-002
   2.4422695990508503E-002  -6.7220106732265306E-003   4.9214841864139713E-002
   2.2579983905830769E-002  -6.1302463784002059E-003   4.8840074298076686E-002
   2.0737271821153008E-002  -5.5278098116339491E-003   4.8662184027898570E-002
   1.8894559736475289E-002  -4.9147009729282667E-003   4.8681171053605060E-002
   1.7051847651797514E-002  -4.2909198622829159E-003   4.8897035375196296E-002
   2.1150357993191621E-002  -5.8133061638301342E-003   5.2740169078738686E-002
   1.9508417796885363E-002  -5.2899032470049567E-003   5.2464180123185933E-002
   1.7866477600579064E-002  -4.7621726941605713E-003   5.2392857648491303E-002
   1.6224537404272800E-002  -4.2301145052977551E-003   5.2526201654654825E-002
   1.4582597207966536E-002  -3.6937286804155089E-003   5.2864212141676858E-002
   1.7965404059918699E-002  -4.9046016544333493E-003   5.6200307233296887E-002
   1.6532024936957462E-002  -4.4495601156095410E-003   5.6016752252333324E-002
   1.5098645813996239E-002  -3.9965355766875127E-003   5.6045652937201776E-002
   1.3665266691035020E-002  -3.5455280376668515E-003   5.6287009287901944E-002
   1.2231887568073779E-002  -3.0965374985479910E-003   5.6740821304434003E-002
   1.4867834190689773E-002  -3.9958971450365921E-003   5.9595256327813852E-002
   1.3650805326047143E-002  -3.6092169842143196E-003   5.9497790685519164E-002
   1.2433776461404455E-002  -3.2308984592141279E-003   5.9620569894030084E-002
   1.1216747596761792E-002  -2.8609415700361438E-003   5.9963593953346113E-002
   9.9997187321191408E-003  -2.4993463166806951E-003   6.0526862863467590E-002
   1.1857648385504821E-002  -3.0871926356400570E-003   6.2925016362289754E-002
   1.0864758964154300E-002  -2.7688738528187096E-003   6.2907295422743315E-002
   9.8718695428037656E-003  -2.4652613417409930E-003   6.3117608518975910E-002
   8.8789801214532380E-003  -2.1763551024054154E-003   6.3555955650987261E-002
   7.8860907001027103E-003  -1.9021551348131771E-003   6.4222336818777537E-002
   1.7051847651797514E-002  -4.2909198622829159E-003   4.8897035375196296E-002
   1.5117516126892938E-002  -3.7210754534130475E-003   4.8781578385444280E-002
   1.3183184601988335E-002  -3.2697767200336458E-003   4.8918309721455278E-002
   1.1248853077083745E-002  -2.9370236621451135E-003   4.9307229383227652E-002
   9.3145215521791003E-003  -2.7228162797472422E-003   4.9948337370763207E-002
   1.4582597207966536E-002  -3.6937286804155089E-003   5.2864212141676858E-002
   1.2900285904249464E-002  -3.2134384039807506E-003   5.2749595647086200E-002
   1.1217974600532366E-002  -2.8496668604600095E-003   5.2886831269108592E-002
   9.5356632968152805E-003  -2.6024140498533549E-003   5.3275919007742922E-002
   7.8533519930981954E-003  -2.4716799721603566E-003   5.3916858862990968E-002
   1.2231887568073779E-002  -3.0965374985479910E-003   5.6740821304434003E-002
   1.0801260276394622E-002  -2.7058013545486204E-003   5.6629072247581236E-002
   9.3706329847154518E-003  -2.4295570008865675E-003   5.6768839098191498E-002
   7.9400056930362777E-003  -2.2678044375613673E-003   5.7160121856265095E-002
   6.5093784013571243E-003  -2.2205436645735821E-003   5.7802920521801748E-002
   9.9997187321191408E-003  -2.4993463166806951E-003   6.0526862863467590E-002
   8.8204392433283534E-003  -2.1981643051164068E-003   6.0420008186929317E-002
   7.6411597545375763E-003  -2.0094471413125842E-003   6.0564333208704517E-002
   6.4618802657467811E-003  -1.9331948252697163E-003   6.0959837928793503E-002
   5.2826007769560396E-003  -1.9694073569870296E-003   6.1606522347195963E-002
   7.8860907001027103E-003  -1.9021551348131771E-003   6.4222336818777537E-002
   6.9578228050507507E-003  -1.6905272556843043E-003   6.4122403465130540E-002
   6.0295549099987633E-003  -1.5893372817393225E-003   6.4273313600647419E-002
   5.1012870149467968E-003  -1.5985852129776351E-003   6.4675067225328398E-002
   4.1730191198948163E-003  -1.7182710493999220E-003   6.5327664339173253E-002
   9.3145215521791003E-003  -2.7228162797472422E-003   4.9948337370763207E-002
   7.8872297058231178E-003  -2.8710124241198565E-003   5.0350078108969076E-002
   6.4599378594671075E-003  -3.6254699465421703E-003   5.1080624650465589E-002
   5.0326460131111389E-003  -4.9861888470145860E-003   5.2139976995251858E-002
   3.6053541667551148E-003  -6.9531691255362293E-003   5.3528135143328770E-002
   7.8533519930981954E-003  -2.4716799721603566E-003   5.3916858862990968E-002
   6.7285303662472790E-003  -2.6556546761337674E-003   5.3849879880517315E-002
   5.6037087393964180E-003  -3.3525282105270060E-003   5.4059035533763539E-002
   4.4788871125455224E-003  -4.5623005753387680E-003   5.4544325822729819E-002
   3.3540654856946406E-003  -6.2849717705696362E-003   5.5305750747415838E-002
   6.5093784013571243E-003  -2.2205436645735821E-003   5.7802920521801748E-002
   5.6343558264411037E-003  -2.4402969281486497E-003   5.7360584366278999E-002
   4.7593332515250553E-003  -3.0795864745119250E-003   5.7141711678906221E-002
   3.8843106766090242E-003  -4.1384123036633871E-003   5.7146302459682954E-002
   3.0092881016929862E-003  -5.6167744156031540E-003   5.7374356708609575E-002
   5.2826007769560396E-003  -1.9694073569870296E-003   6.1606522347195963E-002
   4.6047060864045190E-003  -2.2249391801632129E-003   6.0882191566255461E-002
   3.9268113958530262E-003  -2.8066447384966914E-003   6.0328653085894073E-002
   3.2489167053015482E-003  -3.7145240319878987E-003   5.9945906906112109E-002
   2.5710220147500407E-003  -4.9485770606366164E-003   5.9733953026909911E-002
   4.1730191198948163E-003  -1.7182710493999220E-003   6.5327664339173253E-002
   3.6395811461375771E-003  -2.0095814321774985E-003   6.4414701480445591E-002
   3.1061431723803518E-003  -2.5337030024816520E-003   6.3619859754726948E-002
   2.5727051986231195E-003  -3.2906357603122924E-003   6.2943139162017075E-002
   2.0392672248658872E-003  -4.2803797056699677E-003   6.2384539702316499E-002
   3.6053541667551148E-003  -6.9531691255362293E-003   5.3528135143328770E-002
   4.1571410231161510E-003  -9.5420245934075831E-003   5.1857386545651751E-002
   4.7089278794772427E-003  -1.2768369061927687E-002   5.0040385307210555E-002
   5.2607147358383760E-003  -1.6632202531095347E-002   4.8077131428005848E-002
   5.8125015921993706E-003  -2.1133525000912368E-002   4.5967624908036520E-002
   3.3540654856946406E-003  -6.2849717705696362E-003   5.5305750747415838E-002
   3.7772856346860867E-003  -8.5522919613352788E-003   5.2952255299543172E-002
   4.2005057836774634E-003  -1.1396011312750004E-002   5.0487879077695197E-002
   4.6237259326689026E-003  -1.4816129824814499E-002   4.7912622081871553E-002
   5.0469460816602862E-003  -1.8812647497528978E-002   4.5226484312073323E-002
   3.0092881016929862E-003  -5.6167744156031540E-003   5.7374356708609575E-002
   3.3393134101035726E-003  -7.5625593292625859E-003   5.4399204250539596E-002
   3.6693387185141035E-003  -1.0023653563572765E-002   5.1348542885283399E-002
   3.9993640269247142E-003  -1.3000057118533762E-002   4.8222372612840708E-002
   4.3293893353352764E-003  -1.6491769994145589E-002   4.5020693433211245E-002
   2.5710220147500407E-003  -4.9485770606366164E-003   5.9733953026909911E-002
   2.8432243493686643E-003  -6.5728266971899763E-003   5.6198233398641696E-002
   3.1154266839872602E-003  -8.6512958143954155E-003   5.2622376729975995E-002
   3.3876290186058726E-003  -1.1183984412252525E-002   4.9006383020912349E-002
   3.6598313532244797E-003  -1.4170892490762199E-002   4.5350252271451674E-002
   2.0392672248658872E-003  -4.2803797056699677E-003   6.2384539702316499E-002
   2.2890184524813617E-003  -5.5830940651174776E-003   5.8349342743848953E-002
   2.5387696800968362E-003  -7.2789380652182600E-003   5.4309380611772762E-002
   2.7885209077122830E-003  -9.3679117059718917E-003   5.0264653306087620E-002
   3.0382721353278130E-003  -1.1850014987378810E-002   4.6215160826794222E-002
   2.6239184961517892E-002  -7.3467414460707259E-003   6.0549258254120275E-002
   2.4999236117353413E-002  -7.1772240535248333E-003   6.0516826074526409E-002
   2.3759287273188892E-002  -6.9847249883787099E-003   6.0678287159440680E-002
   2.2519338429024406E-002  -6.7692442506322031E-003   6.1033641508862979E-002
   2.1279389584859920E-002  -6.5307818402854934E-003   6.1582889122793527E-002
   2.0044160841970859E-002  -5.5100557403739980E-003   6.2412270809221571E-002
   1.9027128750468511E-002  -5.3829178760683993E-003   6.2185789675307052E-002
   1.8010096658966190E-002  -5.2385436996109508E-003   6.2211248782208572E-002
   1.6993064567463856E-002  -5.0769332110018849E-003   6.2488648129926508E-002
   1.5976032475961521E-002  -4.8980864102408650E-003   6.3017987718460400E-002
   1.3605955287573135E-002  -3.6733700346772424E-003   6.4235776516306853E-002
   1.2869886925040971E-002  -3.5886116986119099E-003   6.3809501067623078E-002
   1.2133818562508825E-002  -3.4923624108433027E-003   6.3693212836063620E-002
   1.1397750199976671E-002  -3.3846221713714833E-003   6.3886911821628256E-002
   1.0661681837444526E-002  -3.2653909801963199E-003   6.4390598024317125E-002
   6.9245682983247129E-003  -1.8366843289804868E-003   6.6019775375376108E-002
   6.5275106410707627E-003  -1.7943055211554620E-003   6.5387960251474642E-002
   6.1304529838168186E-003  -1.7461811220755991E-003   6.5124179321005504E-002
   5.7333953265628693E-003  -1.6923111317410679E-003   6.5228432583968585E-002
   5.3363376693089165E-003  -1.6326955501517609E-003   6.5700720040363730E-002
  -1.2577441171890413E-010   1.3767162410083245E-009   6.7764267386429267E-002
  -1.0144213247187395E-010   6.5630101353519876E-010   6.6921167226861700E-002
  -7.7109849755396809E-011   1.6669213231956803E-010   6.6504148237034433E-002
  -5.2777565304196195E-011  -9.2110728766581218E-011   6.6513210416947272E-002
  -2.8445284322442532E-011  -1.2010714645072085E-010   6.6948353766600410E-002
   2.1279389584859920E-002  -6.5307818402854934E-003   6.1582889122793527E-002
   2.0754556202166013E-002  -6.2796057063587707E-003   6.1418851639514049E-002
   2.0229722819472100E-002  -6.0259837978725028E-003   6.1412684882509921E-002
   1.9704889436778190E-002  -5.7699161148264538E-003   6.1564388851781227E-002
   1.9180056054084266E-002  -5.5114026572211650E-003   6.1873963547327937E-002
   1.5976032475961521E-002  -4.8980864102408650E-003   6.3017987718460400E-002
   1.5602404223658405E-002  -4.7097042902519010E-003   6.2838431160109662E-002
   1.5228775971355288E-002  -4.5194878439581837E-003   6.2803414136265168E-002
   1.4855147719052161E-002  -4.3274370713599804E-003   6.2912936646926987E-002
   1.4481519466749061E-002  -4.1335519724572389E-003   6.3166998692094883E-002
   1.0661681837444526E-002  -3.2653909801963199E-003   6.4390598024317125E-002
   1.0425927523762979E-002  -3.1398028741448369E-003   6.4194910942640293E-002
   1.0190173210081420E-002  -3.0129918900438646E-003   6.4130432203700391E-002
   9.9544188963998602E-003  -2.8849580278932849E-003   6.4197161807497377E-002
   9.7186645827183130E-003  -2.7557012876933129E-003   6.4395099754031307E-002
   5.3363376693089165E-003  -1.6326955501517609E-003   6.5700720040363730E-002
   5.2251261024797080E-003  -1.5699014580378146E-003   6.5488290987105638E-002
   5.1139145356504934E-003  -1.5064959361295455E-003   6.5393739084815383E-002
   5.0027029688212822E-003  -1.4424789844267004E-003   6.5417064333492661E-002
   4.8914914019920711E-003  -1.3778506029293869E-003   6.5558266733137818E-002
  -2.8445284322442532E-011  -1.2010714645072085E-010   6.6948353766600410E-002
  -4.0191388411825457E-011  -4.1930875438467297E-011   6.6718571293506002E-002
  -5.1937490766484906E-011   1.7784773653772845E-011   6.6593334779610103E-002
  -6.3683595723229569E-011   5.9040022870604503E-011   6.6572644224912714E-002
  -7.5429697210527280E-011   8.1834483633969057E-011   6.6656499629413779E-002
   1.9180056054084266E-002  -5.5114026572211650E-003   6.1873963547327937E-002
   1.8146448496190820E-002  -5.2449648087456724E-003   6.1689758548720941E-002
   1.7112840938297347E-002  -4.9651239530899421E-003   6.1712427800329150E-002
   1.6079233380403880E-002  -4.6718800902541095E-003   6.1941971302152357E-002
   1.5045625822510428E-002  -4.3652332202379074E-003   6.2378389054190519E-002
   1.4481519466749061E-002  -4.1335519724572389E-003   6.3166998692094883E-002
   1.3667668069171926E-002  -3.9337235835740780E-003   6.2943084937312044E-002
   1.2853816671594801E-002  -3.7238429410342555E-003   6.2951809252946925E-002
   1.2039965274017692E-002  -3.5039100448383889E-003   6.3193171638999512E-002
   1.1226113876440569E-002  -3.2739248949861244E-003   6.3667172095469682E-002
   9.7186645827183130E-003  -2.7557012876933129E-003   6.4395099754031307E-002
   9.1503331656601836E-003  -2.6224823584023310E-003   6.4128126489548909E-002
   8.5820017486020472E-003  -2.4825619289787423E-003   6.4119555115686705E-002
   8.0136703315439057E-003  -2.3359399994227256E-003   6.4369385632444792E-002
   7.4453389144857884E-003  -2.1826165697341471E-003   6.4877618039823323E-002
   4.8914914019920711E-003  -1.3778506029293869E-003   6.5558266733137818E-002
   4.5944437856555598E-003  -1.3112411332306603E-003   6.5244883205431620E-002
   4.2973961693190642E-003  -1.2412809169231424E-003   6.5215665388548560E-002
   4.0003485529825650E-003  -1.1679699540070891E-003   6.5470613282488238E-002
   3.7033009366460642E-003  -1.0913082444823224E-003   6.6009726887251111E-002
  -7.5429697210527280E-011   8.1834483633969057E-011   6.6656499629413779E-002
  -7.0841919136421794E-011   9.1941038116161167E-011   6.6293355084960259E-002
  -6.6254141062316307E-011   9.5132568489475489E-011   6.6240140071532227E-002
  -6.1666361253487345E-011   9.1408686175853404E-011   6.6496854589129906E-002
  -5.7078584914105335E-011   8.0769557708748607E-011   6.7063498637753016E-002
   1.5045625822510428E-002  -4.3652332202379074E-003   6.2378389054190519E-002
   1.4248631463259026E-002  -4.0503444034955538E-003   6.2187900881853497E-002
   1.3451637104007624E-002  -3.7323747004820024E-003   6.2215509375757899E-002
   1.2654642744756223E-002  -3.4113241111967570E-003   6.2461214535903184E-002
   1.1857648385504821E-002  -3.0871926356400570E-003   6.2925016362289754E-002
   1.1226113876440569E-002  -3.2739248949861244E-003   6.3667172095469682E-002
   1.0642504164794286E-002  -3.0377582857199770E-003   6.3513404664333056E-002
   1.0058894453147997E-002  -2.7992810112835997E-003   6.3568309862165467E-002
   9.4752847415017077E-003  -2.5584930716763057E-003   6.3831887688967151E-002
   8.8916750298554392E-003  -2.3153944668988791E-003   6.4304138144737621E-002
   7.4453389144857884E-003  -2.1826165697341471E-003   6.4877618039823323E-002
   7.0656898131726126E-003  -2.0251721679444834E-003   6.4759801128785849E-002
   6.6860407118594506E-003  -1.8661873220850791E-003   6.4841232809445537E-002
   6.3063916105462851E-003  -1.7056620321561303E-003   6.5121913081802235E-002
   5.9267425092331127E-003  -1.5435962981575346E-003   6.5601841945856249E-002
   3.7033009366460642E-003  -1.0913082444823224E-003   6.6009726887251111E-002
   3.5181884083940289E-003  -1.0125860501687262E-003   6.5927090275211958E-002
   3.3330758801419910E-003  -9.3309363288672856E-004   6.6034278217597803E-002
   3.1479633518899505E-003  -8.5283099263570600E-004   6.6331290714408839E-002
   2.9628508236379178E-003  -7.7179812941627346E-004   6.6818127765645052E-002
  -5.7078584914105335E-011   8.0769557708748607E-011   6.7063498637753016E-002
  -4.9541485497295312E-011   6.7606753528792751E-011   6.7015272103611245E-002
  -4.2004389549932242E-011   5.6311941221132145E-011   6.7147446086622514E-002
  -3.4467293602569171E-011   4.6884492815868484E-011   6.7460020586786892E-002
  -2.6930194185759149E-011   3.9324876688340282E-011   6.7952995604104394E-002
   1.1857648385504821E-002  -3.0871926356400570E-003   6.2925016362289754E-002
   1.0864758964154300E-002  -2.7688738528187096E-003   6.2907295422743315E-002
   9.8718695428037656E-003  -2.4652613417409930E-003   6.3117608518975910E-002
   8.8789801214532380E-003  -2.1763551024054154E-003   6.3555955650987261E-002
   7.8860907001027103E-003  -1.9021551348131771E-003   6.4222336818777537E-002
   8.8916750298554392E-003  -2.3153944668988791E-003   6.4304138144737621E-002
   8.1318667245504558E-003  -2.0766553813855171E-003   6.4279637132763856E-002
   7.3720584192454724E-003  -1.8489459995722490E-003   6.4493264317101923E-002
   6.6122501139404891E-003  -1.6322663214583671E-003   6.4945019697752474E-002
   5.8524418086355057E-003  -1.4266163470443294E-003   6.5634903274714995E-002
   5.9267425092331127E-003  -1.5435962981575346E-003   6.5601841945856249E-002
   5.4101094805070124E-003  -1.3844369099522968E-003   6.5574237429497889E-002
   4.8934764517808774E-003  -1.2326306574037132E-003   6.5794855269985061E-002
   4.3768434230547753E-003  -1.0881775405112599E-003   6.6263695467317640E-002
   3.8602103943286420E-003  -9.5107755927564819E-004   6.6980758021495834E-002
   2.9628508236379178E-003  -7.7179812941627346E-004   6.6818127765645052E-002
   2.6994872320239734E-003  -6.9221843851914600E-004   6.6791096312945539E-002
   2.4361236404100203E-003  -6.1631531523507338E-004   6.7022381377624965E-002
   2.1727600487960685E-003  -5.4408875956412674E-004   6.7511982959683151E-002
   1.9093964571821227E-003  -4.7553877150693924E-004   6.8259901059120096E-002
  -2.6930194185759149E-011   3.9324876688340282E-011   6.7952995604104394E-002
  -2.0898664743196349E-011   3.2914115877247241E-011   6.7930213783107207E-002
  -1.4867135300633549E-011   2.6933510977045216E-011   6.8175842640021744E-002
  -8.8356127969646536E-012   2.1382992598795170E-011   6.8689882174848560E-002
  -2.8040764155079501E-012   1.6261880730894518E-011   6.9472332387587654E-002
   7.8860907001027103E-003  -1.9021551348131771E-003   6.4222336818777537E-002
   6.9578228050507507E-003  -1.6905272556843043E-003   6.4122403465130540E-002
   6.0295549099987633E-003  -1.5893372817393225E-003   6.4273313600647419E-002
   5.1012870149467968E-003  -1.5985852129776351E-003   6.4675067225328398E-002
   4.1730191198948163E-003  -1.7182710493999220E-003   6.5327664339173253E-002
   5.8524418086355057E-003  -1.4266163470443294E-003   6.5634903274714995E-002
   5.1703232739480354E-003  -1.2678954388279928E-003   6.5475060102489158E-002
   4.4882047392605443E-003  -1.1920029593074921E-003   6.5556672161828033E-002
   3.8060862045730566E-003  -1.1989389084825636E-003   6.5879739452732317E-002
   3.1239676698855828E-003  -1.2887032863531100E-003   6.6444261975201091E-002
   3.8602103943286420E-003  -9.5107755927564819E-004   6.6980758021495834E-002
   3.4148529624065845E-003  -8.4526362197195892E-004   6.6788614507179128E-002
   2.9694955304845304E-003  -7.9466863687585598E-004   6.6828537966828305E-002
   2.5241380985624607E-003  -7.9929260398726304E-004   6.7100528400443227E-002
   2.0787806666404049E-003  -8.5913552330618703E-004   6.7604585808024115E-002
   1.9093964571821227E-003  -4.7553877150693924E-004   6.8259901059120096E-002
   1.6914118704264066E-003  -4.2263180511595277E-004   6.8063066679200548E-002
   1.4734272836706740E-003  -3.9733431444395617E-004   6.8088911015648040E-002
   1.2554426969149392E-003  -3.9964629949196598E-004   6.8337434068462183E-002
   1.0374581101592253E-003  -4.2956776025915300E-004   6.8808635837643045E-002
  -2.8040764155079501E-012   1.6261880730894518E-011   6.9472332387587654E-002
  -1.9925380789764802E-012   1.1740386440806105E-011   6.9298416618553627E-002
  -1.1809997424450103E-012   7.9875273062413044E-012   6.9337791308287156E-002
  -3.6945967119006440E-013   5.0032547549427875E-012   6.9590456456788602E-002
   4.4207693061792952E-013   2.7876589925313056E-012   7.0056412064057660E-002
   4.1730191198948163E-003  -1.7182710493999220E-003   6.5327664339173253E-002
   3.6395811461375771E-003  -2.0095814321774985E-003   6.4414701480445591E-002
   3.1061431723803518E-003  -2.5337030024816520E-003   6.3619859754726948E-002
   2.5727051986231195E-003  -3.2906357603122924E-003   6.2943139162017075E-002
   2.0392672248658872E-003  -4.2803797056699677E-003   6.2384539702316499E-002
   3.1239676698855828E-003  -1.2887032863531100E-003   6.6444261975201091E-002
   2.7124604192725332E-003  -1.5071860738945508E-003   6.5335263364285523E-002
   2.3009531686594628E-003  -1.9002772520836098E-003   6.4352005066649093E-002
   1.8894459180464063E-003  -2.4679768209187256E-003   6.3494487082291981E-002
   1.4779386674333428E-003  -3.2102847804008627E-003   6.2762709411214090E-002
   2.0787806666404049E-003  -8.5913552330618703E-004   6.7604585808024115E-002
   1.7968233194416011E-003  -1.0047907156121305E-003   6.6357754241801042E-002
   1.5148659722428147E-003  -1.2668515016851373E-003   6.5244282169126991E-002
   1.2329086250440265E-003  -1.6453178815248291E-003   6.4264169590002362E-002
   9.5095127784522449E-004  -2.1401898551315912E-003   6.3417416504427254E-002
   1.0374581101592253E-003  -4.2956776025915300E-004   6.8808635837643045E-002
   8.9266984664482588E-004  -5.0239535732944651E-004   6.7482174112992011E-002
   7.4788158313040653E-004  -6.3342575128671336E-004   6.6296691062160629E-002
   6.0309331961600062E-004  -8.2265894213098649E-004   6.5252186685148469E-002
   4.5830505610158778E-004  -1.0700949298622919E-003   6.4348660981955796E-002
   4.4207693061792952E-013   2.7876589925313056E-012   7.0056412064057660E-002
   8.8216933757934157E-013   9.5318197779192815E-013   6.8708522977858899E-002
   1.3222478667529458E-012  -8.8848373103189715E-013   6.7509231745749410E-002
   1.7623298653735020E-012  -2.7370536392901101E-012   6.6458538367729830E-002
   2.2024188028879621E-012  -4.5932146974791976E-012   6.5556442843799356E-002
   2.0392672248658872E-003  -4.2803797056699677E-003   6.2384539702316499E-002
   2.2890184524813617E-003  -5.5830940651174776E-003   5.8349342743848953E-002
   2.5387696800968362E-003  -7.2789380652182600E-003   5.4309380611772762E-002
   2.7885209077122830E-003  -9.3679117059718917E-003   5.0264653306087620E-002
   3.0382721353278130E-003  -1.1850014987378810E-002   4.6215160826794222E-002
   1.4779386674333428E-003  -3.2102847804008627E-003   6.2762709411214090E-002
   1.7085065631370355E-003  -4.1873205504630029E-003   5.8403447026704081E-002
   1.9390744588407283E-003  -5.4592035510397097E-003   5.4010583151979819E-002
   2.1696423545444904E-003  -7.0259337821304071E-003   4.9584117787039583E-002
   2.4002102502481415E-003  -8.8875112437352133E-003   4.5124050931885762E-002
   9.5095127784522449E-004  -2.1401898551315912E-003   6.3417416504427254E-002
   1.1334995250310391E-003  -2.7915470358090277E-003   5.8832371104014319E-002
   1.3160477722168398E-003  -3.6394690368615062E-003   5.4184887896780068E-002
   1.4985960194026232E-003  -4.6839558582892592E-003   4.9474966882724881E-002
   1.6811442665884552E-003  -5.9250075000918390E-003   4.4702608061848670E-002
   4.5830505610158778E-004  -1.0700949298622919E-003   6.4348660981955796E-002
   5.6399733816336461E-004  -1.3957735211549138E-003   5.9636114975778691E-002
   6.6968962022512062E-004  -1.8197345226833514E-003   5.4832294846174134E-002
   7.7538190228689310E-004  -2.3419779344477209E-003   4.9937200593142508E-002
   8.8107418434865345E-004  -2.9625037564483536E-003   4.4950832216684333E-002
   2.2024188028879621E-012  -4.5932146974791976E-012   6.5556442843799356E-002
   2.5340007869800729E-012  -6.5005778537852166E-012   6.0814678641997189E-002
   2.8655897099660876E-012  -8.5048634801410117E-012   5.5952804000162004E-002
   3.1971612857173426E-012  -1.0606654443634511E-011   5.0970818918293026E-002
   3.5287606170442132E-012  -1.2804868276816705E-011   4.5868723396391253E-002
  -1.2577441171890413E-010   1.3767162410083245E-009   6.7764267386429267E-002
  -1.0144213247187395E-010   6.5630101353519876E-010   6.6921167226861700E-002
  -7.7109849755396809E-011   1.6669213231956803E-010   6.6504148237034433E-002
  -5.2777565304196195E-011  -9.2110728766581218E-011   6.6513210416947272E-002
  -2.8445284322442532E-011  -1.2010714645072085E-010   6.6948353766600410E-002
  -6.9245685305108252E-003   1.8366860298854037E-003   6.6019773799598253E-002
  -6.5275108288474042E-003   1.7943063397544701E-003   6.5387959083062691E-002
  -6.1304531271839796E-003   1.7461813425476425E-003   6.5124178551449294E-002
  -5.7333954255205533E-003   1.6923110382647266E-003   6.5228432204757908E-002
  -5.3363377238571340E-003   1.6326954269059168E-003   6.5700720042988575E-002
  -1.3605955461671121E-002   3.6733706830545110E-003   6.4235774011992569E-002
  -1.2869887067494753E-002   3.5886120232079682E-003   6.3809499200607078E-002
  -1.2133818673318392E-002   3.4923625184032497E-003   6.3693211589325213E-002
  -1.1397750279142029E-002   3.3846221686401785E-003   6.3886911178147293E-002
  -1.0661681884965659E-002   3.2653909739189801E-003   6.4390597967073332E-002
  -2.0044160919255302E-002   5.5100553362236182E-003   6.2412268023612417E-002
  -1.9027128817384210E-002   5.3829177066614872E-003   6.2185787579494556E-002
  -1.8010096715513089E-002   5.2385436942588362E-003   6.2211247350662191E-002
  -1.6993064613641990E-002   5.0769332990156599E-003   6.2488647337115462E-002
  -1.5976032511770887E-002   4.8980865209320434E-003   6.3017987538854528E-002
  -2.6239184903263373E-002   7.3467399893927809E-003   6.0549255834457638E-002
  -2.4999236078515744E-002   7.1772233901149229E-003   6.0516824219725152E-002
  -2.3759287253768090E-002   6.9847248701144088E-003   6.0678285835460061E-002
  -2.2519338429020430E-002   6.7692444293910269E-003   6.1033640681662463E-002
  -2.1279389604272787E-002   6.5307820679451067E-003   6.1582888758332288E-002
  -2.8445284322442532E-011  -1.2010714645072085E-010   6.6948353766600410E-002
  -4.0191388411825457E-011  -4.1930875438467297E-011   6.6718571293506002E-002
  -5.1937490766484906E-011   1.7784773653772845E-011   6.6593334779610103E-002
  -6.3683595723229569E-011   5.9040022870604503E-011   6.6572644224912714E-002
  -7.5429697210527280E-011   8.1834483633969057E-011   6.6656499629413779E-002
  -5.3363377238571340E-003   1.6326954269059168E-003   6.5700720042988575E-002
  -5.2251261785609361E-003   1.5699014358047103E-003   6.5488290966606660E-002
  -5.1139146332647469E-003   1.5064959922947152E-003   6.5393739045110852E-002
  -5.0027030879685524E-003   1.4424790963761189E-003   6.5417064278501025E-002
  -4.8914915426723597E-003   1.3778507480486923E-003   6.5558266666777470E-002
  -1.0661681884965659E-002   3.2653909739189801E-003   6.4390597967073332E-002
  -1.0425927586939577E-002   3.1398029135402822E-003   6.4194910853455744E-002
  -1.0190173288913492E-002   3.0129919668046568E-003   6.4130432090411860E-002
  -9.9544189908874012E-003   2.8849581337122149E-003   6.4197161677941705E-002
  -9.7186646928613240E-003   2.7557014142630398E-003   6.4395099616045171E-002
  -1.5976032511770887E-002   4.8980865209320434E-003   6.3017987538854528E-002
  -1.5602404265327309E-002   4.7097043912758055E-003   6.2838430954053226E-002
  -1.5228776018883719E-002   4.5194879413146538E-003   6.2803413915513112E-002
  -1.4855147772440134E-002   4.3274371710483664E-003   6.2912936423234339E-002
  -1.4481519525996550E-002   4.1335520804772624E-003   6.3166998477216824E-002
  -2.1279389604272787E-002   6.5307820679451067E-003   6.1582888758332288E-002
  -2.0754556213724101E-002   6.2796058690113843E-003   6.1418851268399050E-002
  -2.0229722823175436E-002   6.0259839158244011E-003   6.1412684520414790E-002
  -1.9704889432626761E-002   5.7699162083845110E-003   6.1564388514379370E-002
  -1.9180056042078078E-002   5.5114027466915960E-003   6.1873963250292818E-002
  -7.5429697210527280E-011   8.1834483633969057E-011   6.6656499629413779E-002
  -7.0841919136421794E-011   9.1941038116161167E-011   6.6293355084960259E-002
  -6.6254141062316307E-011   9.5132568489475489E-011   6.6240140071532227E-002
  -6.1666361253487345E-011   9.1408686175853404E-011   6.6496854589129906E-002
  -5.7078584914105335E-011   8.0769557708748607E-011   6.7063498637753016E-002
  -4.8914915426723597E-003   1.3778507480486923E-003   6.5558266666777470E-002
  -4.5944439186917652E-003   1.3112412946351959E-003   6.5244883145405358E-002
  -4.2973962947111689E-003   1.2412810834578625E-003   6.5215665331793252E-002
  -4.0003486707305795E-003   1.1679701145168794E-003   6.5470613225941277E-002
  -3.7033010467499849E-003   1.0913083878122398E-003   6.6009726827849224E-002
  -9.7186646928613240E-003   2.7557014142630398E-003   6.4395099616045171E-002
  -9.1503332727534761E-003   2.6224824973292843E-003   6.4128126366906069E-002
  -8.5820018526456335E-003   2.4825620717834340E-003   6.4119555002261325E-002
  -8.0136704325377926E-003   2.3359401376252947E-003   6.4369385522111175E-002
  -7.4453390124299551E-003   2.1826166948550607E-003   6.4877617926455342E-002
  -1.4481519525996550E-002   4.1335520804772624E-003   6.3166998477216824E-002
  -1.3667668133027045E-002   3.9337237000233519E-003   6.2943084749462280E-002
  -1.2853816740057530E-002   3.7238430601087558E-003   6.2951809082936516E-002
  -1.2039965347088023E-002   3.5039101607335990E-003   6.3193171477639809E-002
  -1.1226113954118516E-002   3.2739250018977567E-003   6.3667171933571812E-002
  -1.9180056042078078E-002   5.5114027466915960E-003   6.1873963250292818E-002
  -1.8146448499512476E-002   5.2449649027175305E-003   6.1689758293074215E-002
  -1.7112840956946863E-002   4.9651240484343551E-003   6.1712427573818868E-002
  -1.6079233414381257E-002   4.6718801838420004E-003   6.1941971092526860E-002
  -1.5045625871815647E-002   4.3652333089405637E-003   6.2378388849198219E-002
  -5.7078584914105335E-011   8.0769557708748607E-011   6.7063498637753016E-002
  -4.9541485497295312E-011   6.7606753528792751E-011   6.7015272103611245E-002
  -4.2004389549932242E-011   5.6311941221132145E-011   6.7147446086622514E-002
  -3.4467293602569171E-011   4.6884492815868484E-011   6.7460020586786892E-002
  -2.6930194185759149E-011   3.9324876688340282E-011   6.7952995604104394E-002
  -3.7033010467499849E-003   1.0913083878122398E-003   6.6009726827849224E-002
  -3.5181885039145527E-003   1.0125861719419982E-003   6.5927090226494123E-002
  -3.3330759610791186E-003   9.3309373550452823E-004   6.6034278178582595E-002
  -3.1479634182436890E-003   8.5283107849978487E-004   6.6331290684114599E-002
  -2.9628508754082593E-003   7.7179820092748708E-004   6.6818127743090039E-002
  -7.4453390124299551E-003   2.1826166948550607E-003   6.4877617926455342E-002
  -7.0656898980057956E-003   2.0251722762774926E-003   6.4759801035452050E-002
  -6.6860407835816439E-003   1.8661874146973997E-003   6.4841232734182630E-002
  -6.3063916691574922E-003   1.7056621101150232E-003   6.5121913022647165E-002
  -5.9267425547333327E-003   1.5435963625300420E-003   6.5601841900845642E-002
  -1.1226113954118516E-002   3.2739250018977567E-003   6.3667171933571812E-002
  -1.0642504231815236E-002   3.0377583806128067E-003   6.3513404530485054E-002
  -1.0058894509511963E-002   2.7992810938902400E-003   6.3568309753422675E-002
  -9.4752847872086980E-003   2.5584931417300663E-003   6.3831887602384590E-002
  -8.8916750649054160E-003   2.3153945241325136E-003   6.4304138077370676E-002
  -1.5045625871815647E-002   4.3652333089405637E-003   6.2378388849198219E-002
  -1.4248631505342862E-002   4.0503444849481762E-003   6.2187900711593080E-002
  -1.3451637138870081E-002   3.7323747730829138E-003   6.2215509236302535E-002
  -1.2654642772397291E-002   3.4113241733456229E-003   6.2461214423326750E-002
  -1.1857648405924508E-002   3.0871926857352072E-003   6.2925016272665779E-002
  -2.6930194185759149E-011   3.9324876688340282E-011   6.7952995604104394E-002
  -2.0898664743196349E-011   3.2914115877247241E-011   6.7930213783107207E-002
  -1.4867135300633549E-011   2.6933510977045216E-011   6.8175842640021744E-002
  -8.8356127969646536E-012   2.1382992598795170E-011   6.8689882174848560E-002
  -2.8040764155079501E-012   1.6261880730894518E-011   6.9472332387587654E-002
  -2.9628508754082593E-003   7.7179820092748708E-004   6.6818127743090039E-002
  -2.6994872721127459E-003   6.9221849749945275E-004   6.6791096295240271E-002
  -2.4361236688172482E-003   6.1631536292701405E-004   6.7022381364006428E-002
  -2.1727600655217410E-003   5.4408879721045203E-004   6.7511982949388288E-002
  -1.9093964622262372E-003   4.7553880034945095E-004   6.8259901051386185E-002
  -5.9267425547333327E-003   1.5435963625300420E-003   6.5601841900845642E-002
  -5.4101095154701576E-003   1.3844369620844565E-003   6.5574237394569232E-002
  -4.8934764762069809E-003   1.2326306989206282E-003   6.5794855243612421E-002
  -4.3768434369438058E-003   1.0881775730379670E-003   6.6263695447975113E-002
  -3.8602103976806291E-003   9.5107758443691015E-004   6.6980758007657404E-002
  -8.8916750649054160E-003   2.3153945241325136E-003   6.4304138077370676E-002
  -8.1318667509708720E-003   2.0766554266695159E-003   6.4279637081093452E-002
  -7.3720584370363437E-003   1.8489460349140202E-003   6.4493264278839585E-002
  -6.6122501231018083E-003   1.6322663488656762E-003   6.4945019670608756E-002
  -5.8524418091672713E-003   1.4266163685242028E-003   6.5634903256401173E-002
  -1.1857648405924508E-002   3.0871926857352072E-003   6.2925016272665779E-002
  -1.0864758978614913E-002   2.7688738912549082E-003   6.2907295354813431E-002
  -9.8718695513053262E-003   2.4652613709077453E-003   6.3117608469688002E-002
  -8.8789801239957354E-003   2.1763551246930524E-003   6.3555955617289522E-002
  -7.8860906966861447E-003   1.9021551526119396E-003   6.4222336797617907E-002
  -2.8040764155079501E-012   1.6261880730894518E-011   6.9472332387587654E-002
  -1.9925380789764802E-012   1.1740386440806105E-011   6.9298416618553627E-002
  -1.1809997424450103E-012   7.9875273062413044E-012   6.9337791308287156E-002
  -3.6945967119006440E-013   5.0032547549427875E-012   6.9590456456788602E-002
   4.4207693061792952E-013   2.7876589925313056E-012   7.0056412064057660E-002
  -1.9093964622262372E-003   4.7553880034945095E-004   6.8259901051386185E-002
  -1.6914118739458743E-003   4.2263182632656937E-004   6.8063066673815398E-002
  -1.4734272856655201E-003   3.9733432912403277E-004   6.8088911012414655E-002
  -1.2554426973851764E-003   3.9964630874150808E-004   6.8337434067183789E-002
  -1.0374581091048031E-003   4.2956776517966144E-004   6.8808635838122967E-002
  -3.8602103976806291E-003   9.5107758443691015E-004   6.6980758007657404E-002
  -3.4148529645292780E-003   8.4526364091253026E-004   6.6788614497601595E-002
  -2.9694955313779347E-003   7.9466865026008027E-004   6.6828537961118109E-002
  -2.5241380982265796E-003   7.9929261247986896E-004   6.7100528398206682E-002
  -2.0787806650752402E-003   8.5913552757160838E-004   6.7604585808867218E-002
  -5.8524418091672713E-003   1.4266163685242028E-003   6.5634903256401173E-002
  -5.1703232737427465E-003   1.2678954554986022E-003   6.5475060089912274E-002
  -4.4882047383182208E-003   1.1920029713964678E-003   6.5556672154397713E-002
  -3.8060862028936990E-003   1.1989389162181761E-003   6.5879739449857394E-002
  -3.1239676674691703E-003   1.2887032899635831E-003   6.6444261976291052E-002
  -7.8860906966861447E-003   1.9021551526119396E-003   6.4222336797617907E-002
  -6.9578228015862650E-003   1.6905272700846741E-003   6.4122403450747489E-002
  -6.0295549064863889E-003   1.5893372925327443E-003   6.4273313592253356E-002
  -5.1012870113865145E-003   1.5985852199565109E-003   6.4675067222135729E-002
  -4.1730191162866331E-003   1.7182710523554467E-003   6.5327664340394609E-002
   4.4207693061792952E-013   2.7876589925313056E-012   7.0056412064057660E-002
   8.8216933757934157E-013   9.5318197779192815E-013   6.8708522977858899E-002
   1.3222478667529458E-012  -8.8848373103189715E-013   6.7509231745749410E-002
   1.7623298653735020E-012  -2.7370536392901101E-012   6.6458538367729830E-002
   2.2024188028879621E-012  -4.5932146974791976E-012   6.5556442843799356E-002
  -1.0374581091048031E-003   4.2956776517966144E-004   6.8808635838122967E-002
  -8.9266984474652838E-004   5.0239535852542039E-004   6.7482174113822957E-002
  -7.4788158038823806E-004   6.3342574886632308E-004   6.6296691063270047E-002
  -6.0309331602994946E-004   8.2265893620177277E-004   6.5252186686464028E-002
  -4.5830505167165914E-004   1.0700949205324495E-003   6.4348660983404748E-002
  -2.0787806650752402E-003   8.5913552757160838E-004   6.7604585808867218E-002
  -1.7968233171414263E-003   1.0047907160977976E-003   6.6357754243468320E-002
  -1.5148659692076072E-003   1.2668514986210050E-003   6.5244282171473975E-002
  -1.2329086212737846E-003   1.6453178751409288E-003   6.4264169592883669E-002
  -9.5095127333997415E-004   2.1401898456578916E-003   6.3417416507697444E-002
  -3.1239676674691703E-003   1.2887032899635831E-003   6.6444261976291052E-002
  -2.7124604163025249E-003   1.5071860736702719E-003   6.5335263366795432E-002
  -2.3009531651358665E-003   1.9002772483757494E-003   6.4352005070361332E-002
  -1.8894459139692148E-003   2.4679768140803641E-003   6.3494487086988766E-002
  -1.4779386628025627E-003   3.2102847707835558E-003   6.2762709416677234E-002
  -4.1730191162866331E-003   1.7182710523554467E-003   6.5327664340394609E-002
  -3.6395811422298210E-003   2.0095814312425242E-003   6.4414701483803904E-002
  -3.1061431681730090E-003   2.5337029981303827E-003   6.3619859759932063E-002
  -2.5727051941161969E-003   3.2906357530190500E-003   6.2943139168778972E-002
  -2.0392672200593848E-003   4.2803796959088869E-003   6.2384539710344744E-002
   2.2024188028879621E-012  -4.5932146974791976E-012   6.5556442843799356E-002
   2.5340007869800729E-012  -6.5005778537852166E-012   6.0814678641997189E-002
   2.8655897099660876E-012  -8.5048634801410117E-012   5.5952804000162004E-002
   3.1971612857173426E-012  -1.0606654443634511E-011   5.0970818918293026E-002
   3.5287606170442132E-012  -1.2804868276816705E-011   4.5868723396391253E-002
  -4.5830505167165914E-004   1.0700949205324495E-003   6.4348660983404748E-002
  -5.6399733309009728E-004   1.3957735083269807E-003   5.9636114977009491E-002
  -6.6968961450853889E-004   1.8197345060545767E-003   5.4832294847147633E-002
  -7.7538189592698658E-004   2.3419779137148558E-003   4.9937200593818898E-002
  -8.8107417734543253E-004   2.9625037313085745E-003   4.4950832217023340E-002
  -9.5095127333997415E-004   2.1401898456578916E-003   6.3417416507697444E-002
  -1.1334995199420404E-003   2.7915470231547612E-003   5.8832371106738890E-002
  -1.3160477665440720E-003   3.6394690206146829E-003   5.4184887898880318E-002
  -1.4985960131461392E-003   4.6839558380366991E-003   4.9474966884120980E-002
  -1.6811442597481838E-003   5.9250074754220172E-003   4.4702608062461624E-002
  -1.4779386628025627E-003   3.2102847707835558E-003   6.2762709416677234E-002
  -1.7085065580217864E-003   4.1873205379826528E-003   5.8403447031185683E-002
  -1.9390744532410235E-003   5.4592035351740120E-003   5.4010583155360184E-002
  -2.1696423484602332E-003   7.0259337623585980E-003   4.9584117789199959E-002
  -2.4002102436794705E-003   8.8875112195354600E-003   4.5124050932706772E-002
  -2.0392672200593848E-003   4.2803796959088869E-003   6.2384539710344744E-002
  -2.2890184473293648E-003   5.5830940528102113E-003   5.8349342750349420E-002
  -2.5387696745993518E-003   7.2789380497344236E-003   5.4309380616586911E-002
  -2.7885209018693423E-003   9.3679116866799347E-003   5.0264653309056523E-002
  -3.0382721291393189E-003   1.1850014963648903E-002   4.6215160827758783E-002
  -2.6239184903263373E-002   7.3467399893927809E-003   6.0549255834457638E-002
  -2.4999236078515744E-002   7.1772233901149229E-003   6.0516824219725152E-002
  -2.3759287253768090E-002   6.9847248701144088E-003   6.0678285835460061E-002
  -2.2519338429020430E-002   6.7692444293910269E-003   6.1033640681662463E-002
  -2.1279389604272787E-002   6.5307820679451067E-003   6.1582888758332288E-002
  -3.2418572600149465E-002   9.2392290769260921E-003   5.8497910126370817E-002
  -3.0964763121427652E-002   9.0155110665578464E-003   5.8249878257796955E-002
  -2.9510953642705902E-002   8.7674574208803507E-003   5.8235674466703954E-002
  -2.8057144163984086E-002   8.4950681398938931E-003   5.8455298753091710E-002
  -2.6603334685262305E-002   8.1983432235982201E-003   5.8908751116960478E-002
  -3.8809869196367731E-002   1.1131718164459431E-002   5.6393039864486613E-002
  -3.7102264216658354E-002   1.0853798743000673E-002   5.5928054027485088E-002
  -3.5394659236949025E-002   1.0550189971646438E-002   5.5736831114977702E-002
  -3.3687054257239675E-002   1.0220891850396622E-002   5.5819371126964654E-002
  -3.1979449277530325E-002   9.8659043792513335E-003   5.6175674063445730E-002
  -4.5413074691918069E-002   1.3024207251992756E-002   5.4234645048805361E-002
  -4.3411739364207787E-002   1.2692086419443603E-002   5.3551351528789537E-002
  -4.1410404036497490E-002   1.2332922522412481E-002   5.3181755780281503E-002
  -3.9409068708787180E-002   1.1946715560899365E-002   5.3125857803280961E-002
  -3.7407733381076932E-002   1.1533465534904419E-002   5.3383657597788244E-002
  -5.2228189086800575E-002   1.4916696339526081E-002   5.2022725679326531E-002
  -4.9893188564075930E-002   1.4530374095886478E-002   5.1119770761710370E-002
  -4.7558188041351313E-002   1.4115655073178440E-002   5.0570448462615103E-002
  -4.5223187518626654E-002   1.3672539271402141E-002   5.0374758782040868E-002
  -4.2888186995902008E-002   1.3201026690557505E-002   5.0532701719987805E-002
  -2.1279389604272787E-002   6.5307820679451067E-003   6.1582888758332288E-002
  -2.0754556213724101E-002   6.2796058690113843E-003   6.1418851268399050E-002
  -2.0229722823175436E-002   6.0259839158244011E-003   6.1412684520414790E-002
  -1.9704889432626761E-002   5.7699162083845110E-003   6.1564388514379370E-002
  -1.9180056042078078E-002   5.5114027466915960E-003   6.1873963250292818E-002
  -2.6603334685262305E-002   8.1983432235982201E-003   5.8908751116960478E-002
  -2.5920382429550852E-002   7.8873696430376145E-003   5.8689488515225610E-002
  -2.5237430173839382E-002   7.5722343692558938E-003   5.8628592901867421E-002
  -2.4554477918127926E-002   7.2529374022534069E-003   5.8726064276885842E-002
  -2.3871525662416463E-002   6.9294787420297599E-003   5.8981902640281025E-002
  -3.1979449277530325E-002   9.8659043792513335E-003   5.6175674063445730E-002
  -3.1137881910228309E-002   9.4951334170639001E-003   5.5899470410941239E-002
  -3.0296314542926299E-002   9.1184848226874421E-003   5.5782129993241308E-002
  -2.9454747175624282E-002   8.7359585961222473E-003   5.5823652810345785E-002
  -2.8613179808322294E-002   8.3475547373680348E-003   5.6024038862254683E-002
  -3.7407733381076932E-002   1.1533465534904419E-002   5.3383657597788244E-002
  -3.6407054655756589E-002   1.1102897191090075E-002   5.3048796955546269E-002
  -3.5406375930436232E-002   1.0664735276119129E-002   5.2873295794536465E-002
  -3.4405697205115854E-002   1.0218979789991171E-002   5.2857154114759018E-002
  -3.3405018479795497E-002   9.7656307327061986E-003   5.3000371916213665E-002
  -4.2888186995902008E-002   1.3201026690557505E-002   5.0532701719987805E-002
  -4.1727900666135534E-002   1.2710660965116416E-002   5.0137468149040409E-002
  -4.0567614336369094E-002   1.2210985729550497E-002   4.9902090305752989E-002
  -3.9407328006602640E-002   1.1702000983859959E-002   4.9826568190125556E-002
  -3.8247041676836180E-002   1.1183706728044474E-002   4.9910901802158181E-002
  -1.9180056042078078E-002   5.5114027466915960E-003   6.1873963250292818E-002
  -1.8146448499512476E-002   5.2449649027175305E-003   6.1689758293074215E-002
  -1.7112840956946863E-002   4.9651240484343551E-003   6.1712427573818868E-002
  -1.6079233414381257E-002   4.6718801838420004E-003   6.1941971092526860E-002
  -1.5045625871815647E-002   4.3652333089405637E-003   6.2378388849198219E-002
  -2.3871525662416463E-002   6.9294787420297599E-003   5.8981902640281025E-002
  -2.2627799994032645E-002   6.5977322810013839E-003   5.8737848586000951E-002
  -2.1384074325648796E-002   6.2535719115840022E-003   5.8707156545393907E-002
  -2.0140348657264950E-002   5.8969976337778125E-003   5.8889826518460017E-002
  -1.8896622988881125E-002   5.5280094475828601E-003   5.9285858505199462E-002
  -2.8613179808322294E-002   8.3475547373680348E-003   5.6024038862254683E-002
  -2.7152848238410375E-002   7.9504996592851818E-003   5.5721124812833270E-002
  -2.5692516668498512E-002   7.5420197747337048E-003   5.5638060552794952E-002
  -2.4232185098586590E-002   7.1221150837135691E-003   5.5774846082139604E-002
  -2.2771853528674731E-002   6.6907855862250454E-003   5.6131481400867156E-002
  -3.3405018479795497E-002   9.7656307327061986E-003   5.3000371916213665E-002
  -3.1721593232645735E-002   9.3032670375690074E-003   5.2639586973571489E-002
  -3.0038167985495971E-002   8.8304676378832686E-003   5.2505139596021953E-002
  -2.8354742738346178E-002   8.3472325336494645E-003   5.2597029783565244E-002
  -2.6671317491196438E-002   7.8535617248672862E-003   5.2915257536201479E-002
  -3.8247041676836180E-002   1.1183706728044474E-002   4.9910901802158181E-002
  -3.6334034976738705E-002   1.0656034415852833E-002   4.9493235068215402E-002
  -3.4421028276641216E-002   1.0118915501033082E-002   4.9308393675074974E-002
  -3.2508021576543734E-002   9.5723499835850892E-003   4.9356377622737257E-002
  -3.0595014876446253E-002   9.0163378635095270E-003   4.9637186911202225E-002
  -1.5045625871815647E-002   4.3652333089405637E-003   6.2378388849198219E-002
  -1.4248631505342862E-002   4.0503444849481762E-003   6.2187900711593080E-002
  -1.3451637138870081E-002   3.7323747730829138E-003   6.2215509236302535E-002
  -1.2654642772397291E-002   3.4113241733456229E-003   6.2461214423326750E-002
  -1.1857648405924508E-002   3.0871926857352072E-003   6.2925016272665779E-002
  -1.8896622988881125E-002   5.5280094475828601E-003   5.9285858505199462E-002
  -1.7889425790853914E-002   5.1508560760276378E-003   5.9059744439003886E-002
  -1.6882228592826693E-002   4.7697862421414022E-003   5.9035939373602492E-002
  -1.5875031394799469E-002   4.3847999459239416E-003   5.9214443308995321E-002
  -1.4867834196772265E-002   3.9958971873753635E-003   5.9595256245182082E-002
  -2.2771853528674731E-002   6.6907855862250454E-003   5.6131481400867156E-002
  -2.1570241160613637E-002   6.2513676671071827E-003   5.5868905831622670E-002
  -2.0368628792552534E-002   5.8071977111996687E-003   5.5792851601651913E-002
  -1.9167016424491434E-002   5.3582757185023713E-003   5.5903318710954816E-002
  -1.7965404056430337E-002   4.9046016890155197E-003   5.6200307159531254E-002
  -2.6671317491196438E-002   7.8535617248672862E-003   5.2915257536201479E-002
  -2.5291077614622001E-002   7.3518792581866860E-003   5.2615384889449640E-002
  -2.3910837738047586E-002   6.8446091802580461E-003   5.2486245920450890E-002
  -2.2530597861473167E-002   6.3317514910808566E-003   5.2527840629205180E-002
  -2.1150357984898730E-002   5.8133061906557315E-003   5.2740169015712393E-002
  -3.0595014876446253E-002   9.0163378635095270E-003   4.9637186911202225E-002
  -2.9051935152879044E-002   8.4523908492661337E-003   4.9299181612484588E-002
  -2.7508855429311863E-002   7.8820206493163403E-003   4.9116122329999234E-002
  -2.5965775705744668E-002   7.3052272636592100E-003   4.9088009063746524E-002
  -2.4422695982177473E-002   6.7220106922959433E-003   4.9214841813726151E-002
  -1.1857648405924508E-002   3.0871926857352072E-003   6.2925016272665779E-002
  -1.0864758978614913E-002   2.7688738912549082E-003   6.2907295354813431E-002
  -9.8718695513053262E-003   2.4652613709077453E-003   6.3117608469688002E-002
  -8.8789801239957354E-003   2.1763551246930524E-003   6.3555955617289522E-002
  -7.8860906966861447E-003   1.9021551526119396E-003   6.4222336797617907E-002
  -1.4867834196772265E-002   3.9958971873753635E-003   5.9595256245182082E-002
  -1.3650805328714322E-002   3.6092170165433757E-003   5.9497790622489832E-002
  -1.2433776460656345E-002   3.2308984834757970E-003   5.9620569848567201E-002
  -1.1216747592598404E-002   2.8609415881727107E-003   5.9963593923414549E-002
  -9.9997187245404288E-003   2.4993463306346442E-003   6.0526862847031626E-002
  -1.7965404056430337E-002   4.9046016890155197E-003   5.6200307159531254E-002
  -1.6532024931581072E-002   4.4495601418317876E-003   5.6016752195630265E-002
  -1.5098645806731797E-002   3.9965355960439597E-003   5.6045652896542147E-002
  -1.3665266681882521E-002   3.5455280516524801E-003   5.6287009262266888E-002
  -1.2231887557033258E-002   3.0965375086573488E-003   5.6740821292804167E-002
  -2.1150357984898730E-002   5.8133061906557315E-003   5.2740169015712393E-002
  -1.9508417787215227E-002   5.2899032671203383E-003   5.2464180074234756E-002
  -1.7866477589531693E-002   4.7621727086122889E-003   5.2392857613612648E-002
  -1.6224537391848187E-002   4.2301145151320829E-003   5.2526201633846463E-002
  -1.4582597194164652E-002   3.6937286866800534E-003   5.2864212134935612E-002
  -2.4422695982177473E-002   6.7220106922959433E-003   4.9214841813726151E-002
  -2.2579983895616759E-002   6.1302463924085560E-003   4.8840074258303279E-002
  -2.0737271809056032E-002   5.5278098211804239E-003   4.8662183999778785E-002
  -1.8894559722495319E-002   4.9147009786117482E-003   4.8681171038153143E-002
  -1.7051847635934592E-002   4.2909198647028690E-003   4.8897035373426156E-002
  -7.8860906966861447E-003   1.9021551526119396E-003   6.4222336797617907E-002
  -6.9578228015862650E-003   1.6905272700846741E-003   6.4122403450747489E-002
  -6.0295549064863889E-003   1.5893372925327443E-003   6.4273313592253356E-002
  -5.1012870113865145E-003   1.5985852199565109E-003   6.4675067222135729E-002
  -4.1730191162866331E-003   1.7182710523554467E-003   6.5327664340394609E-002
  -9.9997187245404288E-003   2.4993463306346442E-003   6.0526862847031626E-002
  -8.8204392364516215E-003   2.1981643158567876E-003   6.0420008176500839E-002
  -7.6411597483628541E-003   2.0094471488353027E-003   6.0564333203571685E-002
  -6.4618802602740668E-003   1.9331948295700160E-003   6.0959837928243582E-002
  -5.2826007721852794E-003   1.9694073580609484E-003   6.1606522350517112E-002
  -1.2231887557033258E-002   3.0965375086573488E-003   5.6740821292804167E-002
  -1.0801260266730657E-002   2.7058013616286791E-003   5.6629072241394240E-002
  -9.3706329764280429E-003   2.4295570051375281E-003   5.6768839096810575E-002
  -7.9400056861254481E-003   2.2678044391832991E-003   5.7160121859053115E-002
  -6.5093783958228256E-003   2.2205436637665055E-003   5.7802920528121915E-002
  -1.4582597194164652E-002   3.6937286866800534E-003   5.2864212134935612E-002
  -1.2900285892423289E-002   3.2134384074009037E-003   5.2749595645427340E-002
  -1.1217974590681936E-002   2.8496668614396981E-003   5.2886831271970094E-002
  -9.5356632889405657E-003   2.6024140487969152E-003   5.3275919014564140E-002
  -7.8533519871992179E-003   2.4716799694720903E-003   5.3916858873209267E-002
  -1.7051847635934592E-002   4.2909198647028690E-003   4.8897035373426156E-002
  -1.5117516113529572E-002   3.7210754531727397E-003   4.8781578388600311E-002
  -1.3183184591124553E-002   3.2697767177423120E-003   4.8918309729050535E-002
  -1.1248853068719533E-002   2.9370236584101428E-003   4.9307229394776914E-002
  -9.3145215463145137E-003   2.7228162751775642E-003   4.9948337385779307E-002
  -4.1730191162866331E-003   1.7182710523554467E-003   6.5327664340394609E-002
  -3.6395811422298210E-003   2.0095814312425242E-003   6.4414701483803904E-002
  -3.1061431681730090E-003   2.5337029981303827E-003   6.3619859759932063E-002
  -2.5727051941161969E-003   3.2906357530190500E-003   6.2943139168778972E-002
  -2.0392672200593848E-003   4.2803796959088869E-003   6.2384539710344744E-002
  -5.2826007721852794E-003   1.9694073580609484E-003   6.1606522350517112E-002
  -4.6047060816034706E-003   2.2249391781610783E-003   6.0882191571725142E-002
  -3.9268113910216687E-003   2.8066447337235789E-003   6.0328653093264517E-002
  -3.2489167004398582E-003   3.7145240247483599E-003   5.9945906915135017E-002
  -2.5710220098580580E-003   4.9485770512356364E-003   5.9733953037336640E-002
  -6.5093783958228256E-003   2.2205436637665055E-003   5.7802920528121915E-002
  -5.6343558211036770E-003   2.4402969250800211E-003   5.7360584374590295E-002
  -4.7593332463844867E-003   3.0795864693171082E-003   5.7141711689002117E-002
  -3.8843106716652896E-003   4.1384122964778919E-003   5.7146302471357574E-002
  -3.0092880969461479E-003   5.6167744065624414E-003   5.7374356721656333E-002
  -7.8533519871992179E-003   2.4716799694720903E-003   5.3916858873209267E-002
  -6.7285303607303327E-003   2.6556546719989360E-003   5.3849879892399248E-002
  -5.6037087342614353E-003   3.3525282049104710E-003   5.4059035547145168E-002
  -4.4788871077925309E-003   4.5623005682076459E-003   5.4544325837446929E-002
  -3.3540654813236518E-003   6.2849717618889966E-003   5.5305750763304427E-002
  -9.3145215463145137E-003   2.7228162751775642E-003   4.9948337385779307E-002
  -7.8872297004835418E-003   2.8710124189175734E-003   5.0350078125152242E-002
  -6.4599378546525421E-003   3.6254699405036395E-003   5.1080624667693308E-002
  -5.0326460088215424E-003   4.9861888399365187E-003   5.2139977013402866E-002
  -3.6053541629905705E-003   6.9531691172158849E-003   5.3528135162280388E-002
  -2.0392672200593848E-003   4.2803796959088869E-003   6.2384539710344744E-002
  -2.2890184473293648E-003   5.5830940528102113E-003   5.8349342750349420E-002
  -2.5387696745993518E-003   7.2789380497344236E-003   5.4309380616586911E-002
  -2.7885209018693423E-003   9.3679116866799347E-003   5.0264653309056523E-002
  -3.0382721291393189E-003   1.1850014963648903E-002   4.6215160827758783E-002
  -2.5710220098580580E-003   4.9485770512356364E-003   5.9733953037336640E-002
  -2.8432243442655762E-003   6.5728266855160089E-003   5.6198233406755671E-002
  -3.1154266786730701E-003   8.6512957999218265E-003   5.2622376735667442E-002
  -3.3876290130805571E-003   1.1183984394452222E-002   4.9006383024071565E-002
  -3.6598313474880823E-003   1.4170892469107743E-002   4.5350252271968428E-002
  -3.0092880969461479E-003   5.6167744065624414E-003   5.7374356721656333E-002
  -3.3393134052311316E-003   7.5625593182220840E-003   5.4399204260592582E-002
  -3.6693387135161588E-003   1.0023653550109354E-002   5.1348542892280982E-002
  -3.9993640218011798E-003   1.3000057102224568E-002   4.8222372616721805E-002
  -4.3293893300861697E-003   1.6491769974566584E-002   4.5020693433915460E-002
  -3.3540654813236518E-003   6.2849717618889966E-003   5.5305750763304427E-002
  -3.7772856302261326E-003   8.5522919509281314E-003   5.2952255311859563E-002
  -4.2005057791285848E-003   1.1396011300297486E-002   5.0487879086427739E-002
  -4.6237259280311211E-003   1.4816129809996329E-002   4.7912622087008014E-002
  -5.0469460769335464E-003   1.8812647480025424E-002   4.5226484313601434E-002
  -3.6053541629905705E-003   6.9531691172158849E-003   5.3528135162280388E-002
  -4.1571410192504793E-003   9.5420245836339568E-003   5.1857386560557606E-002
  -4.7089278755104158E-003   1.2768369050484701E-002   5.0040385318107228E-002
  -5.2607147317702968E-003   1.6632202517768917E-002   4.8077131434929504E-002
  -5.8125015880302611E-003   2.1133524985484264E-002   4.5967624911024352E-002
  -5.2228189086800575E-002   1.4916696339526081E-002   5.2022725679326531E-002
  -4.9893188564075930E-002   1.4530374095886478E-002   5.1119770761710370E-002
  -4.7558188041351313E-002   1.4115655073178440E-002   5.0570448462615103E-002
  -4.5223187518626654E-002   1.3672539271402141E-002   5.0374758782040868E-002
  -4.2888186995902008E-002   1.3201026690557505E-002   5.0532701719987805E-002
  -5.9073219811394129E-002   1.6850794134971037E-002   4.5651327989332913E-002
  -5.6382308425231634E-002   1.6363048490080800E-002   4.4881534250967164E-002
  -5.3691397039069041E-002   1.5861313013106115E-002   4.4469929620956111E-002
  -5.1000485652906456E-002   1.5345587704046745E-002   4.4416514099299809E-002
  -4.8309574266743899E-002   1.4815872562903010E-002   4.4721287685998368E-002
  -6.5766174296077659E-002   1.8784891930415992E-002   3.9171303424596710E-002
  -6.2714795556643457E-002   1.8195722884275262E-002   3.8549077812465318E-002
  -5.9663416817209262E-002   1.7606970953033693E-002   3.8289597798522187E-002
  -5.6612038077775068E-002   1.7018636136691374E-002   3.8392863382767629E-002
  -5.3560659338340935E-002   1.6430718435248431E-002   3.8858874565201554E-002
  -7.2307052540851083E-002   2.0718989725860976E-002   3.2582651985118019E-002
  -6.8890649958311609E-002   2.0028397278469598E-002   3.2122401446204790E-002
  -6.5474247375772024E-002   1.9352628892961320E-002   3.2029452995313415E-002
  -6.2057844793232494E-002   1.8691684569336044E-002   3.2303806632444372E-002
  -5.8641442210692972E-002   1.8045564307593756E-002   3.2945462357597571E-002
  -7.8695854545714483E-002   2.2653087521305904E-002   2.5885373670897105E-002
  -7.4909871630235852E-002   2.1861071672664045E-002   2.5601505152185455E-002
  -7.1123888714757305E-002   2.1098286832888946E-002   2.5689495211329794E-002
  -6.7337905799278702E-002   2.0364733001980578E-002   2.6149343848329953E-002
  -6.3551922883800072E-002   1.9660410179939303E-002   2.6981051063186212E-002
  -4.2888186995902008E-002   1.3201026690557505E-002   5.0532701719987805E-002
  -4.1727900666135534E-002   1.2710660965116416E-002   5.0137468149040409E-002
  -4.0567614336369094E-002   1.2210985729550497E-002   4.9902090305752989E-002
  -3.9407328006602640E-002   1.1702000983859959E-002   4.9826568190125556E-002
  -3.8247041676836180E-002   1.1183706728044474E-002   4.9910901802158181E-002
  -4.8309574266743899E-002   1.4815872562903010E-002   4.4721287685998368E-002
  -4.7006776316619300E-002   1.4274912287692842E-002   4.4470107233907541E-002
  -4.5703978366494653E-002   1.3725451576434330E-002   4.4344094294873085E-002
  -4.4401180416370048E-002   1.3167490429127664E-002   4.4343248868894972E-002
  -4.3098382466245422E-002   1.2601028845772855E-002   4.4467570955973090E-002
  -5.3560659338340935E-002   1.6430718435248431E-002   3.8858874565201554E-002
  -5.2150037982461761E-002   1.5839163610269102E-002   3.8752556306043975E-002
  -5.0739416626582649E-002   1.5239917423318157E-002   3.8736717345338852E-002
  -4.9328795270703489E-002   1.4632979874395368E-002   3.8811357683086523E-002
  -4.7918173914824357E-002   1.4018350963500903E-002   3.8976477319286912E-002
  -5.8641442210692972E-002   1.8045564307593756E-002   3.2945462357597571E-002
  -5.7157685663663013E-002   1.7403414932845557E-002   3.2984815365449449E-002
  -5.5673929116633013E-002   1.6754383270201931E-002   3.3079959457150344E-002
  -5.4190172569603033E-002   1.6098469319663182E-002   3.3230894632700382E-002
  -5.2706416022573047E-002   1.5435673081229062E-002   3.3437620892099153E-002
  -6.3551922883800072E-002   1.9660410179939303E-002   2.6981051063186212E-002
  -6.2029719360222904E-002   1.8967666255421761E-002   2.7166884412124281E-002
  -6.0507515836645792E-002   1.8268849117085775E-002   2.7373820630307494E-002
  -5.8985312313068639E-002   1.7563958764930821E-002   2.7601859717736238E-002
  -5.7463108789491485E-002   1.6852995198957277E-002   2.7851001674410347E-002
  -3.8247041676836180E-002   1.1183706728044474E-002   4.9910901802158181E-002
  -3.6334034976738705E-002   1.0656034415852833E-002   4.9493235068215402E-002
  -3.4421028276641216E-002   1.0118915501033082E-002   4.9308393675074974E-002
  -3.2508021576543734E-002   9.5723499835850892E-003   4.9356377622737257E-002
  -3.0595014876446253E-002   9.0163378635095270E-003   4.9637186911202225E-002
  -4.3098382466245422E-002   1.2601028845772855E-002   4.4467570955973090E-002
  -4.0954460499822078E-002   1.2026435067034158E-002   4.4070938209710336E-002
  -3.8810538533398768E-002   1.1444077333576969E-002   4.3903310655296512E-002
  -3.6666616566975452E-002   1.0853955645400447E-002   4.3964688292731757E-002
  -3.4522694600552115E-002   1.0256070002505502E-002   4.4255071122016210E-002
  -4.7918173914824357E-002   1.4018350963500903E-002   3.8976477319286912E-002
  -4.5547156831028772E-002   1.3396835718215594E-002   3.8602561208613190E-002
  -4.3176139747233153E-002   1.2769239166120619E-002   3.8453830140835032E-002
  -4.0805122663437547E-002   1.2135561307215801E-002   3.8530284115952253E-002
  -3.8434105579641956E-002   1.1495802141501255E-002   3.8831923133965079E-002
  -5.2706416022573047E-002   1.5435673081229062E-002   3.3437620892099153E-002
  -5.0112123970358746E-002   1.4767236369397169E-002   3.3088104064923761E-002
  -4.7517831918144418E-002   1.4094400998664387E-002   3.2959952131690257E-002
  -4.4923539865930083E-002   1.3417166969031157E-002   3.3053165092398758E-002
  -4.2329247813715790E-002   1.2735534280497063E-002   3.3367742947049257E-002
  -5.7463108789491485E-002   1.6852995198957277E-002   2.7851001674410347E-002
  -5.4649361917811973E-002   1.6137637020578410E-002   2.7527566778642321E-002
  -5.1835615046132530E-002   1.5419562831208294E-002   2.7421676627862657E-002
  -4.9021868174453025E-002   1.4698772630846409E-002   2.7533331222071245E-002
  -4.6208121302773519E-002   1.3975266419493038E-002   2.7862530561268473E-002
  -3.0595014876446253E-002   9.0163378635095270E-003   4.9637186911202225E-002
  -2.9051935152879044E-002   8.4523908492661337E-003   4.9299181612484588E-002
  -2.7508855429311863E-002   7.8820206493163403E-003   4.9116122329999234E-002
  -2.5965775705744668E-002   7.3052272636592100E-003   4.9088009063746524E-002
  -2.4422695982177473E-002   6.7220106922959433E-003   4.9214841813726151E-002
  -3.4522694600552115E-002   1.0256070002505502E-002   4.4255071122016210E-002
  -3.2827839651983701E-002   9.6501542418460651E-003   4.3922804043825009E-002
  -3.1132984703415321E-002   9.0359422003776779E-003   4.3739141399403908E-002
  -2.9438129754846897E-002   8.4134338781000767E-003   4.3704083188752754E-002
  -2.7743274806278528E-002   7.7826292750131643E-003   4.3817629411871395E-002
  -3.8434105579641956E-002   1.1495802141501255E-002   3.8831923133965079E-002
  -3.6593816988534880E-002   1.0847917634425913E-002   3.8503521181198375E-002
  -3.4753528397427902E-002   1.0189863751439113E-002   3.8317382079738962E-002
  -3.2913239806320896E-002   9.5216404925404959E-003   3.8273505829586933E-002
  -3.1072951215213848E-002   8.8432478577305518E-003   3.8371892430742238E-002
  -4.2329247813715790E-002   1.2735534280497063E-002   3.3367742947049257E-002
  -4.0349867162532672E-002   1.2045681027005692E-002   3.3041333024604436E-002
  -3.8370486511349632E-002   1.1343785302500388E-002   3.2850844371004287E-002
  -3.6391105860166570E-002   1.0629847106981083E-002   3.2796276986249075E-002
  -3.4411725208983522E-002   9.9038664404479670E-003   3.2877630870338508E-002
  -4.6208121302773519E-002   1.3975266419493038E-002   2.7862530561268473E-002
  -4.4095990173977029E-002   1.3243444419585526E-002   2.7536239574043220E-002
  -4.1983859045180510E-002   1.2497706853561788E-002   2.7339528273199992E-002
  -3.9871727916383978E-002   1.1738053721421563E-002   2.7272396658739248E-002
  -3.7759596787587474E-002   1.0964485023165271E-002   2.7334844730660390E-002
  -2.4422695982177473E-002   6.7220106922959433E-003   4.9214841813726151E-002
  -2.2579983895616759E-002   6.1302463924085560E-003   4.8840074258303279E-002
  -2.0737271809056032E-002   5.5278098211804239E-003   4.8662183999778785E-002
  -1.8894559722495319E-002   4.9147009786117482E-003   4.8681171038153143E-002
  -1.7051847635934592E-002   4.2909198647028690E-003   4.8897035373426156E-002
  -2.7743274806278528E-002   7.7826292750131643E-003   4.3817629411871395E-002
  -2.5715949034369211E-002   7.1467413071459873E-003   4.3415229300018177E-002
  -2.3688623262459907E-002   6.5089828905280089E-003   4.3185179261963386E-002
  -2.1661297490550596E-002   5.8693540251590556E-003   4.3127479297707189E-002
  -1.9633971718641285E-002   5.2278547110388152E-003   4.3242129407249363E-002
  -3.1072951215213848E-002   8.8432478577305518E-003   3.8371892430742238E-002
  -2.8885538981056127E-002   8.1632362218838073E-003   3.7950661585048312E-002
  -2.6698126746898442E-002   7.4901559598756912E-003   3.7677253590052751E-002
  -2.4510714512740714E-002   6.8240070717060820E-003   3.7551668445755450E-002
  -2.2323302278582979E-002   6.1647895573749278E-003   3.7573906152156639E-002
  -3.4411725208983522E-002   9.9038664404479670E-003   3.2877630870338508E-002
  -3.2088753735677530E-002   9.1797311366215995E-003   3.2446371113393484E-002
  -2.9765782262371570E-002   8.4713290292233803E-003   3.2138406984046547E-002
  -2.7442810789065610E-002   7.7786601182529714E-003   3.1953738482298100E-002
  -2.5119839315759614E-002   7.1017244037111238E-003   3.1892365608147538E-002
  -3.7759596787587474E-002   1.0964485023165271E-002   2.7334844730660390E-002
  -3.5325593298233399E-002   1.0196226051359059E-002   2.6902357885053851E-002
  -3.2891589808879365E-002   9.4525020985709030E-003   2.6568639443945385E-002
  -3.0457586319525283E-002   8.7333131648002910E-003   2.6333689407334743E-002
  -2.8023582830171256E-002   8.0386592500470977E-003   2.6197507775222340E-002
  -1.7051847635934592E-002   4.2909198647028690E-003   4.8897035373426156E-002
  -1.5117516113529572E-002   3.7210754531727397E-003   4.8781578388600311E-002
  -1.3183184591124553E-002   3.2697767177423120E-003   4.8918309729050535E-002
  -1.1248853068719533E-002   2.9370236584101428E-003   4.9307229394776914E-002
  -9.3145215463145137E-003   2.7228162751775642E-003   4.9948337385779307E-002
  -1.9633971718641285E-002   5.2278547110388152E-003   4.3242129407249363E-002
  -1.7485489851578453E-002   4.6222360776582705E-003   4.3077516707734964E-002
  -1.5337007984515531E-002   4.0902492545083491E-003   4.3089016372260286E-002
  -1.3188526117452637E-002   3.6318942415882044E-003   4.3276628400825343E-002
  -1.1040044250389777E-002   3.2471710388988217E-003   4.3640352793429538E-002
  -2.2323302278582979E-002   6.1647895573749278E-003   3.7573906152156639E-002
  -2.0036746028098771E-002   5.5233967021438846E-003   3.7315223872084885E-002
  -1.7750189777614514E-002   4.9107217912746082E-003   3.7156577994816337E-002
  -1.5463633527130264E-002   4.3267648247665991E-003   3.7097968520350771E-002
  -1.3177077276646049E-002   3.7715258026203013E-003   3.7139395448688411E-002
  -2.5119839315759614E-002   7.1017244037111238E-003   3.1892365608147538E-002
  -2.2771284643090580E-002   6.4245573266294015E-003   3.1494699881649754E-002
  -2.0422729970421487E-002   5.7311943280408117E-003   3.1120994596718757E-002
  -1.8074175297752473E-002   5.0216354079451603E-003   3.0771249753354456E-002
  -1.5725620625083349E-002   4.2958805663417809E-003   3.0445465351556351E-002
  -2.8023582830171256E-002   8.0386592500470977E-003   2.6197507775222340E-002
  -2.5689105696553888E-002   7.3257179511150294E-003   2.5615944736429808E-002
  -2.3354628562936519E-002   6.5516668648069876E-003   2.4982266177967560E-002
  -2.1020151429319150E-002   5.7165059911229096E-003   2.4296472099835209E-002
  -1.8685674295701782E-002   4.8202353300630385E-003   2.3558562502032920E-002
  -9.3145215463145137E-003   2.7228162751775642E-003   4.9948337385779307E-002
  -7.8872297004835418E-003   2.8710124189175734E-003   5.0350078125152242E-002
  -6.4599378546525421E-003   3.6254699405036395E-003   5.1080624667693308E-002
  -5.0326460088215424E-003   4.9861888399365187E-003   5.2139977013402866E-002
  -3.6053541629905705E-003   6.9531691172158849E-003   5.3528135162280388E-002
  -1.1040044250389777E-002   3.2471710388988217E-003   4.3640352793429538E-002
  -9.2662455313440584E-003   3.1742788773984065E-003   4.4226430105664627E-002
  -7.4924468122983812E-003   3.6514169880453029E-003   4.5176715361161163E-002
  -5.7186480932527109E-003   4.6785853708402672E-003   4.6491208559918465E-002
  -3.9448493742069851E-003   6.2557840257824182E-003   4.8169909701937130E-002
  -1.3177077276646049E-002   3.7715258026203013E-003   3.7139395448688411E-002
  -1.1021369544292763E-002   3.4775453358793229E-003   3.7853578228087187E-002
  -8.8656618119394778E-003   3.6773640355870635E-003   3.8967371090839989E-002
  -6.7099540795861924E-003   4.3709819017435682E-003   4.0480774036946894E-002
  -4.5542463472329070E-003   5.5583989343490070E-003   4.2393787066407923E-002
  -1.5725620625083349E-002   4.2958805663417809E-003   3.0445465351556351E-002
  -1.3152601739329636E-002   3.7808117943601977E-003   3.1231522492419901E-002
  -1.0579582853575921E-002   3.7033110831284424E-003   3.2452591856730356E-002
  -8.0065639678221501E-003   4.0633784326470929E-003   3.4108673444487696E-002
  -5.4335450820684368E-003   4.8610138429156791E-003   3.6199767255692246E-002
  -1.8685674295701782E-002   4.8202353300630385E-003   2.3558562502032920E-002
  -1.5659942116454717E-002   4.0840782528410724E-003   2.4360262898662555E-002
  -1.2634209937207597E-002   3.7292581306702099E-003   2.5632377658831973E-002
  -9.6084777579604763E-003   3.7557749635504928E-003   2.7374906782541175E-002
  -6.5827455787134115E-003   4.1636287514823511E-003   2.9587850269790161E-002
  -3.6053541629905705E-003   6.9531691172158849E-003   5.3528135162280388E-002
  -4.1571410192504793E-003   9.5420245836339568E-003   5.1857386560557606E-002
  -4.7089278755104158E-003   1.2768369050484701E-002   5.0040385318107228E-002
  -5.2607147317702968E-003   1.6632202517768917E-002   4.8077131434929504E-002
  -5.8125015880302611E-003   2.1133524985484264E-002   4.5967624911024352E-002
  -3.9448493742069851E-003   6.2557840257824182E-003   4.8169909701937130E-002
  -4.5388841617004516E-003   8.6931606705889508E-003   4.7237171401905753E-002
  -5.1329189491938834E-003   1.2300863022977865E-002   4.6366189880134578E-002
  -5.7269537366872771E-003   1.7078891082948668E-002   4.5556965136624050E-002
  -6.3209885241807817E-003   2.3027244850500894E-002   4.4809497171374169E-002
  -4.5542463472329070E-003   5.5583989343490070E-003   4.2393787066407923E-002
  -4.9825196469720674E-003   7.8442967575442779E-003   4.2731895775217354E-002
  -5.4107929467112278E-003   1.1833356995470931E-002   4.3339770681275105E-002
  -5.8390662464502703E-003   1.7525579648128699E-002   4.4217411784581100E-002
  -6.2673395461894932E-003   2.4920964715517746E-002   4.5364819085135455E-002
  -5.4335450820684368E-003   4.8610138429156791E-003   3.6199767255692246E-002
  -5.4880474750654456E-003   6.9954328444994385E-003   3.8341559680491667E-002
  -5.5425498680624821E-003   1.1365850967963935E-002   4.0961127721527685E-002
  -5.5970522610595029E-003   1.7972268213308926E-002   4.4058471378799466E-002
  -5.6515546540565273E-003   2.6814684580534598E-002   4.7633590652307406E-002
  -6.5827455787134115E-003   4.1636287514823511E-003   2.9587850269790161E-002
  -6.0554676459805279E-003   6.1465689314542660E-003   3.4066163117729698E-002
  -5.5281897132476721E-003   1.0898344940456994E-002   3.9230261000892996E-002
  -5.0009117805146497E-003   1.8418956778488885E-002   4.5080143919280335E-002
  -4.4736338477818771E-003   2.8708404445551228E-002   5.1615811872891104E-002
  -7.8695854545714483E-002   2.2653087521305904E-002   2.5885373670897105E-002
  -7.4909871630235852E-002   2.1861071672664045E-002   2.5601505152185455E-002
  -7.1123888714757305E-002   2.1098286832888946E-002   2.5689495211329794E-002
  -6.7337905799278702E-002   2.0364733001980578E-002   2.6149343848329953E-002
  -6.3551922883800072E-002   1.9660410179939303E-002   2.6981051063186212E-002
  -8.5070643217950132E-002   2.4391709362589165E-002   2.0551405287965285E-002
  -8.0923206023145053E-002   2.3634075944047928E-002   2.0142529904873391E-002
  -7.6775768828340113E-002   2.2866105534247089E-002   2.0084704502578293E-002
  -7.2628331633535104E-002   2.2087798133186932E-002   2.0377929081080048E-002
  -6.8480894438730081E-002   2.1299153740867216E-002   2.1022203640378795E-002
  -9.1569481464840008E-002   2.6130331203872481E-002   1.5271603335197198E-002
  -8.7081398587767755E-002   2.5407080215431754E-002   1.4698153087598836E-002
  -8.2593315710695461E-002   2.4633924235605176E-002   1.4454944223738081E-002
  -7.8105232833623250E-002   2.3810863264393065E-002   1.4541976743615043E-002
  -7.3617149956550984E-002   2.2937897301795157E-002   1.4959250647229777E-002
  -9.8192369286384557E-002   2.7868953045155798E-002   1.0045967812592670E-002
  -9.3384449324103919E-002   2.7180084486815609E-002   9.2683747003615216E-003
  -8.8576529361823544E-002   2.6401742936963207E-002   8.8002143748089207E-003
  -8.3768609399543142E-002   2.5533928395599169E-002   8.6414868359349153E-003
  -7.8960689437262657E-002   2.4576640862723195E-002   8.7921920837396340E-003
 -0.10493930668258322        2.9607574886439059E-002   4.8744987201519985E-003
  -9.9832358232153640E-002   2.8953088758199463E-002   3.8531947431617586E-003
  -9.4725409781724168E-002   2.8169561638321350E-002   3.1205149557908818E-003
  -8.9618461331294641E-002   2.7256993526805481E-002   2.6764593580400273E-003
  -8.4511512880865114E-002   2.6215384423651122E-002   2.5210279499081056E-003
  -6.3551922883800072E-002   1.9660410179939303E-002   2.6981051063186212E-002
  -6.2029719360222904E-002   1.8967666255421761E-002   2.7166884412124281E-002
  -6.0507515836645792E-002   1.8268849117085775E-002   2.7373820630307494E-002
  -5.8985312313068639E-002   1.7563958764930821E-002   2.7601859717736238E-002
  -5.7463108789491485E-002   1.6852995198957277E-002   2.7851001674410347E-002
  -6.8480894438730081E-002   2.1299153740867216E-002   2.1022203640378795E-002
  -6.6915616470524575E-002   2.0512893838801727E-002   2.1027240980783513E-002
  -6.5350338502318972E-002   1.9741739908504058E-002   2.1097324341199750E-002
  -6.3785060534113411E-002   1.8985691949974078E-002   2.1232453721627693E-002
  -6.2219782565907836E-002   1.8244749963212070E-002   2.1432629122067087E-002
  -7.3617149956550984E-002   2.2937897301795157E-002   1.4959250647229777E-002
  -7.1964854392950833E-002   2.2058121422181595E-002   1.4804671164688032E-002
  -7.0312558829350641E-002   2.1214630699922389E-002   1.4759080852923948E-002
  -6.8660263265750435E-002   2.0407425135017497E-002   1.4822479711937422E-002
  -6.7007967702150284E-002   1.9636504727466780E-002   1.4994867741728785E-002
  -7.8960689437262657E-002   2.4576640862723195E-002   8.7921920837396340E-003
  -7.7177433127501707E-002   2.3603349005561512E-002   8.4991749638378411E-003
  -7.5394176817740674E-002   2.2687521491340724E-002   8.3590901654796556E-003
  -7.3610920507979710E-002   2.1829158320060892E-002   8.3719376886653464E-003
  -7.1827664198218732E-002   2.1028259491721643E-002   8.5377175333951685E-003
  -8.4511512880865114E-002   2.6215384423651122E-002   2.5210279499081056E-003
  -8.2553352674177183E-002   2.5148576588941318E-002   2.1107523782324944E-003
  -8.0595192467489252E-002   2.4160412282759031E-002   1.8973522788671843E-003
  -7.8637032260801321E-002   2.3250891505104017E-002   1.8808276518117902E-003
  -7.6678872054113389E-002   2.2420014255976395E-002   2.0611784970662184E-003
  -5.7463108789491485E-002   1.6852995198957277E-002   2.7851001674410347E-002
  -5.4649361917811973E-002   1.6137637020578410E-002   2.7527566778642321E-002
  -5.1835615046132530E-002   1.5419562831208294E-002   2.7421676627862657E-002
  -4.9021868174453025E-002   1.4698772630846409E-002   2.7533331222071245E-002
  -4.6208121302773519E-002   1.3975266419493038E-002   2.7862530561268473E-002
  -6.2219782565907836E-002   1.8244749963212070E-002   2.1432629122067087E-002
  -5.9185905395487626E-002   1.7504001534285302E-002   2.1071550986681065E-002
  -5.6152028225067409E-002   1.6748534249261732E-002   2.0933188703788047E-002
  -5.3118151054647150E-002   1.5978348108140951E-002   2.1017542273388090E-002
  -5.0084273884226982E-002   1.5193443110923188E-002   2.1324611695481333E-002
  -6.7007967702150284E-002   1.9636504727466780E-002   1.4994867741728785E-002
  -6.3748789125484678E-002   1.8870366047992332E-002   1.4584143521619269E-002
  -6.0489610548819017E-002   1.8077505667315211E-002   1.4401306261507499E-002
  -5.7230431972153328E-002   1.7257923585435712E-002   1.4446355961393431E-002
  -5.3971253395487750E-002   1.6411619802353422E-002   1.4719292621277150E-002
  -7.1827664198218732E-002   2.1028259491721643E-002   8.5377175333951685E-003
  -6.8338013107803033E-002   2.0236730561699015E-002   8.0653443834564562E-003
  -6.4848362017387334E-002   1.9406477085368669E-002   7.8260293010207517E-003
  -6.1358710926971677E-002   1.8537499062730306E-002   7.8197722860868131E-003
  -5.7869059836555950E-002   1.7629796493784003E-002   8.0465733386561704E-003
  -7.6678872054113389E-002   2.2420014255976395E-002   2.0611784970662184E-003
  -7.2953577342442955E-002   2.1603095075406142E-002   1.5151535721935061E-003
  -6.9228282630772409E-002   2.0735448503421905E-002   1.2073578223277537E-003
  -6.5502987919101863E-002   1.9817074540025126E-002   1.1377912474690235E-003
  -6.1777693207431428E-002   1.8847973185213918E-002   1.3064538476176280E-003
  -4.6208121302773519E-002   1.3975266419493038E-002   2.7862530561268473E-002
  -4.4095990173977029E-002   1.3243444419585526E-002   2.7536239574043220E-002
  -4.1983859045180510E-002   1.2497706853561788E-002   2.7339528273199992E-002
  -3.9871727916383978E-002   1.1738053721421563E-002   2.7272396658739248E-002
  -3.7759596787587474E-002   1.0964485023165271E-002   2.7334844730660390E-002
  -5.0084273884226982E-002   1.5193443110923188E-002   2.1324611695481333E-002
  -4.7840830150295083E-002   1.4403224983572716E-002   2.0984315212059262E-002
  -4.5597386416363128E-002   1.3617099452053374E-002   2.0777064252526067E-002
  -4.3353942682431194E-002   1.2835066516364877E-002   2.0702858816881234E-002
  -4.1110498948499274E-002   1.2057126176507948E-002   2.0761698905125248E-002
  -5.3971253395487750E-002   1.6411619802353422E-002   1.4719292621277150E-002
  -5.1593031218913982E-002   1.5563005547559544E-002   1.4382998803605967E-002
  -4.9214809042340116E-002   1.4736492050544565E-002   1.4183216347330031E-002
  -4.6836586865766333E-002   1.3932079311308134E-002   1.4119945252449046E-002
  -4.4458364689192544E-002   1.3149767329850792E-002   1.4193185518963425E-002
  -5.7869059836555950E-002   1.7629796493784003E-002   8.0465733386561704E-003
  -5.5352593379833691E-002   1.6722786111546886E-002   7.7322903486832829E-003
  -5.2836126923111515E-002   1.5855884649035954E-002   7.5579845576121425E-003
  -5.0319660466389332E-002   1.5029092106251196E-002   7.5236559654425364E-003
  -4.7803194009667087E-002   1.4242408483193386E-002   7.6293045721750191E-003
  -6.1777693207431428E-002   1.8847973185213918E-002   1.3064538476176280E-003
  -5.9119516633054370E-002   1.7882566675533895E-002   1.0321898472908653E-003
  -5.6461340058677256E-002   1.6975277247527371E-002   9.0136888337249976E-004
  -5.3803163484300143E-002   1.6126104901194267E-002   9.1399095586157386E-004
  -5.1144986909923085E-002   1.5335049636536313E-002   1.0700560647594060E-003
  -3.7759596787587474E-002   1.0964485023165271E-002   2.7334844730660390E-002
  -3.5325593298233399E-002   1.0196226051359059E-002   2.6902357885053851E-002
  -3.2891589808879365E-002   9.4525020985709030E-003   2.6568639443945385E-002
  -3.0457586319525283E-002   8.7333131648002910E-003   2.6333689407334743E-002
  -2.8023582830171256E-002   8.0386592500470977E-003   2.6197507775222340E-002
  -4.1110498948499274E-002   1.2057126176507948E-002   2.0761698905125248E-002
  -3.8576190130931790E-002   1.1285253703435749E-002   2.0350074481831015E-002
  -3.6041881313364235E-002   1.0521424368102397E-002   2.0040292310465724E-002
  -3.3507572495796729E-002   9.7656381705078406E-003   1.9832352391029234E-002
  -3.0973263678229196E-002   9.0178951106520966E-003   1.9726254723521852E-002
  -4.4458364689192544E-002   1.3149767329850792E-002   1.4193185518963425E-002
  -4.1820676695980670E-002   1.2374281355512329E-002   1.3785931636702484E-002
  -3.9182988702768679E-002   1.1590346637633669E-002   1.3483593853801545E-002
  -3.6545300709556736E-002   1.0797963176215446E-002   1.3286172170260312E-002
  -3.3907612716344820E-002   9.9971309712568179E-003   1.3193666586079206E-002
  -4.7803194009667087E-002   1.4242408483193386E-002   7.6293045721750191E-003
  -4.5059052993379867E-002   1.3463309007588742E-002   7.2099293496686347E-003
  -4.2314911977092647E-002   1.2659268907165441E-002   6.8985440739532597E-003
  -3.9570770960805420E-002   1.1830288181922635E-002   6.6951487450280685E-003
  -3.6826629944518206E-002   1.0976366831861234E-002   6.5997433628942129E-003
  -5.1144986909923085E-002   1.5335049636536313E-002   1.0700560647594060E-003
  -4.8291319023129664E-002   1.4552336659665377E-002   6.2206762072858357E-004
  -4.5437651136336132E-002   1.3728191176696547E-002   2.8514297091966623E-004
  -4.2583983249542601E-002   1.2862613187630573E-002   5.9282115332744134E-005
  -3.9730315362749180E-002   1.1955602692466316E-002  -5.5514946032841905E-005
  -2.8023582830171256E-002   8.0386592500470977E-003   2.6197507775222340E-002
  -2.5689105696553888E-002   7.3257179511150294E-003   2.5615944736429808E-002
  -2.3354628562936519E-002   6.5516668648069876E-003   2.4982266177967560E-002
  -2.1020151429319150E-002   5.7165059911229096E-003   2.4296472099835209E-002
  -1.8685674295701782E-002   4.8202353300630385E-003   2.3558562502032920E-002
  -3.0973263678229196E-002   9.0178951106520966E-003   1.9726254723521852E-002
  -2.8675270576633452E-002   8.2722682391221380E-003   1.9143194708088618E-002
  -2.6377277475037625E-002   7.5228306065044936E-003   1.8539282148282099E-002
  -2.4079284373441874E-002   6.7695822127997185E-003   1.7914517044102268E-002
  -2.1781291271846109E-002   6.0125230580081457E-003   1.7268899395549320E-002
  -3.3907612716344820E-002   9.9971309712568179E-003   1.3193666586079206E-002
  -3.1614840671473944E-002   9.2188185271290246E-003   1.2666408620293668E-002
  -2.9322068626602985E-002   8.4939943482021246E-003   1.2149561085431554E-002
  -2.7029296581732039E-002   7.8226584344769749E-003   1.1643123981492982E-002
  -2.4736524536861093E-002   7.2048107859532529E-003   1.1147097308477960E-002
  -3.6826629944518206E-002   1.0976366831861234E-002   6.5997433628942129E-003
  -3.4507815981075350E-002   1.0165368815135301E-002   6.1855864730451376E-003
  -3.2189002017632556E-002   9.4651580898995821E-003   5.8131029894161919E-003
  -2.9870188054189756E-002   8.8757346561538965E-003   5.4822929120074883E-003
  -2.7551374090746900E-002   8.3970985138983600E-003   5.1931562408192022E-003
  -3.9730315362749180E-002   1.1955602692466316E-002  -5.5514946032841905E-005
  -3.7354196505437809E-002   1.1111919103143131E-002  -2.9927173365695836E-004
  -3.4978077648126327E-002   1.0436321831597428E-002  -4.7009213976426101E-004
  -3.2601958790814872E-002   9.9288108778313039E-003  -5.6797616435461801E-004
  -3.0225839933503473E-002   9.5893862418432452E-003  -5.9292380742759221E-004
  -1.8685674295701782E-002   4.8202353300630385E-003   2.3558562502032920E-002
  -1.5659942116454717E-002   4.0840782528410724E-003   2.4360262898662555E-002
  -1.2634209937207597E-002   3.7292581306702099E-003   2.5632377658831973E-002
  -9.6084777579604763E-003   3.7557749635504928E-003   2.7374906782541175E-002
  -6.5827455787134115E-003   4.1636287514823511E-003   2.9587850269790161E-002
  -2.1781291271846109E-002   6.0125230580081457E-003   1.7268899395549320E-002
  -1.8553494303485116E-002   5.3452953007475656E-003   1.8225039184482927E-002
  -1.5325697335124205E-002   4.8615410996373787E-003   1.9114894188104414E-002
  -1.2097900366763226E-002   4.5612604546768215E-003   1.9938464406413892E-002
  -8.8701033984023014E-003   4.4444533658669627E-003   2.0695749839411248E-002
  -2.4736524536861093E-002   7.2048107859532529E-003   1.1147097308477960E-002
  -2.1843361928238186E-002   6.6065123486541699E-003   1.2059813090814581E-002
  -1.8950199319615189E-002   5.9938240686046862E-003   1.2369544938986760E-002
  -1.6057036710992234E-002   5.3667459458034902E-003   1.2076292852995260E-002
  -1.3163874102369286E-002   4.7252779802516853E-003   1.1180056832840124E-002
  -2.7551374090746900E-002   8.3970985138983600E-003   5.1931562408192022E-003
  -2.5529544990713825E-002   7.8677293965612738E-003   5.8645846176569386E-003
  -2.3507715890680694E-002   7.1261070375715357E-003   5.3963299114788907E-003
  -2.1485886790647613E-002   6.1722314369303220E-003   3.7883921222854229E-003
  -1.9464057690614489E-002   5.0061025946357973E-003   1.0407712500760113E-003
  -3.0225839933503473E-002   9.5893862418432452E-003  -5.9292380742759221E-004
  -2.9612043490912177E-002   9.1289464444678226E-003  -3.6064623498943682E-004
  -2.8998247048320658E-002   8.2583900065391624E-003  -1.8047508944188106E-003
  -2.8384450605729250E-002   6.9777169280561546E-003  -4.9252377857158039E-003
  -2.7770654163137842E-002   5.2869272090207975E-003  -9.7221069088807566E-003
  -6.5827455787134115E-003   4.1636287514823511E-003   2.9587850269790161E-002
  -6.0554676459805279E-003   6.1465689314542660E-003   3.4066163117729698E-002
  -5.5281897132476721E-003   1.0898344940456994E-002   3.9230261000892996E-002
  -5.0009117805146497E-003   1.8418956778488885E-002   4.5080143919280335E-002
  -4.4736338477818771E-003   2.8708404445551228E-002   5.1615811872891104E-002
  -8.8701033984023014E-003   4.4444533658669627E-003   2.0695749839411248E-002
  -7.5850181149580559E-003   5.6611328663059846E-003   2.5865839844249838E-002
  -6.2999328315137965E-003   9.3613119890941787E-003   3.1865759515286973E-002
  -5.0148475480695856E-003   1.5544990734231462E-002   3.8695508852522598E-002
  -3.7297622646252915E-003   2.4212169101718306E-002   4.6355087855957766E-002
  -1.3163874102369286E-002   4.7252779802516853E-003   1.1180056832840124E-002
  -1.0976936837238757E-002   5.1756968011576476E-003   1.6756587787896349E-002
  -8.7899995721081800E-003   7.8242790377317795E-003   2.3306993040126373E-002
  -6.6030623069776445E-003   1.2671024689974143E-002   3.0831272589529779E-002
  -4.4161250418470743E-003   1.9715933757885162E-002   3.9329426436108150E-002
  -1.9464057690614489E-002   5.0061025946357973E-003   1.0407712500760113E-003
  -1.6231223812822548E-002   4.6902607360092274E-003   6.7384069486693329E-003
  -1.2998389935030691E-002   6.2872460863688390E-003   1.3553961575411576E-002
  -9.7655560572388576E-003   9.7970586457172167E-003   2.1487435130302140E-002
  -6.5327221794468926E-003   1.5219698414052019E-002   3.0538827613342562E-002
  -2.7770654163137842E-002   5.2869272090207975E-003  -9.7221069088807566E-003
  -2.3347879041709652E-002   4.2048246708603632E-003  -4.1887026734311328E-003
  -1.8925103920281405E-002   4.7502131350067311E-003   2.6066651211421321E-003
  -1.4502328798853187E-002   6.9230926014592215E-003   1.0663996474838976E-002
  -1.0079553677424968E-002   1.0723463070219097E-002   1.9983291387660307E-002
 </DataArray>
 </PointData>
 </Piece>
 </UnstructuredGrid>
 </VTKFile>
