 <VTKFile type="UnstructuredGrid"  version="0.1"   >
 <UnstructuredGrid>
 <Piece  NumberOfPoints="          1600 "  NumberOfCells="         1024 ">
 <Points>
 <DataArray  type="Float64" NumberOfComponents="3"  format="ascii" >
   0.0000000000000000        0.0000000000000000        0.0000000000000000     
   3.1250000000000000E-002   0.0000000000000000        0.0000000000000000     
   6.2500000000000000E-002   0.0000000000000000        0.0000000000000000     
   9.3750000000000000E-002   0.0000000000000000        0.0000000000000000     
  0.12500000000000000        0.0000000000000000        0.0000000000000000     
   0.0000000000000000        3.1250000000000000E-002   0.0000000000000000     
   3.1250000000000000E-002   3.1250000000000000E-002   0.0000000000000000     
   6.2500000000000000E-002   3.1250000000000000E-002   0.0000000000000000     
   9.3750000000000000E-002   3.1250000000000000E-002   0.0000000000000000     
  0.12500000000000000        3.1250000000000000E-002   0.0000000000000000     
   0.0000000000000000        6.2500000000000000E-002   0.0000000000000000     
   3.1250000000000000E-002   6.2500000000000000E-002   0.0000000000000000     
   6.2500000000000000E-002   6.2500000000000000E-002   0.0000000000000000     
   9.3750000000000000E-002   6.2500000000000000E-002   0.0000000000000000     
  0.12500000000000000        6.2500000000000000E-002   0.0000000000000000     
   0.0000000000000000        9.3750000000000000E-002   0.0000000000000000     
   3.1250000000000000E-002   9.3750000000000000E-002   0.0000000000000000     
   6.2500000000000000E-002   9.3750000000000000E-002   0.0000000000000000     
   9.3750000000000000E-002   9.3750000000000000E-002   0.0000000000000000     
  0.12500000000000000        9.3750000000000000E-002   0.0000000000000000     
   0.0000000000000000       0.12500000000000000        0.0000000000000000     
   3.1250000000000000E-002  0.12500000000000000        0.0000000000000000     
   6.2500000000000000E-002  0.12500000000000000        0.0000000000000000     
   9.3750000000000000E-002  0.12500000000000000        0.0000000000000000     
  0.12500000000000000       0.12500000000000000        0.0000000000000000     
  0.12500000000000000        0.0000000000000000        0.0000000000000000     
  0.15625000000000000        0.0000000000000000        0.0000000000000000     
  0.18750000000000000        0.0000000000000000        0.0000000000000000     
  0.21875000000000000        0.0000000000000000        0.0000000000000000     
  0.25000000000000000        0.0000000000000000        0.0000000000000000     
  0.12500000000000000        3.1250000000000000E-002   0.0000000000000000     
  0.15625000000000000        3.1250000000000000E-002   0.0000000000000000     
  0.18750000000000000        3.1250000000000000E-002   0.0000000000000000     
  0.21875000000000000        3.1250000000000000E-002   0.0000000000000000     
  0.25000000000000000        3.1250000000000000E-002   0.0000000000000000     
  0.12500000000000000        6.2500000000000000E-002   0.0000000000000000     
  0.15625000000000000        6.2500000000000000E-002   0.0000000000000000     
  0.18750000000000000        6.2500000000000000E-002   0.0000000000000000     
  0.21875000000000000        6.2500000000000000E-002   0.0000000000000000     
  0.25000000000000000        6.2500000000000000E-002   0.0000000000000000     
  0.12500000000000000        9.3750000000000000E-002   0.0000000000000000     
  0.15625000000000000        9.3750000000000000E-002   0.0000000000000000     
  0.18750000000000000        9.3750000000000000E-002   0.0000000000000000     
  0.21875000000000000        9.3750000000000000E-002   0.0000000000000000     
  0.25000000000000000        9.3750000000000000E-002   0.0000000000000000     
  0.12500000000000000       0.12500000000000000        0.0000000000000000     
  0.15625000000000000       0.12500000000000000        0.0000000000000000     
  0.18750000000000000       0.12500000000000000        0.0000000000000000     
  0.21875000000000000       0.12500000000000000        0.0000000000000000     
  0.25000000000000000       0.12500000000000000        0.0000000000000000     
  0.25000000000000000        0.0000000000000000        0.0000000000000000     
  0.28125000000000000        0.0000000000000000        0.0000000000000000     
  0.31250000000000000        0.0000000000000000        0.0000000000000000     
  0.34375000000000000        0.0000000000000000        0.0000000000000000     
  0.37500000000000000        0.0000000000000000        0.0000000000000000     
  0.25000000000000000        3.1250000000000000E-002   0.0000000000000000     
  0.28125000000000000        3.1250000000000000E-002   0.0000000000000000     
  0.31250000000000000        3.1250000000000000E-002   0.0000000000000000     
  0.34375000000000000        3.1250000000000000E-002   0.0000000000000000     
  0.37500000000000000        3.1250000000000000E-002   0.0000000000000000     
  0.25000000000000000        6.2500000000000000E-002   0.0000000000000000     
  0.28125000000000000        6.2500000000000000E-002   0.0000000000000000     
  0.31250000000000000        6.2500000000000000E-002   0.0000000000000000     
  0.34375000000000000        6.2500000000000000E-002   0.0000000000000000     
  0.37500000000000000        6.2500000000000000E-002   0.0000000000000000     
  0.25000000000000000        9.3750000000000000E-002   0.0000000000000000     
  0.28125000000000000        9.3750000000000000E-002   0.0000000000000000     
  0.31250000000000000        9.3750000000000000E-002   0.0000000000000000     
  0.34375000000000000        9.3750000000000000E-002   0.0000000000000000     
  0.37500000000000000        9.3750000000000000E-002   0.0000000000000000     
  0.25000000000000000       0.12500000000000000        0.0000000000000000     
  0.28125000000000000       0.12500000000000000        0.0000000000000000     
  0.31250000000000000       0.12500000000000000        0.0000000000000000     
  0.34375000000000000       0.12500000000000000        0.0000000000000000     
  0.37500000000000000       0.12500000000000000        0.0000000000000000     
  0.37500000000000000        0.0000000000000000        0.0000000000000000     
  0.40625000000000000        0.0000000000000000        0.0000000000000000     
  0.43750000000000000        0.0000000000000000        0.0000000000000000     
  0.46875000000000000        0.0000000000000000        0.0000000000000000     
  0.50000000000000000        0.0000000000000000        0.0000000000000000     
  0.37500000000000000        3.1250000000000000E-002   0.0000000000000000     
  0.40625000000000000        3.1250000000000000E-002   0.0000000000000000     
  0.43750000000000000        3.1250000000000000E-002   0.0000000000000000     
  0.46875000000000000        3.1250000000000000E-002   0.0000000000000000     
  0.50000000000000000        3.1250000000000000E-002   0.0000000000000000     
  0.37500000000000000        6.2500000000000000E-002   0.0000000000000000     
  0.40625000000000000        6.2500000000000000E-002   0.0000000000000000     
  0.43750000000000000        6.2500000000000000E-002   0.0000000000000000     
  0.46875000000000000        6.2500000000000000E-002   0.0000000000000000     
  0.50000000000000000        6.2500000000000000E-002   0.0000000000000000     
  0.37500000000000000        9.3750000000000000E-002   0.0000000000000000     
  0.40625000000000000        9.3750000000000000E-002   0.0000000000000000     
  0.43750000000000000        9.3750000000000000E-002   0.0000000000000000     
  0.46875000000000000        9.3750000000000000E-002   0.0000000000000000     
  0.50000000000000000        9.3750000000000000E-002   0.0000000000000000     
  0.37500000000000000       0.12500000000000000        0.0000000000000000     
  0.40625000000000000       0.12500000000000000        0.0000000000000000     
  0.43750000000000000       0.12500000000000000        0.0000000000000000     
  0.46875000000000000       0.12500000000000000        0.0000000000000000     
  0.50000000000000000       0.12500000000000000        0.0000000000000000     
  0.50000000000000000        0.0000000000000000        0.0000000000000000     
  0.53125000000000000        0.0000000000000000        0.0000000000000000     
  0.56250000000000000        0.0000000000000000        0.0000000000000000     
  0.59375000000000000        0.0000000000000000        0.0000000000000000     
  0.62500000000000000        0.0000000000000000        0.0000000000000000     
  0.50000000000000000        3.1250000000000000E-002   0.0000000000000000     
  0.53125000000000000        3.1250000000000000E-002   0.0000000000000000     
  0.56250000000000000        3.1250000000000000E-002   0.0000000000000000     
  0.59375000000000000        3.1250000000000000E-002   0.0000000000000000     
  0.62500000000000000        3.1250000000000000E-002   0.0000000000000000     
  0.50000000000000000        6.2500000000000000E-002   0.0000000000000000     
  0.53125000000000000        6.2500000000000000E-002   0.0000000000000000     
  0.56250000000000000        6.2500000000000000E-002   0.0000000000000000     
  0.59375000000000000        6.2500000000000000E-002   0.0000000000000000     
  0.62500000000000000        6.2500000000000000E-002   0.0000000000000000     
  0.50000000000000000        9.3750000000000000E-002   0.0000000000000000     
  0.53125000000000000        9.3750000000000000E-002   0.0000000000000000     
  0.56250000000000000        9.3750000000000000E-002   0.0000000000000000     
  0.59375000000000000        9.3750000000000000E-002   0.0000000000000000     
  0.62500000000000000        9.3750000000000000E-002   0.0000000000000000     
  0.50000000000000000       0.12500000000000000        0.0000000000000000     
  0.53125000000000000       0.12500000000000000        0.0000000000000000     
  0.56250000000000000       0.12500000000000000        0.0000000000000000     
  0.59375000000000000       0.12500000000000000        0.0000000000000000     
  0.62500000000000000       0.12500000000000000        0.0000000000000000     
  0.62500000000000000        0.0000000000000000        0.0000000000000000     
  0.65625000000000000        0.0000000000000000        0.0000000000000000     
  0.68750000000000000        0.0000000000000000        0.0000000000000000     
  0.71875000000000000        0.0000000000000000        0.0000000000000000     
  0.75000000000000000        0.0000000000000000        0.0000000000000000     
  0.62500000000000000        3.1250000000000000E-002   0.0000000000000000     
  0.65625000000000000        3.1250000000000000E-002   0.0000000000000000     
  0.68750000000000000        3.1250000000000000E-002   0.0000000000000000     
  0.71875000000000000        3.1250000000000000E-002   0.0000000000000000     
  0.75000000000000000        3.1250000000000000E-002   0.0000000000000000     
  0.62500000000000000        6.2500000000000000E-002   0.0000000000000000     
  0.65625000000000000        6.2500000000000000E-002   0.0000000000000000     
  0.68750000000000000        6.2500000000000000E-002   0.0000000000000000     
  0.71875000000000000        6.2500000000000000E-002   0.0000000000000000     
  0.75000000000000000        6.2500000000000000E-002   0.0000000000000000     
  0.62500000000000000        9.3750000000000000E-002   0.0000000000000000     
  0.65625000000000000        9.3750000000000000E-002   0.0000000000000000     
  0.68750000000000000        9.3750000000000000E-002   0.0000000000000000     
  0.71875000000000000        9.3750000000000000E-002   0.0000000000000000     
  0.75000000000000000        9.3750000000000000E-002   0.0000000000000000     
  0.62500000000000000       0.12500000000000000        0.0000000000000000     
  0.65625000000000000       0.12500000000000000        0.0000000000000000     
  0.68750000000000000       0.12500000000000000        0.0000000000000000     
  0.71875000000000000       0.12500000000000000        0.0000000000000000     
  0.75000000000000000       0.12500000000000000        0.0000000000000000     
  0.75000000000000000        0.0000000000000000        0.0000000000000000     
  0.78125000000000000        0.0000000000000000        0.0000000000000000     
  0.81250000000000000        0.0000000000000000        0.0000000000000000     
  0.84375000000000000        0.0000000000000000        0.0000000000000000     
  0.87500000000000000        0.0000000000000000        0.0000000000000000     
  0.75000000000000000        3.1250000000000000E-002   0.0000000000000000     
  0.78125000000000000        3.1250000000000000E-002   0.0000000000000000     
  0.81250000000000000        3.1250000000000000E-002   0.0000000000000000     
  0.84375000000000000        3.1250000000000000E-002   0.0000000000000000     
  0.87500000000000000        3.1250000000000000E-002   0.0000000000000000     
  0.75000000000000000        6.2500000000000000E-002   0.0000000000000000     
  0.78125000000000000        6.2500000000000000E-002   0.0000000000000000     
  0.81250000000000000        6.2500000000000000E-002   0.0000000000000000     
  0.84375000000000000        6.2500000000000000E-002   0.0000000000000000     
  0.87500000000000000        6.2500000000000000E-002   0.0000000000000000     
  0.75000000000000000        9.3750000000000000E-002   0.0000000000000000     
  0.78125000000000000        9.3750000000000000E-002   0.0000000000000000     
  0.81250000000000000        9.3750000000000000E-002   0.0000000000000000     
  0.84375000000000000        9.3750000000000000E-002   0.0000000000000000     
  0.87500000000000000        9.3750000000000000E-002   0.0000000000000000     
  0.75000000000000000       0.12500000000000000        0.0000000000000000     
  0.78125000000000000       0.12500000000000000        0.0000000000000000     
  0.81250000000000000       0.12500000000000000        0.0000000000000000     
  0.84375000000000000       0.12500000000000000        0.0000000000000000     
  0.87500000000000000       0.12500000000000000        0.0000000000000000     
  0.87500000000000000        0.0000000000000000        0.0000000000000000     
  0.90625000000000000        0.0000000000000000        0.0000000000000000     
  0.93750000000000000        0.0000000000000000        0.0000000000000000     
  0.96875000000000000        0.0000000000000000        0.0000000000000000     
   1.0000000000000000        0.0000000000000000        0.0000000000000000     
  0.87500000000000000        3.1250000000000000E-002   0.0000000000000000     
  0.90625000000000000        3.1250000000000000E-002   0.0000000000000000     
  0.93750000000000000        3.1250000000000000E-002   0.0000000000000000     
  0.96875000000000000        3.1250000000000000E-002   0.0000000000000000     
   1.0000000000000000        3.1250000000000000E-002   0.0000000000000000     
  0.87500000000000000        6.2500000000000000E-002   0.0000000000000000     
  0.90625000000000000        6.2500000000000000E-002   0.0000000000000000     
  0.93750000000000000        6.2500000000000000E-002   0.0000000000000000     
  0.96875000000000000        6.2500000000000000E-002   0.0000000000000000     
   1.0000000000000000        6.2500000000000000E-002   0.0000000000000000     
  0.87500000000000000        9.3750000000000000E-002   0.0000000000000000     
  0.90625000000000000        9.3750000000000000E-002   0.0000000000000000     
  0.93750000000000000        9.3750000000000000E-002   0.0000000000000000     
  0.96875000000000000        9.3750000000000000E-002   0.0000000000000000     
   1.0000000000000000        9.3750000000000000E-002   0.0000000000000000     
  0.87500000000000000       0.12500000000000000        0.0000000000000000     
  0.90625000000000000       0.12500000000000000        0.0000000000000000     
  0.93750000000000000       0.12500000000000000        0.0000000000000000     
  0.96875000000000000       0.12500000000000000        0.0000000000000000     
   1.0000000000000000       0.12500000000000000        0.0000000000000000     
   0.0000000000000000       0.12500000000000000        0.0000000000000000     
   3.1250000000000000E-002  0.12500000000000000        0.0000000000000000     
   6.2500000000000000E-002  0.12500000000000000        0.0000000000000000     
   9.3750000000000000E-002  0.12500000000000000        0.0000000000000000     
  0.12500000000000000       0.12500000000000000        0.0000000000000000     
   0.0000000000000000       0.15625000000000000        0.0000000000000000     
   3.1250000000000000E-002  0.15625000000000000        0.0000000000000000     
   6.2500000000000000E-002  0.15625000000000000        0.0000000000000000     
   9.3750000000000000E-002  0.15625000000000000        0.0000000000000000     
  0.12500000000000000       0.15625000000000000        0.0000000000000000     
   0.0000000000000000       0.18750000000000000        0.0000000000000000     
   3.1250000000000000E-002  0.18750000000000000        0.0000000000000000     
   6.2500000000000000E-002  0.18750000000000000        0.0000000000000000     
   9.3750000000000000E-002  0.18750000000000000        0.0000000000000000     
  0.12500000000000000       0.18750000000000000        0.0000000000000000     
   0.0000000000000000       0.21875000000000000        0.0000000000000000     
   3.1250000000000000E-002  0.21875000000000000        0.0000000000000000     
   6.2500000000000000E-002  0.21875000000000000        0.0000000000000000     
   9.3750000000000000E-002  0.21875000000000000        0.0000000000000000     
  0.12500000000000000       0.21875000000000000        0.0000000000000000     
   0.0000000000000000       0.25000000000000000        0.0000000000000000     
   3.1250000000000000E-002  0.25000000000000000        0.0000000000000000     
   6.2500000000000000E-002  0.25000000000000000        0.0000000000000000     
   9.3750000000000000E-002  0.25000000000000000        0.0000000000000000     
  0.12500000000000000       0.25000000000000000        0.0000000000000000     
  0.12500000000000000       0.12500000000000000        0.0000000000000000     
  0.15625000000000000       0.12500000000000000        0.0000000000000000     
  0.18750000000000000       0.12500000000000000        0.0000000000000000     
  0.21875000000000000       0.12500000000000000        0.0000000000000000     
  0.25000000000000000       0.12500000000000000        0.0000000000000000     
  0.12500000000000000       0.15625000000000000        0.0000000000000000     
  0.15625000000000000       0.15625000000000000        0.0000000000000000     
  0.18750000000000000       0.15625000000000000        0.0000000000000000     
  0.21875000000000000       0.15625000000000000        0.0000000000000000     
  0.25000000000000000       0.15625000000000000        0.0000000000000000     
  0.12500000000000000       0.18750000000000000        0.0000000000000000     
  0.15625000000000000       0.18750000000000000        0.0000000000000000     
  0.18750000000000000       0.18750000000000000        0.0000000000000000     
  0.21875000000000000       0.18750000000000000        0.0000000000000000     
  0.25000000000000000       0.18750000000000000        0.0000000000000000     
  0.12500000000000000       0.21875000000000000        0.0000000000000000     
  0.15625000000000000       0.21875000000000000        0.0000000000000000     
  0.18750000000000000       0.21875000000000000        0.0000000000000000     
  0.21875000000000000       0.21875000000000000        0.0000000000000000     
  0.25000000000000000       0.21875000000000000        0.0000000000000000     
  0.12500000000000000       0.25000000000000000        0.0000000000000000     
  0.15625000000000000       0.25000000000000000        0.0000000000000000     
  0.18750000000000000       0.25000000000000000        0.0000000000000000     
  0.21875000000000000       0.25000000000000000        0.0000000000000000     
  0.25000000000000000       0.25000000000000000        0.0000000000000000     
  0.25000000000000000       0.12500000000000000        0.0000000000000000     
  0.28125000000000000       0.12500000000000000        0.0000000000000000     
  0.31250000000000000       0.12500000000000000        0.0000000000000000     
  0.34375000000000000       0.12500000000000000        0.0000000000000000     
  0.37500000000000000       0.12500000000000000        0.0000000000000000     
  0.25000000000000000       0.15625000000000000        0.0000000000000000     
  0.28125000000000000       0.15625000000000000        0.0000000000000000     
  0.31250000000000000       0.15625000000000000        0.0000000000000000     
  0.34375000000000000       0.15625000000000000        0.0000000000000000     
  0.37500000000000000       0.15625000000000000        0.0000000000000000     
  0.25000000000000000       0.18750000000000000        0.0000000000000000     
  0.28125000000000000       0.18750000000000000        0.0000000000000000     
  0.31250000000000000       0.18750000000000000        0.0000000000000000     
  0.34375000000000000       0.18750000000000000        0.0000000000000000     
  0.37500000000000000       0.18750000000000000        0.0000000000000000     
  0.25000000000000000       0.21875000000000000        0.0000000000000000     
  0.28125000000000000       0.21875000000000000        0.0000000000000000     
  0.31250000000000000       0.21875000000000000        0.0000000000000000     
  0.34375000000000000       0.21875000000000000        0.0000000000000000     
  0.37500000000000000       0.21875000000000000        0.0000000000000000     
  0.25000000000000000       0.25000000000000000        0.0000000000000000     
  0.28125000000000000       0.25000000000000000        0.0000000000000000     
  0.31250000000000000       0.25000000000000000        0.0000000000000000     
  0.34375000000000000       0.25000000000000000        0.0000000000000000     
  0.37500000000000000       0.25000000000000000        0.0000000000000000     
  0.37500000000000000       0.12500000000000000        0.0000000000000000     
  0.40625000000000000       0.12500000000000000        0.0000000000000000     
  0.43750000000000000       0.12500000000000000        0.0000000000000000     
  0.46875000000000000       0.12500000000000000        0.0000000000000000     
  0.50000000000000000       0.12500000000000000        0.0000000000000000     
  0.37500000000000000       0.15625000000000000        0.0000000000000000     
  0.40625000000000000       0.15625000000000000        0.0000000000000000     
  0.43750000000000000       0.15625000000000000        0.0000000000000000     
  0.46875000000000000       0.15625000000000000        0.0000000000000000     
  0.50000000000000000       0.15625000000000000        0.0000000000000000     
  0.37500000000000000       0.18750000000000000        0.0000000000000000     
  0.40625000000000000       0.18750000000000000        0.0000000000000000     
  0.43750000000000000       0.18750000000000000        0.0000000000000000     
  0.46875000000000000       0.18750000000000000        0.0000000000000000     
  0.50000000000000000       0.18750000000000000        0.0000000000000000     
  0.37500000000000000       0.21875000000000000        0.0000000000000000     
  0.40625000000000000       0.21875000000000000        0.0000000000000000     
  0.43750000000000000       0.21875000000000000        0.0000000000000000     
  0.46875000000000000       0.21875000000000000        0.0000000000000000     
  0.50000000000000000       0.21875000000000000        0.0000000000000000     
  0.37500000000000000       0.25000000000000000        0.0000000000000000     
  0.40625000000000000       0.25000000000000000        0.0000000000000000     
  0.43750000000000000       0.25000000000000000        0.0000000000000000     
  0.46875000000000000       0.25000000000000000        0.0000000000000000     
  0.50000000000000000       0.25000000000000000        0.0000000000000000     
  0.50000000000000000       0.12500000000000000        0.0000000000000000     
  0.53125000000000000       0.12500000000000000        0.0000000000000000     
  0.56250000000000000       0.12500000000000000        0.0000000000000000     
  0.59375000000000000       0.12500000000000000        0.0000000000000000     
  0.62500000000000000       0.12500000000000000        0.0000000000000000     
  0.50000000000000000       0.15625000000000000        0.0000000000000000     
  0.53125000000000000       0.15625000000000000        0.0000000000000000     
  0.56250000000000000       0.15625000000000000        0.0000000000000000     
  0.59375000000000000       0.15625000000000000        0.0000000000000000     
  0.62500000000000000       0.15625000000000000        0.0000000000000000     
  0.50000000000000000       0.18750000000000000        0.0000000000000000     
  0.53125000000000000       0.18750000000000000        0.0000000000000000     
  0.56250000000000000       0.18750000000000000        0.0000000000000000     
  0.59375000000000000       0.18750000000000000        0.0000000000000000     
  0.62500000000000000       0.18750000000000000        0.0000000000000000     
  0.50000000000000000       0.21875000000000000        0.0000000000000000     
  0.53125000000000000       0.21875000000000000        0.0000000000000000     
  0.56250000000000000       0.21875000000000000        0.0000000000000000     
  0.59375000000000000       0.21875000000000000        0.0000000000000000     
  0.62500000000000000       0.21875000000000000        0.0000000000000000     
  0.50000000000000000       0.25000000000000000        0.0000000000000000     
  0.53125000000000000       0.25000000000000000        0.0000000000000000     
  0.56250000000000000       0.25000000000000000        0.0000000000000000     
  0.59375000000000000       0.25000000000000000        0.0000000000000000     
  0.62500000000000000       0.25000000000000000        0.0000000000000000     
  0.62500000000000000       0.12500000000000000        0.0000000000000000     
  0.65625000000000000       0.12500000000000000        0.0000000000000000     
  0.68750000000000000       0.12500000000000000        0.0000000000000000     
  0.71875000000000000       0.12500000000000000        0.0000000000000000     
  0.75000000000000000       0.12500000000000000        0.0000000000000000     
  0.62500000000000000       0.15625000000000000        0.0000000000000000     
  0.65625000000000000       0.15625000000000000        0.0000000000000000     
  0.68750000000000000       0.15625000000000000        0.0000000000000000     
  0.71875000000000000       0.15625000000000000        0.0000000000000000     
  0.75000000000000000       0.15625000000000000        0.0000000000000000     
  0.62500000000000000       0.18750000000000000        0.0000000000000000     
  0.65625000000000000       0.18750000000000000        0.0000000000000000     
  0.68750000000000000       0.18750000000000000        0.0000000000000000     
  0.71875000000000000       0.18750000000000000        0.0000000000000000     
  0.75000000000000000       0.18750000000000000        0.0000000000000000     
  0.62500000000000000       0.21875000000000000        0.0000000000000000     
  0.65625000000000000       0.21875000000000000        0.0000000000000000     
  0.68750000000000000       0.21875000000000000        0.0000000000000000     
  0.71875000000000000       0.21875000000000000        0.0000000000000000     
  0.75000000000000000       0.21875000000000000        0.0000000000000000     
  0.62500000000000000       0.25000000000000000        0.0000000000000000     
  0.65625000000000000       0.25000000000000000        0.0000000000000000     
  0.68750000000000000       0.25000000000000000        0.0000000000000000     
  0.71875000000000000       0.25000000000000000        0.0000000000000000     
  0.75000000000000000       0.25000000000000000        0.0000000000000000     
  0.75000000000000000       0.12500000000000000        0.0000000000000000     
  0.78125000000000000       0.12500000000000000        0.0000000000000000     
  0.81250000000000000       0.12500000000000000        0.0000000000000000     
  0.84375000000000000       0.12500000000000000        0.0000000000000000     
  0.87500000000000000       0.12500000000000000        0.0000000000000000     
  0.75000000000000000       0.15625000000000000        0.0000000000000000     
  0.78125000000000000       0.15625000000000000        0.0000000000000000     
  0.81250000000000000       0.15625000000000000        0.0000000000000000     
  0.84375000000000000       0.15625000000000000        0.0000000000000000     
  0.87500000000000000       0.15625000000000000        0.0000000000000000     
  0.75000000000000000       0.18750000000000000        0.0000000000000000     
  0.78125000000000000       0.18750000000000000        0.0000000000000000     
  0.81250000000000000       0.18750000000000000        0.0000000000000000     
  0.84375000000000000       0.18750000000000000        0.0000000000000000     
  0.87500000000000000       0.18750000000000000        0.0000000000000000     
  0.75000000000000000       0.21875000000000000        0.0000000000000000     
  0.78125000000000000       0.21875000000000000        0.0000000000000000     
  0.81250000000000000       0.21875000000000000        0.0000000000000000     
  0.84375000000000000       0.21875000000000000        0.0000000000000000     
  0.87500000000000000       0.21875000000000000        0.0000000000000000     
  0.75000000000000000       0.25000000000000000        0.0000000000000000     
  0.78125000000000000       0.25000000000000000        0.0000000000000000     
  0.81250000000000000       0.25000000000000000        0.0000000000000000     
  0.84375000000000000       0.25000000000000000        0.0000000000000000     
  0.87500000000000000       0.25000000000000000        0.0000000000000000     
  0.87500000000000000       0.12500000000000000        0.0000000000000000     
  0.90625000000000000       0.12500000000000000        0.0000000000000000     
  0.93750000000000000       0.12500000000000000        0.0000000000000000     
  0.96875000000000000       0.12500000000000000        0.0000000000000000     
   1.0000000000000000       0.12500000000000000        0.0000000000000000     
  0.87500000000000000       0.15625000000000000        0.0000000000000000     
  0.90625000000000000       0.15625000000000000        0.0000000000000000     
  0.93750000000000000       0.15625000000000000        0.0000000000000000     
  0.96875000000000000       0.15625000000000000        0.0000000000000000     
   1.0000000000000000       0.15625000000000000        0.0000000000000000     
  0.87500000000000000       0.18750000000000000        0.0000000000000000     
  0.90625000000000000       0.18750000000000000        0.0000000000000000     
  0.93750000000000000       0.18750000000000000        0.0000000000000000     
  0.96875000000000000       0.18750000000000000        0.0000000000000000     
   1.0000000000000000       0.18750000000000000        0.0000000000000000     
  0.87500000000000000       0.21875000000000000        0.0000000000000000     
  0.90625000000000000       0.21875000000000000        0.0000000000000000     
  0.93750000000000000       0.21875000000000000        0.0000000000000000     
  0.96875000000000000       0.21875000000000000        0.0000000000000000     
   1.0000000000000000       0.21875000000000000        0.0000000000000000     
  0.87500000000000000       0.25000000000000000        0.0000000000000000     
  0.90625000000000000       0.25000000000000000        0.0000000000000000     
  0.93750000000000000       0.25000000000000000        0.0000000000000000     
  0.96875000000000000       0.25000000000000000        0.0000000000000000     
   1.0000000000000000       0.25000000000000000        0.0000000000000000     
   0.0000000000000000       0.25000000000000000        0.0000000000000000     
   3.1250000000000000E-002  0.25000000000000000        0.0000000000000000     
   6.2500000000000000E-002  0.25000000000000000        0.0000000000000000     
   9.3750000000000000E-002  0.25000000000000000        0.0000000000000000     
  0.12500000000000000       0.25000000000000000        0.0000000000000000     
   0.0000000000000000       0.28125000000000000        0.0000000000000000     
   3.1250000000000000E-002  0.28125000000000000        0.0000000000000000     
   6.2500000000000000E-002  0.28125000000000000        0.0000000000000000     
   9.3750000000000000E-002  0.28125000000000000        0.0000000000000000     
  0.12500000000000000       0.28125000000000000        0.0000000000000000     
   0.0000000000000000       0.31250000000000000        0.0000000000000000     
   3.1250000000000000E-002  0.31250000000000000        0.0000000000000000     
   6.2500000000000000E-002  0.31250000000000000        0.0000000000000000     
   9.3750000000000000E-002  0.31250000000000000        0.0000000000000000     
  0.12500000000000000       0.31250000000000000        0.0000000000000000     
   0.0000000000000000       0.34375000000000000        0.0000000000000000     
   3.1250000000000000E-002  0.34375000000000000        0.0000000000000000     
   6.2500000000000000E-002  0.34375000000000000        0.0000000000000000     
   9.3750000000000000E-002  0.34375000000000000        0.0000000000000000     
  0.12500000000000000       0.34375000000000000        0.0000000000000000     
   0.0000000000000000       0.37500000000000000        0.0000000000000000     
   3.1250000000000000E-002  0.37500000000000000        0.0000000000000000     
   6.2500000000000000E-002  0.37500000000000000        0.0000000000000000     
   9.3750000000000000E-002  0.37500000000000000        0.0000000000000000     
  0.12500000000000000       0.37500000000000000        0.0000000000000000     
  0.12500000000000000       0.25000000000000000        0.0000000000000000     
  0.15625000000000000       0.25000000000000000        0.0000000000000000     
  0.18750000000000000       0.25000000000000000        0.0000000000000000     
  0.21875000000000000       0.25000000000000000        0.0000000000000000     
  0.25000000000000000       0.25000000000000000        0.0000000000000000     
  0.12500000000000000       0.28125000000000000        0.0000000000000000     
  0.15625000000000000       0.28125000000000000        0.0000000000000000     
  0.18750000000000000       0.28125000000000000        0.0000000000000000     
  0.21875000000000000       0.28125000000000000        0.0000000000000000     
  0.25000000000000000       0.28125000000000000        0.0000000000000000     
  0.12500000000000000       0.31250000000000000        0.0000000000000000     
  0.15625000000000000       0.31250000000000000        0.0000000000000000     
  0.18750000000000000       0.31250000000000000        0.0000000000000000     
  0.21875000000000000       0.31250000000000000        0.0000000000000000     
  0.25000000000000000       0.31250000000000000        0.0000000000000000     
  0.12500000000000000       0.34375000000000000        0.0000000000000000     
  0.15625000000000000       0.34375000000000000        0.0000000000000000     
  0.18750000000000000       0.34375000000000000        0.0000000000000000     
  0.21875000000000000       0.34375000000000000        0.0000000000000000     
  0.25000000000000000       0.34375000000000000        0.0000000000000000     
  0.12500000000000000       0.37500000000000000        0.0000000000000000     
  0.15625000000000000       0.37500000000000000        0.0000000000000000     
  0.18750000000000000       0.37500000000000000        0.0000000000000000     
  0.21875000000000000       0.37500000000000000        0.0000000000000000     
  0.25000000000000000       0.37500000000000000        0.0000000000000000     
  0.25000000000000000       0.25000000000000000        0.0000000000000000     
  0.28125000000000000       0.25000000000000000        0.0000000000000000     
  0.31250000000000000       0.25000000000000000        0.0000000000000000     
  0.34375000000000000       0.25000000000000000        0.0000000000000000     
  0.37500000000000000       0.25000000000000000        0.0000000000000000     
  0.25000000000000000       0.28125000000000000        0.0000000000000000     
  0.28125000000000000       0.28125000000000000        0.0000000000000000     
  0.31250000000000000       0.28125000000000000        0.0000000000000000     
  0.34375000000000000       0.28125000000000000        0.0000000000000000     
  0.37500000000000000       0.28125000000000000        0.0000000000000000     
  0.25000000000000000       0.31250000000000000        0.0000000000000000     
  0.28125000000000000       0.31250000000000000        0.0000000000000000     
  0.31250000000000000       0.31250000000000000        0.0000000000000000     
  0.34375000000000000       0.31250000000000000        0.0000000000000000     
  0.37500000000000000       0.31250000000000000        0.0000000000000000     
  0.25000000000000000       0.34375000000000000        0.0000000000000000     
  0.28125000000000000       0.34375000000000000        0.0000000000000000     
  0.31250000000000000       0.34375000000000000        0.0000000000000000     
  0.34375000000000000       0.34375000000000000        0.0000000000000000     
  0.37500000000000000       0.34375000000000000        0.0000000000000000     
  0.25000000000000000       0.37500000000000000        0.0000000000000000     
  0.28125000000000000       0.37500000000000000        0.0000000000000000     
  0.31250000000000000       0.37500000000000000        0.0000000000000000     
  0.34375000000000000       0.37500000000000000        0.0000000000000000     
  0.37500000000000000       0.37500000000000000        0.0000000000000000     
  0.37500000000000000       0.25000000000000000        0.0000000000000000     
  0.40625000000000000       0.25000000000000000        0.0000000000000000     
  0.43750000000000000       0.25000000000000000        0.0000000000000000     
  0.46875000000000000       0.25000000000000000        0.0000000000000000     
  0.50000000000000000       0.25000000000000000        0.0000000000000000     
  0.37500000000000000       0.28125000000000000        0.0000000000000000     
  0.40625000000000000       0.28125000000000000        0.0000000000000000     
  0.43750000000000000       0.28125000000000000        0.0000000000000000     
  0.46875000000000000       0.28125000000000000        0.0000000000000000     
  0.50000000000000000       0.28125000000000000        0.0000000000000000     
  0.37500000000000000       0.31250000000000000        0.0000000000000000     
  0.40625000000000000       0.31250000000000000        0.0000000000000000     
  0.43750000000000000       0.31250000000000000        0.0000000000000000     
  0.46875000000000000       0.31250000000000000        0.0000000000000000     
  0.50000000000000000       0.31250000000000000        0.0000000000000000     
  0.37500000000000000       0.34375000000000000        0.0000000000000000     
  0.40625000000000000       0.34375000000000000        0.0000000000000000     
  0.43750000000000000       0.34375000000000000        0.0000000000000000     
  0.46875000000000000       0.34375000000000000        0.0000000000000000     
  0.50000000000000000       0.34375000000000000        0.0000000000000000     
  0.37500000000000000       0.37500000000000000        0.0000000000000000     
  0.40625000000000000       0.37500000000000000        0.0000000000000000     
  0.43750000000000000       0.37500000000000000        0.0000000000000000     
  0.46875000000000000       0.37500000000000000        0.0000000000000000     
  0.50000000000000000       0.37500000000000000        0.0000000000000000     
  0.50000000000000000       0.25000000000000000        0.0000000000000000     
  0.53125000000000000       0.25000000000000000        0.0000000000000000     
  0.56250000000000000       0.25000000000000000        0.0000000000000000     
  0.59375000000000000       0.25000000000000000        0.0000000000000000     
  0.62500000000000000       0.25000000000000000        0.0000000000000000     
  0.50000000000000000       0.28125000000000000        0.0000000000000000     
  0.53125000000000000       0.28125000000000000        0.0000000000000000     
  0.56250000000000000       0.28125000000000000        0.0000000000000000     
  0.59375000000000000       0.28125000000000000        0.0000000000000000     
  0.62500000000000000       0.28125000000000000        0.0000000000000000     
  0.50000000000000000       0.31250000000000000        0.0000000000000000     
  0.53125000000000000       0.31250000000000000        0.0000000000000000     
  0.56250000000000000       0.31250000000000000        0.0000000000000000     
  0.59375000000000000       0.31250000000000000        0.0000000000000000     
  0.62500000000000000       0.31250000000000000        0.0000000000000000     
  0.50000000000000000       0.34375000000000000        0.0000000000000000     
  0.53125000000000000       0.34375000000000000        0.0000000000000000     
  0.56250000000000000       0.34375000000000000        0.0000000000000000     
  0.59375000000000000       0.34375000000000000        0.0000000000000000     
  0.62500000000000000       0.34375000000000000        0.0000000000000000     
  0.50000000000000000       0.37500000000000000        0.0000000000000000     
  0.53125000000000000       0.37500000000000000        0.0000000000000000     
  0.56250000000000000       0.37500000000000000        0.0000000000000000     
  0.59375000000000000       0.37500000000000000        0.0000000000000000     
  0.62500000000000000       0.37500000000000000        0.0000000000000000     
  0.62500000000000000       0.25000000000000000        0.0000000000000000     
  0.65625000000000000       0.25000000000000000        0.0000000000000000     
  0.68750000000000000       0.25000000000000000        0.0000000000000000     
  0.71875000000000000       0.25000000000000000        0.0000000000000000     
  0.75000000000000000       0.25000000000000000        0.0000000000000000     
  0.62500000000000000       0.28125000000000000        0.0000000000000000     
  0.65625000000000000       0.28125000000000000        0.0000000000000000     
  0.68750000000000000       0.28125000000000000        0.0000000000000000     
  0.71875000000000000       0.28125000000000000        0.0000000000000000     
  0.75000000000000000       0.28125000000000000        0.0000000000000000     
  0.62500000000000000       0.31250000000000000        0.0000000000000000     
  0.65625000000000000       0.31250000000000000        0.0000000000000000     
  0.68750000000000000       0.31250000000000000        0.0000000000000000     
  0.71875000000000000       0.31250000000000000        0.0000000000000000     
  0.75000000000000000       0.31250000000000000        0.0000000000000000     
  0.62500000000000000       0.34375000000000000        0.0000000000000000     
  0.65625000000000000       0.34375000000000000        0.0000000000000000     
  0.68750000000000000       0.34375000000000000        0.0000000000000000     
  0.71875000000000000       0.34375000000000000        0.0000000000000000     
  0.75000000000000000       0.34375000000000000        0.0000000000000000     
  0.62500000000000000       0.37500000000000000        0.0000000000000000     
  0.65625000000000000       0.37500000000000000        0.0000000000000000     
  0.68750000000000000       0.37500000000000000        0.0000000000000000     
  0.71875000000000000       0.37500000000000000        0.0000000000000000     
  0.75000000000000000       0.37500000000000000        0.0000000000000000     
  0.75000000000000000       0.25000000000000000        0.0000000000000000     
  0.78125000000000000       0.25000000000000000        0.0000000000000000     
  0.81250000000000000       0.25000000000000000        0.0000000000000000     
  0.84375000000000000       0.25000000000000000        0.0000000000000000     
  0.87500000000000000       0.25000000000000000        0.0000000000000000     
  0.75000000000000000       0.28125000000000000        0.0000000000000000     
  0.78125000000000000       0.28125000000000000        0.0000000000000000     
  0.81250000000000000       0.28125000000000000        0.0000000000000000     
  0.84375000000000000       0.28125000000000000        0.0000000000000000     
  0.87500000000000000       0.28125000000000000        0.0000000000000000     
  0.75000000000000000       0.31250000000000000        0.0000000000000000     
  0.78125000000000000       0.31250000000000000        0.0000000000000000     
  0.81250000000000000       0.31250000000000000        0.0000000000000000     
  0.84375000000000000       0.31250000000000000        0.0000000000000000     
  0.87500000000000000       0.31250000000000000        0.0000000000000000     
  0.75000000000000000       0.34375000000000000        0.0000000000000000     
  0.78125000000000000       0.34375000000000000        0.0000000000000000     
  0.81250000000000000       0.34375000000000000        0.0000000000000000     
  0.84375000000000000       0.34375000000000000        0.0000000000000000     
  0.87500000000000000       0.34375000000000000        0.0000000000000000     
  0.75000000000000000       0.37500000000000000        0.0000000000000000     
  0.78125000000000000       0.37500000000000000        0.0000000000000000     
  0.81250000000000000       0.37500000000000000        0.0000000000000000     
  0.84375000000000000       0.37500000000000000        0.0000000000000000     
  0.87500000000000000       0.37500000000000000        0.0000000000000000     
  0.87500000000000000       0.25000000000000000        0.0000000000000000     
  0.90625000000000000       0.25000000000000000        0.0000000000000000     
  0.93750000000000000       0.25000000000000000        0.0000000000000000     
  0.96875000000000000       0.25000000000000000        0.0000000000000000     
   1.0000000000000000       0.25000000000000000        0.0000000000000000     
  0.87500000000000000       0.28125000000000000        0.0000000000000000     
  0.90625000000000000       0.28125000000000000        0.0000000000000000     
  0.93750000000000000       0.28125000000000000        0.0000000000000000     
  0.96875000000000000       0.28125000000000000        0.0000000000000000     
   1.0000000000000000       0.28125000000000000        0.0000000000000000     
  0.87500000000000000       0.31250000000000000        0.0000000000000000     
  0.90625000000000000       0.31250000000000000        0.0000000000000000     
  0.93750000000000000       0.31250000000000000        0.0000000000000000     
  0.96875000000000000       0.31250000000000000        0.0000000000000000     
   1.0000000000000000       0.31250000000000000        0.0000000000000000     
  0.87500000000000000       0.34375000000000000        0.0000000000000000     
  0.90625000000000000       0.34375000000000000        0.0000000000000000     
  0.93750000000000000       0.34375000000000000        0.0000000000000000     
  0.96875000000000000       0.34375000000000000        0.0000000000000000     
   1.0000000000000000       0.34375000000000000        0.0000000000000000     
  0.87500000000000000       0.37500000000000000        0.0000000000000000     
  0.90625000000000000       0.37500000000000000        0.0000000000000000     
  0.93750000000000000       0.37500000000000000        0.0000000000000000     
  0.96875000000000000       0.37500000000000000        0.0000000000000000     
   1.0000000000000000       0.37500000000000000        0.0000000000000000     
   0.0000000000000000       0.37500000000000000        0.0000000000000000     
   3.1250000000000000E-002  0.37500000000000000        0.0000000000000000     
   6.2500000000000000E-002  0.37500000000000000        0.0000000000000000     
   9.3750000000000000E-002  0.37500000000000000        0.0000000000000000     
  0.12500000000000000       0.37500000000000000        0.0000000000000000     
   0.0000000000000000       0.40625000000000000        0.0000000000000000     
   3.1250000000000000E-002  0.40625000000000000        0.0000000000000000     
   6.2500000000000000E-002  0.40625000000000000        0.0000000000000000     
   9.3750000000000000E-002  0.40625000000000000        0.0000000000000000     
  0.12500000000000000       0.40625000000000000        0.0000000000000000     
   0.0000000000000000       0.43750000000000000        0.0000000000000000     
   3.1250000000000000E-002  0.43750000000000000        0.0000000000000000     
   6.2500000000000000E-002  0.43750000000000000        0.0000000000000000     
   9.3750000000000000E-002  0.43750000000000000        0.0000000000000000     
  0.12500000000000000       0.43750000000000000        0.0000000000000000     
   0.0000000000000000       0.46875000000000000        0.0000000000000000     
   3.1250000000000000E-002  0.46875000000000000        0.0000000000000000     
   6.2500000000000000E-002  0.46875000000000000        0.0000000000000000     
   9.3750000000000000E-002  0.46875000000000000        0.0000000000000000     
  0.12500000000000000       0.46875000000000000        0.0000000000000000     
   0.0000000000000000       0.50000000000000000        0.0000000000000000     
   3.1250000000000000E-002  0.50000000000000000        0.0000000000000000     
   6.2500000000000000E-002  0.50000000000000000        0.0000000000000000     
   9.3750000000000000E-002  0.50000000000000000        0.0000000000000000     
  0.12500000000000000       0.50000000000000000        0.0000000000000000     
  0.12500000000000000       0.37500000000000000        0.0000000000000000     
  0.15625000000000000       0.37500000000000000        0.0000000000000000     
  0.18750000000000000       0.37500000000000000        0.0000000000000000     
  0.21875000000000000       0.37500000000000000        0.0000000000000000     
  0.25000000000000000       0.37500000000000000        0.0000000000000000     
  0.12500000000000000       0.40625000000000000        0.0000000000000000     
  0.15625000000000000       0.40625000000000000        0.0000000000000000     
  0.18750000000000000       0.40625000000000000        0.0000000000000000     
  0.21875000000000000       0.40625000000000000        0.0000000000000000     
  0.25000000000000000       0.40625000000000000        0.0000000000000000     
  0.12500000000000000       0.43750000000000000        0.0000000000000000     
  0.15625000000000000       0.43750000000000000        0.0000000000000000     
  0.18750000000000000       0.43750000000000000        0.0000000000000000     
  0.21875000000000000       0.43750000000000000        0.0000000000000000     
  0.25000000000000000       0.43750000000000000        0.0000000000000000     
  0.12500000000000000       0.46875000000000000        0.0000000000000000     
  0.15625000000000000       0.46875000000000000        0.0000000000000000     
  0.18750000000000000       0.46875000000000000        0.0000000000000000     
  0.21875000000000000       0.46875000000000000        0.0000000000000000     
  0.25000000000000000       0.46875000000000000        0.0000000000000000     
  0.12500000000000000       0.50000000000000000        0.0000000000000000     
  0.15625000000000000       0.50000000000000000        0.0000000000000000     
  0.18750000000000000       0.50000000000000000        0.0000000000000000     
  0.21875000000000000       0.50000000000000000        0.0000000000000000     
  0.25000000000000000       0.50000000000000000        0.0000000000000000     
  0.25000000000000000       0.37500000000000000        0.0000000000000000     
  0.28125000000000000       0.37500000000000000        0.0000000000000000     
  0.31250000000000000       0.37500000000000000        0.0000000000000000     
  0.34375000000000000       0.37500000000000000        0.0000000000000000     
  0.37500000000000000       0.37500000000000000        0.0000000000000000     
  0.25000000000000000       0.40625000000000000        0.0000000000000000     
  0.28125000000000000       0.40625000000000000        0.0000000000000000     
  0.31250000000000000       0.40625000000000000        0.0000000000000000     
  0.34375000000000000       0.40625000000000000        0.0000000000000000     
  0.37500000000000000       0.40625000000000000        0.0000000000000000     
  0.25000000000000000       0.43750000000000000        0.0000000000000000     
  0.28125000000000000       0.43750000000000000        0.0000000000000000     
  0.31250000000000000       0.43750000000000000        0.0000000000000000     
  0.34375000000000000       0.43750000000000000        0.0000000000000000     
  0.37500000000000000       0.43750000000000000        0.0000000000000000     
  0.25000000000000000       0.46875000000000000        0.0000000000000000     
  0.28125000000000000       0.46875000000000000        0.0000000000000000     
  0.31250000000000000       0.46875000000000000        0.0000000000000000     
  0.34375000000000000       0.46875000000000000        0.0000000000000000     
  0.37500000000000000       0.46875000000000000        0.0000000000000000     
  0.25000000000000000       0.50000000000000000        0.0000000000000000     
  0.28125000000000000       0.50000000000000000        0.0000000000000000     
  0.31250000000000000       0.50000000000000000        0.0000000000000000     
  0.34375000000000000       0.50000000000000000        0.0000000000000000     
  0.37500000000000000       0.50000000000000000        0.0000000000000000     
  0.37500000000000000       0.37500000000000000        0.0000000000000000     
  0.40625000000000000       0.37500000000000000        0.0000000000000000     
  0.43750000000000000       0.37500000000000000        0.0000000000000000     
  0.46875000000000000       0.37500000000000000        0.0000000000000000     
  0.50000000000000000       0.37500000000000000        0.0000000000000000     
  0.37500000000000000       0.40625000000000000        0.0000000000000000     
  0.40625000000000000       0.40625000000000000        0.0000000000000000     
  0.43750000000000000       0.40625000000000000        0.0000000000000000     
  0.46875000000000000       0.40625000000000000        0.0000000000000000     
  0.50000000000000000       0.40625000000000000        0.0000000000000000     
  0.37500000000000000       0.43750000000000000        0.0000000000000000     
  0.40625000000000000       0.43750000000000000        0.0000000000000000     
  0.43750000000000000       0.43750000000000000        0.0000000000000000     
  0.46875000000000000       0.43750000000000000        0.0000000000000000     
  0.50000000000000000       0.43750000000000000        0.0000000000000000     
  0.37500000000000000       0.46875000000000000        0.0000000000000000     
  0.40625000000000000       0.46875000000000000        0.0000000000000000     
  0.43750000000000000       0.46875000000000000        0.0000000000000000     
  0.46875000000000000       0.46875000000000000        0.0000000000000000     
  0.50000000000000000       0.46875000000000000        0.0000000000000000     
  0.37500000000000000       0.50000000000000000        0.0000000000000000     
  0.40625000000000000       0.50000000000000000        0.0000000000000000     
  0.43750000000000000       0.50000000000000000        0.0000000000000000     
  0.46875000000000000       0.50000000000000000        0.0000000000000000     
  0.50000000000000000       0.50000000000000000        0.0000000000000000     
  0.50000000000000000       0.37500000000000000        0.0000000000000000     
  0.53125000000000000       0.37500000000000000        0.0000000000000000     
  0.56250000000000000       0.37500000000000000        0.0000000000000000     
  0.59375000000000000       0.37500000000000000        0.0000000000000000     
  0.62500000000000000       0.37500000000000000        0.0000000000000000     
  0.50000000000000000       0.40625000000000000        0.0000000000000000     
  0.53125000000000000       0.40625000000000000        0.0000000000000000     
  0.56250000000000000       0.40625000000000000        0.0000000000000000     
  0.59375000000000000       0.40625000000000000        0.0000000000000000     
  0.62500000000000000       0.40625000000000000        0.0000000000000000     
  0.50000000000000000       0.43750000000000000        0.0000000000000000     
  0.53125000000000000       0.43750000000000000        0.0000000000000000     
  0.56250000000000000       0.43750000000000000        0.0000000000000000     
  0.59375000000000000       0.43750000000000000        0.0000000000000000     
  0.62500000000000000       0.43750000000000000        0.0000000000000000     
  0.50000000000000000       0.46875000000000000        0.0000000000000000     
  0.53125000000000000       0.46875000000000000        0.0000000000000000     
  0.56250000000000000       0.46875000000000000        0.0000000000000000     
  0.59375000000000000       0.46875000000000000        0.0000000000000000     
  0.62500000000000000       0.46875000000000000        0.0000000000000000     
  0.50000000000000000       0.50000000000000000        0.0000000000000000     
  0.53125000000000000       0.50000000000000000        0.0000000000000000     
  0.56250000000000000       0.50000000000000000        0.0000000000000000     
  0.59375000000000000       0.50000000000000000        0.0000000000000000     
  0.62500000000000000       0.50000000000000000        0.0000000000000000     
  0.62500000000000000       0.37500000000000000        0.0000000000000000     
  0.65625000000000000       0.37500000000000000        0.0000000000000000     
  0.68750000000000000       0.37500000000000000        0.0000000000000000     
  0.71875000000000000       0.37500000000000000        0.0000000000000000     
  0.75000000000000000       0.37500000000000000        0.0000000000000000     
  0.62500000000000000       0.40625000000000000        0.0000000000000000     
  0.65625000000000000       0.40625000000000000        0.0000000000000000     
  0.68750000000000000       0.40625000000000000        0.0000000000000000     
  0.71875000000000000       0.40625000000000000        0.0000000000000000     
  0.75000000000000000       0.40625000000000000        0.0000000000000000     
  0.62500000000000000       0.43750000000000000        0.0000000000000000     
  0.65625000000000000       0.43750000000000000        0.0000000000000000     
  0.68750000000000000       0.43750000000000000        0.0000000000000000     
  0.71875000000000000       0.43750000000000000        0.0000000000000000     
  0.75000000000000000       0.43750000000000000        0.0000000000000000     
  0.62500000000000000       0.46875000000000000        0.0000000000000000     
  0.65625000000000000       0.46875000000000000        0.0000000000000000     
  0.68750000000000000       0.46875000000000000        0.0000000000000000     
  0.71875000000000000       0.46875000000000000        0.0000000000000000     
  0.75000000000000000       0.46875000000000000        0.0000000000000000     
  0.62500000000000000       0.50000000000000000        0.0000000000000000     
  0.65625000000000000       0.50000000000000000        0.0000000000000000     
  0.68750000000000000       0.50000000000000000        0.0000000000000000     
  0.71875000000000000       0.50000000000000000        0.0000000000000000     
  0.75000000000000000       0.50000000000000000        0.0000000000000000     
  0.75000000000000000       0.37500000000000000        0.0000000000000000     
  0.78125000000000000       0.37500000000000000        0.0000000000000000     
  0.81250000000000000       0.37500000000000000        0.0000000000000000     
  0.84375000000000000       0.37500000000000000        0.0000000000000000     
  0.87500000000000000       0.37500000000000000        0.0000000000000000     
  0.75000000000000000       0.40625000000000000        0.0000000000000000     
  0.78125000000000000       0.40625000000000000        0.0000000000000000     
  0.81250000000000000       0.40625000000000000        0.0000000000000000     
  0.84375000000000000       0.40625000000000000        0.0000000000000000     
  0.87500000000000000       0.40625000000000000        0.0000000000000000     
  0.75000000000000000       0.43750000000000000        0.0000000000000000     
  0.78125000000000000       0.43750000000000000        0.0000000000000000     
  0.81250000000000000       0.43750000000000000        0.0000000000000000     
  0.84375000000000000       0.43750000000000000        0.0000000000000000     
  0.87500000000000000       0.43750000000000000        0.0000000000000000     
  0.75000000000000000       0.46875000000000000        0.0000000000000000     
  0.78125000000000000       0.46875000000000000        0.0000000000000000     
  0.81250000000000000       0.46875000000000000        0.0000000000000000     
  0.84375000000000000       0.46875000000000000        0.0000000000000000     
  0.87500000000000000       0.46875000000000000        0.0000000000000000     
  0.75000000000000000       0.50000000000000000        0.0000000000000000     
  0.78125000000000000       0.50000000000000000        0.0000000000000000     
  0.81250000000000000       0.50000000000000000        0.0000000000000000     
  0.84375000000000000       0.50000000000000000        0.0000000000000000     
  0.87500000000000000       0.50000000000000000        0.0000000000000000     
  0.87500000000000000       0.37500000000000000        0.0000000000000000     
  0.90625000000000000       0.37500000000000000        0.0000000000000000     
  0.93750000000000000       0.37500000000000000        0.0000000000000000     
  0.96875000000000000       0.37500000000000000        0.0000000000000000     
   1.0000000000000000       0.37500000000000000        0.0000000000000000     
  0.87500000000000000       0.40625000000000000        0.0000000000000000     
  0.90625000000000000       0.40625000000000000        0.0000000000000000     
  0.93750000000000000       0.40625000000000000        0.0000000000000000     
  0.96875000000000000       0.40625000000000000        0.0000000000000000     
   1.0000000000000000       0.40625000000000000        0.0000000000000000     
  0.87500000000000000       0.43750000000000000        0.0000000000000000     
  0.90625000000000000       0.43750000000000000        0.0000000000000000     
  0.93750000000000000       0.43750000000000000        0.0000000000000000     
  0.96875000000000000       0.43750000000000000        0.0000000000000000     
   1.0000000000000000       0.43750000000000000        0.0000000000000000     
  0.87500000000000000       0.46875000000000000        0.0000000000000000     
  0.90625000000000000       0.46875000000000000        0.0000000000000000     
  0.93750000000000000       0.46875000000000000        0.0000000000000000     
  0.96875000000000000       0.46875000000000000        0.0000000000000000     
   1.0000000000000000       0.46875000000000000        0.0000000000000000     
  0.87500000000000000       0.50000000000000000        0.0000000000000000     
  0.90625000000000000       0.50000000000000000        0.0000000000000000     
  0.93750000000000000       0.50000000000000000        0.0000000000000000     
  0.96875000000000000       0.50000000000000000        0.0000000000000000     
   1.0000000000000000       0.50000000000000000        0.0000000000000000     
   0.0000000000000000       0.50000000000000000        0.0000000000000000     
   3.1250000000000000E-002  0.50000000000000000        0.0000000000000000     
   6.2500000000000000E-002  0.50000000000000000        0.0000000000000000     
   9.3750000000000000E-002  0.50000000000000000        0.0000000000000000     
  0.12500000000000000       0.50000000000000000        0.0000000000000000     
   0.0000000000000000       0.53125000000000000        0.0000000000000000     
   3.1250000000000000E-002  0.53125000000000000        0.0000000000000000     
   6.2500000000000000E-002  0.53125000000000000        0.0000000000000000     
   9.3750000000000000E-002  0.53125000000000000        0.0000000000000000     
  0.12500000000000000       0.53125000000000000        0.0000000000000000     
   0.0000000000000000       0.56250000000000000        0.0000000000000000     
   3.1250000000000000E-002  0.56250000000000000        0.0000000000000000     
   6.2500000000000000E-002  0.56250000000000000        0.0000000000000000     
   9.3750000000000000E-002  0.56250000000000000        0.0000000000000000     
  0.12500000000000000       0.56250000000000000        0.0000000000000000     
   0.0000000000000000       0.59375000000000000        0.0000000000000000     
   3.1250000000000000E-002  0.59375000000000000        0.0000000000000000     
   6.2500000000000000E-002  0.59375000000000000        0.0000000000000000     
   9.3750000000000000E-002  0.59375000000000000        0.0000000000000000     
  0.12500000000000000       0.59375000000000000        0.0000000000000000     
   0.0000000000000000       0.62500000000000000        0.0000000000000000     
   3.1250000000000000E-002  0.62500000000000000        0.0000000000000000     
   6.2500000000000000E-002  0.62500000000000000        0.0000000000000000     
   9.3750000000000000E-002  0.62500000000000000        0.0000000000000000     
  0.12500000000000000       0.62500000000000000        0.0000000000000000     
  0.12500000000000000       0.50000000000000000        0.0000000000000000     
  0.15625000000000000       0.50000000000000000        0.0000000000000000     
  0.18750000000000000       0.50000000000000000        0.0000000000000000     
  0.21875000000000000       0.50000000000000000        0.0000000000000000     
  0.25000000000000000       0.50000000000000000        0.0000000000000000     
  0.12500000000000000       0.53125000000000000        0.0000000000000000     
  0.15625000000000000       0.53125000000000000        0.0000000000000000     
  0.18750000000000000       0.53125000000000000        0.0000000000000000     
  0.21875000000000000       0.53125000000000000        0.0000000000000000     
  0.25000000000000000       0.53125000000000000        0.0000000000000000     
  0.12500000000000000       0.56250000000000000        0.0000000000000000     
  0.15625000000000000       0.56250000000000000        0.0000000000000000     
  0.18750000000000000       0.56250000000000000        0.0000000000000000     
  0.21875000000000000       0.56250000000000000        0.0000000000000000     
  0.25000000000000000       0.56250000000000000        0.0000000000000000     
  0.12500000000000000       0.59375000000000000        0.0000000000000000     
  0.15625000000000000       0.59375000000000000        0.0000000000000000     
  0.18750000000000000       0.59375000000000000        0.0000000000000000     
  0.21875000000000000       0.59375000000000000        0.0000000000000000     
  0.25000000000000000       0.59375000000000000        0.0000000000000000     
  0.12500000000000000       0.62500000000000000        0.0000000000000000     
  0.15625000000000000       0.62500000000000000        0.0000000000000000     
  0.18750000000000000       0.62500000000000000        0.0000000000000000     
  0.21875000000000000       0.62500000000000000        0.0000000000000000     
  0.25000000000000000       0.62500000000000000        0.0000000000000000     
  0.25000000000000000       0.50000000000000000        0.0000000000000000     
  0.28125000000000000       0.50000000000000000        0.0000000000000000     
  0.31250000000000000       0.50000000000000000        0.0000000000000000     
  0.34375000000000000       0.50000000000000000        0.0000000000000000     
  0.37500000000000000       0.50000000000000000        0.0000000000000000     
  0.25000000000000000       0.53125000000000000        0.0000000000000000     
  0.28125000000000000       0.53125000000000000        0.0000000000000000     
  0.31250000000000000       0.53125000000000000        0.0000000000000000     
  0.34375000000000000       0.53125000000000000        0.0000000000000000     
  0.37500000000000000       0.53125000000000000        0.0000000000000000     
  0.25000000000000000       0.56250000000000000        0.0000000000000000     
  0.28125000000000000       0.56250000000000000        0.0000000000000000     
  0.31250000000000000       0.56250000000000000        0.0000000000000000     
  0.34375000000000000       0.56250000000000000        0.0000000000000000     
  0.37500000000000000       0.56250000000000000        0.0000000000000000     
  0.25000000000000000       0.59375000000000000        0.0000000000000000     
  0.28125000000000000       0.59375000000000000        0.0000000000000000     
  0.31250000000000000       0.59375000000000000        0.0000000000000000     
  0.34375000000000000       0.59375000000000000        0.0000000000000000     
  0.37500000000000000       0.59375000000000000        0.0000000000000000     
  0.25000000000000000       0.62500000000000000        0.0000000000000000     
  0.28125000000000000       0.62500000000000000        0.0000000000000000     
  0.31250000000000000       0.62500000000000000        0.0000000000000000     
  0.34375000000000000       0.62500000000000000        0.0000000000000000     
  0.37500000000000000       0.62500000000000000        0.0000000000000000     
  0.37500000000000000       0.50000000000000000        0.0000000000000000     
  0.40625000000000000       0.50000000000000000        0.0000000000000000     
  0.43750000000000000       0.50000000000000000        0.0000000000000000     
  0.46875000000000000       0.50000000000000000        0.0000000000000000     
  0.50000000000000000       0.50000000000000000        0.0000000000000000     
  0.37500000000000000       0.53125000000000000        0.0000000000000000     
  0.40625000000000000       0.53125000000000000        0.0000000000000000     
  0.43750000000000000       0.53125000000000000        0.0000000000000000     
  0.46875000000000000       0.53125000000000000        0.0000000000000000     
  0.50000000000000000       0.53125000000000000        0.0000000000000000     
  0.37500000000000000       0.56250000000000000        0.0000000000000000     
  0.40625000000000000       0.56250000000000000        0.0000000000000000     
  0.43750000000000000       0.56250000000000000        0.0000000000000000     
  0.46875000000000000       0.56250000000000000        0.0000000000000000     
  0.50000000000000000       0.56250000000000000        0.0000000000000000     
  0.37500000000000000       0.59375000000000000        0.0000000000000000     
  0.40625000000000000       0.59375000000000000        0.0000000000000000     
  0.43750000000000000       0.59375000000000000        0.0000000000000000     
  0.46875000000000000       0.59375000000000000        0.0000000000000000     
  0.50000000000000000       0.59375000000000000        0.0000000000000000     
  0.37500000000000000       0.62500000000000000        0.0000000000000000     
  0.40625000000000000       0.62500000000000000        0.0000000000000000     
  0.43750000000000000       0.62500000000000000        0.0000000000000000     
  0.46875000000000000       0.62500000000000000        0.0000000000000000     
  0.50000000000000000       0.62500000000000000        0.0000000000000000     
  0.50000000000000000       0.50000000000000000        0.0000000000000000     
  0.53125000000000000       0.50000000000000000        0.0000000000000000     
  0.56250000000000000       0.50000000000000000        0.0000000000000000     
  0.59375000000000000       0.50000000000000000        0.0000000000000000     
  0.62500000000000000       0.50000000000000000        0.0000000000000000     
  0.50000000000000000       0.53125000000000000        0.0000000000000000     
  0.53125000000000000       0.53125000000000000        0.0000000000000000     
  0.56250000000000000       0.53125000000000000        0.0000000000000000     
  0.59375000000000000       0.53125000000000000        0.0000000000000000     
  0.62500000000000000       0.53125000000000000        0.0000000000000000     
  0.50000000000000000       0.56250000000000000        0.0000000000000000     
  0.53125000000000000       0.56250000000000000        0.0000000000000000     
  0.56250000000000000       0.56250000000000000        0.0000000000000000     
  0.59375000000000000       0.56250000000000000        0.0000000000000000     
  0.62500000000000000       0.56250000000000000        0.0000000000000000     
  0.50000000000000000       0.59375000000000000        0.0000000000000000     
  0.53125000000000000       0.59375000000000000        0.0000000000000000     
  0.56250000000000000       0.59375000000000000        0.0000000000000000     
  0.59375000000000000       0.59375000000000000        0.0000000000000000     
  0.62500000000000000       0.59375000000000000        0.0000000000000000     
  0.50000000000000000       0.62500000000000000        0.0000000000000000     
  0.53125000000000000       0.62500000000000000        0.0000000000000000     
  0.56250000000000000       0.62500000000000000        0.0000000000000000     
  0.59375000000000000       0.62500000000000000        0.0000000000000000     
  0.62500000000000000       0.62500000000000000        0.0000000000000000     
  0.62500000000000000       0.50000000000000000        0.0000000000000000     
  0.65625000000000000       0.50000000000000000        0.0000000000000000     
  0.68750000000000000       0.50000000000000000        0.0000000000000000     
  0.71875000000000000       0.50000000000000000        0.0000000000000000     
  0.75000000000000000       0.50000000000000000        0.0000000000000000     
  0.62500000000000000       0.53125000000000000        0.0000000000000000     
  0.65625000000000000       0.53125000000000000        0.0000000000000000     
  0.68750000000000000       0.53125000000000000        0.0000000000000000     
  0.71875000000000000       0.53125000000000000        0.0000000000000000     
  0.75000000000000000       0.53125000000000000        0.0000000000000000     
  0.62500000000000000       0.56250000000000000        0.0000000000000000     
  0.65625000000000000       0.56250000000000000        0.0000000000000000     
  0.68750000000000000       0.56250000000000000        0.0000000000000000     
  0.71875000000000000       0.56250000000000000        0.0000000000000000     
  0.75000000000000000       0.56250000000000000        0.0000000000000000     
  0.62500000000000000       0.59375000000000000        0.0000000000000000     
  0.65625000000000000       0.59375000000000000        0.0000000000000000     
  0.68750000000000000       0.59375000000000000        0.0000000000000000     
  0.71875000000000000       0.59375000000000000        0.0000000000000000     
  0.75000000000000000       0.59375000000000000        0.0000000000000000     
  0.62500000000000000       0.62500000000000000        0.0000000000000000     
  0.65625000000000000       0.62500000000000000        0.0000000000000000     
  0.68750000000000000       0.62500000000000000        0.0000000000000000     
  0.71875000000000000       0.62500000000000000        0.0000000000000000     
  0.75000000000000000       0.62500000000000000        0.0000000000000000     
  0.75000000000000000       0.50000000000000000        0.0000000000000000     
  0.78125000000000000       0.50000000000000000        0.0000000000000000     
  0.81250000000000000       0.50000000000000000        0.0000000000000000     
  0.84375000000000000       0.50000000000000000        0.0000000000000000     
  0.87500000000000000       0.50000000000000000        0.0000000000000000     
  0.75000000000000000       0.53125000000000000        0.0000000000000000     
  0.78125000000000000       0.53125000000000000        0.0000000000000000     
  0.81250000000000000       0.53125000000000000        0.0000000000000000     
  0.84375000000000000       0.53125000000000000        0.0000000000000000     
  0.87500000000000000       0.53125000000000000        0.0000000000000000     
  0.75000000000000000       0.56250000000000000        0.0000000000000000     
  0.78125000000000000       0.56250000000000000        0.0000000000000000     
  0.81250000000000000       0.56250000000000000        0.0000000000000000     
  0.84375000000000000       0.56250000000000000        0.0000000000000000     
  0.87500000000000000       0.56250000000000000        0.0000000000000000     
  0.75000000000000000       0.59375000000000000        0.0000000000000000     
  0.78125000000000000       0.59375000000000000        0.0000000000000000     
  0.81250000000000000       0.59375000000000000        0.0000000000000000     
  0.84375000000000000       0.59375000000000000        0.0000000000000000     
  0.87500000000000000       0.59375000000000000        0.0000000000000000     
  0.75000000000000000       0.62500000000000000        0.0000000000000000     
  0.78125000000000000       0.62500000000000000        0.0000000000000000     
  0.81250000000000000       0.62500000000000000        0.0000000000000000     
  0.84375000000000000       0.62500000000000000        0.0000000000000000     
  0.87500000000000000       0.62500000000000000        0.0000000000000000     
  0.87500000000000000       0.50000000000000000        0.0000000000000000     
  0.90625000000000000       0.50000000000000000        0.0000000000000000     
  0.93750000000000000       0.50000000000000000        0.0000000000000000     
  0.96875000000000000       0.50000000000000000        0.0000000000000000     
   1.0000000000000000       0.50000000000000000        0.0000000000000000     
  0.87500000000000000       0.53125000000000000        0.0000000000000000     
  0.90625000000000000       0.53125000000000000        0.0000000000000000     
  0.93750000000000000       0.53125000000000000        0.0000000000000000     
  0.96875000000000000       0.53125000000000000        0.0000000000000000     
   1.0000000000000000       0.53125000000000000        0.0000000000000000     
  0.87500000000000000       0.56250000000000000        0.0000000000000000     
  0.90625000000000000       0.56250000000000000        0.0000000000000000     
  0.93750000000000000       0.56250000000000000        0.0000000000000000     
  0.96875000000000000       0.56250000000000000        0.0000000000000000     
   1.0000000000000000       0.56250000000000000        0.0000000000000000     
  0.87500000000000000       0.59375000000000000        0.0000000000000000     
  0.90625000000000000       0.59375000000000000        0.0000000000000000     
  0.93750000000000000       0.59375000000000000        0.0000000000000000     
  0.96875000000000000       0.59375000000000000        0.0000000000000000     
   1.0000000000000000       0.59375000000000000        0.0000000000000000     
  0.87500000000000000       0.62500000000000000        0.0000000000000000     
  0.90625000000000000       0.62500000000000000        0.0000000000000000     
  0.93750000000000000       0.62500000000000000        0.0000000000000000     
  0.96875000000000000       0.62500000000000000        0.0000000000000000     
   1.0000000000000000       0.62500000000000000        0.0000000000000000     
   0.0000000000000000       0.62500000000000000        0.0000000000000000     
   3.1250000000000000E-002  0.62500000000000000        0.0000000000000000     
   6.2500000000000000E-002  0.62500000000000000        0.0000000000000000     
   9.3750000000000000E-002  0.62500000000000000        0.0000000000000000     
  0.12500000000000000       0.62500000000000000        0.0000000000000000     
   0.0000000000000000       0.65625000000000000        0.0000000000000000     
   3.1250000000000000E-002  0.65625000000000000        0.0000000000000000     
   6.2500000000000000E-002  0.65625000000000000        0.0000000000000000     
   9.3750000000000000E-002  0.65625000000000000        0.0000000000000000     
  0.12500000000000000       0.65625000000000000        0.0000000000000000     
   0.0000000000000000       0.68750000000000000        0.0000000000000000     
   3.1250000000000000E-002  0.68750000000000000        0.0000000000000000     
   6.2500000000000000E-002  0.68750000000000000        0.0000000000000000     
   9.3750000000000000E-002  0.68750000000000000        0.0000000000000000     
  0.12500000000000000       0.68750000000000000        0.0000000000000000     
   0.0000000000000000       0.71875000000000000        0.0000000000000000     
   3.1250000000000000E-002  0.71875000000000000        0.0000000000000000     
   6.2500000000000000E-002  0.71875000000000000        0.0000000000000000     
   9.3750000000000000E-002  0.71875000000000000        0.0000000000000000     
  0.12500000000000000       0.71875000000000000        0.0000000000000000     
   0.0000000000000000       0.75000000000000000        0.0000000000000000     
   3.1250000000000000E-002  0.75000000000000000        0.0000000000000000     
   6.2500000000000000E-002  0.75000000000000000        0.0000000000000000     
   9.3750000000000000E-002  0.75000000000000000        0.0000000000000000     
  0.12500000000000000       0.75000000000000000        0.0000000000000000     
  0.12500000000000000       0.62500000000000000        0.0000000000000000     
  0.15625000000000000       0.62500000000000000        0.0000000000000000     
  0.18750000000000000       0.62500000000000000        0.0000000000000000     
  0.21875000000000000       0.62500000000000000        0.0000000000000000     
  0.25000000000000000       0.62500000000000000        0.0000000000000000     
  0.12500000000000000       0.65625000000000000        0.0000000000000000     
  0.15625000000000000       0.65625000000000000        0.0000000000000000     
  0.18750000000000000       0.65625000000000000        0.0000000000000000     
  0.21875000000000000       0.65625000000000000        0.0000000000000000     
  0.25000000000000000       0.65625000000000000        0.0000000000000000     
  0.12500000000000000       0.68750000000000000        0.0000000000000000     
  0.15625000000000000       0.68750000000000000        0.0000000000000000     
  0.18750000000000000       0.68750000000000000        0.0000000000000000     
  0.21875000000000000       0.68750000000000000        0.0000000000000000     
  0.25000000000000000       0.68750000000000000        0.0000000000000000     
  0.12500000000000000       0.71875000000000000        0.0000000000000000     
  0.15625000000000000       0.71875000000000000        0.0000000000000000     
  0.18750000000000000       0.71875000000000000        0.0000000000000000     
  0.21875000000000000       0.71875000000000000        0.0000000000000000     
  0.25000000000000000       0.71875000000000000        0.0000000000000000     
  0.12500000000000000       0.75000000000000000        0.0000000000000000     
  0.15625000000000000       0.75000000000000000        0.0000000000000000     
  0.18750000000000000       0.75000000000000000        0.0000000000000000     
  0.21875000000000000       0.75000000000000000        0.0000000000000000     
  0.25000000000000000       0.75000000000000000        0.0000000000000000     
  0.25000000000000000       0.62500000000000000        0.0000000000000000     
  0.28125000000000000       0.62500000000000000        0.0000000000000000     
  0.31250000000000000       0.62500000000000000        0.0000000000000000     
  0.34375000000000000       0.62500000000000000        0.0000000000000000     
  0.37500000000000000       0.62500000000000000        0.0000000000000000     
  0.25000000000000000       0.65625000000000000        0.0000000000000000     
  0.28125000000000000       0.65625000000000000        0.0000000000000000     
  0.31250000000000000       0.65625000000000000        0.0000000000000000     
  0.34375000000000000       0.65625000000000000        0.0000000000000000     
  0.37500000000000000       0.65625000000000000        0.0000000000000000     
  0.25000000000000000       0.68750000000000000        0.0000000000000000     
  0.28125000000000000       0.68750000000000000        0.0000000000000000     
  0.31250000000000000       0.68750000000000000        0.0000000000000000     
  0.34375000000000000       0.68750000000000000        0.0000000000000000     
  0.37500000000000000       0.68750000000000000        0.0000000000000000     
  0.25000000000000000       0.71875000000000000        0.0000000000000000     
  0.28125000000000000       0.71875000000000000        0.0000000000000000     
  0.31250000000000000       0.71875000000000000        0.0000000000000000     
  0.34375000000000000       0.71875000000000000        0.0000000000000000     
  0.37500000000000000       0.71875000000000000        0.0000000000000000     
  0.25000000000000000       0.75000000000000000        0.0000000000000000     
  0.28125000000000000       0.75000000000000000        0.0000000000000000     
  0.31250000000000000       0.75000000000000000        0.0000000000000000     
  0.34375000000000000       0.75000000000000000        0.0000000000000000     
  0.37500000000000000       0.75000000000000000        0.0000000000000000     
  0.37500000000000000       0.62500000000000000        0.0000000000000000     
  0.40625000000000000       0.62500000000000000        0.0000000000000000     
  0.43750000000000000       0.62500000000000000        0.0000000000000000     
  0.46875000000000000       0.62500000000000000        0.0000000000000000     
  0.50000000000000000       0.62500000000000000        0.0000000000000000     
  0.37500000000000000       0.65625000000000000        0.0000000000000000     
  0.40625000000000000       0.65625000000000000        0.0000000000000000     
  0.43750000000000000       0.65625000000000000        0.0000000000000000     
  0.46875000000000000       0.65625000000000000        0.0000000000000000     
  0.50000000000000000       0.65625000000000000        0.0000000000000000     
  0.37500000000000000       0.68750000000000000        0.0000000000000000     
  0.40625000000000000       0.68750000000000000        0.0000000000000000     
  0.43750000000000000       0.68750000000000000        0.0000000000000000     
  0.46875000000000000       0.68750000000000000        0.0000000000000000     
  0.50000000000000000       0.68750000000000000        0.0000000000000000     
  0.37500000000000000       0.71875000000000000        0.0000000000000000     
  0.40625000000000000       0.71875000000000000        0.0000000000000000     
  0.43750000000000000       0.71875000000000000        0.0000000000000000     
  0.46875000000000000       0.71875000000000000        0.0000000000000000     
  0.50000000000000000       0.71875000000000000        0.0000000000000000     
  0.37500000000000000       0.75000000000000000        0.0000000000000000     
  0.40625000000000000       0.75000000000000000        0.0000000000000000     
  0.43750000000000000       0.75000000000000000        0.0000000000000000     
  0.46875000000000000       0.75000000000000000        0.0000000000000000     
  0.50000000000000000       0.75000000000000000        0.0000000000000000     
  0.50000000000000000       0.62500000000000000        0.0000000000000000     
  0.53125000000000000       0.62500000000000000        0.0000000000000000     
  0.56250000000000000       0.62500000000000000        0.0000000000000000     
  0.59375000000000000       0.62500000000000000        0.0000000000000000     
  0.62500000000000000       0.62500000000000000        0.0000000000000000     
  0.50000000000000000       0.65625000000000000        0.0000000000000000     
  0.53125000000000000       0.65625000000000000        0.0000000000000000     
  0.56250000000000000       0.65625000000000000        0.0000000000000000     
  0.59375000000000000       0.65625000000000000        0.0000000000000000     
  0.62500000000000000       0.65625000000000000        0.0000000000000000     
  0.50000000000000000       0.68750000000000000        0.0000000000000000     
  0.53125000000000000       0.68750000000000000        0.0000000000000000     
  0.56250000000000000       0.68750000000000000        0.0000000000000000     
  0.59375000000000000       0.68750000000000000        0.0000000000000000     
  0.62500000000000000       0.68750000000000000        0.0000000000000000     
  0.50000000000000000       0.71875000000000000        0.0000000000000000     
  0.53125000000000000       0.71875000000000000        0.0000000000000000     
  0.56250000000000000       0.71875000000000000        0.0000000000000000     
  0.59375000000000000       0.71875000000000000        0.0000000000000000     
  0.62500000000000000       0.71875000000000000        0.0000000000000000     
  0.50000000000000000       0.75000000000000000        0.0000000000000000     
  0.53125000000000000       0.75000000000000000        0.0000000000000000     
  0.56250000000000000       0.75000000000000000        0.0000000000000000     
  0.59375000000000000       0.75000000000000000        0.0000000000000000     
  0.62500000000000000       0.75000000000000000        0.0000000000000000     
  0.62500000000000000       0.62500000000000000        0.0000000000000000     
  0.65625000000000000       0.62500000000000000        0.0000000000000000     
  0.68750000000000000       0.62500000000000000        0.0000000000000000     
  0.71875000000000000       0.62500000000000000        0.0000000000000000     
  0.75000000000000000       0.62500000000000000        0.0000000000000000     
  0.62500000000000000       0.65625000000000000        0.0000000000000000     
  0.65625000000000000       0.65625000000000000        0.0000000000000000     
  0.68750000000000000       0.65625000000000000        0.0000000000000000     
  0.71875000000000000       0.65625000000000000        0.0000000000000000     
  0.75000000000000000       0.65625000000000000        0.0000000000000000     
  0.62500000000000000       0.68750000000000000        0.0000000000000000     
  0.65625000000000000       0.68750000000000000        0.0000000000000000     
  0.68750000000000000       0.68750000000000000        0.0000000000000000     
  0.71875000000000000       0.68750000000000000        0.0000000000000000     
  0.75000000000000000       0.68750000000000000        0.0000000000000000     
  0.62500000000000000       0.71875000000000000        0.0000000000000000     
  0.65625000000000000       0.71875000000000000        0.0000000000000000     
  0.68750000000000000       0.71875000000000000        0.0000000000000000     
  0.71875000000000000       0.71875000000000000        0.0000000000000000     
  0.75000000000000000       0.71875000000000000        0.0000000000000000     
  0.62500000000000000       0.75000000000000000        0.0000000000000000     
  0.65625000000000000       0.75000000000000000        0.0000000000000000     
  0.68750000000000000       0.75000000000000000        0.0000000000000000     
  0.71875000000000000       0.75000000000000000        0.0000000000000000     
  0.75000000000000000       0.75000000000000000        0.0000000000000000     
  0.75000000000000000       0.62500000000000000        0.0000000000000000     
  0.78125000000000000       0.62500000000000000        0.0000000000000000     
  0.81250000000000000       0.62500000000000000        0.0000000000000000     
  0.84375000000000000       0.62500000000000000        0.0000000000000000     
  0.87500000000000000       0.62500000000000000        0.0000000000000000     
  0.75000000000000000       0.65625000000000000        0.0000000000000000     
  0.78125000000000000       0.65625000000000000        0.0000000000000000     
  0.81250000000000000       0.65625000000000000        0.0000000000000000     
  0.84375000000000000       0.65625000000000000        0.0000000000000000     
  0.87500000000000000       0.65625000000000000        0.0000000000000000     
  0.75000000000000000       0.68750000000000000        0.0000000000000000     
  0.78125000000000000       0.68750000000000000        0.0000000000000000     
  0.81250000000000000       0.68750000000000000        0.0000000000000000     
  0.84375000000000000       0.68750000000000000        0.0000000000000000     
  0.87500000000000000       0.68750000000000000        0.0000000000000000     
  0.75000000000000000       0.71875000000000000        0.0000000000000000     
  0.78125000000000000       0.71875000000000000        0.0000000000000000     
  0.81250000000000000       0.71875000000000000        0.0000000000000000     
  0.84375000000000000       0.71875000000000000        0.0000000000000000     
  0.87500000000000000       0.71875000000000000        0.0000000000000000     
  0.75000000000000000       0.75000000000000000        0.0000000000000000     
  0.78125000000000000       0.75000000000000000        0.0000000000000000     
  0.81250000000000000       0.75000000000000000        0.0000000000000000     
  0.84375000000000000       0.75000000000000000        0.0000000000000000     
  0.87500000000000000       0.75000000000000000        0.0000000000000000     
  0.87500000000000000       0.62500000000000000        0.0000000000000000     
  0.90625000000000000       0.62500000000000000        0.0000000000000000     
  0.93750000000000000       0.62500000000000000        0.0000000000000000     
  0.96875000000000000       0.62500000000000000        0.0000000000000000     
   1.0000000000000000       0.62500000000000000        0.0000000000000000     
  0.87500000000000000       0.65625000000000000        0.0000000000000000     
  0.90625000000000000       0.65625000000000000        0.0000000000000000     
  0.93750000000000000       0.65625000000000000        0.0000000000000000     
  0.96875000000000000       0.65625000000000000        0.0000000000000000     
   1.0000000000000000       0.65625000000000000        0.0000000000000000     
  0.87500000000000000       0.68750000000000000        0.0000000000000000     
  0.90625000000000000       0.68750000000000000        0.0000000000000000     
  0.93750000000000000       0.68750000000000000        0.0000000000000000     
  0.96875000000000000       0.68750000000000000        0.0000000000000000     
   1.0000000000000000       0.68750000000000000        0.0000000000000000     
  0.87500000000000000       0.71875000000000000        0.0000000000000000     
  0.90625000000000000       0.71875000000000000        0.0000000000000000     
  0.93750000000000000       0.71875000000000000        0.0000000000000000     
  0.96875000000000000       0.71875000000000000        0.0000000000000000     
   1.0000000000000000       0.71875000000000000        0.0000000000000000     
  0.87500000000000000       0.75000000000000000        0.0000000000000000     
  0.90625000000000000       0.75000000000000000        0.0000000000000000     
  0.93750000000000000       0.75000000000000000        0.0000000000000000     
  0.96875000000000000       0.75000000000000000        0.0000000000000000     
   1.0000000000000000       0.75000000000000000        0.0000000000000000     
   0.0000000000000000       0.75000000000000000        0.0000000000000000     
   3.1250000000000000E-002  0.75000000000000000        0.0000000000000000     
   6.2500000000000000E-002  0.75000000000000000        0.0000000000000000     
   9.3750000000000000E-002  0.75000000000000000        0.0000000000000000     
  0.12500000000000000       0.75000000000000000        0.0000000000000000     
   0.0000000000000000       0.78125000000000000        0.0000000000000000     
   3.1250000000000000E-002  0.78125000000000000        0.0000000000000000     
   6.2500000000000000E-002  0.78125000000000000        0.0000000000000000     
   9.3750000000000000E-002  0.78125000000000000        0.0000000000000000     
  0.12500000000000000       0.78125000000000000        0.0000000000000000     
   0.0000000000000000       0.81250000000000000        0.0000000000000000     
   3.1250000000000000E-002  0.81250000000000000        0.0000000000000000     
   6.2500000000000000E-002  0.81250000000000000        0.0000000000000000     
   9.3750000000000000E-002  0.81250000000000000        0.0000000000000000     
  0.12500000000000000       0.81250000000000000        0.0000000000000000     
   0.0000000000000000       0.84375000000000000        0.0000000000000000     
   3.1250000000000000E-002  0.84375000000000000        0.0000000000000000     
   6.2500000000000000E-002  0.84375000000000000        0.0000000000000000     
   9.3750000000000000E-002  0.84375000000000000        0.0000000000000000     
  0.12500000000000000       0.84375000000000000        0.0000000000000000     
   0.0000000000000000       0.87500000000000000        0.0000000000000000     
   3.1250000000000000E-002  0.87500000000000000        0.0000000000000000     
   6.2500000000000000E-002  0.87500000000000000        0.0000000000000000     
   9.3750000000000000E-002  0.87500000000000000        0.0000000000000000     
  0.12500000000000000       0.87500000000000000        0.0000000000000000     
  0.12500000000000000       0.75000000000000000        0.0000000000000000     
  0.15625000000000000       0.75000000000000000        0.0000000000000000     
  0.18750000000000000       0.75000000000000000        0.0000000000000000     
  0.21875000000000000       0.75000000000000000        0.0000000000000000     
  0.25000000000000000       0.75000000000000000        0.0000000000000000     
  0.12500000000000000       0.78125000000000000        0.0000000000000000     
  0.15625000000000000       0.78125000000000000        0.0000000000000000     
  0.18750000000000000       0.78125000000000000        0.0000000000000000     
  0.21875000000000000       0.78125000000000000        0.0000000000000000     
  0.25000000000000000       0.78125000000000000        0.0000000000000000     
  0.12500000000000000       0.81250000000000000        0.0000000000000000     
  0.15625000000000000       0.81250000000000000        0.0000000000000000     
  0.18750000000000000       0.81250000000000000        0.0000000000000000     
  0.21875000000000000       0.81250000000000000        0.0000000000000000     
  0.25000000000000000       0.81250000000000000        0.0000000000000000     
  0.12500000000000000       0.84375000000000000        0.0000000000000000     
  0.15625000000000000       0.84375000000000000        0.0000000000000000     
  0.18750000000000000       0.84375000000000000        0.0000000000000000     
  0.21875000000000000       0.84375000000000000        0.0000000000000000     
  0.25000000000000000       0.84375000000000000        0.0000000000000000     
  0.12500000000000000       0.87500000000000000        0.0000000000000000     
  0.15625000000000000       0.87500000000000000        0.0000000000000000     
  0.18750000000000000       0.87500000000000000        0.0000000000000000     
  0.21875000000000000       0.87500000000000000        0.0000000000000000     
  0.25000000000000000       0.87500000000000000        0.0000000000000000     
  0.25000000000000000       0.75000000000000000        0.0000000000000000     
  0.28125000000000000       0.75000000000000000        0.0000000000000000     
  0.31250000000000000       0.75000000000000000        0.0000000000000000     
  0.34375000000000000       0.75000000000000000        0.0000000000000000     
  0.37500000000000000       0.75000000000000000        0.0000000000000000     
  0.25000000000000000       0.78125000000000000        0.0000000000000000     
  0.28125000000000000       0.78125000000000000        0.0000000000000000     
  0.31250000000000000       0.78125000000000000        0.0000000000000000     
  0.34375000000000000       0.78125000000000000        0.0000000000000000     
  0.37500000000000000       0.78125000000000000        0.0000000000000000     
  0.25000000000000000       0.81250000000000000        0.0000000000000000     
  0.28125000000000000       0.81250000000000000        0.0000000000000000     
  0.31250000000000000       0.81250000000000000        0.0000000000000000     
  0.34375000000000000       0.81250000000000000        0.0000000000000000     
  0.37500000000000000       0.81250000000000000        0.0000000000000000     
  0.25000000000000000       0.84375000000000000        0.0000000000000000     
  0.28125000000000000       0.84375000000000000        0.0000000000000000     
  0.31250000000000000       0.84375000000000000        0.0000000000000000     
  0.34375000000000000       0.84375000000000000        0.0000000000000000     
  0.37500000000000000       0.84375000000000000        0.0000000000000000     
  0.25000000000000000       0.87500000000000000        0.0000000000000000     
  0.28125000000000000       0.87500000000000000        0.0000000000000000     
  0.31250000000000000       0.87500000000000000        0.0000000000000000     
  0.34375000000000000       0.87500000000000000        0.0000000000000000     
  0.37500000000000000       0.87500000000000000        0.0000000000000000     
  0.37500000000000000       0.75000000000000000        0.0000000000000000     
  0.40625000000000000       0.75000000000000000        0.0000000000000000     
  0.43750000000000000       0.75000000000000000        0.0000000000000000     
  0.46875000000000000       0.75000000000000000        0.0000000000000000     
  0.50000000000000000       0.75000000000000000        0.0000000000000000     
  0.37500000000000000       0.78125000000000000        0.0000000000000000     
  0.40625000000000000       0.78125000000000000        0.0000000000000000     
  0.43750000000000000       0.78125000000000000        0.0000000000000000     
  0.46875000000000000       0.78125000000000000        0.0000000000000000     
  0.50000000000000000       0.78125000000000000        0.0000000000000000     
  0.37500000000000000       0.81250000000000000        0.0000000000000000     
  0.40625000000000000       0.81250000000000000        0.0000000000000000     
  0.43750000000000000       0.81250000000000000        0.0000000000000000     
  0.46875000000000000       0.81250000000000000        0.0000000000000000     
  0.50000000000000000       0.81250000000000000        0.0000000000000000     
  0.37500000000000000       0.84375000000000000        0.0000000000000000     
  0.40625000000000000       0.84375000000000000        0.0000000000000000     
  0.43750000000000000       0.84375000000000000        0.0000000000000000     
  0.46875000000000000       0.84375000000000000        0.0000000000000000     
  0.50000000000000000       0.84375000000000000        0.0000000000000000     
  0.37500000000000000       0.87500000000000000        0.0000000000000000     
  0.40625000000000000       0.87500000000000000        0.0000000000000000     
  0.43750000000000000       0.87500000000000000        0.0000000000000000     
  0.46875000000000000       0.87500000000000000        0.0000000000000000     
  0.50000000000000000       0.87500000000000000        0.0000000000000000     
  0.50000000000000000       0.75000000000000000        0.0000000000000000     
  0.53125000000000000       0.75000000000000000        0.0000000000000000     
  0.56250000000000000       0.75000000000000000        0.0000000000000000     
  0.59375000000000000       0.75000000000000000        0.0000000000000000     
  0.62500000000000000       0.75000000000000000        0.0000000000000000     
  0.50000000000000000       0.78125000000000000        0.0000000000000000     
  0.53125000000000000       0.78125000000000000        0.0000000000000000     
  0.56250000000000000       0.78125000000000000        0.0000000000000000     
  0.59375000000000000       0.78125000000000000        0.0000000000000000     
  0.62500000000000000       0.78125000000000000        0.0000000000000000     
  0.50000000000000000       0.81250000000000000        0.0000000000000000     
  0.53125000000000000       0.81250000000000000        0.0000000000000000     
  0.56250000000000000       0.81250000000000000        0.0000000000000000     
  0.59375000000000000       0.81250000000000000        0.0000000000000000     
  0.62500000000000000       0.81250000000000000        0.0000000000000000     
  0.50000000000000000       0.84375000000000000        0.0000000000000000     
  0.53125000000000000       0.84375000000000000        0.0000000000000000     
  0.56250000000000000       0.84375000000000000        0.0000000000000000     
  0.59375000000000000       0.84375000000000000        0.0000000000000000     
  0.62500000000000000       0.84375000000000000        0.0000000000000000     
  0.50000000000000000       0.87500000000000000        0.0000000000000000     
  0.53125000000000000       0.87500000000000000        0.0000000000000000     
  0.56250000000000000       0.87500000000000000        0.0000000000000000     
  0.59375000000000000       0.87500000000000000        0.0000000000000000     
  0.62500000000000000       0.87500000000000000        0.0000000000000000     
  0.62500000000000000       0.75000000000000000        0.0000000000000000     
  0.65625000000000000       0.75000000000000000        0.0000000000000000     
  0.68750000000000000       0.75000000000000000        0.0000000000000000     
  0.71875000000000000       0.75000000000000000        0.0000000000000000     
  0.75000000000000000       0.75000000000000000        0.0000000000000000     
  0.62500000000000000       0.78125000000000000        0.0000000000000000     
  0.65625000000000000       0.78125000000000000        0.0000000000000000     
  0.68750000000000000       0.78125000000000000        0.0000000000000000     
  0.71875000000000000       0.78125000000000000        0.0000000000000000     
  0.75000000000000000       0.78125000000000000        0.0000000000000000     
  0.62500000000000000       0.81250000000000000        0.0000000000000000     
  0.65625000000000000       0.81250000000000000        0.0000000000000000     
  0.68750000000000000       0.81250000000000000        0.0000000000000000     
  0.71875000000000000       0.81250000000000000        0.0000000000000000     
  0.75000000000000000       0.81250000000000000        0.0000000000000000     
  0.62500000000000000       0.84375000000000000        0.0000000000000000     
  0.65625000000000000       0.84375000000000000        0.0000000000000000     
  0.68750000000000000       0.84375000000000000        0.0000000000000000     
  0.71875000000000000       0.84375000000000000        0.0000000000000000     
  0.75000000000000000       0.84375000000000000        0.0000000000000000     
  0.62500000000000000       0.87500000000000000        0.0000000000000000     
  0.65625000000000000       0.87500000000000000        0.0000000000000000     
  0.68750000000000000       0.87500000000000000        0.0000000000000000     
  0.71875000000000000       0.87500000000000000        0.0000000000000000     
  0.75000000000000000       0.87500000000000000        0.0000000000000000     
  0.75000000000000000       0.75000000000000000        0.0000000000000000     
  0.78125000000000000       0.75000000000000000        0.0000000000000000     
  0.81250000000000000       0.75000000000000000        0.0000000000000000     
  0.84375000000000000       0.75000000000000000        0.0000000000000000     
  0.87500000000000000       0.75000000000000000        0.0000000000000000     
  0.75000000000000000       0.78125000000000000        0.0000000000000000     
  0.78125000000000000       0.78125000000000000        0.0000000000000000     
  0.81250000000000000       0.78125000000000000        0.0000000000000000     
  0.84375000000000000       0.78125000000000000        0.0000000000000000     
  0.87500000000000000       0.78125000000000000        0.0000000000000000     
  0.75000000000000000       0.81250000000000000        0.0000000000000000     
  0.78125000000000000       0.81250000000000000        0.0000000000000000     
  0.81250000000000000       0.81250000000000000        0.0000000000000000     
  0.84375000000000000       0.81250000000000000        0.0000000000000000     
  0.87500000000000000       0.81250000000000000        0.0000000000000000     
  0.75000000000000000       0.84375000000000000        0.0000000000000000     
  0.78125000000000000       0.84375000000000000        0.0000000000000000     
  0.81250000000000000       0.84375000000000000        0.0000000000000000     
  0.84375000000000000       0.84375000000000000        0.0000000000000000     
  0.87500000000000000       0.84375000000000000        0.0000000000000000     
  0.75000000000000000       0.87500000000000000        0.0000000000000000     
  0.78125000000000000       0.87500000000000000        0.0000000000000000     
  0.81250000000000000       0.87500000000000000        0.0000000000000000     
  0.84375000000000000       0.87500000000000000        0.0000000000000000     
  0.87500000000000000       0.87500000000000000        0.0000000000000000     
  0.87500000000000000       0.75000000000000000        0.0000000000000000     
  0.90625000000000000       0.75000000000000000        0.0000000000000000     
  0.93750000000000000       0.75000000000000000        0.0000000000000000     
  0.96875000000000000       0.75000000000000000        0.0000000000000000     
   1.0000000000000000       0.75000000000000000        0.0000000000000000     
  0.87500000000000000       0.78125000000000000        0.0000000000000000     
  0.90625000000000000       0.78125000000000000        0.0000000000000000     
  0.93750000000000000       0.78125000000000000        0.0000000000000000     
  0.96875000000000000       0.78125000000000000        0.0000000000000000     
   1.0000000000000000       0.78125000000000000        0.0000000000000000     
  0.87500000000000000       0.81250000000000000        0.0000000000000000     
  0.90625000000000000       0.81250000000000000        0.0000000000000000     
  0.93750000000000000       0.81250000000000000        0.0000000000000000     
  0.96875000000000000       0.81250000000000000        0.0000000000000000     
   1.0000000000000000       0.81250000000000000        0.0000000000000000     
  0.87500000000000000       0.84375000000000000        0.0000000000000000     
  0.90625000000000000       0.84375000000000000        0.0000000000000000     
  0.93750000000000000       0.84375000000000000        0.0000000000000000     
  0.96875000000000000       0.84375000000000000        0.0000000000000000     
   1.0000000000000000       0.84375000000000000        0.0000000000000000     
  0.87500000000000000       0.87500000000000000        0.0000000000000000     
  0.90625000000000000       0.87500000000000000        0.0000000000000000     
  0.93750000000000000       0.87500000000000000        0.0000000000000000     
  0.96875000000000000       0.87500000000000000        0.0000000000000000     
   1.0000000000000000       0.87500000000000000        0.0000000000000000     
   0.0000000000000000       0.87500000000000000        0.0000000000000000     
   3.1250000000000000E-002  0.87500000000000000        0.0000000000000000     
   6.2500000000000000E-002  0.87500000000000000        0.0000000000000000     
   9.3750000000000000E-002  0.87500000000000000        0.0000000000000000     
  0.12500000000000000       0.87500000000000000        0.0000000000000000     
   0.0000000000000000       0.90625000000000000        0.0000000000000000     
   3.1250000000000000E-002  0.90625000000000000        0.0000000000000000     
   6.2500000000000000E-002  0.90625000000000000        0.0000000000000000     
   9.3750000000000000E-002  0.90625000000000000        0.0000000000000000     
  0.12500000000000000       0.90625000000000000        0.0000000000000000     
   0.0000000000000000       0.93750000000000000        0.0000000000000000     
   3.1250000000000000E-002  0.93750000000000000        0.0000000000000000     
   6.2500000000000000E-002  0.93750000000000000        0.0000000000000000     
   9.3750000000000000E-002  0.93750000000000000        0.0000000000000000     
  0.12500000000000000       0.93750000000000000        0.0000000000000000     
   0.0000000000000000       0.96875000000000000        0.0000000000000000     
   3.1250000000000000E-002  0.96875000000000000        0.0000000000000000     
   6.2500000000000000E-002  0.96875000000000000        0.0000000000000000     
   9.3750000000000000E-002  0.96875000000000000        0.0000000000000000     
  0.12500000000000000       0.96875000000000000        0.0000000000000000     
   0.0000000000000000        1.0000000000000000        0.0000000000000000     
   3.1250000000000000E-002   1.0000000000000000        0.0000000000000000     
   6.2500000000000000E-002   1.0000000000000000        0.0000000000000000     
   9.3750000000000000E-002   1.0000000000000000        0.0000000000000000     
  0.12500000000000000        1.0000000000000000        0.0000000000000000     
  0.12500000000000000       0.87500000000000000        0.0000000000000000     
  0.15625000000000000       0.87500000000000000        0.0000000000000000     
  0.18750000000000000       0.87500000000000000        0.0000000000000000     
  0.21875000000000000       0.87500000000000000        0.0000000000000000     
  0.25000000000000000       0.87500000000000000        0.0000000000000000     
  0.12500000000000000       0.90625000000000000        0.0000000000000000     
  0.15625000000000000       0.90625000000000000        0.0000000000000000     
  0.18750000000000000       0.90625000000000000        0.0000000000000000     
  0.21875000000000000       0.90625000000000000        0.0000000000000000     
  0.25000000000000000       0.90625000000000000        0.0000000000000000     
  0.12500000000000000       0.93750000000000000        0.0000000000000000     
  0.15625000000000000       0.93750000000000000        0.0000000000000000     
  0.18750000000000000       0.93750000000000000        0.0000000000000000     
  0.21875000000000000       0.93750000000000000        0.0000000000000000     
  0.25000000000000000       0.93750000000000000        0.0000000000000000     
  0.12500000000000000       0.96875000000000000        0.0000000000000000     
  0.15625000000000000       0.96875000000000000        0.0000000000000000     
  0.18750000000000000       0.96875000000000000        0.0000000000000000     
  0.21875000000000000       0.96875000000000000        0.0000000000000000     
  0.25000000000000000       0.96875000000000000        0.0000000000000000     
  0.12500000000000000        1.0000000000000000        0.0000000000000000     
  0.15625000000000000        1.0000000000000000        0.0000000000000000     
  0.18750000000000000        1.0000000000000000        0.0000000000000000     
  0.21875000000000000        1.0000000000000000        0.0000000000000000     
  0.25000000000000000        1.0000000000000000        0.0000000000000000     
  0.25000000000000000       0.87500000000000000        0.0000000000000000     
  0.28125000000000000       0.87500000000000000        0.0000000000000000     
  0.31250000000000000       0.87500000000000000        0.0000000000000000     
  0.34375000000000000       0.87500000000000000        0.0000000000000000     
  0.37500000000000000       0.87500000000000000        0.0000000000000000     
  0.25000000000000000       0.90625000000000000        0.0000000000000000     
  0.28125000000000000       0.90625000000000000        0.0000000000000000     
  0.31250000000000000       0.90625000000000000        0.0000000000000000     
  0.34375000000000000       0.90625000000000000        0.0000000000000000     
  0.37500000000000000       0.90625000000000000        0.0000000000000000     
  0.25000000000000000       0.93750000000000000        0.0000000000000000     
  0.28125000000000000       0.93750000000000000        0.0000000000000000     
  0.31250000000000000       0.93750000000000000        0.0000000000000000     
  0.34375000000000000       0.93750000000000000        0.0000000000000000     
  0.37500000000000000       0.93750000000000000        0.0000000000000000     
  0.25000000000000000       0.96875000000000000        0.0000000000000000     
  0.28125000000000000       0.96875000000000000        0.0000000000000000     
  0.31250000000000000       0.96875000000000000        0.0000000000000000     
  0.34375000000000000       0.96875000000000000        0.0000000000000000     
  0.37500000000000000       0.96875000000000000        0.0000000000000000     
  0.25000000000000000        1.0000000000000000        0.0000000000000000     
  0.28125000000000000        1.0000000000000000        0.0000000000000000     
  0.31250000000000000        1.0000000000000000        0.0000000000000000     
  0.34375000000000000        1.0000000000000000        0.0000000000000000     
  0.37500000000000000        1.0000000000000000        0.0000000000000000     
  0.37500000000000000       0.87500000000000000        0.0000000000000000     
  0.40625000000000000       0.87500000000000000        0.0000000000000000     
  0.43750000000000000       0.87500000000000000        0.0000000000000000     
  0.46875000000000000       0.87500000000000000        0.0000000000000000     
  0.50000000000000000       0.87500000000000000        0.0000000000000000     
  0.37500000000000000       0.90625000000000000        0.0000000000000000     
  0.40625000000000000       0.90625000000000000        0.0000000000000000     
  0.43750000000000000       0.90625000000000000        0.0000000000000000     
  0.46875000000000000       0.90625000000000000        0.0000000000000000     
  0.50000000000000000       0.90625000000000000        0.0000000000000000     
  0.37500000000000000       0.93750000000000000        0.0000000000000000     
  0.40625000000000000       0.93750000000000000        0.0000000000000000     
  0.43750000000000000       0.93750000000000000        0.0000000000000000     
  0.46875000000000000       0.93750000000000000        0.0000000000000000     
  0.50000000000000000       0.93750000000000000        0.0000000000000000     
  0.37500000000000000       0.96875000000000000        0.0000000000000000     
  0.40625000000000000       0.96875000000000000        0.0000000000000000     
  0.43750000000000000       0.96875000000000000        0.0000000000000000     
  0.46875000000000000       0.96875000000000000        0.0000000000000000     
  0.50000000000000000       0.96875000000000000        0.0000000000000000     
  0.37500000000000000        1.0000000000000000        0.0000000000000000     
  0.40625000000000000        1.0000000000000000        0.0000000000000000     
  0.43750000000000000        1.0000000000000000        0.0000000000000000     
  0.46875000000000000        1.0000000000000000        0.0000000000000000     
  0.50000000000000000        1.0000000000000000        0.0000000000000000     
  0.50000000000000000       0.87500000000000000        0.0000000000000000     
  0.53125000000000000       0.87500000000000000        0.0000000000000000     
  0.56250000000000000       0.87500000000000000        0.0000000000000000     
  0.59375000000000000       0.87500000000000000        0.0000000000000000     
  0.62500000000000000       0.87500000000000000        0.0000000000000000     
  0.50000000000000000       0.90625000000000000        0.0000000000000000     
  0.53125000000000000       0.90625000000000000        0.0000000000000000     
  0.56250000000000000       0.90625000000000000        0.0000000000000000     
  0.59375000000000000       0.90625000000000000        0.0000000000000000     
  0.62500000000000000       0.90625000000000000        0.0000000000000000     
  0.50000000000000000       0.93750000000000000        0.0000000000000000     
  0.53125000000000000       0.93750000000000000        0.0000000000000000     
  0.56250000000000000       0.93750000000000000        0.0000000000000000     
  0.59375000000000000       0.93750000000000000        0.0000000000000000     
  0.62500000000000000       0.93750000000000000        0.0000000000000000     
  0.50000000000000000       0.96875000000000000        0.0000000000000000     
  0.53125000000000000       0.96875000000000000        0.0000000000000000     
  0.56250000000000000       0.96875000000000000        0.0000000000000000     
  0.59375000000000000       0.96875000000000000        0.0000000000000000     
  0.62500000000000000       0.96875000000000000        0.0000000000000000     
  0.50000000000000000        1.0000000000000000        0.0000000000000000     
  0.53125000000000000        1.0000000000000000        0.0000000000000000     
  0.56250000000000000        1.0000000000000000        0.0000000000000000     
  0.59375000000000000        1.0000000000000000        0.0000000000000000     
  0.62500000000000000        1.0000000000000000        0.0000000000000000     
  0.62500000000000000       0.87500000000000000        0.0000000000000000     
  0.65625000000000000       0.87500000000000000        0.0000000000000000     
  0.68750000000000000       0.87500000000000000        0.0000000000000000     
  0.71875000000000000       0.87500000000000000        0.0000000000000000     
  0.75000000000000000       0.87500000000000000        0.0000000000000000     
  0.62500000000000000       0.90625000000000000        0.0000000000000000     
  0.65625000000000000       0.90625000000000000        0.0000000000000000     
  0.68750000000000000       0.90625000000000000        0.0000000000000000     
  0.71875000000000000       0.90625000000000000        0.0000000000000000     
  0.75000000000000000       0.90625000000000000        0.0000000000000000     
  0.62500000000000000       0.93750000000000000        0.0000000000000000     
  0.65625000000000000       0.93750000000000000        0.0000000000000000     
  0.68750000000000000       0.93750000000000000        0.0000000000000000     
  0.71875000000000000       0.93750000000000000        0.0000000000000000     
  0.75000000000000000       0.93750000000000000        0.0000000000000000     
  0.62500000000000000       0.96875000000000000        0.0000000000000000     
  0.65625000000000000       0.96875000000000000        0.0000000000000000     
  0.68750000000000000       0.96875000000000000        0.0000000000000000     
  0.71875000000000000       0.96875000000000000        0.0000000000000000     
  0.75000000000000000       0.96875000000000000        0.0000000000000000     
  0.62500000000000000        1.0000000000000000        0.0000000000000000     
  0.65625000000000000        1.0000000000000000        0.0000000000000000     
  0.68750000000000000        1.0000000000000000        0.0000000000000000     
  0.71875000000000000        1.0000000000000000        0.0000000000000000     
  0.75000000000000000        1.0000000000000000        0.0000000000000000     
  0.75000000000000000       0.87500000000000000        0.0000000000000000     
  0.78125000000000000       0.87500000000000000        0.0000000000000000     
  0.81250000000000000       0.87500000000000000        0.0000000000000000     
  0.84375000000000000       0.87500000000000000        0.0000000000000000     
  0.87500000000000000       0.87500000000000000        0.0000000000000000     
  0.75000000000000000       0.90625000000000000        0.0000000000000000     
  0.78125000000000000       0.90625000000000000        0.0000000000000000     
  0.81250000000000000       0.90625000000000000        0.0000000000000000     
  0.84375000000000000       0.90625000000000000        0.0000000000000000     
  0.87500000000000000       0.90625000000000000        0.0000000000000000     
  0.75000000000000000       0.93750000000000000        0.0000000000000000     
  0.78125000000000000       0.93750000000000000        0.0000000000000000     
  0.81250000000000000       0.93750000000000000        0.0000000000000000     
  0.84375000000000000       0.93750000000000000        0.0000000000000000     
  0.87500000000000000       0.93750000000000000        0.0000000000000000     
  0.75000000000000000       0.96875000000000000        0.0000000000000000     
  0.78125000000000000       0.96875000000000000        0.0000000000000000     
  0.81250000000000000       0.96875000000000000        0.0000000000000000     
  0.84375000000000000       0.96875000000000000        0.0000000000000000     
  0.87500000000000000       0.96875000000000000        0.0000000000000000     
  0.75000000000000000        1.0000000000000000        0.0000000000000000     
  0.78125000000000000        1.0000000000000000        0.0000000000000000     
  0.81250000000000000        1.0000000000000000        0.0000000000000000     
  0.84375000000000000        1.0000000000000000        0.0000000000000000     
  0.87500000000000000        1.0000000000000000        0.0000000000000000     
  0.87500000000000000       0.87500000000000000        0.0000000000000000     
  0.90625000000000000       0.87500000000000000        0.0000000000000000     
  0.93750000000000000       0.87500000000000000        0.0000000000000000     
  0.96875000000000000       0.87500000000000000        0.0000000000000000     
   1.0000000000000000       0.87500000000000000        0.0000000000000000     
  0.87500000000000000       0.90625000000000000        0.0000000000000000     
  0.90625000000000000       0.90625000000000000        0.0000000000000000     
  0.93750000000000000       0.90625000000000000        0.0000000000000000     
  0.96875000000000000       0.90625000000000000        0.0000000000000000     
   1.0000000000000000       0.90625000000000000        0.0000000000000000     
  0.87500000000000000       0.93750000000000000        0.0000000000000000     
  0.90625000000000000       0.93750000000000000        0.0000000000000000     
  0.93750000000000000       0.93750000000000000        0.0000000000000000     
  0.96875000000000000       0.93750000000000000        0.0000000000000000     
   1.0000000000000000       0.93750000000000000        0.0000000000000000     
  0.87500000000000000       0.96875000000000000        0.0000000000000000     
  0.90625000000000000       0.96875000000000000        0.0000000000000000     
  0.93750000000000000       0.96875000000000000        0.0000000000000000     
  0.96875000000000000       0.96875000000000000        0.0000000000000000     
   1.0000000000000000       0.96875000000000000        0.0000000000000000     
  0.87500000000000000        1.0000000000000000        0.0000000000000000     
  0.90625000000000000        1.0000000000000000        0.0000000000000000     
  0.93750000000000000        1.0000000000000000        0.0000000000000000     
  0.96875000000000000        1.0000000000000000        0.0000000000000000     
   1.0000000000000000        1.0000000000000000        0.0000000000000000     
 </DataArray>
 </Points>
 <Cells>
 <DataArray  type="Int32"  Name="connectivity"  format="ascii">
           0           1           6           5
           1           2           7           6
           2           3           8           7
           3           4           9           8
           5           6          11          10
           6           7          12          11
           7           8          13          12
           8           9          14          13
          10          11          16          15
          11          12          17          16
          12          13          18          17
          13          14          19          18
          15          16          21          20
          16          17          22          21
          17          18          23          22
          18          19          24          23
          25          26          31          30
          26          27          32          31
          27          28          33          32
          28          29          34          33
          30          31          36          35
          31          32          37          36
          32          33          38          37
          33          34          39          38
          35          36          41          40
          36          37          42          41
          37          38          43          42
          38          39          44          43
          40          41          46          45
          41          42          47          46
          42          43          48          47
          43          44          49          48
          50          51          56          55
          51          52          57          56
          52          53          58          57
          53          54          59          58
          55          56          61          60
          56          57          62          61
          57          58          63          62
          58          59          64          63
          60          61          66          65
          61          62          67          66
          62          63          68          67
          63          64          69          68
          65          66          71          70
          66          67          72          71
          67          68          73          72
          68          69          74          73
          75          76          81          80
          76          77          82          81
          77          78          83          82
          78          79          84          83
          80          81          86          85
          81          82          87          86
          82          83          88          87
          83          84          89          88
          85          86          91          90
          86          87          92          91
          87          88          93          92
          88          89          94          93
          90          91          96          95
          91          92          97          96
          92          93          98          97
          93          94          99          98
         100         101         106         105
         101         102         107         106
         102         103         108         107
         103         104         109         108
         105         106         111         110
         106         107         112         111
         107         108         113         112
         108         109         114         113
         110         111         116         115
         111         112         117         116
         112         113         118         117
         113         114         119         118
         115         116         121         120
         116         117         122         121
         117         118         123         122
         118         119         124         123
         125         126         131         130
         126         127         132         131
         127         128         133         132
         128         129         134         133
         130         131         136         135
         131         132         137         136
         132         133         138         137
         133         134         139         138
         135         136         141         140
         136         137         142         141
         137         138         143         142
         138         139         144         143
         140         141         146         145
         141         142         147         146
         142         143         148         147
         143         144         149         148
         150         151         156         155
         151         152         157         156
         152         153         158         157
         153         154         159         158
         155         156         161         160
         156         157         162         161
         157         158         163         162
         158         159         164         163
         160         161         166         165
         161         162         167         166
         162         163         168         167
         163         164         169         168
         165         166         171         170
         166         167         172         171
         167         168         173         172
         168         169         174         173
         175         176         181         180
         176         177         182         181
         177         178         183         182
         178         179         184         183
         180         181         186         185
         181         182         187         186
         182         183         188         187
         183         184         189         188
         185         186         191         190
         186         187         192         191
         187         188         193         192
         188         189         194         193
         190         191         196         195
         191         192         197         196
         192         193         198         197
         193         194         199         198
         200         201         206         205
         201         202         207         206
         202         203         208         207
         203         204         209         208
         205         206         211         210
         206         207         212         211
         207         208         213         212
         208         209         214         213
         210         211         216         215
         211         212         217         216
         212         213         218         217
         213         214         219         218
         215         216         221         220
         216         217         222         221
         217         218         223         222
         218         219         224         223
         225         226         231         230
         226         227         232         231
         227         228         233         232
         228         229         234         233
         230         231         236         235
         231         232         237         236
         232         233         238         237
         233         234         239         238
         235         236         241         240
         236         237         242         241
         237         238         243         242
         238         239         244         243
         240         241         246         245
         241         242         247         246
         242         243         248         247
         243         244         249         248
         250         251         256         255
         251         252         257         256
         252         253         258         257
         253         254         259         258
         255         256         261         260
         256         257         262         261
         257         258         263         262
         258         259         264         263
         260         261         266         265
         261         262         267         266
         262         263         268         267
         263         264         269         268
         265         266         271         270
         266         267         272         271
         267         268         273         272
         268         269         274         273
         275         276         281         280
         276         277         282         281
         277         278         283         282
         278         279         284         283
         280         281         286         285
         281         282         287         286
         282         283         288         287
         283         284         289         288
         285         286         291         290
         286         287         292         291
         287         288         293         292
         288         289         294         293
         290         291         296         295
         291         292         297         296
         292         293         298         297
         293         294         299         298
         300         301         306         305
         301         302         307         306
         302         303         308         307
         303         304         309         308
         305         306         311         310
         306         307         312         311
         307         308         313         312
         308         309         314         313
         310         311         316         315
         311         312         317         316
         312         313         318         317
         313         314         319         318
         315         316         321         320
         316         317         322         321
         317         318         323         322
         318         319         324         323
         325         326         331         330
         326         327         332         331
         327         328         333         332
         328         329         334         333
         330         331         336         335
         331         332         337         336
         332         333         338         337
         333         334         339         338
         335         336         341         340
         336         337         342         341
         337         338         343         342
         338         339         344         343
         340         341         346         345
         341         342         347         346
         342         343         348         347
         343         344         349         348
         350         351         356         355
         351         352         357         356
         352         353         358         357
         353         354         359         358
         355         356         361         360
         356         357         362         361
         357         358         363         362
         358         359         364         363
         360         361         366         365
         361         362         367         366
         362         363         368         367
         363         364         369         368
         365         366         371         370
         366         367         372         371
         367         368         373         372
         368         369         374         373
         375         376         381         380
         376         377         382         381
         377         378         383         382
         378         379         384         383
         380         381         386         385
         381         382         387         386
         382         383         388         387
         383         384         389         388
         385         386         391         390
         386         387         392         391
         387         388         393         392
         388         389         394         393
         390         391         396         395
         391         392         397         396
         392         393         398         397
         393         394         399         398
         400         401         406         405
         401         402         407         406
         402         403         408         407
         403         404         409         408
         405         406         411         410
         406         407         412         411
         407         408         413         412
         408         409         414         413
         410         411         416         415
         411         412         417         416
         412         413         418         417
         413         414         419         418
         415         416         421         420
         416         417         422         421
         417         418         423         422
         418         419         424         423
         425         426         431         430
         426         427         432         431
         427         428         433         432
         428         429         434         433
         430         431         436         435
         431         432         437         436
         432         433         438         437
         433         434         439         438
         435         436         441         440
         436         437         442         441
         437         438         443         442
         438         439         444         443
         440         441         446         445
         441         442         447         446
         442         443         448         447
         443         444         449         448
         450         451         456         455
         451         452         457         456
         452         453         458         457
         453         454         459         458
         455         456         461         460
         456         457         462         461
         457         458         463         462
         458         459         464         463
         460         461         466         465
         461         462         467         466
         462         463         468         467
         463         464         469         468
         465         466         471         470
         466         467         472         471
         467         468         473         472
         468         469         474         473
         475         476         481         480
         476         477         482         481
         477         478         483         482
         478         479         484         483
         480         481         486         485
         481         482         487         486
         482         483         488         487
         483         484         489         488
         485         486         491         490
         486         487         492         491
         487         488         493         492
         488         489         494         493
         490         491         496         495
         491         492         497         496
         492         493         498         497
         493         494         499         498
         500         501         506         505
         501         502         507         506
         502         503         508         507
         503         504         509         508
         505         506         511         510
         506         507         512         511
         507         508         513         512
         508         509         514         513
         510         511         516         515
         511         512         517         516
         512         513         518         517
         513         514         519         518
         515         516         521         520
         516         517         522         521
         517         518         523         522
         518         519         524         523
         525         526         531         530
         526         527         532         531
         527         528         533         532
         528         529         534         533
         530         531         536         535
         531         532         537         536
         532         533         538         537
         533         534         539         538
         535         536         541         540
         536         537         542         541
         537         538         543         542
         538         539         544         543
         540         541         546         545
         541         542         547         546
         542         543         548         547
         543         544         549         548
         550         551         556         555
         551         552         557         556
         552         553         558         557
         553         554         559         558
         555         556         561         560
         556         557         562         561
         557         558         563         562
         558         559         564         563
         560         561         566         565
         561         562         567         566
         562         563         568         567
         563         564         569         568
         565         566         571         570
         566         567         572         571
         567         568         573         572
         568         569         574         573
         575         576         581         580
         576         577         582         581
         577         578         583         582
         578         579         584         583
         580         581         586         585
         581         582         587         586
         582         583         588         587
         583         584         589         588
         585         586         591         590
         586         587         592         591
         587         588         593         592
         588         589         594         593
         590         591         596         595
         591         592         597         596
         592         593         598         597
         593         594         599         598
         600         601         606         605
         601         602         607         606
         602         603         608         607
         603         604         609         608
         605         606         611         610
         606         607         612         611
         607         608         613         612
         608         609         614         613
         610         611         616         615
         611         612         617         616
         612         613         618         617
         613         614         619         618
         615         616         621         620
         616         617         622         621
         617         618         623         622
         618         619         624         623
         625         626         631         630
         626         627         632         631
         627         628         633         632
         628         629         634         633
         630         631         636         635
         631         632         637         636
         632         633         638         637
         633         634         639         638
         635         636         641         640
         636         637         642         641
         637         638         643         642
         638         639         644         643
         640         641         646         645
         641         642         647         646
         642         643         648         647
         643         644         649         648
         650         651         656         655
         651         652         657         656
         652         653         658         657
         653         654         659         658
         655         656         661         660
         656         657         662         661
         657         658         663         662
         658         659         664         663
         660         661         666         665
         661         662         667         666
         662         663         668         667
         663         664         669         668
         665         666         671         670
         666         667         672         671
         667         668         673         672
         668         669         674         673
         675         676         681         680
         676         677         682         681
         677         678         683         682
         678         679         684         683
         680         681         686         685
         681         682         687         686
         682         683         688         687
         683         684         689         688
         685         686         691         690
         686         687         692         691
         687         688         693         692
         688         689         694         693
         690         691         696         695
         691         692         697         696
         692         693         698         697
         693         694         699         698
         700         701         706         705
         701         702         707         706
         702         703         708         707
         703         704         709         708
         705         706         711         710
         706         707         712         711
         707         708         713         712
         708         709         714         713
         710         711         716         715
         711         712         717         716
         712         713         718         717
         713         714         719         718
         715         716         721         720
         716         717         722         721
         717         718         723         722
         718         719         724         723
         725         726         731         730
         726         727         732         731
         727         728         733         732
         728         729         734         733
         730         731         736         735
         731         732         737         736
         732         733         738         737
         733         734         739         738
         735         736         741         740
         736         737         742         741
         737         738         743         742
         738         739         744         743
         740         741         746         745
         741         742         747         746
         742         743         748         747
         743         744         749         748
         750         751         756         755
         751         752         757         756
         752         753         758         757
         753         754         759         758
         755         756         761         760
         756         757         762         761
         757         758         763         762
         758         759         764         763
         760         761         766         765
         761         762         767         766
         762         763         768         767
         763         764         769         768
         765         766         771         770
         766         767         772         771
         767         768         773         772
         768         769         774         773
         775         776         781         780
         776         777         782         781
         777         778         783         782
         778         779         784         783
         780         781         786         785
         781         782         787         786
         782         783         788         787
         783         784         789         788
         785         786         791         790
         786         787         792         791
         787         788         793         792
         788         789         794         793
         790         791         796         795
         791         792         797         796
         792         793         798         797
         793         794         799         798
         800         801         806         805
         801         802         807         806
         802         803         808         807
         803         804         809         808
         805         806         811         810
         806         807         812         811
         807         808         813         812
         808         809         814         813
         810         811         816         815
         811         812         817         816
         812         813         818         817
         813         814         819         818
         815         816         821         820
         816         817         822         821
         817         818         823         822
         818         819         824         823
         825         826         831         830
         826         827         832         831
         827         828         833         832
         828         829         834         833
         830         831         836         835
         831         832         837         836
         832         833         838         837
         833         834         839         838
         835         836         841         840
         836         837         842         841
         837         838         843         842
         838         839         844         843
         840         841         846         845
         841         842         847         846
         842         843         848         847
         843         844         849         848
         850         851         856         855
         851         852         857         856
         852         853         858         857
         853         854         859         858
         855         856         861         860
         856         857         862         861
         857         858         863         862
         858         859         864         863
         860         861         866         865
         861         862         867         866
         862         863         868         867
         863         864         869         868
         865         866         871         870
         866         867         872         871
         867         868         873         872
         868         869         874         873
         875         876         881         880
         876         877         882         881
         877         878         883         882
         878         879         884         883
         880         881         886         885
         881         882         887         886
         882         883         888         887
         883         884         889         888
         885         886         891         890
         886         887         892         891
         887         888         893         892
         888         889         894         893
         890         891         896         895
         891         892         897         896
         892         893         898         897
         893         894         899         898
         900         901         906         905
         901         902         907         906
         902         903         908         907
         903         904         909         908
         905         906         911         910
         906         907         912         911
         907         908         913         912
         908         909         914         913
         910         911         916         915
         911         912         917         916
         912         913         918         917
         913         914         919         918
         915         916         921         920
         916         917         922         921
         917         918         923         922
         918         919         924         923
         925         926         931         930
         926         927         932         931
         927         928         933         932
         928         929         934         933
         930         931         936         935
         931         932         937         936
         932         933         938         937
         933         934         939         938
         935         936         941         940
         936         937         942         941
         937         938         943         942
         938         939         944         943
         940         941         946         945
         941         942         947         946
         942         943         948         947
         943         944         949         948
         950         951         956         955
         951         952         957         956
         952         953         958         957
         953         954         959         958
         955         956         961         960
         956         957         962         961
         957         958         963         962
         958         959         964         963
         960         961         966         965
         961         962         967         966
         962         963         968         967
         963         964         969         968
         965         966         971         970
         966         967         972         971
         967         968         973         972
         968         969         974         973
         975         976         981         980
         976         977         982         981
         977         978         983         982
         978         979         984         983
         980         981         986         985
         981         982         987         986
         982         983         988         987
         983         984         989         988
         985         986         991         990
         986         987         992         991
         987         988         993         992
         988         989         994         993
         990         991         996         995
         991         992         997         996
         992         993         998         997
         993         994         999         998
        1000        1001        1006        1005
        1001        1002        1007        1006
        1002        1003        1008        1007
        1003        1004        1009        1008
        1005        1006        1011        1010
        1006        1007        1012        1011
        1007        1008        1013        1012
        1008        1009        1014        1013
        1010        1011        1016        1015
        1011        1012        1017        1016
        1012        1013        1018        1017
        1013        1014        1019        1018
        1015        1016        1021        1020
        1016        1017        1022        1021
        1017        1018        1023        1022
        1018        1019        1024        1023
        1025        1026        1031        1030
        1026        1027        1032        1031
        1027        1028        1033        1032
        1028        1029        1034        1033
        1030        1031        1036        1035
        1031        1032        1037        1036
        1032        1033        1038        1037
        1033        1034        1039        1038
        1035        1036        1041        1040
        1036        1037        1042        1041
        1037        1038        1043        1042
        1038        1039        1044        1043
        1040        1041        1046        1045
        1041        1042        1047        1046
        1042        1043        1048        1047
        1043        1044        1049        1048
        1050        1051        1056        1055
        1051        1052        1057        1056
        1052        1053        1058        1057
        1053        1054        1059        1058
        1055        1056        1061        1060
        1056        1057        1062        1061
        1057        1058        1063        1062
        1058        1059        1064        1063
        1060        1061        1066        1065
        1061        1062        1067        1066
        1062        1063        1068        1067
        1063        1064        1069        1068
        1065        1066        1071        1070
        1066        1067        1072        1071
        1067        1068        1073        1072
        1068        1069        1074        1073
        1075        1076        1081        1080
        1076        1077        1082        1081
        1077        1078        1083        1082
        1078        1079        1084        1083
        1080        1081        1086        1085
        1081        1082        1087        1086
        1082        1083        1088        1087
        1083        1084        1089        1088
        1085        1086        1091        1090
        1086        1087        1092        1091
        1087        1088        1093        1092
        1088        1089        1094        1093
        1090        1091        1096        1095
        1091        1092        1097        1096
        1092        1093        1098        1097
        1093        1094        1099        1098
        1100        1101        1106        1105
        1101        1102        1107        1106
        1102        1103        1108        1107
        1103        1104        1109        1108
        1105        1106        1111        1110
        1106        1107        1112        1111
        1107        1108        1113        1112
        1108        1109        1114        1113
        1110        1111        1116        1115
        1111        1112        1117        1116
        1112        1113        1118        1117
        1113        1114        1119        1118
        1115        1116        1121        1120
        1116        1117        1122        1121
        1117        1118        1123        1122
        1118        1119        1124        1123
        1125        1126        1131        1130
        1126        1127        1132        1131
        1127        1128        1133        1132
        1128        1129        1134        1133
        1130        1131        1136        1135
        1131        1132        1137        1136
        1132        1133        1138        1137
        1133        1134        1139        1138
        1135        1136        1141        1140
        1136        1137        1142        1141
        1137        1138        1143        1142
        1138        1139        1144        1143
        1140        1141        1146        1145
        1141        1142        1147        1146
        1142        1143        1148        1147
        1143        1144        1149        1148
        1150        1151        1156        1155
        1151        1152        1157        1156
        1152        1153        1158        1157
        1153        1154        1159        1158
        1155        1156        1161        1160
        1156        1157        1162        1161
        1157        1158        1163        1162
        1158        1159        1164        1163
        1160        1161        1166        1165
        1161        1162        1167        1166
        1162        1163        1168        1167
        1163        1164        1169        1168
        1165        1166        1171        1170
        1166        1167        1172        1171
        1167        1168        1173        1172
        1168        1169        1174        1173
        1175        1176        1181        1180
        1176        1177        1182        1181
        1177        1178        1183        1182
        1178        1179        1184        1183
        1180        1181        1186        1185
        1181        1182        1187        1186
        1182        1183        1188        1187
        1183        1184        1189        1188
        1185        1186        1191        1190
        1186        1187        1192        1191
        1187        1188        1193        1192
        1188        1189        1194        1193
        1190        1191        1196        1195
        1191        1192        1197        1196
        1192        1193        1198        1197
        1193        1194        1199        1198
        1200        1201        1206        1205
        1201        1202        1207        1206
        1202        1203        1208        1207
        1203        1204        1209        1208
        1205        1206        1211        1210
        1206        1207        1212        1211
        1207        1208        1213        1212
        1208        1209        1214        1213
        1210        1211        1216        1215
        1211        1212        1217        1216
        1212        1213        1218        1217
        1213        1214        1219        1218
        1215        1216        1221        1220
        1216        1217        1222        1221
        1217        1218        1223        1222
        1218        1219        1224        1223
        1225        1226        1231        1230
        1226        1227        1232        1231
        1227        1228        1233        1232
        1228        1229        1234        1233
        1230        1231        1236        1235
        1231        1232        1237        1236
        1232        1233        1238        1237
        1233        1234        1239        1238
        1235        1236        1241        1240
        1236        1237        1242        1241
        1237        1238        1243        1242
        1238        1239        1244        1243
        1240        1241        1246        1245
        1241        1242        1247        1246
        1242        1243        1248        1247
        1243        1244        1249        1248
        1250        1251        1256        1255
        1251        1252        1257        1256
        1252        1253        1258        1257
        1253        1254        1259        1258
        1255        1256        1261        1260
        1256        1257        1262        1261
        1257        1258        1263        1262
        1258        1259        1264        1263
        1260        1261        1266        1265
        1261        1262        1267        1266
        1262        1263        1268        1267
        1263        1264        1269        1268
        1265        1266        1271        1270
        1266        1267        1272        1271
        1267        1268        1273        1272
        1268        1269        1274        1273
        1275        1276        1281        1280
        1276        1277        1282        1281
        1277        1278        1283        1282
        1278        1279        1284        1283
        1280        1281        1286        1285
        1281        1282        1287        1286
        1282        1283        1288        1287
        1283        1284        1289        1288
        1285        1286        1291        1290
        1286        1287        1292        1291
        1287        1288        1293        1292
        1288        1289        1294        1293
        1290        1291        1296        1295
        1291        1292        1297        1296
        1292        1293        1298        1297
        1293        1294        1299        1298
        1300        1301        1306        1305
        1301        1302        1307        1306
        1302        1303        1308        1307
        1303        1304        1309        1308
        1305        1306        1311        1310
        1306        1307        1312        1311
        1307        1308        1313        1312
        1308        1309        1314        1313
        1310        1311        1316        1315
        1311        1312        1317        1316
        1312        1313        1318        1317
        1313        1314        1319        1318
        1315        1316        1321        1320
        1316        1317        1322        1321
        1317        1318        1323        1322
        1318        1319        1324        1323
        1325        1326        1331        1330
        1326        1327        1332        1331
        1327        1328        1333        1332
        1328        1329        1334        1333
        1330        1331        1336        1335
        1331        1332        1337        1336
        1332        1333        1338        1337
        1333        1334        1339        1338
        1335        1336        1341        1340
        1336        1337        1342        1341
        1337        1338        1343        1342
        1338        1339        1344        1343
        1340        1341        1346        1345
        1341        1342        1347        1346
        1342        1343        1348        1347
        1343        1344        1349        1348
        1350        1351        1356        1355
        1351        1352        1357        1356
        1352        1353        1358        1357
        1353        1354        1359        1358
        1355        1356        1361        1360
        1356        1357        1362        1361
        1357        1358        1363        1362
        1358        1359        1364        1363
        1360        1361        1366        1365
        1361        1362        1367        1366
        1362        1363        1368        1367
        1363        1364        1369        1368
        1365        1366        1371        1370
        1366        1367        1372        1371
        1367        1368        1373        1372
        1368        1369        1374        1373
        1375        1376        1381        1380
        1376        1377        1382        1381
        1377        1378        1383        1382
        1378        1379        1384        1383
        1380        1381        1386        1385
        1381        1382        1387        1386
        1382        1383        1388        1387
        1383        1384        1389        1388
        1385        1386        1391        1390
        1386        1387        1392        1391
        1387        1388        1393        1392
        1388        1389        1394        1393
        1390        1391        1396        1395
        1391        1392        1397        1396
        1392        1393        1398        1397
        1393        1394        1399        1398
        1400        1401        1406        1405
        1401        1402        1407        1406
        1402        1403        1408        1407
        1403        1404        1409        1408
        1405        1406        1411        1410
        1406        1407        1412        1411
        1407        1408        1413        1412
        1408        1409        1414        1413
        1410        1411        1416        1415
        1411        1412        1417        1416
        1412        1413        1418        1417
        1413        1414        1419        1418
        1415        1416        1421        1420
        1416        1417        1422        1421
        1417        1418        1423        1422
        1418        1419        1424        1423
        1425        1426        1431        1430
        1426        1427        1432        1431
        1427        1428        1433        1432
        1428        1429        1434        1433
        1430        1431        1436        1435
        1431        1432        1437        1436
        1432        1433        1438        1437
        1433        1434        1439        1438
        1435        1436        1441        1440
        1436        1437        1442        1441
        1437        1438        1443        1442
        1438        1439        1444        1443
        1440        1441        1446        1445
        1441        1442        1447        1446
        1442        1443        1448        1447
        1443        1444        1449        1448
        1450        1451        1456        1455
        1451        1452        1457        1456
        1452        1453        1458        1457
        1453        1454        1459        1458
        1455        1456        1461        1460
        1456        1457        1462        1461
        1457        1458        1463        1462
        1458        1459        1464        1463
        1460        1461        1466        1465
        1461        1462        1467        1466
        1462        1463        1468        1467
        1463        1464        1469        1468
        1465        1466        1471        1470
        1466        1467        1472        1471
        1467        1468        1473        1472
        1468        1469        1474        1473
        1475        1476        1481        1480
        1476        1477        1482        1481
        1477        1478        1483        1482
        1478        1479        1484        1483
        1480        1481        1486        1485
        1481        1482        1487        1486
        1482        1483        1488        1487
        1483        1484        1489        1488
        1485        1486        1491        1490
        1486        1487        1492        1491
        1487        1488        1493        1492
        1488        1489        1494        1493
        1490        1491        1496        1495
        1491        1492        1497        1496
        1492        1493        1498        1497
        1493        1494        1499        1498
        1500        1501        1506        1505
        1501        1502        1507        1506
        1502        1503        1508        1507
        1503        1504        1509        1508
        1505        1506        1511        1510
        1506        1507        1512        1511
        1507        1508        1513        1512
        1508        1509        1514        1513
        1510        1511        1516        1515
        1511        1512        1517        1516
        1512        1513        1518        1517
        1513        1514        1519        1518
        1515        1516        1521        1520
        1516        1517        1522        1521
        1517        1518        1523        1522
        1518        1519        1524        1523
        1525        1526        1531        1530
        1526        1527        1532        1531
        1527        1528        1533        1532
        1528        1529        1534        1533
        1530        1531        1536        1535
        1531        1532        1537        1536
        1532        1533        1538        1537
        1533        1534        1539        1538
        1535        1536        1541        1540
        1536        1537        1542        1541
        1537        1538        1543        1542
        1538        1539        1544        1543
        1540        1541        1546        1545
        1541        1542        1547        1546
        1542        1543        1548        1547
        1543        1544        1549        1548
        1550        1551        1556        1555
        1551        1552        1557        1556
        1552        1553        1558        1557
        1553        1554        1559        1558
        1555        1556        1561        1560
        1556        1557        1562        1561
        1557        1558        1563        1562
        1558        1559        1564        1563
        1560        1561        1566        1565
        1561        1562        1567        1566
        1562        1563        1568        1567
        1563        1564        1569        1568
        1565        1566        1571        1570
        1566        1567        1572        1571
        1567        1568        1573        1572
        1568        1569        1574        1573
        1575        1576        1581        1580
        1576        1577        1582        1581
        1577        1578        1583        1582
        1578        1579        1584        1583
        1580        1581        1586        1585
        1581        1582        1587        1586
        1582        1583        1588        1587
        1583        1584        1589        1588
        1585        1586        1591        1590
        1586        1587        1592        1591
        1587        1588        1593        1592
        1588        1589        1594        1593
        1590        1591        1596        1595
        1591        1592        1597        1596
        1592        1593        1598        1597
        1593        1594        1599        1598
 </DataArray>
 <DataArray  type="Int32"  Name="offsets"  format="ascii"> 
           4
           8
          12
          16
          20
          24
          28
          32
          36
          40
          44
          48
          52
          56
          60
          64
          68
          72
          76
          80
          84
          88
          92
          96
         100
         104
         108
         112
         116
         120
         124
         128
         132
         136
         140
         144
         148
         152
         156
         160
         164
         168
         172
         176
         180
         184
         188
         192
         196
         200
         204
         208
         212
         216
         220
         224
         228
         232
         236
         240
         244
         248
         252
         256
         260
         264
         268
         272
         276
         280
         284
         288
         292
         296
         300
         304
         308
         312
         316
         320
         324
         328
         332
         336
         340
         344
         348
         352
         356
         360
         364
         368
         372
         376
         380
         384
         388
         392
         396
         400
         404
         408
         412
         416
         420
         424
         428
         432
         436
         440
         444
         448
         452
         456
         460
         464
         468
         472
         476
         480
         484
         488
         492
         496
         500
         504
         508
         512
         516
         520
         524
         528
         532
         536
         540
         544
         548
         552
         556
         560
         564
         568
         572
         576
         580
         584
         588
         592
         596
         600
         604
         608
         612
         616
         620
         624
         628
         632
         636
         640
         644
         648
         652
         656
         660
         664
         668
         672
         676
         680
         684
         688
         692
         696
         700
         704
         708
         712
         716
         720
         724
         728
         732
         736
         740
         744
         748
         752
         756
         760
         764
         768
         772
         776
         780
         784
         788
         792
         796
         800
         804
         808
         812
         816
         820
         824
         828
         832
         836
         840
         844
         848
         852
         856
         860
         864
         868
         872
         876
         880
         884
         888
         892
         896
         900
         904
         908
         912
         916
         920
         924
         928
         932
         936
         940
         944
         948
         952
         956
         960
         964
         968
         972
         976
         980
         984
         988
         992
         996
        1000
        1004
        1008
        1012
        1016
        1020
        1024
        1028
        1032
        1036
        1040
        1044
        1048
        1052
        1056
        1060
        1064
        1068
        1072
        1076
        1080
        1084
        1088
        1092
        1096
        1100
        1104
        1108
        1112
        1116
        1120
        1124
        1128
        1132
        1136
        1140
        1144
        1148
        1152
        1156
        1160
        1164
        1168
        1172
        1176
        1180
        1184
        1188
        1192
        1196
        1200
        1204
        1208
        1212
        1216
        1220
        1224
        1228
        1232
        1236
        1240
        1244
        1248
        1252
        1256
        1260
        1264
        1268
        1272
        1276
        1280
        1284
        1288
        1292
        1296
        1300
        1304
        1308
        1312
        1316
        1320
        1324
        1328
        1332
        1336
        1340
        1344
        1348
        1352
        1356
        1360
        1364
        1368
        1372
        1376
        1380
        1384
        1388
        1392
        1396
        1400
        1404
        1408
        1412
        1416
        1420
        1424
        1428
        1432
        1436
        1440
        1444
        1448
        1452
        1456
        1460
        1464
        1468
        1472
        1476
        1480
        1484
        1488
        1492
        1496
        1500
        1504
        1508
        1512
        1516
        1520
        1524
        1528
        1532
        1536
        1540
        1544
        1548
        1552
        1556
        1560
        1564
        1568
        1572
        1576
        1580
        1584
        1588
        1592
        1596
        1600
        1604
        1608
        1612
        1616
        1620
        1624
        1628
        1632
        1636
        1640
        1644
        1648
        1652
        1656
        1660
        1664
        1668
        1672
        1676
        1680
        1684
        1688
        1692
        1696
        1700
        1704
        1708
        1712
        1716
        1720
        1724
        1728
        1732
        1736
        1740
        1744
        1748
        1752
        1756
        1760
        1764
        1768
        1772
        1776
        1780
        1784
        1788
        1792
        1796
        1800
        1804
        1808
        1812
        1816
        1820
        1824
        1828
        1832
        1836
        1840
        1844
        1848
        1852
        1856
        1860
        1864
        1868
        1872
        1876
        1880
        1884
        1888
        1892
        1896
        1900
        1904
        1908
        1912
        1916
        1920
        1924
        1928
        1932
        1936
        1940
        1944
        1948
        1952
        1956
        1960
        1964
        1968
        1972
        1976
        1980
        1984
        1988
        1992
        1996
        2000
        2004
        2008
        2012
        2016
        2020
        2024
        2028
        2032
        2036
        2040
        2044
        2048
        2052
        2056
        2060
        2064
        2068
        2072
        2076
        2080
        2084
        2088
        2092
        2096
        2100
        2104
        2108
        2112
        2116
        2120
        2124
        2128
        2132
        2136
        2140
        2144
        2148
        2152
        2156
        2160
        2164
        2168
        2172
        2176
        2180
        2184
        2188
        2192
        2196
        2200
        2204
        2208
        2212
        2216
        2220
        2224
        2228
        2232
        2236
        2240
        2244
        2248
        2252
        2256
        2260
        2264
        2268
        2272
        2276
        2280
        2284
        2288
        2292
        2296
        2300
        2304
        2308
        2312
        2316
        2320
        2324
        2328
        2332
        2336
        2340
        2344
        2348
        2352
        2356
        2360
        2364
        2368
        2372
        2376
        2380
        2384
        2388
        2392
        2396
        2400
        2404
        2408
        2412
        2416
        2420
        2424
        2428
        2432
        2436
        2440
        2444
        2448
        2452
        2456
        2460
        2464
        2468
        2472
        2476
        2480
        2484
        2488
        2492
        2496
        2500
        2504
        2508
        2512
        2516
        2520
        2524
        2528
        2532
        2536
        2540
        2544
        2548
        2552
        2556
        2560
        2564
        2568
        2572
        2576
        2580
        2584
        2588
        2592
        2596
        2600
        2604
        2608
        2612
        2616
        2620
        2624
        2628
        2632
        2636
        2640
        2644
        2648
        2652
        2656
        2660
        2664
        2668
        2672
        2676
        2680
        2684
        2688
        2692
        2696
        2700
        2704
        2708
        2712
        2716
        2720
        2724
        2728
        2732
        2736
        2740
        2744
        2748
        2752
        2756
        2760
        2764
        2768
        2772
        2776
        2780
        2784
        2788
        2792
        2796
        2800
        2804
        2808
        2812
        2816
        2820
        2824
        2828
        2832
        2836
        2840
        2844
        2848
        2852
        2856
        2860
        2864
        2868
        2872
        2876
        2880
        2884
        2888
        2892
        2896
        2900
        2904
        2908
        2912
        2916
        2920
        2924
        2928
        2932
        2936
        2940
        2944
        2948
        2952
        2956
        2960
        2964
        2968
        2972
        2976
        2980
        2984
        2988
        2992
        2996
        3000
        3004
        3008
        3012
        3016
        3020
        3024
        3028
        3032
        3036
        3040
        3044
        3048
        3052
        3056
        3060
        3064
        3068
        3072
        3076
        3080
        3084
        3088
        3092
        3096
        3100
        3104
        3108
        3112
        3116
        3120
        3124
        3128
        3132
        3136
        3140
        3144
        3148
        3152
        3156
        3160
        3164
        3168
        3172
        3176
        3180
        3184
        3188
        3192
        3196
        3200
        3204
        3208
        3212
        3216
        3220
        3224
        3228
        3232
        3236
        3240
        3244
        3248
        3252
        3256
        3260
        3264
        3268
        3272
        3276
        3280
        3284
        3288
        3292
        3296
        3300
        3304
        3308
        3312
        3316
        3320
        3324
        3328
        3332
        3336
        3340
        3344
        3348
        3352
        3356
        3360
        3364
        3368
        3372
        3376
        3380
        3384
        3388
        3392
        3396
        3400
        3404
        3408
        3412
        3416
        3420
        3424
        3428
        3432
        3436
        3440
        3444
        3448
        3452
        3456
        3460
        3464
        3468
        3472
        3476
        3480
        3484
        3488
        3492
        3496
        3500
        3504
        3508
        3512
        3516
        3520
        3524
        3528
        3532
        3536
        3540
        3544
        3548
        3552
        3556
        3560
        3564
        3568
        3572
        3576
        3580
        3584
        3588
        3592
        3596
        3600
        3604
        3608
        3612
        3616
        3620
        3624
        3628
        3632
        3636
        3640
        3644
        3648
        3652
        3656
        3660
        3664
        3668
        3672
        3676
        3680
        3684
        3688
        3692
        3696
        3700
        3704
        3708
        3712
        3716
        3720
        3724
        3728
        3732
        3736
        3740
        3744
        3748
        3752
        3756
        3760
        3764
        3768
        3772
        3776
        3780
        3784
        3788
        3792
        3796
        3800
        3804
        3808
        3812
        3816
        3820
        3824
        3828
        3832
        3836
        3840
        3844
        3848
        3852
        3856
        3860
        3864
        3868
        3872
        3876
        3880
        3884
        3888
        3892
        3896
        3900
        3904
        3908
        3912
        3916
        3920
        3924
        3928
        3932
        3936
        3940
        3944
        3948
        3952
        3956
        3960
        3964
        3968
        3972
        3976
        3980
        3984
        3988
        3992
        3996
        4000
        4004
        4008
        4012
        4016
        4020
        4024
        4028
        4032
        4036
        4040
        4044
        4048
        4052
        4056
        4060
        4064
        4068
        4072
        4076
        4080
        4084
        4088
        4092
        4096
 </DataArray>
 <DataArray  type="UInt8"  Name="types"  format="ascii">
 9
 9
 9
 9
 9
 9
 9
 9
 9
 9
 9
 9
 9
 9
 9
 9
 9
 9
 9
 9
 9
 9
 9
 9
 9
 9
 9
 9
 9
 9
 9
 9
 9
 9
 9
 9
 9
 9
 9
 9
 9
 9
 9
 9
 9
 9
 9
 9
 9
 9
 9
 9
 9
 9
 9
 9
 9
 9
 9
 9
 9
 9
 9
 9
 9
 9
 9
 9
 9
 9
 9
 9
 9
 9
 9
 9
 9
 9
 9
 9
 9
 9
 9
 9
 9
 9
 9
 9
 9
 9
 9
 9
 9
 9
 9
 9
 9
 9
 9
 9
 9
 9
 9
 9
 9
 9
 9
 9
 9
 9
 9
 9
 9
 9
 9
 9
 9
 9
 9
 9
 9
 9
 9
 9
 9
 9
 9
 9
 9
 9
 9
 9
 9
 9
 9
 9
 9
 9
 9
 9
 9
 9
 9
 9
 9
 9
 9
 9
 9
 9
 9
 9
 9
 9
 9
 9
 9
 9
 9
 9
 9
 9
 9
 9
 9
 9
 9
 9
 9
 9
 9
 9
 9
 9
 9
 9
 9
 9
 9
 9
 9
 9
 9
 9
 9
 9
 9
 9
 9
 9
 9
 9
 9
 9
 9
 9
 9
 9
 9
 9
 9
 9
 9
 9
 9
 9
 9
 9
 9
 9
 9
 9
 9
 9
 9
 9
 9
 9
 9
 9
 9
 9
 9
 9
 9
 9
 9
 9
 9
 9
 9
 9
 9
 9
 9
 9
 9
 9
 9
 9
 9
 9
 9
 9
 9
 9
 9
 9
 9
 9
 9
 9
 9
 9
 9
 9
 9
 9
 9
 9
 9
 9
 9
 9
 9
 9
 9
 9
 9
 9
 9
 9
 9
 9
 9
 9
 9
 9
 9
 9
 9
 9
 9
 9
 9
 9
 9
 9
 9
 9
 9
 9
 9
 9
 9
 9
 9
 9
 9
 9
 9
 9
 9
 9
 9
 9
 9
 9
 9
 9
 9
 9
 9
 9
 9
 9
 9
 9
 9
 9
 9
 9
 9
 9
 9
 9
 9
 9
 9
 9
 9
 9
 9
 9
 9
 9
 9
 9
 9
 9
 9
 9
 9
 9
 9
 9
 9
 9
 9
 9
 9
 9
 9
 9
 9
 9
 9
 9
 9
 9
 9
 9
 9
 9
 9
 9
 9
 9
 9
 9
 9
 9
 9
 9
 9
 9
 9
 9
 9
 9
 9
 9
 9
 9
 9
 9
 9
 9
 9
 9
 9
 9
 9
 9
 9
 9
 9
 9
 9
 9
 9
 9
 9
 9
 9
 9
 9
 9
 9
 9
 9
 9
 9
 9
 9
 9
 9
 9
 9
 9
 9
 9
 9
 9
 9
 9
 9
 9
 9
 9
 9
 9
 9
 9
 9
 9
 9
 9
 9
 9
 9
 9
 9
 9
 9
 9
 9
 9
 9
 9
 9
 9
 9
 9
 9
 9
 9
 9
 9
 9
 9
 9
 9
 9
 9
 9
 9
 9
 9
 9
 9
 9
 9
 9
 9
 9
 9
 9
 9
 9
 9
 9
 9
 9
 9
 9
 9
 9
 9
 9
 9
 9
 9
 9
 9
 9
 9
 9
 9
 9
 9
 9
 9
 9
 9
 9
 9
 9
 9
 9
 9
 9
 9
 9
 9
 9
 9
 9
 9
 9
 9
 9
 9
 9
 9
 9
 9
 9
 9
 9
 9
 9
 9
 9
 9
 9
 9
 9
 9
 9
 9
 9
 9
 9
 9
 9
 9
 9
 9
 9
 9
 9
 9
 9
 9
 9
 9
 9
 9
 9
 9
 9
 9
 9
 9
 9
 9
 9
 9
 9
 9
 9
 9
 9
 9
 9
 9
 9
 9
 9
 9
 9
 9
 9
 9
 9
 9
 9
 9
 9
 9
 9
 9
 9
 9
 9
 9
 9
 9
 9
 9
 9
 9
 9
 9
 9
 9
 9
 9
 9
 9
 9
 9
 9
 9
 9
 9
 9
 9
 9
 9
 9
 9
 9
 9
 9
 9
 9
 9
 9
 9
 9
 9
 9
 9
 9
 9
 9
 9
 9
 9
 9
 9
 9
 9
 9
 9
 9
 9
 9
 9
 9
 9
 9
 9
 9
 9
 9
 9
 9
 9
 9
 9
 9
 9
 9
 9
 9
 9
 9
 9
 9
 9
 9
 9
 9
 9
 9
 9
 9
 9
 9
 9
 9
 9
 9
 9
 9
 9
 9
 9
 9
 9
 9
 9
 9
 9
 9
 9
 9
 9
 9
 9
 9
 9
 9
 9
 9
 9
 9
 9
 9
 9
 9
 9
 9
 9
 9
 9
 9
 9
 9
 9
 9
 9
 9
 9
 9
 9
 9
 9
 9
 9
 9
 9
 9
 9
 9
 9
 9
 9
 9
 9
 9
 9
 9
 9
 9
 9
 9
 9
 9
 9
 9
 9
 9
 9
 9
 9
 9
 9
 9
 9
 9
 9
 9
 9
 9
 9
 9
 9
 9
 9
 9
 9
 9
 9
 9
 9
 9
 9
 9
 9
 9
 9
 9
 9
 9
 9
 9
 9
 9
 9
 9
 9
 9
 9
 9
 9
 9
 9
 9
 9
 9
 9
 9
 9
 9
 9
 9
 9
 9
 9
 9
 9
 9
 9
 9
 9
 9
 9
 9
 9
 9
 9
 9
 9
 9
 9
 9
 9
 9
 9
 9
 9
 9
 9
 9
 9
 9
 9
 9
 9
 9
 9
 9
 9
 9
 9
 9
 9
 9
 9
 9
 9
 9
 9
 9
 9
 9
 9
 9
 9
 9
 9
 9
 9
 9
 9
 9
 9
 9
 9
 9
 9
 9
 9
 9
 9
 9
 9
 9
 9
 9
 9
 9
 9
 9
 9
 9
 9
 9
 9
 9
 9
 9
 9
 9
 9
 9
 9
 9
 9
 9
 9
 9
 9
 9
 9
 9
 9
 9
 9
 9
 9
 9
 9
 9
 9
 9
 9
 9
 9
 9
 9
 9
 9
 9
 9
 9
 9
 9
 9
 9
 9
 9
 9
 9
 9
 9
 9
 9
 9
 9
 9
 9
 9
 9
 9
 9
 9
 9
 9
 9
 9
 9
 9
 9
 9
 9
 9
 9
 9
 9
 9
 9
 9
 9
 9
 9
 9
 9
 9
 9
 9
 9
 9
 9
 9
 9
 9
 9
 9
 9
 9
 9
 9
 9
 9
 9
 9
 9
 9
 9
 9
 9
 9
 9
 9
 9
 9
 9
 9
 9
 9
 9
 9
 9
 9
 9
 9
 9
 9
 9
 9
 9
 9
 9
 9
 9
 9
 9
 9
 9
 </DataArray>
 </Cells> 
 <PointData>
 <DataArray  type="Float64" Name="disp" NumberOfComponents="3" format="ascii">
   0.0000000000000000        0.0000000000000000        0.0000000000000000     
   6.0958829528040843E-003   3.7905295998836241E-003   0.0000000000000000     
   1.1665921926600858E-002   7.3239460844202551E-003   0.0000000000000000     
   1.6710116921390322E-002   1.0600249453609892E-002   0.0000000000000000     
   2.1228467937172479E-002   1.3619439707452536E-002   0.0000000000000000     
   0.0000000000000000        0.0000000000000000        0.0000000000000000     
   4.8911316418284775E-003   3.0221828074529482E-003   0.0000000000000000     
   9.5736260768803007E-003   6.0605681718694498E-003   0.0000000000000000     
   1.4047483305155466E-002   9.1151560932495081E-003   0.0000000000000000     
   1.8312703326653981E-002   1.2185946571593116E-002   0.0000000000000000     
   0.0000000000000000        0.0000000000000000        0.0000000000000000     
   3.9535809695779136E-003   2.4251136682769702E-003   0.0000000000000000     
   7.9106531443285562E-003   5.0628839393336168E-003   0.0000000000000000     
   1.1871216524251927E-002   7.9133108131699409E-003   0.0000000000000000     
   1.5835271109348029E-002   1.0976394289785942E-002   0.0000000000000000     
   0.0000000000000000        0.0000000000000000        0.0000000000000000     
   3.2832309360523878E-003   1.9993221823556896E-003   0.0000000000000000     
   6.6770031289456215E-003   4.3308933868127534E-003   0.0000000000000000     
   1.0181316578679701E-002   6.9947136133711929E-003   0.0000000000000000     
   1.3796171285254625E-002   9.9907828620310075E-003   0.0000000000000000     
   0.0000000000000000        0.0000000000000000        0.0000000000000000     
   2.8800815412519036E-003   1.7448083496891076E-003   0.0000000000000000     
   5.8726760307314992E-003   3.8645965143068619E-003   0.0000000000000000     
   8.9777834684387856E-003   6.3593644938532640E-003   0.0000000000000000     
   1.2195403854373765E-002   9.2291122883283137E-003   0.0000000000000000     
   2.1228467937172479E-002   1.3619439707452536E-002   0.0000000000000000     
   2.5433705259485729E-002   1.6612265927363062E-002   0.0000000000000000     
   2.9538559173868488E-002   1.9809477194756349E-002   0.0000000000000000     
   3.3543029680320746E-002   2.3211073509632391E-002   0.0000000000000000     
   3.7447116778842507E-002   2.6817054871991198E-002   0.0000000000000000     
   1.8312703326653981E-002   1.2185946571593116E-002   0.0000000000000000     
   2.2407423776875938E-002   1.5341358422423059E-002   0.0000000000000000     
   2.6369782291321437E-002   1.8649810461262115E-002   0.0000000000000000     
   3.0199778869990482E-002   2.2111302688110276E-002   0.0000000000000000     
   3.3897413512883071E-002   2.5725835102967547E-002   0.0000000000000000     
   1.5835271109348029E-002   1.0976394289785942E-002   0.0000000000000000     
   1.9731007203215866E-002   1.4210965869900978E-002   0.0000000000000000     
   2.3486615109454441E-002   1.7575857054234409E-002   0.0000000000000000     
   2.7102094828063760E-002   2.1071067842786236E-002   0.0000000000000000     
   3.0577446359043813E-002   2.4696598235556460E-002   0.0000000000000000     
   1.3796171285254625E-002   9.9907828620310075E-003   0.0000000000000000     
   1.7404455538505514E-002   1.3221088269796816E-002   0.0000000000000000     
   2.0889057628267500E-002   1.6587616973673239E-002   0.0000000000000000     
   2.4249977554540576E-002   2.0090368973660289E-002   0.0000000000000000     
   2.7487215317324742E-002   2.3729344269757945E-002   0.0000000000000000     
   1.2195403854373765E-002   9.2291122883283137E-003   0.0000000000000000     
   1.5427768782744886E-002   1.2371725622110575E-002   0.0000000000000000     
   1.8577109847760606E-002   1.5685090219578608E-002   0.0000000000000000     
   2.1643427049420925E-002   1.9169206080732415E-002   0.0000000000000000     
   2.4626720387725842E-002   2.2824073205571997E-002   0.0000000000000000     
   3.7447116778842507E-002   2.6817054871991198E-002   0.0000000000000000     
   4.1255554284022694E-002   3.0622456509713084E-002   0.0000000000000000     
   4.4973076010450239E-002   3.4622313650678388E-002   0.0000000000000000     
   4.8599681958125120E-002   3.8816626294887101E-002   0.0000000000000000     
   5.2135372127047358E-002   4.3205394442339229E-002   0.0000000000000000     
   3.3897413512883071E-002   2.5725835102967547E-002   0.0000000000000000     
   3.7486107745322780E-002   2.9522089476507505E-002   0.0000000000000000     
   4.0989283092633194E-002   3.3528747579403738E-002   0.0000000000000000     
   4.4406939554814291E-002   3.7745809411656235E-002   0.0000000000000000     
   4.7739077131866106E-002   4.2173274973265007E-002   0.0000000000000000     
   3.0577446359043813E-002   2.4696598235556460E-002   0.0000000000000000     
   3.3942261526331098E-002   2.8496977675397481E-002   0.0000000000000000     
   3.7226132153862078E-002   3.2516735605161676E-002   0.0000000000000000     
   4.0429058241636798E-002   3.6755872024849062E-002   0.0000000000000000     
   4.3551039789655209E-002   4.1214386934459633E-002   0.0000000000000000     
   2.7487215317324742E-002   2.3729344269757945E-002   0.0000000000000000     
   3.0624015627047640E-002   2.7547121106382993E-002   0.0000000000000000     
   3.3683623194136939E-002   3.1586277727952201E-002   0.0000000000000000     
   3.6666038018592619E-002   3.5846814134465568E-002   0.0000000000000000     
   3.9571260100414708E-002   4.0328730325923087E-002   0.0000000000000000     
   2.4626720387725842E-002   2.2824073205571997E-002   0.0000000000000000     
   2.7531370047472418E-002   2.6672519769464061E-002   0.0000000000000000     
   3.0361756213457734E-002   3.0737373947775315E-002   0.0000000000000000     
   3.3117878885681788E-002   3.5018635740505767E-002   0.0000000000000000     
   3.5799738064144569E-002   3.9516305147655403E-002   0.0000000000000000     
   5.2135372127047358E-002   4.3205394442339229E-002   0.0000000000000000     
   5.5576282349913422E-002   4.7793823698534244E-002   0.0000000000000000     
   5.8918548459419760E-002   5.2587119668971623E-002   0.0000000000000000     
   6.2162170455566393E-002   5.7585282353651367E-002   0.0000000000000000     
   6.5307148338353313E-002   6.2788311752573475E-002   0.0000000000000000     
   4.7739077131866106E-002   4.2173274973265007E-002   0.0000000000000000     
   5.0980629903066003E-002   4.6805001069673016E-002   0.0000000000000000     
   5.4126531947691403E-002   5.1634844506323219E-002   0.0000000000000000     
   5.7176783265742298E-002   5.6662805283215635E-002   0.0000000000000000     
   6.0131383857218709E-002   6.1888883400350238E-002   0.0000000000000000     
   4.3551039789655209E-002   4.1214386934459633E-002   0.0000000000000000     
   4.6587066885948977E-002   4.5879891075091758E-002   0.0000000000000000     
   4.9532129618549706E-002   5.0739995187843820E-002   0.0000000000000000     
   5.2386227987457401E-002   5.5794699272715818E-002   0.0000000000000000     
   5.5149361992672064E-002   6.1044003329707740E-002   0.0000000000000000     
   3.9571260100414708E-002   4.0328730325923087E-002   0.0000000000000000     
   4.2395593298562323E-002   4.5018493714790477E-002   0.0000000000000000     
   4.5135341471994647E-002   4.9902571713533420E-002   0.0000000000000000     
   4.7790504620711667E-002   5.4980964322151916E-002   0.0000000000000000     
   5.0361082744713404E-002   6.0253671540645981E-002   0.0000000000000000     
   3.5799738064144569E-002   3.9516305147655403E-002   0.0000000000000000     
   3.8406209140906061E-002   4.4220808988769178E-002   0.0000000000000000     
   4.0936167508026262E-002   4.9122574083392032E-002   0.0000000000000000     
   4.3389613165505131E-002   5.4221600431523950E-002   0.0000000000000000     
   4.5766546113342708E-002   5.9517888033164962E-002   0.0000000000000000     
   6.5307148338353313E-002   6.2788311752573475E-002   0.0000000000000000     
   6.8359975405390613E-002   6.8181691893914709E-002   0.0000000000000000     
   7.1327144954288393E-002   7.3750906805851793E-002   0.0000000000000000     
   7.4208656985046667E-002   7.9495956488384784E-002   0.0000000000000000     
   7.7004511497665407E-002   8.5416840941513639E-002   0.0000000000000000     
   6.0131383857218709E-002   6.1888883400350238E-002   0.0000000000000000     
   6.2997983617341505E-002   6.7303594665706207E-002   0.0000000000000000     
   6.5784232441331636E-002   7.2897454887262722E-002   0.0000000000000000     
   6.8490130329189089E-002   7.8670464065019763E-002   0.0000000000000000     
   7.1115677280913864E-002   8.4622622198977329E-002   0.0000000000000000     
   5.5149361992672064E-002   6.1044003329707740E-002   0.0000000000000000     
   5.7829309135232793E-002   6.6481193595866114E-002   0.0000000000000000     
   6.0433846916178646E-002   7.2099556308237500E-002   0.0000000000000000     
   6.2962975335509652E-002   7.7899091466821863E-002   0.0000000000000000     
   6.5416694393225783E-002   8.3879799071619188E-002   0.0000000000000000     
   5.0361082744713404E-002   6.0253671540645981E-002   0.0000000000000000     
   5.2853951959064442E-002   6.5714488684394445E-002   0.0000000000000000     
   5.5275988378829424E-002   7.1357211068776127E-002   0.0000000000000000     
   5.7627192004008322E-002   7.7181838693791055E-002   0.0000000000000000     
   5.9907562834601163E-002   8.3188371559439200E-002   0.0000000000000000     
   4.5766546113342708E-002   5.9517888033164962E-002   0.0000000000000000     
   4.8071912088836474E-002   6.5003479931291144E-002   0.0000000000000000     
   5.0310656829283949E-002   7.0670419168878604E-002   0.0000000000000000     
   5.2482780334685133E-002   7.6518705745927354E-002   0.0000000000000000     
   5.4588282605040027E-002   8.2548339662437367E-002   0.0000000000000000     
   7.7004511497665407E-002   8.5416840941513639E-002   0.0000000000000000     
   7.9700880311195876E-002   9.1506468198930449E-002   0.0000000000000000     
   8.2283935244689355E-002   9.7757746294327277E-002   0.0000000000000000     
   8.4753676298145800E-002  0.10417067522770417        0.0000000000000000     
   8.7110103471565239E-002  0.11074525499906104        0.0000000000000000     
   7.1115677280913864E-002   8.4622622198977329E-002   0.0000000000000000     
   7.3646899705099120E-002   9.0743990335152319E-002   0.0000000000000000     
   7.6069824010338058E-002   9.7024629519561589E-002   0.0000000000000000     
   7.8384450196630651E-002  0.10346453975220515        0.0000000000000000     
   8.0590778263976925E-002  0.11006372103308298        0.0000000000000000     
   6.5416694393225783E-002   8.3879799071619188E-002   0.0000000000000000     
   6.7781495190698052E-002   9.0029936116202303E-002   0.0000000000000000     
   7.0043868829297473E-002   9.6337759594143965E-002   0.0000000000000000     
   7.2203815309024033E-002  0.10280326950544419        0.0000000000000000     
   7.4261334629877745E-002  0.10942646585010299        0.0000000000000000     
   5.9907562834601163E-002   8.3188371559439200E-002   0.0000000000000000     
   6.2104666767992679E-002   8.9364305542080386E-002   0.0000000000000000     
   6.4206069701567600E-002   9.5697136518074405E-002   0.0000000000000000     
   6.6211771635325933E-002  0.10218686448742130        0.0000000000000000     
   6.8121772569267700E-002  0.10883348945012100        0.0000000000000000     
   5.4588282605040027E-002   8.2548339662437367E-002   0.0000000000000000     
   5.6616414436982995E-002   8.8747098612786596E-002   0.0000000000000000     
   5.8556426627148453E-002   9.5102760291352936E-002   0.0000000000000000     
   6.0408319175536372E-002  0.10161532469813642        0.0000000000000000     
   6.2172092082146774E-002  0.10828479183313705        0.0000000000000000     
   8.7110103471565239E-002  0.11074525499906104        0.0000000000000000     
   8.9375570336431093E-002  0.11746547584626832        0.0000000000000000     
   9.1572430464226806E-002  0.12431532800719634        0.0000000000000000     
   9.3700683854952352E-002  0.13129481148184508        0.0000000000000000     
   9.5760330508607758E-002  0.13840392627021458        0.0000000000000000     
   8.0590778263976925E-002  0.11006372103308298        0.0000000000000000     
   8.2712963032693862E-002  0.11680845688199132        0.0000000000000000     
   8.4775159323098426E-002  0.12368503081872627        0.0000000000000000     
   8.6777367135190631E-002  0.13069344284328788        0.0000000000000000     
   8.8719586468970491E-002  0.13783369295567610        0.0000000000000000     
   7.4261334629877745E-002  0.10942646585010299        0.0000000000000000     
   7.6240865535238345E-002  0.11619518425562113        0.0000000000000000     
   7.8166846768485551E-002  0.12309726034949940        0.0000000000000000     
   8.0039278329619420E-002  0.13013269413173784        0.0000000000000000     
   8.1858160218639911E-002  0.13730148560233638        0.0000000000000000     
   6.8121772569267700E-002  0.10883348945012100        0.0000000000000000     
   6.9959277844064555E-002  0.11562565796715774        0.0000000000000000     
   7.1747492800388210E-002  0.12255201659951573        0.0000000000000000     
   7.3486417438238721E-002  0.12961256534719498        0.0000000000000000     
   7.5176051757616019E-002  0.13680730421019544        0.0000000000000000     
   6.2172092082146774E-002  0.10828479183313705        0.0000000000000000     
   6.3868199959172506E-002  0.11509987801660121        0.0000000000000000     
   6.5517097418806416E-002  0.12204929956877528        0.0000000000000000     
   6.7118784461048520E-002  0.12913305648965931        0.0000000000000000     
   6.8673261085898801E-002  0.13635114877925325        0.0000000000000000     
   9.5760330508607758E-002  0.13840392627021458        0.0000000000000000     
   9.7718927779151254E-002  0.14563460867430478        0.0000000000000000     
   9.9544033020541073E-002  0.15297879499611566        0.0000000000000000     
  0.10123564623277723       0.16043648523564724        0.0000000000000000     
  0.10279376741585970       0.16800767939289957        0.0000000000000000     
   8.8719586468970491E-002  0.13783369295567610        0.0000000000000000     
   9.0562401605583390E-002  0.14509507580802930        0.0000000000000000     
   9.2266396826174685E-002  0.15246688605248584        0.0000000000000000     
   9.3831572130744417E-002  0.15994912368904576        0.0000000000000000     
   9.5257927519292546E-002  0.16754178871770897        0.0000000000000000     
   8.1858160218639911E-002  0.13730148560233638        0.0000000000000000     
   8.3581225529423223E-002  0.14459121015513671        0.0000000000000000     
   8.5166207355845513E-002  0.15198944318398039        0.0000000000000000     
   8.6613105697906756E-002  0.15949618468886745        0.0000000000000000     
   8.7921920555607019E-002  0.16711143466979789        0.0000000000000000     
   7.5176051757616019E-002  0.13680730421019544        0.0000000000000000     
   7.6775399550670753E-002  0.14412301171562694        0.0000000000000000     
   7.8243464609553504E-002  0.15154646639059924        0.0000000000000000     
   7.9580246934264284E-002  0.15907766823511238        0.0000000000000000     
   8.0785746524803137E-002  0.16671661724916631        0.0000000000000000     
   6.8673261085898801E-002  0.13635114877925325        0.0000000000000000     
   7.0144923669325968E-002  0.14369048048950001        0.0000000000000000     
   7.1498168587298697E-002  0.15113795567234242        0.0000000000000000     
   7.2732995839817002E-002  0.15869357432778053        0.0000000000000000     
   7.3849405426880871E-002  0.16635733645581424        0.0000000000000000     
   0.0000000000000000        0.0000000000000000        0.0000000000000000     
   2.8800815412519036E-003   1.7448083496891076E-003   0.0000000000000000     
   5.8726760307314992E-003   3.8645965143068619E-003   0.0000000000000000     
   8.9777834684387856E-003   6.3593644938532640E-003   0.0000000000000000     
   1.2195403854373765E-002   9.2291122883283137E-003   0.0000000000000000     
   0.0000000000000000        0.0000000000000000        0.0000000000000000     
   2.6103087930490322E-003   1.5889027903032843E-003   0.0000000000000000     
   5.2897171653262945E-003   3.5566683309309335E-003   0.0000000000000000     
   8.0382251168317851E-003   5.9032966218829476E-003   0.0000000000000000     
   1.0855832647565504E-002   8.6287876631593267E-003   0.0000000000000000     
   0.0000000000000000        0.0000000000000000        0.0000000000000000     
   2.3400886993163476E-003   1.4589361242242820E-003   0.0000000000000000     
   4.7201718483701124E-003   3.2997838457999615E-003   0.0000000000000000     
   7.1402494471612937E-003   5.5225431647270380E-003   0.0000000000000000     
   9.6003214956898904E-003   8.1272140810055103E-003   0.0000000000000000     
   0.0000000000000000        0.0000000000000000        0.0000000000000000     
   2.0694212600538492E-003   1.3549083514521002E-003   0.0000000000000000     
   4.1640400798629547E-003   3.0939430589139445E-003   0.0000000000000000     
   6.2838564594273148E-003   5.2171041223855333E-003   0.0000000000000000     
   8.4288703987469311E-003   7.7243915418668645E-003   0.0000000000000000     
   0.0000000000000000        0.0000000000000000        0.0000000000000000     
   1.7983064752615373E-003   1.2768194719867394E-003   0.0000000000000000     
   3.6213218598048201E-003   2.9391459702728835E-003   0.0000000000000000     
   5.4690461536298475E-003   4.9869794948584345E-003   0.0000000000000000     
   7.3414793567366209E-003   7.4203200457433902E-003   0.0000000000000000     
   1.2195403854373765E-002   9.2291122883283137E-003   0.0000000000000000     
   1.5427768782744886E-002   1.2371725622110575E-002   0.0000000000000000     
   1.8577109847760606E-002   1.5685090219578608E-002   0.0000000000000000     
   2.1643427049420925E-002   1.9169206080732415E-002   0.0000000000000000     
   2.4626720387725842E-002   2.2824073205571997E-002   0.0000000000000000     
   1.0855832647565504E-002   8.6287876631593267E-003   0.0000000000000000     
   1.3689149050815306E-002   1.1650833347710030E-002   0.0000000000000000     
   1.6484783619869044E-002   1.4887125568485022E-002   0.0000000000000000     
   1.9242736354726727E-002   1.8337664325484299E-002   0.0000000000000000     
   2.1963007255388346E-002   2.2002449618707863E-002   0.0000000000000000     
   9.6003214956898904E-003   8.1272140810055103E-003   0.0000000000000000     
   1.2076798457598096E-002   1.1046366867462968E-002   0.0000000000000000     
   1.4546090796528093E-002   1.4212571796927004E-002   0.0000000000000000     
   1.7008198512479884E-002   1.7625828869397606E-002   0.0000000000000000     
   1.9463121605453472E-002   2.1286138084874780E-002   0.0000000000000000     
   8.4288703987469311E-003   7.7243915418668645E-003   0.0000000000000000     
   1.0590717003093256E-002   1.0558326181369385E-002   0.0000000000000000     
   1.2761031377737748E-002   1.3661428904904543E-002   0.0000000000000000     
   1.4939813522680402E-002   1.7033699712472341E-002   0.0000000000000000     
   1.7127063437921225E-002   2.0675138604072760E-002   0.0000000000000000     
   7.3414793567366209E-003   7.4203200457433902E-003   0.0000000000000000     
   9.2309046873007890E-003   1.0186711289429285E-002   0.0000000000000000     
   1.1129605363498008E-002   1.3233696892417652E-002   0.0000000000000000     
   1.3037581385328279E-002   1.6561276854708491E-002   0.0000000000000000     
   1.4954832752791599E-002   2.0169451176301798E-002   0.0000000000000000     
   2.4626720387725842E-002   2.2824073205571997E-002   0.0000000000000000     
   2.7531370047472418E-002   2.6672519769464061E-002   0.0000000000000000     
   3.0361756213457734E-002   3.0737373947775315E-002   0.0000000000000000     
   3.3117878885681788E-002   3.5018635740505767E-002   0.0000000000000000     
   3.5799738064144569E-002   3.9516305147655403E-002   0.0000000000000000     
   2.1963007255388346E-002   2.2002449618707863E-002   0.0000000000000000     
   2.4629287702852314E-002   2.5879617616441048E-002   0.0000000000000000     
   2.7225269078117040E-002   2.9967304486969205E-002   0.0000000000000000     
   2.9750951381182535E-002   3.4265510230292333E-002   0.0000000000000000     
   3.2206334612048790E-002   3.8774234846410419E-002   0.0000000000000000     
   1.9463121605453472E-002   2.1286138084874780E-002   0.0000000000000000     
   2.1882731508434203E-002   2.5174858599114332E-002   0.0000000000000000     
   2.4238899654407425E-002   2.9273349567872052E-002   0.0000000000000000     
   2.6531626043373138E-002   3.3581610991147953E-002   0.0000000000000000     
   2.8760910675331351E-002   3.8099642868942012E-002   0.0000000000000000     
   1.7127063437921225E-002   2.0675138604072760E-002   0.0000000000000000     
   1.9291701464218089E-002   2.4558242717483907E-002   0.0000000000000000     
   2.1402647942328878E-002   2.8655509190483857E-002   0.0000000000000000     
   2.3459902872253597E-002   3.2966938023072608E-002   0.0000000000000000     
   2.5463466253992241E-002   3.7492529215250175E-002   0.0000000000000000     
   1.4954832752791599E-002   2.0169451176301798E-002   0.0000000000000000     
   1.6856197570203978E-002   2.4029769971549778E-002   0.0000000000000000     
   1.8716513941881410E-002   2.8113783354804626E-002   0.0000000000000000     
   2.0535781867823909E-002   3.2421491326066330E-002   0.0000000000000000     
   2.2314001348031465E-002   3.6952893885334910E-002   0.0000000000000000     
   3.5799738064144569E-002   3.9516305147655403E-002   0.0000000000000000     
   3.8406209140906061E-002   4.4220808988769178E-002   0.0000000000000000     
   4.0936167508026262E-002   4.9122574083392032E-002   0.0000000000000000     
   4.3389613165505131E-002   5.4221600431523950E-002   0.0000000000000000     
   4.5766546113342708E-002   5.9517888033164962E-002   0.0000000000000000     
   3.2206334612048790E-002   3.8774234846410419E-002   0.0000000000000000     
   3.4592550758236092E-002   4.3488825336790084E-002   0.0000000000000000     
   3.6910731807264736E-002   4.8404628702897926E-002   0.0000000000000000     
   3.9160877759134710E-002   5.3521644944733944E-002   0.0000000000000000     
   4.1342988613846027E-002   5.8839874062298146E-002   0.0000000000000000     
   2.8760910675331351E-002   3.8099642868942012E-002   0.0000000000000000     
   3.0928254495808320E-002   4.2824531198615436E-002   0.0000000000000000     
   3.3035158450330324E-002   4.7753361977529399E-002   0.0000000000000000     
   3.5081622538897343E-002   5.2886135205683915E-002   0.0000000000000000     
   3.7067646761509400E-002   5.8222850883078998E-002   0.0000000000000000     
   2.5463466253992241E-002   3.7492529215250175E-002   0.0000000000000000     
   2.7413320353622730E-002   4.2227926574245234E-002   0.0000000000000000     
   2.9309447437222996E-002   4.7168773907286465E-002   0.0000000000000000     
   3.1151847504793027E-002   5.2315071214373905E-002   0.0000000000000000     
   3.2940520556332828E-002   5.7666818495507505E-002   0.0000000000000000     
   2.2314001348031465E-002   3.6952893885334910E-002   0.0000000000000000     
   2.4047748331679338E-002   4.1699011463679471E-002   0.0000000000000000     
   2.5733598767942765E-002   4.6650864492169118E-002   0.0000000000000000     
   2.7371552656821757E-002   5.1808452970803859E-002   0.0000000000000000     
   2.8961609998316311E-002   5.7171776899583693E-002   0.0000000000000000     
   4.5766546113342708E-002   5.9517888033164962E-002   0.0000000000000000     
   4.8071912088836474E-002   6.5003479931291144E-002   0.0000000000000000     
   5.0310656829283949E-002   7.0670419168878604E-002   0.0000000000000000     
   5.2482780334685133E-002   7.6518705745927354E-002   0.0000000000000000     
   5.4588282605040027E-002   8.2548339662437367E-002   0.0000000000000000     
   4.1342988613846027E-002   5.8839874062298146E-002   0.0000000000000000     
   4.3459956615368632E-002   6.4348961800412482E-002   0.0000000000000000     
   4.5514674007672486E-002   7.0038553903898945E-002   0.0000000000000000     
   4.7507140790757588E-002   7.5908650372757527E-002   0.0000000000000000     
   4.9437356964623938E-002   8.1959251206988201E-002   0.0000000000000000     
   3.7067646761509400E-002   5.8222850883078998E-002   0.0000000000000000     
   3.8994852629480652E-002   6.3751728755614703E-002   0.0000000000000000     
   4.0864861654125249E-002   6.9460988569191140E-002   0.0000000000000000     
   4.2677673835443207E-002   7.5350630323808301E-002   0.0000000000000000     
   4.4433289173434518E-002   8.1420654019466174E-002   0.0000000000000000     
   3.2940520556332828E-002   5.7666818495507505E-002   0.0000000000000000     
   3.4676600131172526E-002   6.3211780796897793E-002   0.0000000000000000     
   3.6361219768642247E-002   6.8937723164755174E-002   0.0000000000000000     
   3.7994379468741984E-002   7.4844645599079690E-002   0.0000000000000000     
   3.9576079231471759E-002   8.0932548099871340E-002   0.0000000000000000     
   2.8961609998316311E-002   5.7171776899583693E-002   0.0000000000000000     
   3.0505199120444273E-002   6.2729117924261724E-002   0.0000000000000000     
   3.2003748351223486E-002   6.8468757690591062E-002   0.0000000000000000     
   3.3457257690653948E-002   7.4390696198571707E-002   0.0000000000000000     
   3.4865727138735661E-002   8.0494933448203673E-002   0.0000000000000000     
   5.4588282605040027E-002   8.2548339662437367E-002   0.0000000000000000     
   5.6616414436982995E-002   8.8747098612786596E-002   0.0000000000000000     
   5.8556426627148453E-002   9.5102760291352936E-002   0.0000000000000000     
   6.0408319175536372E-002  0.10161532469813642        0.0000000000000000     
   6.2172092082146774E-002  0.10828479183313705        0.0000000000000000     
   4.9437356964623938E-002   8.1959251206988201E-002   0.0000000000000000     
   5.1296266624812049E-002   8.8178716744819668E-002   0.0000000000000000     
   5.3074813866862455E-002   9.4555407324480548E-002   0.0000000000000000     
   5.4772998690775142E-002  0.10108932294597085        0.0000000000000000     
   5.6390821096550109E-002  0.10778046360929062        0.0000000000000000     
   4.4433289173434518E-002   8.1420654019466174E-002   0.0000000000000000     
   4.6123751758622905E-002   8.7659561354678325E-002   0.0000000000000000     
   4.7741105681532080E-002   9.4055854027958213E-002   0.0000000000000000     
   4.9285350942162048E-002  0.10060953203930582        0.0000000000000000     
   5.0756487540512811E-002  0.10732059538872120        0.0000000000000000     
   3.9576079231471759E-002   8.0932548099871340E-002   0.0000000000000000     
   4.1098869838415535E-002   8.7189632442362608E-002   0.0000000000000000     
   4.2555302071157319E-002   9.3604100401785920E-002   0.0000000000000000     
   4.3945375929697092E-002  0.10017595197814132        0.0000000000000000     
   4.5269091414034873E-002  0.10690518717142879        0.0000000000000000     
   3.4865727138735661E-002   8.0494933448203673E-002   0.0000000000000000     
   3.6221620864189959E-002   8.6768930007872488E-002   0.0000000000000000     
   3.7517403035738160E-002   9.3200146445963708E-002   0.0000000000000000     
   3.8753073653380286E-002   9.9788582762477346E-002   0.0000000000000000     
   3.9928632717116316E-002  0.10653423895741337        0.0000000000000000     
   6.2172092082146774E-002  0.10828479183313705        0.0000000000000000     
   6.3868199959172506E-002  0.11509987801660121        0.0000000000000000     
   6.5517097418806416E-002  0.12204929956877528        0.0000000000000000     
   6.7118784461048520E-002  0.12913305648965931        0.0000000000000000     
   6.8673261085898801E-002  0.13635114877925325        0.0000000000000000     
   5.6390821096550109E-002  0.10778046360929062        0.0000000000000000     
   5.7945647687297978E-002  0.11461734000019184        0.0000000000000000     
   5.9454845066129372E-002  0.12158846280442660        0.0000000000000000     
   6.0918413233044262E-002  0.12869383202199486        0.0000000000000000     
   6.2336352188042690E-002  0.13593344765289669        0.0000000000000000     
   5.0756487540512811E-002  0.10732059538872120        0.0000000000000000     
   5.2169636835176759E-002  0.11417753951417009        0.0000000000000000     
   5.3539920184746292E-002  0.12116885985361828        0.0000000000000000     
   5.4867337589221403E-002  0.12829455640706577        0.0000000000000000     
   5.6151889048602112E-002  0.13555462917451255        0.0000000000000000     
   4.5269091414034873E-002  0.10690518717142879        0.0000000000000000     
   4.6540167402808856E-002  0.11378047655853592        0.0000000000000000     
   4.7772322774657205E-002  0.12079049071635030        0.0000000000000000     
   4.8965557529579949E-002  0.12793522964487197        0.0000000000000000     
   5.0119871667577073E-002  0.13521469334410091        0.0000000000000000     
   3.9928632717116316E-002  0.10653423895741337        0.0000000000000000     
   4.1057239390194261E-002  0.11342615113328933        0.0000000000000000     
   4.2152052835862104E-002  0.12045335539262268        0.0000000000000000     
   4.3213073054119880E-002  0.12761585173541345        0.0000000000000000     
   4.4240300044967554E-002  0.13491364016166169        0.0000000000000000     
   6.8673261085898801E-002  0.13635114877925325        0.0000000000000000     
   7.0144923669325968E-002  0.14369048048950001        0.0000000000000000     
   7.1498168587298697E-002  0.15113795567234242        0.0000000000000000     
   7.2732995839817002E-002  0.15869357432778053        0.0000000000000000     
   7.3849405426880871E-002  0.16635733645581424        0.0000000000000000     
   6.2336352188042690E-002  0.13593344765289669        0.0000000000000000     
   6.3679358659809934E-002  0.14329467974824581        0.0000000000000000     
   6.4918129377031314E-002  0.15076489835915599        0.0000000000000000     
   6.6052664339706801E-002  0.15834410348562722        0.0000000000000000     
   6.7082963547836438E-002  0.16603229512765957        0.0000000000000000     
   5.6151889048602112E-002  0.13555462917451255        0.0000000000000000     
   5.7368265296543722E-002  0.14293667276335414        0.0000000000000000     
   5.8491157066701570E-002  0.15042828178098594        0.0000000000000000     
   5.9520564359075670E-002  0.15802945622740794        0.0000000000000000     
   6.0456487173665988E-002  0.16574019610262022        0.0000000000000000     
   5.0119871667577073E-002  0.13521469334410091        0.0000000000000000     
   5.1211643579527330E-002  0.14261645953482499        0.0000000000000000     
   5.2217251656309492E-002  0.15012810593783227        0.0000000000000000     
   5.3136695897923560E-002  0.15774963255312263        0.0000000000000000     
   5.3969976304369532E-002  0.16548103938069617        0.0000000000000000     
   4.4240300044967554E-002  0.13491364016166169        0.0000000000000000     
   4.5209493508760745E-002  0.14233404006265846        0.0000000000000000     
   4.6096413145855074E-002  0.14986437082969500        0.0000000000000000     
   4.6901058956250505E-002  0.15750463246277130        0.0000000000000000     
   4.7623430939947073E-002  0.16525482496188740        0.0000000000000000     
   0.0000000000000000        0.0000000000000000        0.0000000000000000     
   1.7983064752615373E-003   1.2768194719867394E-003   0.0000000000000000     
   3.6213218598048201E-003   2.9391459702728835E-003   0.0000000000000000     
   5.4690461536298475E-003   4.9869794948584345E-003   0.0000000000000000     
   7.3414793567366209E-003   7.4203200457433902E-003   0.0000000000000000     
   0.0000000000000000        0.0000000000000000        0.0000000000000000     
   1.5350121877519822E-003   1.2175524762108366E-003   0.0000000000000000     
   3.0993624350616712E-003   2.8208771794403882E-003   0.0000000000000000     
   4.6930507419290658E-003   4.8099741096886538E-003   0.0000000000000000     
   6.3160771083541675E-003   7.1848432669556353E-003   0.0000000000000000     
   0.0000000000000000        0.0000000000000000        0.0000000000000000     
   1.2878062403377550E-003   1.1699903545070306E-003   0.0000000000000000     
   2.6055070524994704E-003   2.7246212859800643E-003   0.0000000000000000     
   3.9531024364851466E-003   4.6638927944191028E-003   0.0000000000000000     
   5.3305923922947829E-003   6.9878048798241443E-003   0.0000000000000000     
   0.0000000000000000        0.0000000000000000        0.0000000000000000     
   1.0566886330188553E-003   1.1341331068753205E-003   0.0000000000000000     
   2.1397557121182183E-003   2.6503782898919140E-003   0.0000000000000000     
   3.2492012372980885E-003   4.5487355490497813E-003   0.0000000000000000     
   4.3850252085584664E-003   6.8292048843489224E-003   0.0000000000000000     
   0.0000000000000000        0.0000000000000000        0.0000000000000000     
   8.4165936579528341E-004   1.1099807333157070E-003   0.0000000000000000     
   1.7021084139179142E-003   2.5981481911759368E-003   0.0000000000000000     
   2.5813471443678921E-003   4.4645023735806894E-003   0.0000000000000000     
   3.4793755571452174E-003   6.7090432805299652E-003   0.0000000000000000     
   7.3414793567366209E-003   7.4203200457433902E-003   0.0000000000000000     
   9.2309046873007890E-003   1.0186711289429285E-002   0.0000000000000000     
   1.1129605363498008E-002   1.3233696892417652E-002   0.0000000000000000     
   1.3037581385328279E-002   1.6561276854708491E-002   0.0000000000000000     
   1.4954832752791599E-002   2.0169451176301798E-002   0.0000000000000000     
   6.3160771083541675E-003   7.1848432669556353E-003   0.0000000000000000     
   7.9557094155336371E-003   9.8958898411634216E-003   0.0000000000000000     
   9.5992155446641379E-003   1.2893519022234106E-002   0.0000000000000000     
   1.1246595495745667E-002   1.6177730810167681E-002   0.0000000000000000     
   1.2897849268778225E-002   1.9748525204964160E-002   0.0000000000000000     
   5.3305923922947829E-003   6.9878048798241443E-003   0.0000000000000000     
   6.7234790931047428E-003   9.6502294860925514E-003   0.0000000000000000     
   8.1172647120913814E-003   1.2605038557121679E-002   0.0000000000000000     
   9.5119492492547076E-003   1.5852232092911537E-002   0.0000000000000000     
   1.0907532704594717E-002   1.9391810093462119E-002   0.0000000000000000     
   4.3850252085584664E-003   6.8292048843489224E-003   0.0000000000000000     
   5.5342137200141027E-003   9.4497302242166764E-003   0.0000000000000000     
   6.6837528657797520E-003   1.2368255497080382E-002   0.0000000000000000     
   7.8336426458554126E-003   1.5584780702940044E-002   0.0000000000000000     
   8.9838830602410810E-003   1.9099305841795661E-002   0.0000000000000000     
   3.4793755571452174E-003   6.7090432805299652E-003   0.0000000000000000     
   4.3879132962617220E-003   9.2943920555357950E-003   0.0000000000000000     
   5.2986800057292401E-003   1.2183169842110212E-002   0.0000000000000000     
   6.2116756855477703E-003   1.5375376640253216E-002   0.0000000000000000     
   7.1269003357173136E-003   1.8871012449964801E-002   0.0000000000000000     
   1.4954832752791599E-002   2.0169451176301798E-002   0.0000000000000000     
   1.6856197570203978E-002   2.4029769971549778E-002   0.0000000000000000     
   1.8716513941881410E-002   2.8113783354804626E-002   0.0000000000000000     
   2.0535781867823909E-002   3.2421491326066330E-002   0.0000000000000000     
   2.2314001348031465E-002   3.6952893885334910E-002   0.0000000000000000     
   1.2897849268778225E-002   1.9748525204964160E-002   0.0000000000000000     
   1.4536747731938981E-002   2.3579878593204217E-002   0.0000000000000000     
   1.6147061753405110E-002   2.7645767361468537E-002   0.0000000000000000     
   1.7728791333176605E-002   3.1946191509757131E-002   0.0000000000000000     
   1.9281936471253473E-002   3.6481151038069981E-002   0.0000000000000000     
   1.0907532704594717E-002   1.9391810093462119E-002   0.0000000000000000     
   1.2293879854970229E-002   2.3199006814339507E-002   0.0000000000000000     
   1.3660855477240063E-002   2.7249056511109801E-002   0.0000000000000000     
   1.5008459571404219E-002   3.1541959183773005E-002   0.0000000000000000     
   1.6336692137462697E-002   3.6077714832329112E-002   0.0000000000000000     
   8.9838830602410810E-003   1.9099305841795661E-002   0.0000000000000000     
   1.0127593939297717E-002   2.2887154634955654E-002   0.0000000000000000     
   1.1257895113386273E-002   2.6923650803728424E-002   0.0000000000000000     
   1.2374786582506750E-002   3.1208794348113984E-002   0.0000000000000000     
   1.3478268346659149E-002   3.5742585268112331E-002   0.0000000000000000     
   7.1269003357173136E-003   1.8871012449964801E-002   0.0000000000000000     
   8.0378899849214459E-003   2.2644322055052648E-002   0.0000000000000000     
   8.9381806618437400E-003   2.6669550239324390E-002   0.0000000000000000     
   9.8277723664841974E-003   3.0946697002780053E-002   0.0000000000000000     
   1.0706665098842820E-002   3.5475762345419617E-002   0.0000000000000000     
   2.2314001348031465E-002   3.6952893885334910E-002   0.0000000000000000     
   2.4047748331679338E-002   4.1699011463679471E-002   0.0000000000000000     
   2.5733598767942765E-002   4.6650864492169118E-002   0.0000000000000000     
   2.7371552656821757E-002   5.1808452970803859E-002   0.0000000000000000     
   2.8961609998316311E-002   5.7171776899583693E-002   0.0000000000000000     
   1.9281936471253473E-002   3.6481151038069981E-002   0.0000000000000000     
   2.0799639059527131E-002   4.1236280859909734E-002   0.0000000000000000     
   2.2275040989889017E-002   4.6197215888779029E-002   0.0000000000000000     
   2.3708142262339128E-002   5.1363956124677888E-002   0.0000000000000000     
   2.5098942876877462E-002   5.6736501567606290E-002   0.0000000000000000     
   1.6336692137462697E-002   3.6077714832329112E-002   0.0000000000000000     
   1.7637093166715127E-002   4.0838229755927588E-002   0.0000000000000000     
   1.8901202650461135E-002   4.5805410253717899E-002   0.0000000000000000     
   2.0129020588700718E-002   5.0979256325700058E-002   0.0000000000000000     
   2.1320546981433885E-002   5.6359767971874052E-002   0.0000000000000000     
   1.3478268346659149E-002   3.5742585268112331E-002   0.0000000000000000     
   1.4560110653243320E-002   4.0504858151733054E-002   0.0000000000000000     
   1.5612083749659113E-002   4.5475447586985726E-002   0.0000000000000000     
   1.6634187635906530E-002   5.0654353573870374E-002   0.0000000000000000     
   1.7626422311985579E-002   5.6041576112386984E-002   0.0000000000000000     
   1.0706665098842820E-002   3.5475762345419617E-002   0.0000000000000000     
   1.1568691519111706E-002   4.0236166047326105E-002   0.0000000000000000     
   1.2407684287482955E-002   4.5207327888582512E-002   0.0000000000000000     
   1.3223643403956568E-002   5.0389247869188830E-002   0.0000000000000000     
   1.4016568868532545E-002   5.5781925989145068E-002   0.0000000000000000     
   2.8961609998316311E-002   5.7171776899583693E-002   0.0000000000000000     
   3.0505199120444273E-002   6.2729117924261724E-002   0.0000000000000000     
   3.2003748351223486E-002   6.8468757690591062E-002   0.0000000000000000     
   3.3457257690653948E-002   7.4390696198571707E-002   0.0000000000000000     
   3.4865727138735661E-002   8.0494933448203673E-002   0.0000000000000000     
   2.5098942876877462E-002   5.6736501567606290E-002   0.0000000000000000     
   2.6449335710328262E-002   6.2303842063923830E-002   0.0000000000000000     
   2.7761213639515787E-002   6.8054967459990123E-002   0.0000000000000000     
   2.9034576664440023E-002   7.3989877755805178E-002   0.0000000000000000     
   3.0269424785100980E-002   8.0108572951368959E-002   0.0000000000000000     
   2.1320546981433885E-002   5.6359767971874052E-002   0.0000000000000000     
   2.2477696013856883E-002   6.1936055142101432E-002   0.0000000000000000     
   2.3602381871165982E-002   6.7697227786243708E-002   0.0000000000000000     
   2.4694604553361175E-002   7.3643285904300929E-002   0.0000000000000000     
   2.5754364060442469E-002   7.9774229496273039E-002   0.0000000000000000     
   1.7626422311985579E-002   5.6041576112386984E-002   0.0000000000000000     
   1.8590280031030127E-002   6.1625757158794481E-002   0.0000000000000000     
   1.9527253046174062E-002   6.7395538669351801E-002   0.0000000000000000     
   2.0437341357417399E-002   7.3350920644058931E-002   0.0000000000000000     
   2.1320544964760116E-002   7.9491903082915885E-002   0.0000000000000000     
   1.4016568868532545E-002   5.5781925989145068E-002   0.0000000000000000     
   1.4787087761848002E-002   6.1372948114002984E-002   0.0000000000000000     
   1.5535827164540054E-002   6.7149900109314375E-002   0.0000000000000000     
   1.6262787076608699E-002   7.3112781975079227E-002   0.0000000000000000     
   1.6967967498053932E-002   7.9261593711297526E-002   0.0000000000000000     
   3.4865727138735661E-002   8.0494933448203673E-002   0.0000000000000000     
   3.6221620864189959E-002   8.6768930007872488E-002   0.0000000000000000     
   3.7517403035738160E-002   9.3200146445963708E-002   0.0000000000000000     
   3.8753073653380286E-002   9.9788582762477346E-002   0.0000000000000000     
   3.9928632717116316E-002  0.10653423895741337        0.0000000000000000     
   3.0269424785100980E-002   8.0108572951368959E-002   0.0000000000000000     
   3.1458116990410116E-002   8.6397698871292242E-002   0.0000000000000000     
   3.2593012269278882E-002   9.2843901340185789E-002   0.0000000000000000     
   3.3674110621707297E-002   9.9447180358049600E-002   0.0000000000000000     
   3.4701412047695335E-002  0.10620753592488365        0.0000000000000000     
   2.5754364060442469E-002   7.9774229496273039E-002   0.0000000000000000     
   2.6774470371539953E-002   8.6076183852706170E-002   0.0000000000000000     
   2.7747733465783728E-002   9.2535274264146428E-002   0.0000000000000000     
   2.8674153343173799E-002   9.9151500730593811E-002   0.0000000000000000     
   2.9553730003710164E-002  0.10592486325204831        0.0000000000000000     
   2.1320544964760116E-002   7.9491903082915885E-002   0.0000000000000000     
   2.2170681007579469E-002   8.5804384952114260E-002   0.0000000000000000     
   2.2981566625252699E-002   9.2274265217845625E-002   0.0000000000000000     
   2.3753201817779807E-002   9.8901543880109966E-002   0.0000000000000000     
   2.4485586585160792E-002  0.10568622093890732        0.0000000000000000     
   1.6967967498053932E-002   7.9261593711297526E-002   0.0000000000000000     
   1.7646748898528668E-002   8.5582302169516497E-002   0.0000000000000000     
   1.8294511747685795E-002   9.2060874201283366E-002   0.0000000000000000     
   1.8911256045525311E-002   9.8697309806598091E-002   0.0000000000000000     
   1.9496981792047223E-002  0.10549160898546070        0.0000000000000000     
   3.9928632717116316E-002  0.10653423895741337        0.0000000000000000     
   4.1057239390194261E-002  0.11342615113328933        0.0000000000000000     
   4.2152052835862104E-002  0.12045335539262268        0.0000000000000000     
   4.3213073054119880E-002  0.12761585173541345        0.0000000000000000     
   4.4240300044967554E-002  0.13491364016166169        0.0000000000000000     
   3.4701412047695335E-002  0.10620753592488365        0.0000000000000000     
   3.5687588709640373E-002  0.11311436867869504        0.0000000000000000     
   3.6645312769939764E-002  0.12015707925749081        0.0000000000000000     
   3.7574584228593499E-002  0.12733566766127094        0.0000000000000000     
   3.8475403085601600E-002  0.13465013389003547        0.0000000000000000     
   2.9553730003710164E-002  0.10592486325204831        0.0000000000000000     
   3.0397951273454613E-002  0.11284493463501775        0.0000000000000000     
   3.1218304978468937E-002  0.11990128768601004        0.0000000000000000     
   3.2014791118753147E-002  0.12709392240502507        0.0000000000000000     
   3.2787409694307219E-002  0.13442283879206293        0.0000000000000000     
   2.4485586585160792E-002  0.10568622093890732        0.0000000000000000     
   2.5188327081636961E-002  0.11261784900225751        0.0000000000000000     
   2.5871029461449622E-002  0.11968598067818034        0.0000000000000000     
   2.6533693724598774E-002  0.12689061596667586        0.0000000000000000     
   2.7176319871084424E-002  0.13423175486774402        0.0000000000000000     
   1.9496981792047223E-002  0.10549160898546070        0.0000000000000000     
   2.0058716134187426E-002  0.11243311178041426        0.0000000000000000     
   2.0603486218881827E-002  0.11951115823400178        0.0000000000000000     
   2.1131292046130425E-002  0.12672574834622330        0.0000000000000000     
   2.1642133615933208E-002  0.13407688211707880        0.0000000000000000     
   4.4240300044967554E-002  0.13491364016166169        0.0000000000000000     
   4.5209493508760745E-002  0.14233404006265846        0.0000000000000000     
   4.6096413145855074E-002  0.14986437082969500        0.0000000000000000     
   4.6901058956250505E-002  0.15750463246277130        0.0000000000000000     
   4.7623430939947073E-002  0.16525482496188740        0.0000000000000000     
   3.8475403085601600E-002  0.13465013389003547        0.0000000000000000     
   3.9322861031469897E-002  0.14208751147459467        0.0000000000000000     
   4.0092049756704259E-002  0.14963483394575888        0.0000000000000000     
   4.0782969261304668E-002  0.15729210130352803        0.0000000000000000     
   4.1395619545271156E-002  0.16505931354790218        0.0000000000000000     
   3.2787409694307219E-002  0.13442283879206293        0.0000000000000000     
   3.3512792094880686E-002  0.14187497089837400        0.0000000000000000     
   3.4167569710223021E-002  0.14943725277520864        0.0000000000000000     
   3.4751742540334224E-002  0.15710968442256690        0.0000000000000000     
   3.5265310585214309E-002  0.16489226584044878        0.0000000000000000     
   2.7176319871084424E-002  0.13423175486774402        0.0000000000000000     
   2.7779286698993107E-002  0.14169641833399635        0.0000000000000000     
   2.8322973006411352E-002  0.14927162731804430        0.0000000000000000     
   2.8807378793339167E-002  0.15695738181988791        0.0000000000000000     
   2.9232504059776544E-002  0.16475368183952713        0.0000000000000000     
   2.1642133615933208E-002  0.13407688211707880        0.0000000000000000     
   2.2122344843807165E-002  0.14155185378146182        0.0000000000000000     
   2.2558259645269259E-002  0.14913795757426590        0.0000000000000000     
   2.2949878020319489E-002  0.15683519349549105        0.0000000000000000     
   2.3297199968957856E-002  0.16464356154513726        0.0000000000000000     
   0.0000000000000000        0.0000000000000000        0.0000000000000000     
   8.4165936579528341E-004   1.1099807333157070E-003   0.0000000000000000     
   1.7021084139179142E-003   2.5981481911759368E-003   0.0000000000000000     
   2.5813471443678921E-003   4.4645023735806894E-003   0.0000000000000000     
   3.4793755571452174E-003   6.7090432805299652E-003   0.0000000000000000     
   0.0000000000000000        0.0000000000000000        0.0000000000000000     
   6.3381683254222986E-004   1.0939682888714702E-003   0.0000000000000000     
   1.2780301801934939E-003   2.5620774974272620E-003   0.0000000000000000     
   1.9326400429537918E-003   4.4043276256673742E-003   0.0000000000000000     
   2.5976464208231241E-003   6.6207186735918093E-003   0.0000000000000000     
   0.0000000000000000        0.0000000000000000        0.0000000000000000     
   4.2425942713488537E-004   1.0825308285858910E-003   0.0000000000000000     
   8.5298603323989328E-004   2.5363127162410198E-003   0.0000000000000000     
   1.2861798183150233E-003   4.3613456629653857E-003   0.0000000000000000     
   1.7238407823602763E-003   6.5576296687589906E-003   0.0000000000000000     
   0.0000000000000000        0.0000000000000000        0.0000000000000000     
   2.1298714957325001E-004   1.0756683524589692E-003   0.0000000000000000     
   4.2697597305711211E-004   2.5208538476172099E-003   0.0000000000000000     
   6.4196647045158632E-004   4.3355564854747229E-003   0.0000000000000000     
   8.5795864175667268E-004   6.5197762660315073E-003   0.0000000000000000     
   0.0000000000000000        0.0000000000000000        0.0000000000000000     
  -1.4267628961964207E-013   1.0733808604907048E-003   0.0000000000000000     
  -3.5484934218441011E-013   2.5157008915558327E-003   0.0000000000000000     
  -6.3651921190441274E-013   4.3269600931953849E-003   0.0000000000000000     
  -9.8768579035943271E-013   6.5071584654093602E-003   0.0000000000000000     
   3.4793755571452174E-003   6.7090432805299652E-003   0.0000000000000000     
   4.3879132962617220E-003   9.2943920555357950E-003   0.0000000000000000     
   5.2986800057292401E-003   1.2183169842110212E-002   0.0000000000000000     
   6.2116756855477703E-003   1.5375376640253216E-002   0.0000000000000000     
   7.1269003357173136E-003   1.8871012449964801E-002   0.0000000000000000     
   2.5976464208231241E-003   6.6207186735918093E-003   0.0000000000000000     
   3.2700552533438832E-003   9.1782291362793120E-003   0.0000000000000000     
   3.9468724800584614E-003   1.2043837508808624E-002   0.0000000000000000     
   4.6280981009668596E-003   1.5217543791179757E-002   0.0000000000000000     
   5.3137321160690761E-003   1.8699347983392699E-002   0.0000000000000000     
   1.7238407823602763E-003   6.5576296687589906E-003   0.0000000000000000     
   2.1661170227568710E-003   9.0952556226766273E-003   0.0000000000000000     
   2.6131566368860271E-003   1.1944314413773091E-002   0.0000000000000000     
   3.0649596247477456E-003   1.5104806042048384E-002   0.0000000000000000     
   3.5215259863420269E-003   1.8576730507502505E-002   0.0000000000000000     
   8.5795864175667268E-004   6.5197762660315073E-003   0.0000000000000000     
   1.0760986045006853E-003   9.0454715147277407E-003   0.0000000000000000     
   1.2975324762119381E-003   1.1884600557003609E-002   0.0000000000000000     
   1.5222602568904309E-003   1.5037163392859100E-002   0.0000000000000000     
   1.7502819465361644E-003   1.8503160022294227E-002   0.0000000000000000     
  -9.8768579035943271E-013   6.5071584654093602E-003   0.0000000000000000     
  -1.4246736657150955E-012   9.0288768124326575E-003   0.0000000000000000     
  -1.9638067349581415E-012   1.1864695938500173E-002   0.0000000000000000     
  -2.6050859637061306E-012   1.5014615843611908E-002   0.0000000000000000     
  -3.3485101627248048E-012   1.8478636527767860E-002   0.0000000000000000     
   7.1269003357173136E-003   1.8871012449964801E-002   0.0000000000000000     
   8.0378899849214459E-003   2.2644322055052648E-002   0.0000000000000000     
   8.9381806618437400E-003   2.6669550239324390E-002   0.0000000000000000     
   9.8277723664841974E-003   3.0946697002780053E-002   0.0000000000000000     
   1.0706665098842820E-002   3.5475762345419617E-002   0.0000000000000000     
   5.3137321160690761E-003   1.8699347983392699E-002   0.0000000000000000     
   5.9969621303057243E-003   2.2462039622525125E-002   0.0000000000000000     
   6.6709757486174146E-003   2.6478408245654703E-002   0.0000000000000000     
   7.3357729710041460E-003   3.0748453852781441E-002   0.0000000000000000     
   7.9913537974659211E-003   3.5272176443905331E-002   0.0000000000000000     
   3.5215259863420269E-003   1.8576730507502505E-002   0.0000000000000000     
   3.9770045139148613E-003   2.2331837885267738E-002   0.0000000000000000     
   4.4255439997122441E-003   2.6341878250476364E-002   0.0000000000000000     
   4.8671444437341747E-003   3.0606851603128385E-002   0.0000000000000000     
   5.3018058459806524E-003   3.5126757943223799E-002   0.0000000000000000     
   1.7502819465361644E-003   1.8503160022294227E-002   0.0000000000000000     
   1.9780171357488574E-003   2.2253716843280483E-002   0.0000000000000000     
   2.2018854151282306E-003   2.6259960253789367E-002   0.0000000000000000     
   2.4218867846742837E-003   3.0521890253820887E-002   0.0000000000000000     
   2.6380212443870162E-003   3.5039506843375028E-002   0.0000000000000000     
  -3.3485101627248048E-012   1.8478636527767860E-002   0.0000000000000000     
  -4.1922877929562175E-012   2.2227676496563358E-002   0.0000000000000000     
  -5.1346266377160638E-012   2.6232654255593714E-002   0.0000000000000000     
  -6.1755265004927000E-012   3.0493569804858935E-002   0.0000000000000000     
  -7.3149873745098626E-012   3.5010423144359024E-002   0.0000000000000000     
   1.0706665098842820E-002   3.5475762345419617E-002   0.0000000000000000     
   1.1568691519111706E-002   4.0236166047326105E-002   0.0000000000000000     
   1.2407684287482955E-002   4.5207327888582512E-002   0.0000000000000000     
   1.3223643403956568E-002   5.0389247869188830E-002   0.0000000000000000     
   1.4016568868532545E-002   5.5781925989145068E-002   0.0000000000000000     
   7.9913537974659211E-003   3.5272176443905331E-002   0.0000000000000000     
   8.6341702152766681E-003   4.0029357737327076E-002   0.0000000000000000     
   9.2606742117103281E-003   4.4999779451347373E-002   0.0000000000000000     
   9.8708657867668942E-003   5.0183441585966215E-002   0.0000000000000000     
   1.0464744940446372E-002   5.5580344141183624E-002   0.0000000000000000     
   5.3018058459806524E-003   3.5126757943223799E-002   0.0000000000000000     
   5.7278811926945892E-003   3.9881637516356268E-002   0.0000000000000000     
   6.1437234701188989E-003   4.4851530568119455E-002   0.0000000000000000     
   6.5493326782535806E-003   5.0036437098513326E-002   0.0000000000000000     
   6.9447088170986335E-003   5.5436357107537929E-002   0.0000000000000000     
   2.6380212443870162E-003   3.5039506843375028E-002   0.0000000000000000     
   2.8498244513654653E-003   3.9793005384413695E-002   0.0000000000000000     
   3.0568320627086688E-003   4.4762581238898737E-002   0.0000000000000000     
   3.2590440784166261E-003   4.9948234406830182E-002   0.0000000000000000     
   3.4564604984893364E-003   5.5349964888208002E-002   0.0000000000000000     
  -7.3149873745098626E-012   3.5010423144359024E-002   0.0000000000000000     
  -8.7107014309917297E-012   3.9763461341499329E-002   0.0000000000000000     
  -1.0520362575885955E-011   4.4732931463685233E-002   0.0000000000000000     
  -1.2743969453939824E-011   4.9918833510916742E-002   0.0000000000000000     
  -1.5381522661464531E-011   5.5321167483193830E-002   0.0000000000000000     
   1.4016568868532545E-002   5.5781925989145068E-002   0.0000000000000000     
   1.4787087761848002E-002   6.1372948114002984E-002   0.0000000000000000     
   1.5535827164540054E-002   6.7149900109314375E-002   0.0000000000000000     
   1.6262787076608699E-002   7.3112781975079227E-002   0.0000000000000000     
   1.6967967498053932E-002   7.9261593711297526E-002   0.0000000000000000     
   1.0464744940446372E-002   5.5580344141183624E-002   0.0000000000000000     
   1.1042084466314335E-002   6.1176891610687609E-002   0.0000000000000000     
   1.1602657157936369E-002   6.6959488488166213E-002   0.0000000000000000     
   1.2146463015312475E-002   7.2928134773619466E-002   0.0000000000000000     
   1.2673502038442648E-002   7.9082830467047352E-002   0.0000000000000000     
   6.9447088170986335E-003   5.5436357107537929E-002   0.0000000000000000     
   7.3292354044329610E-003   6.1036851251808945E-002   0.0000000000000000     
   7.7022959580354622E-003   6.6823480187942083E-002   0.0000000000000000     
   8.0638904779061389E-003   7.2796243915937336E-002   0.0000000000000000     
   8.4140189640449867E-003   7.8955142435794740E-002   0.0000000000000000     
   3.4564604984893364E-003   5.5349964888208002E-002   0.0000000000000000     
   3.6485405762038789E-003   6.0952827037366999E-002   0.0000000000000000     
   3.8347435648373278E-003   6.6741875208641957E-002   0.0000000000000000     
   4.0150694643896851E-003   7.2717109402032853E-002   0.0000000000000000     
   4.1895182748609514E-003   7.8878529617539703E-002   0.0000000000000000     
  -1.5381522661464531E-011   5.5321167483193830E-002   0.0000000000000000     
  -1.8372913542126501E-011   6.0924818967361773E-002   0.0000000000000000     
  -2.1658033276961836E-011   6.6714673550265821E-002   0.0000000000000000     
  -2.5236881987943278E-011   7.2690731231905975E-002   0.0000000000000000     
  -2.9109459634413248E-011   7.8852992012282241E-002   0.0000000000000000     
   1.6967967498053932E-002   7.9261593711297526E-002   0.0000000000000000     
   1.7646748898528668E-002   8.5582302169516497E-002   0.0000000000000000     
   1.8294511747685795E-002   9.2060874201283366E-002   0.0000000000000000     
   1.8911256045525311E-002   9.8697309806598091E-002   0.0000000000000000     
   1.9496981792047223E-002  0.10549160898546070        0.0000000000000000     
   1.2673502038442648E-002   7.9082830467047352E-002   0.0000000000000000     
   1.3180824479120709E-002   8.5409730536439077E-002   0.0000000000000000     
   1.3665480589140480E-002   9.1894989949783915E-002   0.0000000000000000     
   1.4127470368501953E-002   9.8538608707081837E-002   0.0000000000000000     
   1.4566793817205137E-002  0.10534058680833289        0.0000000000000000     
   8.4140189640449867E-003   7.8955142435794740E-002   0.0000000000000000     
   8.7510581840887659E-003   8.5286465084408167E-002   0.0000000000000000     
   9.0733849056742304E-003   9.1776501198671576E-002   0.0000000000000000     
   9.3809991288013768E-003   9.8425250778584952E-002   0.0000000000000000     
   9.6739008534702103E-003  0.10523271382414830        0.0000000000000000     
   4.1895182748609514E-003   7.8878529617539703E-002   0.0000000000000000     
   4.3574500134328335E-003   8.5212505813423767E-002   0.0000000000000000     
   4.5182246972870436E-003   9.1705407947946335E-002   0.0000000000000000     
   4.6718423264235807E-003   9.8357236021107394E-002   0.0000000000000000     
   4.8183029008424440E-003  0.10516799003290696        0.0000000000000000     
  -2.9109459634413248E-011   7.8852992012282241E-002   0.0000000000000000     
  -3.2847085728454628E-011   8.5187852723485905E-002   0.0000000000000000     
  -3.6021078372687476E-011   9.1681710197608207E-002   0.0000000000000000     
  -3.8631437323166304E-011   9.8334564434649191E-002   0.0000000000000000     
  -4.0678162227525405E-011  0.10514641543460884        0.0000000000000000     
   1.9496981792047223E-002  0.10549160898546070        0.0000000000000000     
   2.0058716134187426E-002  0.11243311178041426        0.0000000000000000     
   2.0603486218881827E-002  0.11951115823400178        0.0000000000000000     
   2.1131292046130425E-002  0.12672574834622330        0.0000000000000000     
   2.1642133615933208E-002  0.13407688211707880        0.0000000000000000     
   1.4566793817205137E-002  0.10534058680833289        0.0000000000000000     
   1.4987843129204688E-002  0.11228999414073486        0.0000000000000000     
   1.5395010498455279E-002  0.11937590059148560        0.0000000000000000     
   1.5788295924956907E-002  0.12659830616058509        0.0000000000000000     
   1.6167699408709570E-002  0.13395721084803333        0.0000000000000000     
   9.6739008534702103E-003  0.10523271382414830        0.0000000000000000     
   9.9544327647874218E-003  0.11218776725446614        0.0000000000000000     
   1.0224937547859709E-002  0.11927928798864301        0.0000000000000000     
   1.0485415202687068E-002  0.12650727602667891        0.0000000000000000     
   1.0735865729269500E-002  0.13387173136857383        0.0000000000000000     
   4.8183029008424440E-003  0.10516799003290696        0.0000000000000000     
   4.9584850409356233E-003  0.11212643112160815        0.0000000000000000     
   5.0932673670951098E-003  0.11922132042547408        0.0000000000000000     
   5.2226498793209028E-003  0.12645265794450478        0.0000000000000000     
   5.3466325776130030E-003  0.13382044367870025        0.0000000000000000     
  -4.0678162227525405E-011  0.10514641543460884        0.0000000000000000     
  -4.2350704106824955E-011  0.11210598574216081        0.0000000000000000     
  -4.3838512355821868E-011  0.11920199790197875        0.0000000000000000     
  -4.5141586351099897E-011  0.12643445191406272        0.0000000000000000     
  -4.6259926011343877E-011  0.13380334777841260        0.0000000000000000     
   2.1642133615933208E-002  0.13407688211707880        0.0000000000000000     
   2.2122344843807165E-002  0.14155185378146182        0.0000000000000000     
   2.2558259645269259E-002  0.14913795757426590        0.0000000000000000     
   2.2949878020319489E-002  0.15683519349549105        0.0000000000000000     
   2.3297199968957856E-002  0.16464356154513726        0.0000000000000000     
   1.6167699408709570E-002  0.13395721084803333        0.0000000000000000     
   1.6525703224665109E-002  0.14144022955209223        0.0000000000000000     
   1.6854789647775363E-002  0.14903497717102354        0.0000000000000000     
   1.7154958678040330E-002  0.15674145370482734        0.0000000000000000     
   1.7426210315460010E-002  0.16455965915350357        0.0000000000000000     
   1.0735865729269500E-002  0.13387173136857383        0.0000000000000000     
   1.0973098536909183E-002  0.14136049795720942        0.0000000000000000     
   1.1193923034908290E-002  0.14896141973546737        0.0000000000000000     
   1.1398339223266822E-002  0.15667449670334768        0.0000000000000000     
   1.1586347101984779E-002  0.16449972886085035        0.0000000000000000     
   5.3466325776130030E-003  0.13382044367870025        0.0000000000000000     
   5.4645307805393888E-003  0.14131265899681347        0.0000000000000000     
   5.5756598066680424E-003  0.14891728526759743        0.0000000000000000     
   5.6800196559989649E-003  0.15663432249105216        0.0000000000000000     
   5.7776103285321536E-003  0.16446377066717763        0.0000000000000000     
  -4.6259926011343877E-011  0.13380334777841260        0.0000000000000000     
  -4.4444276601010579E-011  0.14129671267090435        0.0000000000000000     
  -3.6945381975093949E-011  0.14890257376741370        0.0000000000000000     
  -2.3763243190691105E-011  0.15662093106794076        0.0000000000000000     
  -4.8978607627980786E-012  0.16445178457248544        0.0000000000000000     
   0.0000000000000000        0.0000000000000000        0.0000000000000000     
  -1.4267628961964207E-013   1.0733808604907048E-003   0.0000000000000000     
  -3.5484934218441011E-013   2.5157008915558327E-003   0.0000000000000000     
  -6.3651921190441274E-013   4.3269600931953849E-003   0.0000000000000000     
  -9.8768579035943271E-013   6.5071584654093602E-003   0.0000000000000000     
   0.0000000000000000        0.0000000000000000        0.0000000000000000     
  -2.1298714985067919E-004   1.0756683526753348E-003   0.0000000000000000     
  -4.2697597374863908E-004   2.5208538480452100E-003   0.0000000000000000     
  -6.4196647169387938E-004   4.3355564861096256E-003   0.0000000000000000     
  -8.5795864368640054E-004   6.5197762668685825E-003   0.0000000000000000     
   0.0000000000000000        0.0000000000000000        0.0000000000000000     
  -4.2425942738854455E-004   1.0825308290070956E-003   0.0000000000000000     
  -8.5298603387690467E-004   2.5363127170736624E-003   0.0000000000000000     
  -1.2861798194650806E-003   4.3613456641996987E-003   0.0000000000000000     
  -1.7238407841530725E-003   6.5576296703852063E-003   0.0000000000000000     
   0.0000000000000000        0.0000000000000000        0.0000000000000000     
  -6.3381683275627219E-004   1.0939682894859878E-003   0.0000000000000000     
  -1.2780301807396464E-003   2.5620774986411894E-003   0.0000000000000000     
  -1.9326400439501226E-003   4.4043276274656033E-003   0.0000000000000000     
  -2.5976464223877011E-003   6.6207186759592316E-003   0.0000000000000000     
   0.0000000000000000        0.0000000000000000        0.0000000000000000     
  -8.4165936595386218E-004   1.1099807341120110E-003   0.0000000000000000     
  -1.7021084143368642E-003   2.5981481927477910E-003   0.0000000000000000     
  -2.5813471451490060E-003   4.4645023759073404E-003   0.0000000000000000     
  -3.4793755583902878E-003   6.7090432835906566E-003   0.0000000000000000     
  -9.8768579035943271E-013   6.5071584654093602E-003   0.0000000000000000     
  -1.4246736657150955E-012   9.0288768124326575E-003   0.0000000000000000     
  -1.9638067349581415E-012   1.1864695938500173E-002   0.0000000000000000     
  -2.6050859637061306E-012   1.5014615843611908E-002   0.0000000000000000     
  -3.3485101627248048E-012   1.8478636527767860E-002   0.0000000000000000     
  -8.5795864368640054E-004   6.5197762668685825E-003   0.0000000000000000     
  -1.0760986072876732E-003   9.0454715157625761E-003   0.0000000000000000     
  -1.2975324800591687E-003   1.1884600558232107E-002   0.0000000000000000     
  -1.5222602620008877E-003   1.5037163394277166E-002   0.0000000000000000     
  -1.7502819531128287E-003   1.8503160023897767E-002   0.0000000000000000     
  -1.7238407841530725E-003   6.5576296703852063E-003   0.0000000000000000     
  -2.1661170253567817E-003   9.0952556246887070E-003   0.0000000000000000     
  -2.6131566404921100E-003   1.1944314416168720E-002   0.0000000000000000     
  -3.0649596295590571E-003   1.5104806044825248E-002   0.0000000000000000     
  -3.5215259925576231E-003   1.8576730510658293E-002   0.0000000000000000     
  -2.5976464223877011E-003   6.6207186759592316E-003   0.0000000000000000     
  -3.2700552556319982E-003   9.1782291392110450E-003   0.0000000000000000     
  -3.9468724832626293E-003   1.2043837512310019E-002   0.0000000000000000     
  -4.6280981052795947E-003   1.5217543795256149E-002   0.0000000000000000     
  -5.3137321216828954E-003   1.8699347988049442E-002   0.0000000000000000     
  -3.4793755583902878E-003   6.7090432835906566E-003   0.0000000000000000     
  -4.3879132981133242E-003   9.2943920593295936E-003   0.0000000000000000     
  -5.2986800083707278E-003   1.2183169846655998E-002   0.0000000000000000     
  -6.2116756891625012E-003   1.5375376645569870E-002   0.0000000000000000     
  -7.1269003404886419E-003   1.8871012456071215E-002   0.0000000000000000     
  -3.3485101627248048E-012   1.8478636527767860E-002   0.0000000000000000     
  -4.1922877929562175E-012   2.2227676496563358E-002   0.0000000000000000     
  -5.1346266377160638E-012   2.6232654255593714E-002   0.0000000000000000     
  -6.1755265004927000E-012   3.0493569804858935E-002   0.0000000000000000     
  -7.3149873745098626E-012   3.5010423144359024E-002   0.0000000000000000     
  -1.7502819531128287E-003   1.8503160023897767E-002   0.0000000000000000     
  -1.9780171439890853E-003   2.2253716845090307E-002   0.0000000000000000     
  -2.2018854252237497E-003   2.6259960255851197E-002   0.0000000000000000     
  -2.4218867968168203E-003   3.0521890256180434E-002   0.0000000000000000     
  -2.6380212587682993E-003   3.5039506846078025E-002   0.0000000000000000     
  -3.5215259925576231E-003   1.8576730510658293E-002   0.0000000000000000     
  -3.9770045217220459E-003   2.2331837888835269E-002   0.0000000000000000     
  -4.4255440092865602E-003   2.6341878254523589E-002   0.0000000000000000     
  -4.8671444552511644E-003   3.0606851607723272E-002   0.0000000000000000     
  -5.3018058596158626E-003   3.5126757948434305E-002   0.0000000000000000     
  -5.3137321216828954E-003   1.8699347988049442E-002   0.0000000000000000     
  -5.9969621373911694E-003   2.2462039627798244E-002   0.0000000000000000     
  -6.6709757573230558E-003   2.6478408251610915E-002   0.0000000000000000     
  -7.3357729814785590E-003   3.0748453859487445E-002   0.0000000000000000     
  -7.9913538098576754E-003   3.5272176451427856E-002   0.0000000000000000     
  -7.1269003404886419E-003   1.8871012456071215E-002   0.0000000000000000     
  -8.0378899909964545E-003   2.2644322061979236E-002   0.0000000000000000     
  -8.9381806693332420E-003   2.6669550247113153E-002   0.0000000000000000     
  -9.8277723754990019E-003   3.0946697011472967E-002   0.0000000000000000     
  -1.0706665109493738E-002   3.5475762355058671E-002   0.0000000000000000     
  -7.3149873745098626E-012   3.5010423144359024E-002   0.0000000000000000     
  -8.7107014309917297E-012   3.9763461341499329E-002   0.0000000000000000     
  -1.0520362575885955E-011   4.4732931463685233E-002   0.0000000000000000     
  -1.2743969453939824E-011   4.9918833510916742E-002   0.0000000000000000     
  -1.5381522661464531E-011   5.5321167483193830E-002   0.0000000000000000     
  -2.6380212587682993E-003   3.5039506846078025E-002   0.0000000000000000     
  -2.8498244684877568E-003   3.9793005387478257E-002   0.0000000000000000     
  -3.0568320833847655E-003   4.4762581242315407E-002   0.0000000000000000     
  -3.2590441034593240E-003   4.9948234410589487E-002   0.0000000000000000     
  -3.4564605287114324E-003   5.5349964892300485E-002   0.0000000000000000     
  -5.3018058596158626E-003   3.5126757948434305E-002   0.0000000000000000     
  -5.7278812089195464E-003   3.9881637522215498E-002   0.0000000000000000     
  -6.1437234897011115E-003   4.4851530574625695E-002   0.0000000000000000     
  -6.5493327019605571E-003   5.0036437105664869E-002   0.0000000000000000     
  -6.9447088456978849E-003   5.5436357115333040E-002   0.0000000000000000     
  -7.9913538098576754E-003   3.5272176451427856E-002   0.0000000000000000     
  -8.6341702300060681E-003   4.0029357745711078E-002   0.0000000000000000     
  -9.2606742294693983E-003   4.4999779460616098E-002   0.0000000000000000     
  -9.8708658082476697E-003   5.0183441596142894E-002   0.0000000000000000     
  -1.0464744966340879E-002   5.5580344152291489E-002   0.0000000000000000     
  -1.0706665109493738E-002   3.5475762355058671E-002   0.0000000000000000     
  -1.1568691531747322E-002   4.0236166057964977E-002   0.0000000000000000     
  -1.2407684302689631E-002   4.5207327900286615E-002   0.0000000000000000     
  -1.3223643422320661E-002   5.0389247882023556E-002   0.0000000000000000     
  -1.4016568890640412E-002   5.5781926003175816E-002   0.0000000000000000     
  -1.5381522661464531E-011   5.5321167483193830E-002   0.0000000000000000     
  -1.8372913542126501E-011   6.0924818967361773E-002   0.0000000000000000     
  -2.1658033276961836E-011   6.6714673550265821E-002   0.0000000000000000     
  -2.5236881987943278E-011   7.2690731231905975E-002   0.0000000000000000     
  -2.9109459634413248E-011   7.8852992012282241E-002   0.0000000000000000     
  -3.4564605287114324E-003   5.5349964892300485E-002   0.0000000000000000     
  -3.6485406123143863E-003   6.0952827041612437E-002   0.0000000000000000     
  -3.8347436074414754E-003   6.6741875212689317E-002   0.0000000000000000     
  -4.0150695140927046E-003   7.2717109405531125E-002   0.0000000000000000     
  -4.1895183322680687E-003   7.8878529620137861E-002   0.0000000000000000     
  -6.9447088456978849E-003   5.5436357115333040E-002   0.0000000000000000     
  -7.3292354386375125E-003   6.1036851259938102E-002   0.0000000000000000     
  -7.7022959985038556E-003   6.6823480195787946E-002   0.0000000000000000     
  -8.0638905252969195E-003   7.2796243922882586E-002   0.0000000000000000     
  -8.4140190190166980E-003   7.8955142441221995E-002   0.0000000000000000     
  -1.0464744966340879E-002   5.5580344152291489E-002   0.0000000000000000     
  -1.1042084497342291E-002   6.1176891622338803E-002   0.0000000000000000     
  -1.1602657194845174E-002   6.6959488499561765E-002   0.0000000000000000     
  -1.2146463058849529E-002   7.2928134783960402E-002   0.0000000000000000     
  -1.2673502089355349E-002   7.9082830475534688E-002   0.0000000000000000     
  -1.4016568890640412E-002   5.5781926003175816E-002   0.0000000000000000     
  -1.4787087788428722E-002   6.1372948128814525E-002   0.0000000000000000     
  -1.5535827196465429E-002   6.7149900124010772E-002   0.0000000000000000     
  -1.6262787114750529E-002   7.3112781988764558E-002   0.0000000000000000     
  -1.6967967543284022E-002   7.9261593723075910E-002   0.0000000000000000     
  -2.9109459634413248E-011   7.8852992012282241E-002   0.0000000000000000     
  -3.2847085728454628E-011   8.5187852723485905E-002   0.0000000000000000     
  -3.6021078372687476E-011   9.1681710197608207E-002   0.0000000000000000     
  -3.8631437323166304E-011   9.8334564434649191E-002   0.0000000000000000     
  -4.0678162227525405E-011  0.10514641543460884        0.0000000000000000     
  -4.1895183322680687E-003   7.8878529620137861E-002   0.0000000000000000     
  -4.3574500782812076E-003   8.5212505814818290E-002   0.0000000000000000     
  -4.5182247684457562E-003   9.1705407947881179E-002   0.0000000000000000     
  -4.6718424027617153E-003   9.8357236019326486E-002   0.0000000000000000     
  -4.8183029812290858E-003  0.10516799002915422        0.0000000000000000     
  -8.4140190190166980E-003   7.8955142441221995E-002   0.0000000000000000     
  -8.7510582463997469E-003   8.5286465087644717E-002   0.0000000000000000     
  -9.0733849741826134E-003   9.1776501198989169E-002   0.0000000000000000     
  -9.3809992023652956E-003   9.8425250775255380E-002   0.0000000000000000     
  -9.6739009309477972E-003  0.10523271381644338        0.0000000000000000     
  -1.2673502089355349E-002   7.9082830475534688E-002   0.0000000000000000     
  -1.3180824537202703E-002   8.5409730541965129E-002   0.0000000000000000     
  -1.3665480653231645E-002   9.1894989950932218E-002   0.0000000000000000     
  -1.4127470437442181E-002   9.8538608702435915E-002   0.0000000000000000     
  -1.4566793889834305E-002  0.10534058679647629        0.0000000000000000     
  -1.6967967543284022E-002   7.9261593723075910E-002   0.0000000000000000     
  -1.7646748950690076E-002   8.5582302177779568E-002   0.0000000000000000     
  -1.8294511805592856E-002   9.2060874203710286E-002   0.0000000000000000     
  -1.8911256107992366E-002   9.8697309800868105E-002   0.0000000000000000     
  -1.9496981857888600E-002  0.10549160896925297        0.0000000000000000     
  -4.0678162227525405E-011  0.10514641543460884        0.0000000000000000     
  -4.2350704106824955E-011  0.11210598574216081        0.0000000000000000     
  -4.3838512355821868E-011  0.11920199790197875        0.0000000000000000     
  -4.5141586351099897E-011  0.12643445191406272        0.0000000000000000     
  -4.6259926011343877E-011  0.13380334777841260        0.0000000000000000     
  -4.8183029812290858E-003  0.10516799002915422        0.0000000000000000     
  -4.9584851245455929E-003  0.11212643111576610        0.0000000000000000     
  -5.0932674534089704E-003  0.11922132041756385        0.0000000000000000     
  -5.2226499678192165E-003  0.12645265793454744        0.0000000000000000     
  -5.3466326677763295E-003  0.13382044366671686        0.0000000000000000     
  -9.6739009309477972E-003  0.10523271381644338        0.0000000000000000     
  -9.9544328451230731E-003  0.11218776724206600        0.0000000000000000     
  -1.0224937630084073E-002  0.11927928797163612        0.0000000000000000     
  -1.0485415285830803E-002  0.12650727600515377        0.0000000000000000     
  -1.0735865812363255E-002  0.13387173134261890        0.0000000000000000     
  -1.4566793889834305E-002  0.10534058679647629        0.0000000000000000     
  -1.4987843204083145E-002  0.11228999412106044        0.0000000000000000     
  -1.5395010573863822E-002  0.11937590056419560        0.0000000000000000     
  -1.5788295999176343E-002  0.12659830612588172        0.0000000000000000     
  -1.6167699480020704E-002  0.13395721080611880        0.0000000000000000     
  -1.9496981857888600E-002  0.10549160896925297        0.0000000000000000     
  -2.0058716201425804E-002  0.11243311175274948        0.0000000000000000     
  -2.0603486284748219E-002  0.11951115819524225        0.0000000000000000     
  -2.1131292107855838E-002  0.12672574829673125        0.0000000000000000     
  -2.1642133670748669E-002  0.13407688205721652        0.0000000000000000     
  -4.6259926011343877E-011  0.13380334777841260        0.0000000000000000     
  -4.4444276601010579E-011  0.14129671267090435        0.0000000000000000     
  -3.6945381975093949E-011  0.14890257376741370        0.0000000000000000     
  -2.3763243190691105E-011  0.15662093106794076        0.0000000000000000     
  -4.8978607627980786E-012  0.16445178457248544        0.0000000000000000     
  -5.3466326677763295E-003  0.13382044366671686        0.0000000000000000     
  -5.4645308665037928E-003  0.14131265897925921        0.0000000000000000     
  -5.5756598772250896E-003  0.14891728523736159        0.0000000000000000     
  -5.6800196999402166E-003  0.15663432244102407        0.0000000000000000     
  -5.7776103346491772E-003  0.16446377059024653        0.0000000000000000     
  -1.0735865812363255E-002  0.13387173134261890        0.0000000000000000     
  -1.0973098614101146E-002  0.14136049792165528        0.0000000000000000     
  -1.1193923095464185E-002  0.14896141967988652        0.0000000000000000     
  -1.1398339256452372E-002  0.15667449661731273        0.0000000000000000     
  -1.1586347097065706E-002  0.16449972873393379        0.0000000000000000     
  -1.6167699480020704E-002  0.13395721080611880        0.0000000000000000     
  -1.6525703287236328E-002  0.14144022949809248        0.0000000000000000     
  -1.6854789691662670E-002  0.14903497709498847        0.0000000000000000     
  -1.7154958693299707E-002  0.15674145359680669        0.0000000000000000     
  -1.7426210292147450E-002  0.16455965900354716        0.0000000000000000     
  -2.1642133670748669E-002  0.13407688205721652        0.0000000000000000     
  -2.2122344885909355E-002  0.14155185370857096        0.0000000000000000     
  -2.2558259665820538E-002  0.14913795748266742        0.0000000000000000     
  -2.2949878010482223E-002  0.15683519337950605        0.0000000000000000     
  -2.3297199919894405E-002  0.16464356139908670        0.0000000000000000     
   0.0000000000000000        0.0000000000000000        0.0000000000000000     
  -8.4165936595386218E-004   1.1099807341120110E-003   0.0000000000000000     
  -1.7021084143368642E-003   2.5981481927477910E-003   0.0000000000000000     
  -2.5813471451490060E-003   4.4645023759073404E-003   0.0000000000000000     
  -3.4793755583902878E-003   6.7090432835906566E-003   0.0000000000000000     
   0.0000000000000000        0.0000000000000000        0.0000000000000000     
  -1.0566886331124998E-003   1.1341331078318570E-003   0.0000000000000000     
  -2.1397557123882284E-003   2.6503782917800494E-003   0.0000000000000000     
  -3.2492012378271861E-003   4.5487355518445769E-003   0.0000000000000000     
  -4.3850252094293730E-003   6.8292048880254398E-003   0.0000000000000000     
   0.0000000000000000        0.0000000000000000        0.0000000000000000     
  -1.2878062403633708E-003   1.1699903555922172E-003   0.0000000000000000     
  -2.6055070526134114E-003   2.7246212881245455E-003   0.0000000000000000     
  -3.9531024367501204E-003   4.6638927975969843E-003   0.0000000000000000     
  -5.3305923927734989E-003   6.9878048840095351E-003   0.0000000000000000     
   0.0000000000000000        0.0000000000000000        0.0000000000000000     
  -1.5350121877064755E-003   1.2175524773930919E-003   0.0000000000000000     
  -3.0993624350124111E-003   2.8208771817812787E-003   0.0000000000000000     
  -4.6930507419178083E-003   4.8099741131645609E-003   0.0000000000000000     
  -6.3160771084226647E-003   7.1848432715429398E-003   0.0000000000000000     
   0.0000000000000000        0.0000000000000000        0.0000000000000000     
  -1.7983064751418128E-003   1.2768194732344805E-003   0.0000000000000000     
  -3.6213218595852288E-003   2.9391459727502499E-003   0.0000000000000000     
  -5.4690461533302495E-003   4.9869794985473092E-003   0.0000000000000000     
  -7.3414793563768730E-003   7.4203200506256558E-003   0.0000000000000000     
  -3.4793755583902878E-003   6.7090432835906566E-003   0.0000000000000000     
  -4.3879132981133242E-003   9.2943920593295936E-003   0.0000000000000000     
  -5.2986800083707278E-003   1.2183169846655998E-002   0.0000000000000000     
  -6.2116756891625012E-003   1.5375376645569870E-002   0.0000000000000000     
  -7.1269003404886419E-003   1.8871012456071215E-002   0.0000000000000000     
  -4.3850252094293730E-003   6.8292048880254398E-003   0.0000000000000000     
  -5.5342137213529666E-003   9.4497302287805968E-003   0.0000000000000000     
  -6.6837528677561441E-003   1.2368255502568008E-002   0.0000000000000000     
  -7.8336426486389065E-003   1.5584780709387673E-002   0.0000000000000000     
  -8.9838830640012537E-003   1.9099305849239592E-002   0.0000000000000000     
  -5.3305923927734989E-003   6.9878048840095351E-003   0.0000000000000000     
  -6.7234790939031336E-003   9.6502294913003040E-003   0.0000000000000000     
  -8.1172647133586160E-003   1.2605038563407398E-002   0.0000000000000000     
  -9.5119492511399478E-003   1.5852232100330817E-002   0.0000000000000000     
  -1.0907532707247126E-002   1.9391810102070566E-002   0.0000000000000000     
  -6.3160771084226647E-003   7.1848432715429398E-003   0.0000000000000000     
  -7.9557094157638297E-003   9.8958898468887082E-003   0.0000000000000000     
  -9.5992155451781486E-003   1.2893519029174164E-002   0.0000000000000000     
  -1.1246595496665622E-002   1.6177730818399298E-002   0.0000000000000000     
  -1.2897849270226249E-002   1.9748525214564123E-002   0.0000000000000000     
  -7.3414793563768730E-003   7.4203200506256558E-003   0.0000000000000000     
  -9.2309046869350521E-003   1.0186711295545815E-002   0.0000000000000000     
  -1.1129605363214739E-002   1.3233696899868303E-002   0.0000000000000000     
  -1.3037581385215930E-002   1.6561276863593124E-002   0.0000000000000000     
  -1.4954832752938629E-002   2.0169451186720276E-002   0.0000000000000000     
  -7.1269003404886419E-003   1.8871012456071215E-002   0.0000000000000000     
  -8.0378899909964545E-003   2.2644322061979236E-002   0.0000000000000000     
  -8.9381806693332420E-003   2.6669550247113153E-002   0.0000000000000000     
  -9.8277723754990019E-003   3.0946697011472967E-002   0.0000000000000000     
  -1.0706665109493738E-002   3.5475762355058671E-002   0.0000000000000000     
  -8.9838830640012537E-003   1.9099305849239592E-002   0.0000000000000000     
  -1.0127593944154288E-002   2.2887154643415467E-002   0.0000000000000000     
  -1.1257895119409118E-002   2.6923650813206992E-002   0.0000000000000000     
  -1.2374786589765732E-002   3.1208794358614178E-002   0.0000000000000000     
  -1.3478268355224140E-002   3.5742585279637015E-002   0.0000000000000000     
  -1.0907532707247126E-002   1.9391810102070566E-002   0.0000000000000000     
  -1.2293879858481066E-002   2.3199006824144157E-002   0.0000000000000000     
  -1.3660855481642684E-002   2.7249056522069118E-002   0.0000000000000000     
  -1.5008459576731990E-002   3.1541959195845432E-002   0.0000000000000000     
  -1.6336692143748974E-002   3.6077714845473133E-002   0.0000000000000000     
  -1.2897849270226249E-002   1.9748525214564123E-002   0.0000000000000000     
  -1.4536747733976774E-002   2.3579878604165307E-002   0.0000000000000000     
  -1.6147061756033948E-002   2.7645767373699514E-002   0.0000000000000000     
  -1.7728791336397771E-002   3.1946191523166752E-002   0.0000000000000000     
  -1.9281936475068234E-002   3.6481151052567024E-002   0.0000000000000000     
  -1.4954832752938629E-002   2.0169451186720276E-002   0.0000000000000000     
  -1.6856197570641426E-002   2.4029769983478912E-002   0.0000000000000000     
  -1.8716513942582908E-002   2.8113783368098194E-002   0.0000000000000000     
  -2.0535781868763075E-002   3.2421491340578118E-002   0.0000000000000000     
  -2.2314001349181923E-002   3.6952893900918687E-002   0.0000000000000000     
  -1.0706665109493738E-002   3.5475762355058671E-002   0.0000000000000000     
  -1.1568691531747322E-002   4.0236166057964977E-002   0.0000000000000000     
  -1.2407684302689631E-002   4.5207327900286615E-002   0.0000000000000000     
  -1.3223643422320661E-002   5.0389247882023556E-002   0.0000000000000000     
  -1.4016568890640412E-002   5.5781926003175816E-002   0.0000000000000000     
  -1.3478268355224140E-002   3.5742585279637015E-002   0.0000000000000000     
  -1.4560110663387910E-002   4.0504858164345819E-002   0.0000000000000000     
  -1.5612083761860612E-002   4.5475447600810903E-002   0.0000000000000000     
  -1.6634187650642250E-002   5.0654353589032253E-002   0.0000000000000000     
  -1.7626422329732813E-002   5.6041576129009896E-002   0.0000000000000000     
  -1.6336692143748974E-002   3.6077714845473133E-002   0.0000000000000000     
  -1.7637093174172433E-002   4.0838229770222195E-002   0.0000000000000000     
  -1.8901202659481153E-002   4.5805410269362620E-002   0.0000000000000000     
  -2.0129020599675154E-002   5.0979256342894401E-002   0.0000000000000000     
  -2.1320546994754414E-002   5.6359767990817551E-002   0.0000000000000000     
  -1.9281936475068234E-002   3.6481151052567024E-002   0.0000000000000000     
  -2.0799639064100886E-002   4.1236280875594097E-002   0.0000000000000000     
  -2.2275040995551269E-002   4.6197215905941745E-002   0.0000000000000000     
  -2.3708142269419370E-002   5.1363956143609994E-002   0.0000000000000000     
  -2.5098942885705206E-002   5.6736501588598803E-002   0.0000000000000000     
  -2.2314001349181923E-002   3.6952893900918687E-002   0.0000000000000000     
  -2.4047748333173278E-002   4.1699011480461540E-002   0.0000000000000000     
  -2.5733598770070934E-002   4.6650864510548312E-002   0.0000000000000000     
  -2.7371552659874909E-002   5.1808452991179012E-002   0.0000000000000000     
  -2.8961610002585195E-002   5.7171776922353632E-002   0.0000000000000000     
  -1.4016568890640412E-002   5.5781926003175816E-002   0.0000000000000000     
  -1.4787087788428722E-002   6.1372948128814525E-002   0.0000000000000000     
  -1.5535827196465429E-002   6.7149900124010772E-002   0.0000000000000000     
  -1.6262787114750529E-002   7.3112781988764558E-002   0.0000000000000000     
  -1.6967967543284022E-002   7.9261593723075910E-002   0.0000000000000000     
  -1.7626422329732813E-002   5.6041576129009896E-002   0.0000000000000000     
  -1.8590280052514611E-002   6.1625757176470022E-002   0.0000000000000000     
  -1.9527253072369938E-002   6.7395538687138823E-002   0.0000000000000000     
  -2.0437341389298792E-002   7.3350920661016339E-002   0.0000000000000000     
  -2.1320545003301175E-002   7.9491903098102529E-002   0.0000000000000000     
  -2.1320546994754414E-002   5.6359767990817551E-002   0.0000000000000000     
  -2.2477696030217761E-002   6.1936055162410054E-002   0.0000000000000000     
  -2.3602381891564026E-002   6.7697227806949867E-002   0.0000000000000000     
  -2.4694604578793196E-002   7.3643285924436988E-002   0.0000000000000000     
  -2.5754364091905284E-002   7.9774229514871425E-002   0.0000000000000000     
  -2.5098942885705206E-002   5.6736501588598803E-002   0.0000000000000000     
  -2.6449335721538174E-002   6.2303842086634628E-002   0.0000000000000000     
  -2.7761213654047684E-002   6.8054967483443862E-002   0.0000000000000000     
  -2.9034576683233736E-002   7.3989877779026506E-002   0.0000000000000000     
  -3.0269424809096335E-002   8.0108572973382586E-002   0.0000000000000000     
  -2.8961610002585195E-002   5.7171776922353632E-002   0.0000000000000000     
  -3.0505199126475847E-002   6.2729117949143723E-002   0.0000000000000000     
  -3.2003748359820922E-002   6.8468757716620809E-002   0.0000000000000000     
  -3.3457257702620410E-002   7.4390696224784919E-002   0.0000000000000000     
  -3.4865727154874335E-002   8.0494933473636038E-002   0.0000000000000000     
  -1.6967967543284022E-002   7.9261593723075910E-002   0.0000000000000000     
  -1.7646748950690076E-002   8.5582302177779568E-002   0.0000000000000000     
  -1.8294511805592856E-002   9.2060874203710286E-002   0.0000000000000000     
  -1.8911256107992366E-002   9.8697309800868105E-002   0.0000000000000000     
  -1.9496981857888600E-002  0.10549160896925297        0.0000000000000000     
  -2.1320545003301175E-002   7.9491903098102529E-002   0.0000000000000000     
  -2.2170681052671139E-002   8.5804384963383898E-002   0.0000000000000000     
  -2.2981566675702732E-002   9.2274265221846896E-002   0.0000000000000000     
  -2.3753201872395952E-002   9.8901543873491579E-002   0.0000000000000000     
  -2.4485586642750808E-002  0.10568622091831785        0.0000000000000000     
  -2.5754364091905284E-002   7.9774229514871425E-002   0.0000000000000000     
  -2.6774470408955170E-002   8.6076183867074010E-002   0.0000000000000000     
  -2.7747733507997759E-002   9.2535274269865547E-002   0.0000000000000000     
  -2.8674153389033046E-002   9.9151500723246022E-002   0.0000000000000000     
  -2.9553730052061036E-002  0.10592486322721546        0.0000000000000000     
  -3.0269424809096335E-002   8.0108572973382586E-002   0.0000000000000000     
  -3.1458117019542167E-002   8.6397698888849891E-002   0.0000000000000000     
  -3.2593012302477943E-002   9.2843901347766197E-002   0.0000000000000000     
  -3.3674110657903655E-002   9.9447180350131489E-002   0.0000000000000000     
  -3.4701412085819297E-002  0.10620753589594578        0.0000000000000000     
  -3.4865727154874335E-002   8.0494933473636038E-002   0.0000000000000000     
  -3.6221620884432128E-002   8.6768930028711527E-002   0.0000000000000000     
  -3.7517403059143271E-002   9.3200146455548832E-002   0.0000000000000000     
  -3.8753073679007759E-002   9.9788582754147925E-002   0.0000000000000000     
  -3.9928632744025583E-002  0.10653423892450881        0.0000000000000000     
  -1.9496981857888600E-002  0.10549160896925297        0.0000000000000000     
  -2.0058716201425804E-002  0.11243311175274948        0.0000000000000000     
  -2.0603486284748219E-002  0.11951115819524225        0.0000000000000000     
  -2.1131292107855838E-002  0.12672574829673125        0.0000000000000000     
  -2.1642133670748669E-002  0.13407688205721652        0.0000000000000000     
  -2.4485586642750808E-002  0.10568622091831785        0.0000000000000000     
  -2.5188327139758698E-002  0.11261784896628192        0.0000000000000000     
  -2.5871029516411029E-002  0.11968598062733994        0.0000000000000000     
  -2.6533693772707808E-002  0.12689061590149184        0.0000000000000000     
  -2.7176319908649042E-002  0.13423175478873764        0.0000000000000000     
  -2.9553730052061036E-002  0.10592486322721546        0.0000000000000000     
  -3.0397951321689459E-002  0.11284493459080669        0.0000000000000000     
  -3.1218305022526038E-002  0.11990128762305247        0.0000000000000000     
  -3.2014791154570781E-002  0.12709392232395283        0.0000000000000000     
  -3.2787409717823686E-002  0.13442283869350777        0.0000000000000000     
  -3.4701412085819297E-002  0.10620753589594578        0.0000000000000000     
  -3.5687588747218085E-002  0.11311436862632371        0.0000000000000000     
  -3.6645312803093251E-002  0.12015707918237989        0.0000000000000000     
  -3.7574584253444746E-002  0.12733566756411424        0.0000000000000000     
  -3.8475403098272604E-002  0.13465013377152688        0.0000000000000000     
  -3.9928632744025583E-002  0.10653423892450881        0.0000000000000000     
  -4.1057239416344600E-002  0.11342615107283302        0.0000000000000000     
  -4.2152052858112639E-002  0.12045335530532213        0.0000000000000000     
  -4.3213073069329706E-002  0.12761585162197614        0.0000000000000000     
  -4.4240300049995809E-002  0.13491364002279499        0.0000000000000000     
  -2.1642133670748669E-002  0.13407688205721652        0.0000000000000000     
  -2.2122344885909355E-002  0.14155185370857096        0.0000000000000000     
  -2.2558259665820538E-002  0.14913795748266742        0.0000000000000000     
  -2.2949878010482223E-002  0.15683519337950605        0.0000000000000000     
  -2.3297199919894405E-002  0.16464356139908670        0.0000000000000000     
  -2.7176319908649042E-002  0.13423175478873764        0.0000000000000000     
  -2.7779286720320245E-002  0.14169641824197179        0.0000000000000000     
  -2.8322973003806960E-002  0.14927162721408863        0.0000000000000000     
  -2.8807378759109190E-002  0.15695738170508819        0.0000000000000000     
  -2.9232503986226933E-002  0.16475368171497046        0.0000000000000000     
  -3.2787409717823686E-002  0.13442283869350777        0.0000000000000000     
  -3.3512792100669028E-002  0.14187497078717623        0.0000000000000000     
  -3.4167569691491088E-002  0.14943725266041716        0.0000000000000000     
  -3.4751742490289894E-002  0.15710968431323055        0.0000000000000000     
  -3.5265310497065404E-002  0.16489226574561647        0.0000000000000000     
  -3.8475403098272604E-002  0.13465013377152688        0.0000000000000000     
  -3.9322861026955709E-002  0.14208751134418432        0.0000000000000000     
  -4.0092049728872939E-002  0.14963483382165310        0.0000000000000000     
  -4.0782969204024314E-002  0.15729210120393325        0.0000000000000000     
  -4.1395619452409813E-002  0.16505931349102476        0.0000000000000000     
  -4.4240300049995809E-002  0.13491364002279499        0.0000000000000000     
  -4.5209493499180291E-002  0.14233403991299604        0.0000000000000000     
  -4.6096413115952507E-002  0.14986437069779643        0.0000000000000000     
  -4.6901058900312459E-002  0.15750463237719617        0.0000000000000000     
  -4.7623430852260146E-002  0.16525482495119531        0.0000000000000000     
   0.0000000000000000        0.0000000000000000        0.0000000000000000     
  -1.7983064751418128E-003   1.2768194732344805E-003   0.0000000000000000     
  -3.6213218595852288E-003   2.9391459727502499E-003   0.0000000000000000     
  -5.4690461533302495E-003   4.9869794985473092E-003   0.0000000000000000     
  -7.3414793563768730E-003   7.4203200506256558E-003   0.0000000000000000     
   0.0000000000000000        0.0000000000000000        0.0000000000000000     
  -2.0694212598659600E-003   1.3549083527307237E-003   0.0000000000000000     
  -4.1640400794873272E-003   3.0939430614649165E-003   0.0000000000000000     
  -6.2838564588641021E-003   5.2171041262025790E-003   0.0000000000000000     
  -8.4288703979962833E-003   7.7243915469437114E-003   0.0000000000000000     
   0.0000000000000000        0.0000000000000000        0.0000000000000000     
  -2.3400886990754934E-003   1.4589361254961615E-003   0.0000000000000000     
  -4.7201718478741689E-003   3.2997838483587367E-003   0.0000000000000000     
  -7.1402494463960247E-003   5.5225431685877267E-003   0.0000000000000000     
  -9.6003214946410644E-003   8.1272140861831290E-003   0.0000000000000000     
   0.0000000000000000        0.0000000000000000        0.0000000000000000     
  -2.6103087927704127E-003   1.5889027915307937E-003   0.0000000000000000     
  -5.2897171647457528E-003   3.5566683334317113E-003   0.0000000000000000     
  -8.0382251159260183E-003   5.9032966257027506E-003   0.0000000000000000     
  -1.0855832646311210E-002   8.6287876683439155E-003   0.0000000000000000     
   0.0000000000000000        0.0000000000000000        0.0000000000000000     
  -2.8800815409507183E-003   1.7448083508346207E-003   0.0000000000000000     
  -5.8726760301020791E-003   3.8645965166838386E-003   0.0000000000000000     
  -8.9777834674540820E-003   6.3593644975476525E-003   0.0000000000000000     
  -1.2195403853006727E-002   9.2291122934260641E-003   0.0000000000000000     
  -7.3414793563768730E-003   7.4203200506256558E-003   0.0000000000000000     
  -9.2309046869350521E-003   1.0186711295545815E-002   0.0000000000000000     
  -1.1129605363214739E-002   1.3233696899868303E-002   0.0000000000000000     
  -1.3037581385215930E-002   1.6561276863593124E-002   0.0000000000000000     
  -1.4954832752938629E-002   2.0169451186720276E-002   0.0000000000000000     
  -8.4288703979962833E-003   7.7243915469437114E-003   0.0000000000000000     
  -1.0590717002179820E-002   1.0558326187761731E-002   0.0000000000000000     
  -1.2761031376710655E-002   1.3661428912730058E-002   0.0000000000000000     
  -1.4939813521588789E-002   1.7033699721848688E-002   0.0000000000000000     
  -1.7127063436814225E-002   2.0675138615117626E-002   0.0000000000000000     
  -9.6003214946410644E-003   8.1272140861831290E-003   0.0000000000000000     
  -1.2076798456261157E-002   1.1046366874026570E-002   0.0000000000000000     
  -1.4546090794908173E-002   1.4212571804999656E-002   0.0000000000000000     
  -1.7008198510582120E-002   1.7625828879102398E-002   0.0000000000000000     
  -1.9463121603282989E-002   2.1286138096334797E-002   0.0000000000000000     
  -1.0855832646311210E-002   8.6287876683439155E-003   0.0000000000000000     
  -1.3689149049179061E-002   1.1650833354340324E-002   0.0000000000000000     
  -1.6484783617807298E-002   1.4887125576677106E-002   0.0000000000000000     
  -1.9242736352195918E-002   1.8337664335354262E-002   0.0000000000000000     
  -2.1963007252344933E-002   2.2002449630371786E-002   0.0000000000000000     
  -1.2195403853006727E-002   9.2291122934260641E-003   0.0000000000000000     
  -1.5427768780933533E-002   1.2371725628703005E-002   0.0000000000000000     
  -1.8577109845408019E-002   1.5685090227762405E-002   0.0000000000000000     
  -2.1643427046430189E-002   1.9169206090604265E-002   0.0000000000000000     
  -2.4626720384000038E-002   2.2824073217228586E-002   0.0000000000000000     
  -1.4954832752938629E-002   2.0169451186720276E-002   0.0000000000000000     
  -1.6856197570641426E-002   2.4029769983478912E-002   0.0000000000000000     
  -1.8716513942582908E-002   2.8113783368098194E-002   0.0000000000000000     
  -2.0535781868763075E-002   3.2421491340578118E-002   0.0000000000000000     
  -2.2314001349181923E-002   3.6952893900918687E-002   0.0000000000000000     
  -1.7127063436814225E-002   2.0675138615117626E-002   0.0000000000000000     
  -1.9291701463093953E-002   2.4558242730160790E-002   0.0000000000000000     
  -2.1402647941134958E-002   2.8655509204602077E-002   0.0000000000000000     
  -2.3459902870937244E-002   3.2966938038441508E-002   0.0000000000000000     
  -2.5463466252500816E-002   3.7492529231679061E-002   0.0000000000000000     
  -1.9463121603282989E-002   2.1286138096334797E-002   0.0000000000000000     
  -2.1882731505953282E-002   2.5174858612286730E-002   0.0000000000000000     
  -2.4238899651535497E-002   2.9273349582548090E-002   0.0000000000000000     
  -2.6531626040029625E-002   3.3581611007118865E-002   0.0000000000000000     
  -2.8760910671435668E-002   3.8099642885999069E-002   0.0000000000000000     
  -2.1963007252344933E-002   2.2002449630371786E-002   0.0000000000000000     
  -2.4629287699219432E-002   2.5879617629856751E-002   0.0000000000000000     
  -2.7225269073784520E-002   2.9967304501936229E-002   0.0000000000000000     
  -2.9750951376040214E-002   3.4265510246610224E-002   0.0000000000000000     
  -3.2206334605986500E-002   3.8774234863878730E-002   0.0000000000000000     
  -2.4626720384000038E-002   2.2824073217228586E-002   0.0000000000000000     
  -2.7531370042892384E-002   2.6672519782870840E-002   0.0000000000000000     
  -3.0361756207882042E-002   3.0737373962766497E-002   0.0000000000000000     
  -3.3117878878969012E-002   3.5018635756915557E-002   0.0000000000000000     
  -3.5799738056153295E-002   3.9516305165318025E-002   0.0000000000000000     
  -2.2314001349181923E-002   3.6952893900918687E-002   0.0000000000000000     
  -2.4047748333173278E-002   4.1699011480461540E-002   0.0000000000000000     
  -2.5733598770070934E-002   4.6650864510548312E-002   0.0000000000000000     
  -2.7371552659874909E-002   5.1808452991179012E-002   0.0000000000000000     
  -2.8961610002585195E-002   5.7171776922353632E-002   0.0000000000000000     
  -2.5463466252500816E-002   3.7492529231679061E-002   0.0000000000000000     
  -2.7413320352052808E-002   4.2227926591892694E-002   0.0000000000000000     
  -2.9309447435820372E-002   4.7168773926660329E-002   0.0000000000000000     
  -3.1151847503803502E-002   5.2315071235981968E-002   0.0000000000000000     
  -3.2940520556002204E-002   5.7666818519857638E-002   0.0000000000000000     
  -2.8760910671435668E-002   3.8099642885999069E-002   0.0000000000000000     
  -3.0928254491402705E-002   4.2824531216955716E-002   0.0000000000000000     
  -3.3035158445579776E-002   4.7753361997755810E-002   0.0000000000000000     
  -3.5081622533966891E-002   5.2886135228399363E-002   0.0000000000000000     
  -3.7067646756564057E-002   5.8222850908886375E-002   0.0000000000000000     
  -3.2206334605986500E-002   3.8774234863878730E-002   0.0000000000000000     
  -3.4592550751222959E-002   4.3488825355650622E-002   0.0000000000000000     
  -3.6910731799349138E-002   4.8404628723834775E-002   0.0000000000000000     
  -3.9160877750365072E-002   5.3521644968431190E-002   0.0000000000000000     
  -4.1342988604270742E-002   5.8839874089439873E-002   0.0000000000000000     
  -3.5799738056153295E-002   3.9516305165318025E-002   0.0000000000000000     
  -3.8406209131513561E-002   4.4220809007977403E-002   0.0000000000000000     
  -4.0936167497128473E-002   4.9122574104897218E-002   0.0000000000000000     
  -4.3389613152998059E-002   5.4221600456077448E-002   0.0000000000000000     
  -4.5766546099122278E-002   5.9517888061518115E-002   0.0000000000000000     
  -2.8961610002585195E-002   5.7171776922353632E-002   0.0000000000000000     
  -3.0505199126475847E-002   6.2729117949143723E-002   0.0000000000000000     
  -3.2003748359820922E-002   6.8468757716620809E-002   0.0000000000000000     
  -3.3457257702620410E-002   7.4390696224784919E-002   0.0000000000000000     
  -3.4865727154874335E-002   8.0494933473636038E-002   0.0000000000000000     
  -3.2940520556002204E-002   5.7666818519857638E-002   0.0000000000000000     
  -3.4676600131927117E-002   6.3211780823755156E-002   0.0000000000000000     
  -3.6361219771088873E-002   6.8937723193142397E-002   0.0000000000000000     
  -3.7994379473487508E-002   7.4844645628019360E-002   0.0000000000000000     
  -3.9576079239122978E-002   8.0932548128386031E-002   0.0000000000000000     
  -3.7067646756564057E-002   5.8222850908886375E-002   0.0000000000000000     
  -3.8994852624788301E-002   6.3751728784286713E-002   0.0000000000000000     
  -4.0864861650056719E-002   6.9460988599670259E-002   0.0000000000000000     
  -4.2677673832369263E-002   7.5350630355037015E-002   0.0000000000000000     
  -4.4433289171725968E-002   8.1420654050386940E-002   0.0000000000000000     
  -4.1342988604270742E-002   5.8839874089439873E-002   0.0000000000000000     
  -4.3459956605059434E-002   6.4348961830738405E-002   0.0000000000000000     
  -4.5514673996724424E-002   7.0038553936204395E-002   0.0000000000000000     
  -4.7507140779265718E-002   7.5908650405837844E-002   0.0000000000000000     
  -4.9437356952683302E-002   8.1959251239638722E-002   0.0000000000000000     
  -4.5766546099122278E-002   5.9517888061518115E-002   0.0000000000000000     
  -4.8071912072740489E-002   6.5003479963110233E-002   0.0000000000000000     
  -5.0310656811092001E-002   7.0670419202744819E-002   0.0000000000000000     
  -5.2482780314176837E-002   7.6518705780421872E-002   0.0000000000000000     
  -5.4588282581994989E-002   8.2548339696141393E-002   0.0000000000000000     
  -3.4865727154874335E-002   8.0494933473636038E-002   0.0000000000000000     
  -3.6221620884432128E-002   8.6768930028711527E-002   0.0000000000000000     
  -3.7517403059143271E-002   9.3200146455548832E-002   0.0000000000000000     
  -3.8753073679007759E-002   9.9788582754147925E-002   0.0000000000000000     
  -3.9928632744025583E-002  0.10653423892450881        0.0000000000000000     
  -3.9576079239122978E-002   8.0932548128386031E-002   0.0000000000000000     
  -4.1098869848886152E-002   8.7189632466122782E-002   0.0000000000000000     
  -4.2555302083667847E-002   9.3604100413109931E-002   0.0000000000000000     
  -4.3945375943468104E-002  0.10017595196934746        0.0000000000000000     
  -4.5269091428286876E-002  0.10690518713483538        0.0000000000000000     
  -4.4433289171725968E-002   8.1420654050386940E-002   0.0000000000000000     
  -4.6123751758165306E-002   8.7659561380547438E-002   0.0000000000000000     
  -4.7741105681725793E-002   9.4055854040345846E-002   0.0000000000000000     
  -4.9285350942407408E-002  0.10060953202978218        0.0000000000000000     
  -5.0756487540210171E-002  0.10732059534885638        0.0000000000000000     
  -4.9437356952683302E-002   8.1959251239638722E-002   0.0000000000000000     
  -5.1296266612269610E-002   8.8178716771985521E-002   0.0000000000000000     
  -5.3074813853317068E-002   9.4555407337256620E-002   0.0000000000000000     
  -5.4772998675825697E-002  0.10108932293545206        0.0000000000000000     
  -5.6390821079795449E-002  0.10778046356657182        0.0000000000000000     
  -5.4588282581994989E-002   8.2548339696141393E-002   0.0000000000000000     
  -5.6616414411199072E-002   8.8747098640436992E-002   0.0000000000000000     
  -5.8556426598441721E-002   9.5102760303842210E-002   0.0000000000000000     
  -6.0408319143722945E-002  0.10161532468635713        0.0000000000000000     
  -6.2172092047042743E-002  0.10828479178798166        0.0000000000000000     
  -3.9928632744025583E-002  0.10653423892450881        0.0000000000000000     
  -4.1057239416344600E-002  0.11342615107283302        0.0000000000000000     
  -4.2152052858112639E-002  0.12045335530532213        0.0000000000000000     
  -4.3213073069329706E-002  0.12761585162197614        0.0000000000000000     
  -4.4240300049995809E-002  0.13491364002279499        0.0000000000000000     
  -4.5269091428286876E-002  0.10690518713483538        0.0000000000000000     
  -4.6540167416088553E-002  0.11378047649067205        0.0000000000000000     
  -4.7772322784837486E-002  0.12079049061795574        0.0000000000000000     
  -4.8965557534533688E-002  0.12793522951668643        0.0000000000000000     
  -5.0119871665177125E-002  0.13521469318686419        0.0000000000000000     
  -5.0756487540210171E-002  0.10732059534885638        0.0000000000000000     
  -5.2169636833469563E-002  0.11417753944017817        0.0000000000000000     
  -5.3539920180521061E-002  0.12116885974635710        0.0000000000000000     
  -5.4867337581364681E-002  0.12829455626739319        0.0000000000000000     
  -5.6151889036000421E-002  0.13555462900328649        0.0000000000000000     
  -5.6390821079795449E-002  0.10778046356657182        0.0000000000000000     
  -5.7945647668487595E-002  0.11461733992135141        0.0000000000000000     
  -5.9454845045163351E-002  0.12158846269052626        0.0000000000000000     
  -6.0918413209822705E-002  0.12869383187409639        0.0000000000000000     
  -6.2336352162465691E-002  0.13593344747206182        0.0000000000000000     
  -6.2172092047042743E-002  0.10828479178798166        0.0000000000000000     
  -6.3868199921142690E-002  0.11509987793419173        0.0000000000000000     
  -6.5517097378764350E-002  0.12204929945046319        0.0000000000000000     
  -6.7118784419907776E-002  0.12913305633679606        0.0000000000000000     
  -6.8673261044572900E-002  0.13635114859319031        0.0000000000000000     
  -4.4240300049995809E-002  0.13491364002279499        0.0000000000000000     
  -4.5209493499180291E-002  0.14233403991299604        0.0000000000000000     
  -4.6096413115952507E-002  0.14986437069779643        0.0000000000000000     
  -4.6901058900312459E-002  0.15750463237719617        0.0000000000000000     
  -4.7623430852260146E-002  0.16525482495119531        0.0000000000000000     
  -5.0119871665177125E-002  0.13521469318686419        0.0000000000000000     
  -5.1211643566251533E-002  0.14261645936746309        0.0000000000000000     
  -5.2217251627240578E-002  0.15012810579745720        0.0000000000000000     
  -5.3136695848144296E-002  0.15774963247684654        0.0000000000000000     
  -5.3969976228962643E-002  0.16548103940563116        0.0000000000000000     
  -5.6151889036000421E-002  0.13555462900328649        0.0000000000000000     
  -5.7368265277078209E-002  0.14293667258143716        0.0000000000000000     
  -5.8491157037247991E-002  0.15042828162924554        0.0000000000000000     
  -5.9520564316509747E-002  0.15802945614671163        0.0000000000000000     
  -6.0456487114863511E-002  0.16574019613383539        0.0000000000000000     
  -6.2336352162465691E-002  0.13593344747206182        0.0000000000000000     
  -6.3679358631660327E-002  0.14329467955491829        0.0000000000000000     
  -6.4918129345974726E-002  0.15076489819316147        0.0000000000000000     
  -6.6052664305408848E-002  0.15834410338679136        0.0000000000000000     
  -6.7082963509962762E-002  0.16603229513580797        0.0000000000000000     
  -6.8673261044572900E-002  0.13635114859319031        0.0000000000000000     
  -7.0144923629997885E-002  0.14369048028790643        0.0000000000000000     
  -7.1498168553420768E-002  0.15113795548920492        0.0000000000000000     
  -7.2732995814841619E-002  0.15869357419708577        0.0000000000000000     
  -7.3849405414260355E-002  0.16635733641154898        0.0000000000000000     
   0.0000000000000000        0.0000000000000000        0.0000000000000000     
  -2.8800815409507183E-003   1.7448083508346207E-003   0.0000000000000000     
  -5.8726760301020791E-003   3.8645965166838386E-003   0.0000000000000000     
  -8.9777834674540820E-003   6.3593644975476525E-003   0.0000000000000000     
  -1.2195403853006727E-002   9.2291122934260641E-003   0.0000000000000000     
   0.0000000000000000        0.0000000000000000        0.0000000000000000     
  -3.2832309357989867E-003   1.9993221834140062E-003   0.0000000000000000     
  -6.6770031283970126E-003   4.3308933890519284E-003   0.0000000000000000     
  -1.0181316577794076E-002   6.9947136169137654E-003   0.0000000000000000     
  -1.3796171283990178E-002   9.9907828669995192E-003   0.0000000000000000     
   0.0000000000000000        0.0000000000000000        0.0000000000000000     
  -3.9535809694977954E-003   2.4251136692753149E-003   0.0000000000000000     
  -7.9106531440844147E-003   5.0628839414727893E-003   0.0000000000000000     
  -1.1871216523759861E-002   7.9133108165924254E-003   0.0000000000000000     
  -1.5835271108524129E-002   1.0976394294634222E-002   0.0000000000000000     
   0.0000000000000000        0.0000000000000000        0.0000000000000000     
  -4.8911316420471437E-003   3.0221828084185452E-003   0.0000000000000000     
  -9.5736260771642871E-003   6.0605681739464229E-003   0.0000000000000000     
  -1.4047483305351433E-002   9.1151560965836292E-003   0.0000000000000000     
  -1.8312703326608584E-002   1.2185946576330174E-002   0.0000000000000000     
   0.0000000000000000        0.0000000000000000        0.0000000000000000     
  -6.0958829534470318E-003   3.7905296008436994E-003   0.0000000000000000     
  -1.1665921927636632E-002   7.3239460864728267E-003   0.0000000000000000     
  -1.6710116922568800E-002   1.0600249456887385E-002   0.0000000000000000     
  -2.1228467938243536E-002   1.3619439712087369E-002   0.0000000000000000     
  -1.2195403853006727E-002   9.2291122934260641E-003   0.0000000000000000     
  -1.5427768780933533E-002   1.2371725628703005E-002   0.0000000000000000     
  -1.8577109845408019E-002   1.5685090227762405E-002   0.0000000000000000     
  -2.1643427046430189E-002   1.9169206090604265E-002   0.0000000000000000     
  -2.4626720384000038E-002   2.2824073217228586E-002   0.0000000000000000     
  -1.3796171283990178E-002   9.9907828669995192E-003   0.0000000000000000     
  -1.7404455536766519E-002   1.3221088276288947E-002   0.0000000000000000     
  -2.0889057625904303E-002   1.6587616981761814E-002   0.0000000000000000     
  -2.4249977551403529E-002   2.0090368983418122E-002   0.0000000000000000     
  -2.7487215313264198E-002   2.3729344281257860E-002   0.0000000000000000     
  -1.5835271108524129E-002   1.0976394294634222E-002   0.0000000000000000     
  -1.9731007201919962E-002   1.4210965876272507E-002   0.0000000000000000     
  -2.3486615107490096E-002   1.7575857062181611E-002   0.0000000000000000     
  -2.7102094825234534E-002   2.1071067852361524E-002   0.0000000000000000     
  -3.0577446355153273E-002   2.4696598246812258E-002   0.0000000000000000     
  -1.8312703326608584E-002   1.2185946576330174E-002   0.0000000000000000     
  -2.2407423776393862E-002   1.5341358428653676E-002   0.0000000000000000     
  -2.6369782290165400E-002   1.8649810469021783E-002   0.0000000000000000     
  -3.0199778867923209E-002   2.2111302697434485E-002   0.0000000000000000     
  -3.3897413509667275E-002   2.5725835113891794E-002   0.0000000000000000     
  -2.1228467938243536E-002   1.3619439712087369E-002   0.0000000000000000     
  -2.5433705260188216E-002   1.6612265933432464E-002   0.0000000000000000     
  -2.9538559173930220E-002   1.9809477202282343E-002   0.0000000000000000     
  -3.3543029679469545E-002   2.3211073518637004E-002   0.0000000000000000     
  -3.7447116776806191E-002   2.6817054882496451E-002   0.0000000000000000     
  -2.4626720384000038E-002   2.2824073217228586E-002   0.0000000000000000     
  -2.7531370042892384E-002   2.6672519782870840E-002   0.0000000000000000     
  -3.0361756207882042E-002   3.0737373962766497E-002   0.0000000000000000     
  -3.3117878878969012E-002   3.5018635756915557E-002   0.0000000000000000     
  -3.5799738056153295E-002   3.9516305165318025E-002   0.0000000000000000     
  -2.7487215313264198E-002   2.3729344281257860E-002   0.0000000000000000     
  -3.0624015621906753E-002   2.7547121119601482E-002   0.0000000000000000     
  -3.3683623187751650E-002   3.1586277742769425E-002   0.0000000000000000     
  -3.6666038010798888E-002   3.5846814150761686E-002   0.0000000000000000     
  -3.9571260091048478E-002   4.0328730343578270E-002   0.0000000000000000     
  -3.0577446355153273E-002   2.4696598246812258E-002   0.0000000000000000     
  -3.3942261521197135E-002   2.8496977688321153E-002   0.0000000000000000     
  -3.7226132147316959E-002   3.2516735619675538E-002   0.0000000000000000     
  -4.0429058233512720E-002   3.6755872040875423E-002   0.0000000000000000     
  -4.3551039779784445E-002   4.1214386951920798E-002   0.0000000000000000     
  -3.3897413509667275E-002   2.5725835113891794E-002   0.0000000000000000     
  -3.7486107740763545E-002   2.9522089489029860E-002   0.0000000000000000     
  -4.0989283086577961E-002   3.3528747593484856E-002   0.0000000000000000     
  -4.4406939547110523E-002   3.7745809427256756E-002   0.0000000000000000     
  -4.7739077122361237E-002   4.2173274990345601E-002   0.0000000000000000     
  -3.7447116776806191E-002   2.6817054882496451E-002   0.0000000000000000     
  -4.1255554280605962E-002   3.0622456521727594E-002   0.0000000000000000     
  -4.4973076005534657E-002   3.4622313664197345E-002   0.0000000000000000     
  -4.8599681951592276E-002   3.8816626309905705E-002   0.0000000000000000     
  -5.2135372118778819E-002   4.3205394458852672E-002   0.0000000000000000     
  -3.5799738056153295E-002   3.9516305165318025E-002   0.0000000000000000     
  -3.8406209131513561E-002   4.4220809007977403E-002   0.0000000000000000     
  -4.0936167497128473E-002   4.9122574104897218E-002   0.0000000000000000     
  -4.3389613152998059E-002   5.4221600456077448E-002   0.0000000000000000     
  -4.5766546099122278E-002   5.9517888061518115E-002   0.0000000000000000     
  -3.9571260091048478E-002   4.0328730343578270E-002   0.0000000000000000     
  -4.2395593287388449E-002   4.5018493734132026E-002   0.0000000000000000     
  -4.5135341458706880E-002   4.9902571735335799E-002   0.0000000000000000     
  -4.7790504605003739E-002   5.4980964347189590E-002   0.0000000000000000     
  -5.0361082726279066E-002   6.0253671569693398E-002   0.0000000000000000     
  -4.3551039779784445E-002   4.1214386951920798E-002   0.0000000000000000     
  -4.6587066873961545E-002   4.5879891094310468E-002   0.0000000000000000     
  -4.9532129603873425E-002   5.0739995209543226E-002   0.0000000000000000     
  -5.2386227969520076E-002   5.5794699297619071E-002   0.0000000000000000     
  -5.5149361970901506E-002   6.1044003358537997E-002   0.0000000000000000     
  -4.7739077122361237E-002   4.2173274990345601E-002   0.0000000000000000     
  -5.0980629891232851E-002   4.6805001088512717E-002   0.0000000000000000     
  -5.4126531932628119E-002   5.1634844527519479E-002   0.0000000000000000     
  -5.7176783246547042E-002   5.6662805307365886E-002   0.0000000000000000     
  -6.0131383832989604E-002   6.1888883428051933E-002   0.0000000000000000     
  -5.2135372118778819E-002   4.3205394458852672E-002   0.0000000000000000     
  -5.5576282339202365E-002   4.7793823716738779E-002   0.0000000000000000     
  -5.8918548444970964E-002   5.2587119689264571E-002   0.0000000000000000     
  -6.2162170436084636E-002   5.7585282376430041E-002   0.0000000000000000     
  -6.5307148312543375E-002   6.2788311778235184E-002   0.0000000000000000     
  -4.5766546099122278E-002   5.9517888061518115E-002   0.0000000000000000     
  -4.8071912072740489E-002   6.5003479963110233E-002   0.0000000000000000     
  -5.0310656811092001E-002   7.0670419202744819E-002   0.0000000000000000     
  -5.2482780314176837E-002   7.6518705780421872E-002   0.0000000000000000     
  -5.4588282581994989E-002   8.2548339696141393E-002   0.0000000000000000     
  -5.0361082726279066E-002   6.0253671569693398E-002   0.0000000000000000     
  -5.2853951937432170E-002   6.5714488717023622E-002   0.0000000000000000     
  -5.5275988353362421E-002   7.1357211103356702E-002   0.0000000000000000     
  -5.7627191974069819E-002   7.7181838728692623E-002   0.0000000000000000     
  -5.9907562799554337E-002   8.3188371593031357E-002   0.0000000000000000     
  -5.5149361970901506E-002   6.1044003358537997E-002   0.0000000000000000     
  -5.7829309108735197E-002   6.6481193628100066E-002   0.0000000000000000     
  -6.0433846883738623E-002   7.2099556342105242E-002   0.0000000000000000     
  -6.2962975295911786E-002   7.7899091500553588E-002   0.0000000000000000     
  -6.5416694345254683E-002   8.3879799103445049E-002   0.0000000000000000     
  -6.0131383832989604E-002   6.1888883428051933E-002   0.0000000000000000     
  -6.2997983586649556E-002   6.7303594696339508E-002   0.0000000000000000     
  -6.5784232402220616E-002   7.2897454918990440E-002   0.0000000000000000     
  -6.8490130279702757E-002   7.8670464096004755E-002   0.0000000000000000     
  -7.1115677219096007E-002   8.4622622227382469E-002   0.0000000000000000     
  -6.5307148312543375E-002   6.2788311778235184E-002   0.0000000000000000     
  -6.8359975371175261E-002   6.8181691921741963E-002   0.0000000000000000     
  -7.1327144908808385E-002   7.3750906834012295E-002   0.0000000000000000     
  -7.4208656925442734E-002   7.9495956515046165E-002   0.0000000000000000     
  -7.7004511421078337E-002   8.5416840964843588E-002   0.0000000000000000     
  -5.4588282581994989E-002   8.2548339696141393E-002   0.0000000000000000     
  -5.6616414411199072E-002   8.8747098640436992E-002   0.0000000000000000     
  -5.8556426598441721E-002   9.5102760303842210E-002   0.0000000000000000     
  -6.0408319143722945E-002  0.10161532468635713        0.0000000000000000     
  -6.2172092047042743E-002  0.10828479178798166        0.0000000000000000     
  -5.9907562799554337E-002   8.3188371593031357E-002   0.0000000000000000     
  -6.2104666727537915E-002   8.9364305569003863E-002   0.0000000000000000     
  -6.4206069655742465E-002   9.5697136529241000E-002   0.0000000000000000     
  -6.6211771584167967E-002  0.10218686447374277        0.0000000000000000     
  -6.8121772512814455E-002  0.10883348940250918        0.0000000000000000     
  -6.5416694345254683E-002   8.3879799103445049E-002   0.0000000000000000     
  -6.7781495133870398E-002   9.0029936140788136E-002   0.0000000000000000     
  -7.0043868763862024E-002   9.6337759602591264E-002   0.0000000000000000     
  -7.2203815235229563E-002  0.10280326948885443        0.0000000000000000     
  -7.4261334547973026E-002  0.10942646579957764        0.0000000000000000     
  -7.1115677219096007E-002   8.4622622227382469E-002   0.0000000000000000     
  -7.3646899630196522E-002   9.0743990355789811E-002   0.0000000000000000     
  -7.6069823922800428E-002   9.7024629523893013E-002   0.0000000000000000     
  -7.8384450096907768E-002  0.10346453973169209        0.0000000000000000     
  -8.0590778152518500E-002  0.11006372097918704        0.0000000000000000     
  -7.7004511421078337E-002   8.5416840964843588E-002   0.0000000000000000     
  -7.9700880216516279E-002   9.1506468214008874E-002   0.0000000000000000     
  -8.2283935132557676E-002   9.7757746293146264E-002   0.0000000000000000     
  -8.4753676169202527E-002  0.10417067520225577        0.0000000000000000     
  -8.7110103326450819E-002  0.11074525494133738        0.0000000000000000     
  -6.2172092047042743E-002  0.10828479178798166        0.0000000000000000     
  -6.3868199921142690E-002  0.11509987793419173        0.0000000000000000     
  -6.5517097378764350E-002  0.12204929945046319        0.0000000000000000     
  -6.7118784419907776E-002  0.12913305633679606        0.0000000000000000     
  -6.8673261044572900E-002  0.13635114859319031        0.0000000000000000     
  -6.8121772512814455E-002  0.10883348940250918        0.0000000000000000     
  -6.9959277783292972E-002  0.11562565788192916        0.0000000000000000     
  -7.1747492737214674E-002  0.12255201647839159        0.0000000000000000     
  -7.3486417374579532E-002  0.12961256519189648        0.0000000000000000     
  -7.5176051695387533E-002  0.13680730402244390        0.0000000000000000     
  -7.4261334547973026E-002  0.10942646579957764        0.0000000000000000     
  -7.6240865446796702E-002  0.11619518416779363        0.0000000000000000     
  -7.8166846676404944E-002  0.12309726022653511        0.0000000000000000     
  -8.0039278236797698E-002  0.13013269397580210        0.0000000000000000     
  -8.1858160127974991E-002  0.13730148541559459        0.0000000000000000     
  -8.0590778152518500E-002  0.11006372097918704        0.0000000000000000     
  -8.2712962911653851E-002  0.11680845679178517        0.0000000000000000     
  -8.4775159196335118E-002  0.12368503069489377        0.0000000000000000     
  -8.6777367006562273E-002  0.13069344268851285        0.0000000000000000     
  -8.8719586342335288E-002  0.13783369277264240        0.0000000000000000     
  -8.7110103326450819E-002  0.11074525494133738        0.0000000000000000     
  -8.9375570177864433E-002  0.11746547575390377        0.0000000000000000     
  -9.1572430297005236E-002  0.12431532788346757        0.0000000000000000     
  -9.3700683683873243E-002  0.13129481133002877        0.0000000000000000     
  -9.5760330338468411E-002  0.13840392609358737        0.0000000000000000     
  -6.8673261044572900E-002  0.13635114859319031        0.0000000000000000     
  -7.0144923629997885E-002  0.14369048028790643        0.0000000000000000     
  -7.1498168553420768E-002  0.15113795548920492        0.0000000000000000     
  -7.2732995814841619E-002  0.15869357419708577        0.0000000000000000     
  -7.3849405414260355E-002  0.16635733641154898        0.0000000000000000     
  -7.5176051695387533E-002  0.13680730402244390        0.0000000000000000     
  -7.6775399493920371E-002  0.14412301150922344        0.0000000000000000     
  -7.8243464564459672E-002  0.15154646619142487        0.0000000000000000     
  -7.9580246907005450E-002  0.15907766806904816        0.0000000000000000     
  -8.0785746521557747E-002  0.16671661714209340        0.0000000000000000     
  -8.1858160127974991E-002  0.13730148541559459        0.0000000000000000     
  -8.3581225445257257E-002  0.14459120994769112        0.0000000000000000     
  -8.5166207283964901E-002  0.15198944297387026        0.0000000000000000     
  -8.6613105644097896E-002  0.15949618449413200        0.0000000000000000     
  -8.7921920525656297E-002  0.16711143450847643        0.0000000000000000     
  -8.8719586342335288E-002  0.13783369277264240        0.0000000000000000     
  -9.0562401484008556E-002  0.14509507560330950        0.0000000000000000     
  -9.2266396711936441E-002  0.15246688583654111        0.0000000000000000     
  -9.3831572026118942E-002  0.15994912347233731        0.0000000000000000     
  -9.5257927426556033E-002  0.16754178851069806        0.0000000000000000     
  -9.5760330338468411E-002  0.13840392609358737        0.0000000000000000     
  -9.7718927610174283E-002  0.14563460847607854        0.0000000000000000     
  -9.9544032848374320E-002  0.15297879477943738        0.0000000000000000     
 -0.10123564605306855       0.16043648500366398        0.0000000000000000     
 -0.10279376722425695       0.16800767914875822        0.0000000000000000     
 </DataArray>
 <DataArray  type="Float64" Name="stress" NumberOfComponents="3" format="ascii">
   13416379658.495449        4024913897.5486345        2894094393.2729506     
   11766361904.350990        1890256182.7138891        1715905042.6131704     
   10313669398.207928        413349294.55046177        810758856.78141844     
   9058302140.0662613       -405806766.94164705        178655835.77769551     
   8000260129.9259882       -567212001.76244020       -180404020.39799839     
   10539851066.831064        3161955320.0493193        2225783282.9325566     
   9667517852.2004089        1589456061.3177350        1446744438.8836722     
   8943859009.8999557        512538043.68681431        863152432.07049417     
   8368874539.9297009       -68798732.843442917        475007262.49302310     
   7942564442.2896423       -154554268.27303791        282308930.15125936     
   8337938356.7294197        2501381507.0188260        1712333809.3935738     
   8021585888.4916515        1424529566.4541278        1275686117.0058556     
   7805256916.9128838        681089281.41943645        956888934.26152313     
   7688951441.9931231        271060651.91475534        755942261.16057456     
   7672669463.7323608        194443677.94008160        672846097.70301080     
   6810641528.1905203        2043192458.4571559        1353745972.6560018     
   6828566013.2247162        1395476698.1230669        1202730076.9797211     
   6897863119.2467194        919003007.74833107        1091968363.3545041     
   7018532846.2565269        613771387.33294892        1021460831.7803479     
   7190575194.2541428        479781836.87691998        991207482.25725651     
   5957960581.2143631        1787388174.3643088        1150019772.7198403     
   6088458226.3996058        1502297456.3245537        1227876318.8052678     
   6221677616.9014559        1226279222.6734965        1268390719.3494363     
   6357618752.7199163        959333473.41113782        1271562974.3523457     
   6496281633.8549871        701460208.53747773        1237393083.8139961     
   8000260129.9259882       -567212001.76244020       -180404020.39799839     
   7917776437.4575443       -199703832.56874323       -78421065.919567764     
   7793734030.2050266        29275287.344704151       -8992941.6017797217     
   7628132908.1684322        119725357.97790337        27880352.555367511     
   7420973071.3477640        71646379.330853939        32198816.551869445     
   7942564442.2896423       -154554268.27303791        282308930.15125936     
   7739803724.7600861        16693062.264424324        281045846.17814004     
   7513602515.2963123        109805419.68783188        265107766.62394062     
   7263960813.8983240        124782803.99718666        234494691.48865882     
   6990878620.5661163        61625215.192486286        189206620.77229273     
   7672669463.7323608        194443677.94008160        672846097.70301080     
   7400716962.7975817        184755742.31807995        589474901.93651009     
   7123442192.7784414        157326909.74821663        509308545.16848749     
   6840845153.6749430        112157180.23049283        432347027.39894277     
   6552925845.4870892        49246553.764910698        358590348.62787932     
   7190575194.2541428        479781836.87691998        991207482.25725651     
   6900516151.5700254        304484207.59221911        846866101.35554111     
   6623253062.6514101        171839757.52585220        723609394.03186476     
   6358785927.4982939        81848486.677817345        621437360.28622830     
   6107114746.1106768        34510395.048117161        540350000.11863315     
   6496281633.8549871        701460208.53747773        1237393083.8139961     
   6239201291.0774221        375878458.08684492        1053219444.4352337     
   6013035124.9152174        153343963.02073836        908010313.21407187     
   5817783135.3683710        33856723.339159727        801765690.15051019     
   5653445322.4368792        17416739.042106628        734485575.24454927     
   7420973071.3477640        71646379.330853939        32198816.551869445     
   7219160378.4324026       -19201613.036716461        15051833.198444540     
   7029649373.7788401       -69043977.864963531        2193958.3362397584     
   6852440057.3870792       -77880715.153870583       -6374808.0347625148     
   6687532429.2571125       -45711824.903460026       -10654465.914549788     
   6990878620.5661163        61625215.192486286        189206620.77229273     
   6808853727.7771626        2196437.3901638985        180782665.38261852     
   6634716549.4538889       -30939958.859876156        176040398.23775449     
   6468467085.5963020       -37783973.557630539        174979819.33770075     
   6310105336.2044086       -18335606.703088999        177600928.68245742     
   6552925845.4870892        49246553.764910698        358590348.62787932     
   6388953266.4062443        20716344.602342129        353739785.10648602     
   6228454427.9949760        3765271.0050163269        351963489.58350748     
   6071429330.2532835       -1606667.0270555019        353261462.05893570     
   5917877973.1811600        4600530.5061118603        357633702.53277475     
   6107114746.1106768        34510395.048117161        540350000.11863315     
   5959458994.3196583        36358108.599820614        533923192.37006038     
   5810863009.4021006        35071711.729724646        529963232.37349516     
   5661326791.3580017        30651204.437837362        528470120.12894058     
   5510850340.1873703        23096586.724155188        529443855.63639474     
   5653445322.4368792        17416739.042106628        734485575.24454927     
   5520370911.5173969        49121729.382594824        721332887.17333233     
   5381942293.6752625        62979363.314245224        710039626.60772073     
   5238159468.9104805        58989640.837059021        700605793.54771745     
   5089022437.2230425        37152561.951034069        693031387.99332178     
   6687532429.2571125       -45711824.903460026       -10654465.914549788     
   6509822204.5942850       -6756914.9440581799       -4308589.5850479668     
   6326816972.1106625        14547968.946023464        3622688.8887707344     
   6138516731.8062363        18202826.766759634        13139369.506885499     
   5944921483.6810141        4207658.5181818008        24241452.269312657     
   6310105336.2044086       -18335606.703088999        177600928.68245742     
   6132685744.6602840        2430404.8933017254        174407656.28077698     
   5952016898.4664211        12365567.657236576        174049983.75601858     
   5768098797.6228237        11469881.588721037        176527911.10818911     
   5580931442.1294889       -256653.31225252151        181841438.33729222     
   5917877973.1811600        4600530.5061118603        357633702.53277475     
   5744321008.2775135        8249241.7960207462        347287993.43280673     
   5569560541.8951988        7886281.4903588295        341028081.94238782     
   5393596574.0342045        3511649.5891041756        338853968.06152052     
   5216429104.6945410       -4874653.9077224731        340765651.79020792     
   5510850340.1873703        23096586.724155188        529443855.63639474     
   5344727995.4459848        10699595.764117479        514332421.87104917     
   5179447902.3969889        1110110.4453761578        504556983.44787604     
   5015010061.0403795       -5671869.2320706844        500117540.36688030     
   4851414471.3761606       -9646343.2682192326        501014092.62805736     
   5089022437.2230425        37152561.951034069        693031387.99332178     
   4933906706.1656942        9781466.7975857258        675540941.59550619     
   4781678979.9717979       -7962945.4776937962        664636688.27248442     
   4632339258.6413536       -16080674.874800920        660318628.02425992     
   4485887542.1743593       -14571721.393739462        662586760.85083258     
   5944921483.6810141        4207658.5181818008        24241452.269312657     
   5777332147.5159245       -6215345.9391863346        16724001.688522838     
   5612249065.4594526       -8284170.0345013142        13260029.816421321     
   5449672237.5115891       -1998813.7677869797        13849536.653014194     
   5289601663.6723394        12640722.860972643        18492522.198294729     
   5580931442.1294889       -256653.31225252151        181841438.33729222     
   5425264979.0224552       -4898872.4198992252        176457310.80171806     
   5271287802.2645636       -3910137.0303695202        174857117.98294452     
   5118999911.8558331        2709552.8563432693        177040859.88096195     
   4968401307.7962399        14960197.240202427        183008536.49578059     
   5216429104.6945410       -4874653.9077224731        340765651.79020792     
   5071915388.9544258       -3967125.3729796410        336561718.24714643     
   4928273991.8040028       -151868.20593619347        335872175.42898673     
   4785504913.2432690        6571117.5934138298        338697023.33572912     
   4643608153.2722254        16201832.025057554        345036261.96737671     
   4851414471.3761606       -9646343.2682192326        501014092.62805736     
   4717283377.3118496       -3420104.7984230518        497037224.02479893     
   4583207634.0777693        2990636.4388036728        496305202.15455204     
   4449187241.6739149        9585880.4434525967        498818027.01731491     
   4315222200.1002941        16365627.215537310        504575698.61308974     
   4485887542.1743593       -14571721.393739462        662586760.85083258     
   4361368944.0947237       -3257810.6962358952        657883828.13467693     
   4236088729.0858622        5517376.9038333893        656156198.15964282     
   4110046897.1477613        11753841.406450033        657403870.92572069     
   3983243448.2804341        15451582.811638594        661626846.43291879     
   5289601663.6723394        12640722.860972643        18492522.198294729     
   5071553338.3475637        11021804.015267611        16382048.833643368     
   4851747024.8292789        3542924.5245180130        17659756.342313349     
   4630182723.1174479       -9795915.6113779545        22325644.724288661     
   4406860433.2121010       -28994716.392325401        30379713.979594287     
   4968401307.7962399        14960197.240202427        183008536.49578059     
   4759054527.9357376        10245558.961700916        178198966.18576592     
   4548453079.3598633        1348691.6319735050        177409108.30558583     
   4336596962.0686235       -11730404.748971462        180638962.85525241     
   4123486176.0620222       -28991730.181132555        187888529.83476126     
   4643608153.2722254        16201832.025057554        345036261.96737671     
   4444767294.7517719        8932787.0764803886        338114800.76985484     
   4245175086.9941053       -840755.32945394516        335844583.55868810     
   4044831529.9992323       -13118795.192741871        338225610.33389574     
   3843736623.7671628       -27901332.513371229        345257881.09547442     
   4315222200.1002941        16365627.215537310        504575698.61308974     
   4128691638.7956648        7083488.3596100807        496129552.58590823     
   3941913047.7319984       -3025416.3597824574        492966182.10161382     
   3754886426.9092770       -13961086.942671061        495085587.16021335     
   3567611776.3275175       -25723523.389050007        502487767.76170468     
   3983243448.2804341        15451582.811638594        661626846.43291879     
   3810827560.0674286        4697662.8111259937        652243221.63393617     
   3638666961.5735302       -5205291.4590384960        648773903.93436098     
   3466761652.7987576       -14257279.998779774        651218893.33420587     
   3295111633.7430978       -22458302.808154821        659578189.83347285     
   4406860433.2121010       -28994716.392325401        30379713.979594287     
   4277793455.1806450       -20134859.248206377        20067173.309192318     
   4150340771.5160508       -5894020.8811907768        16923606.204725619     
   4024502382.2183247        13727798.708713531        20949012.666195463     
   3900278287.2874780        38730599.521531820        32143392.693598013     
   4123486176.0620222       -28991730.181132555        187888529.83476126     
   4012265756.7585106       -15800199.993753195        179669532.72017762     
   3902224673.6046109        1322450.6923224926        177010067.28195062     
   3793362926.6003284        22376221.877126455        179910133.52007800     
   3685680515.7456579        47361113.560638428        188369731.43456525     
   3843736623.7671628       -27901332.513371229        345257881.09547442     
   3745764357.7927980       -11757650.902376652        338624976.28324419     
   3648536469.7507801        6867290.4831235409        335942161.25778681     
   3552052959.6411271        27973491.643164158        337209436.01910132     
   3456313827.4638247        51560952.577711105        342426800.56717980     
   3567611776.3275175       -25723523.389050007        502487767.76170468     
   3478289258.2834907       -8007211.9740834236        496933503.99836349     
   3389276159.9545560        10740498.491204500        493719888.13221091     
   3300572481.3407288        30519608.006836176        492846920.16324627     
   3212178222.4420018        51330116.572808385        494314600.09146684     
   3295111633.7430978       -22458302.808154821        659578189.83347285     
   3209840458.2306004       -4548883.2088553905        654595115.86555314     
   3124443744.2159472        12942074.716585755        650343247.90523434     
   3038921491.6991320        30014570.968161225        646822585.95252323     
   2953273700.6801643        46668605.545884728        644033130.00742006     
   3900278287.2874780        38730599.521531820        32143392.693598013     
   3638803651.6780748        21497467.406997442        31926011.578220502     
   3375015312.4333649       -3448010.1585612297        25535057.934477761     
   3108913269.5533209       -36105833.175210714        12970531.762376836     
   2840497523.0379858       -76476001.642874002       -5767566.9380931649     
   3685680515.7456579        47361113.560638428        188369731.43456525     
   3411471614.7204661        21778906.014798880        182950466.61479604     
   3135681738.7468390       -9073218.0258239508        175835895.25694275     
   2858310887.8247848       -45195258.561188817        167026017.36098233     
   2579359061.9543033       -86587215.591322064        156520832.92692760     
   3456313827.4638247        51560952.577711105        342426800.56717980     
   3182165706.7093172        21468183.306507945        332660502.17773294     
   2907169339.6932583       -11452073.503184080        325677163.24044824     
   2631324726.4156647       -47199817.851335645        321476783.75534928     
   2354631866.8765154       -85775049.738001347        320059363.72240251     
   3212178222.4420018        51330116.572808385        494314600.09146684     
   2950885927.6446452        20565299.282181859        481056118.26703262     
   2689478115.2726231       -10584576.590650201        475058861.88503307     
   2427954785.3259411       -42119511.045686841        476322830.94545794     
   2166315937.8046021       -74039504.082918525        484848025.44832647     
   2953273700.6801643        46668605.545884728        644033130.00742006     
   2717632277.5264392        19070253.941798806        628137314.88269591     
   2482608065.4849296       -6470727.2882343531        623980991.19066906     
   2248201064.5556459       -29954338.144184828        631564158.93133724     
   2014411274.7385807       -51380578.626068115        650886818.10470462     
   5957960581.2143631        1787388174.3643088        1150019772.7198403     
   6088458226.3996058        1502297456.3245537        1227876318.8052678     
   6221677616.9014559        1226279222.6734965        1268390719.3494363     
   6357618752.7199163        959333473.41113782        1271562974.3523457     
   6496281633.8549871        701460208.53747773        1237393083.8139961     
   5434568446.8077383        1630370534.0423214        1033455814.2580444     
   5489887118.4388714        1372528799.0854292        1113849411.3213701     
   5547399584.9466534        1121999713.7173710        1167466947.4036713     
   5607105846.3310843        878783277.93814754        1194308422.5049481     
   5669005902.5921679        642879491.74775958        1194373836.6252000     
   4895138055.9774370        1468541416.7932310        936354701.94356930     
   4905466567.0836992        1247005308.8279734        1018669407.8048409     
   4917460922.6266537        1031022015.6516865        1084774137.2453227     
   4931121122.6063004        820591537.26437187        1134668890.2650142     
   4946447167.0226374        615713873.66602802        1168353666.8639154     
   4339669408.7234564        1301900822.6170368        858716435.77641475     
   4335196572.3340921        1125726985.5521867        942336308.25568020     
   4331861629.9414597        953346128.47644424        1020312288.8743901     
   4329664581.5455599        784758251.38980925        1092644377.6325440     
   4328605427.1463928        619963354.29228258        1159332574.5301425     
   3768162505.0457983        1130448751.5137396        800541015.75658071     
   3779077134.1900477        1008693829.2580690        884850112.67388785     
   3790601706.8910704        888972052.19164276        974081402.29087377     
   3802736223.1488667        771283420.31446052        1068234884.6075383     
   3815480682.9634361        655627933.62652302        1167310559.6238818     
   6496281633.8549871        701460208.53747773        1237393083.8139961     
   6239201291.0774221        375878458.08684492        1053219444.4352337     
   6013035124.9152174        153343963.02073836        908010313.21407187     
   5817783135.3683710        33856723.339159727        801765690.15051019     
   5653445322.4368792        17416739.042106628        734485575.24454927     
   5669005902.5921679        642879491.74775958        1194373836.6252000     
   5518779793.4866943        383289533.58430839        1073489568.0660561     
   5392701654.9794521        204192810.74829364        980607480.56926203     
   5290771487.0704374        105589323.23971367        915727574.13481855     
   5212989289.7596579        87479071.058571577        878849848.76272392     
   4946447167.0226374        615713873.66602802        1168353666.8639154     
   4871754357.0313931        412719427.42239952        1102864862.1044087     
   4814443311.6212540        267664196.44911718        1054415911.3120016     
   4774514030.7922192        180548180.74618077        1023006814.4866924     
   4751966514.5442858        151371380.31358981        1008637571.6284833     
   4328605427.1463928        619963354.29228258        1159332574.5301425     
   4298124981.7115192        464168139.60111892        1141345326.5502915     
   4278260094.8406258        343758120.12321222        1129435605.4422882     
   4269010766.5337052        258733295.85856056        1123603411.2061343     
   4270376996.7907629        209093666.80716443        1123848743.8418274     
   3815480682.9634361        655627933.62652302        1167310559.6238818     
   3797891667.5270753        537635670.12046814        1188930961.4037044     
   3784152004.6375637        432474581.77057850        1205666562.9601243     
   3774261694.2949023        340144668.57685316        1217517364.2931414     
   3768220736.4990902        260645930.53929245        1224483365.4027572     
   5653445322.4368792        17416739.042106628        734485575.24454927     
   5520370911.5173969        49121729.382594824        721332887.17333233     
   5381942293.6752625        62979363.314245224        710039626.60772073     
   5238159468.9104805        58989640.837059021        700605793.54771745     
   5089022437.2230425        37152561.951034069        693031387.99332178     
   5212989289.7596579        87479071.058571577        878849848.76272392     
   5077412014.0206909        85468880.670466661        855218336.94392455     
   4939734186.5767860        76456851.265902758        835582543.31112707     
   4799955807.4279423        60442982.844876051        819942467.86433554     
   4658076876.5741606        37427275.407390594        808298110.60354257     
   4751966514.5442858        151371380.31358981        1008637571.6284833     
   4619990061.6441078        117477115.49437666        978323167.14943409     
   4489166712.2567043        87426529.051077127        954140771.53678179     
   4359496466.3820753        61219620.983695269        936090384.79052985     
   4230979324.0202217        38856391.292229891        924172006.91067767     
   4270376996.7907629        209093666.80716443        1123848743.8418274     
   4148105054.3876486        145146433.85432220        1090647377.7898605     
   4030239870.7150178        95888396.669770002        1065714311.2846870     
   3916781445.7728782        61319555.253514290        1049049544.3263074     
   3807729779.5612278        41439909.605552435        1040653076.9147241     
   3768220736.4990902        260645930.53929245        1224483365.4027572     
   3661756992.2513108        168476835.75030613        1192190968.8652036     
   3562953661.9517303        101842454.12198341        1170303162.5548408     
   3471810745.6003528        60742785.654336452        1158819946.4716661     
   3388328243.1971760        45177830.347357273        1157741320.6156843     
   5089022437.2230425        37152561.951034069        693031387.99332178     
   4933906706.1656942        9781466.7975857258        675540941.59550619     
   4781678979.9717979       -7962945.4776937962        664636688.27248442     
   4632339258.6413536       -16080674.874800920        660318628.02425992     
   4485887542.1743593       -14571721.393739462        662586760.85083258     
   4658076876.5741606        37427275.407390594        808298110.60354257     
   4520981652.5747576        15867817.224835396        794746785.74391067     
   4386000916.8947678        1356653.4403164387        787130049.32231140     
   4253134669.5341873       -6106215.9461717606        785447901.33874154     
   4122382910.4930158       -6520790.9346218109        789700341.79320896     
   4230979324.0202217        38856391.292229891        924172006.91067767     
   4110042879.5451555        22550051.820487022        913657367.62118053     
   3990447406.8454571        10713618.266640425        908425712.13295186     
   3872192905.9211292        3347090.6306924820        908477040.44599354     
   3755279376.7721710        450468.91264390945        913811352.56030285     
   3807729779.5612278        41439909.605552435        1040653076.9147241     
   3701090387.0768833        29828170.584536552        1032272687.2273158     
   3595018449.8238668        20107949.001278877        1028523676.7044119     
   3489513967.8021803        12279244.855789661        1029406045.3460146     
   3384576941.0118217        6342058.1480572224        1034919793.1521206     
   3388328243.1971760        45177830.347357273        1157741320.6156843     
   3294124175.1699438        37702173.516988635        1150592744.5623164     
   3199714045.8299980        29539645.644240499        1147423943.0366910     
   3105097855.1773419        20690246.729117036        1148234916.0388038     
   3010275603.2119708        11153976.771623611        1153025663.5686574     
   4485887542.1743593       -14571721.393739462        662586760.85083258     
   4361368944.0947237       -3257810.6962358952        657883828.13467693     
   4236088729.0858622        5517376.9038333893        656156198.15964282     
   4110046897.1477613        11753841.406450033        657403870.92572069     
   3983243448.2804341        15451582.811638594        661626846.43291879     
   4122382910.4930158       -6520790.9346218109        789700341.79320896     
   4004740263.1632814       -259049.70039868355        783367525.75199163     
   3886792083.1465974        4984249.2440035343        780514485.11495078     
   3768538370.4429760        9209105.8986032009        781141219.88208914     
   3649979125.0524111        12415520.263394356        785247730.05340624     
   3755279376.7721710        450468.91264390945        913811352.56030285     
   3645954030.6582198        2092445.8233447075        906380751.47669113     
   3536779236.0996137        4236261.2518663406        902934398.46031928     
   3427754993.0963564        6881915.1982023716        903472293.51118898     
   3318881301.6484375        10029407.662354708        907994436.62929201     
   3384576941.0118217        6342058.1480572224        1034919793.1521206     
   3285010246.5795474        3796675.8750133514        1026923505.3087833     
   3186050187.9449072        3273412.9274066687        1023415938.1957488     
   3087696765.1079040        4772269.3052535057        1024397091.8130128     
   2989949978.0685272        8293245.0085393190        1029866966.1605797     
   3010275603.2119708        11153976.771623611        1153025663.5686574     
   2921908910.9272623        4853640.4545894861        1144995787.2482660     
   2834604938.6824770        2095704.2706329823        1141959104.3212395     
   2748363686.4776130        2880168.2197496891        1143915614.7875743     
   2663185154.3126736        7207032.3019375801        1150865318.6472671     
   3983243448.2804341        15451582.811638594        661626846.43291879     
   3810827560.0674286        4697662.8111259937        652243221.63393617     
   3638666961.5735302       -5205291.4590384960        648773903.93436098     
   3466761652.7987576       -14257279.998779774        651218893.33420587     
   3295111633.7430978       -22458302.808154821        659578189.83347285     
   3649979125.0524111        12415520.263394356        785247730.05340624     
   3493129555.8393354        3903098.9678602219        776674500.60267758     
   3336432724.6888714       -4100195.4523017406        773643786.65901506     
   3179888631.6010246       -11594362.997073889        776155588.22242999     
   3023497276.5757871       -18579403.666491628        784209905.29291308     
   3318881301.6484375        10029407.662354708        907994436.62929201     
   3176535789.7428837        3439806.5640927553        900111958.92756712     
   3034240464.2434387       -2982506.5138041973        897400205.14056265     
   2891995325.1501021       -9237531.5713349581        899859175.26828969     
   2749800372.4628778       -15325268.608501434        907488869.31074286     
   2989949978.0685272        8293245.0085393190        1029866966.1605797     
   2861046261.7780790        3307785.5998164415        1022555596.6086025     
   2732090180.2372351       -1852224.6435409784        1020043159.3790052     
   2603081733.4459987       -7186785.7215445042        1022329654.4717902     
   2474020921.4043736       -12695897.634187937        1029415081.8869553     
   2663185154.3126736        7207032.3019375801        1150865318.6472671     
   2546660971.9449110        3507036.0750329494        1144005413.6457860     
   2429981872.6702614       -709349.84150481224        1141572649.3743415     
   2313147856.4887071       -5442125.4477192163        1143567025.8329310     
   2196158923.4002657       -10691290.743565798        1149988543.0215597     
   3295111633.7430978       -22458302.808154821        659578189.83347285     
   3209840458.2306004       -4548883.2088553905        654595115.86555314     
   3124443744.2159472        12942074.716585755        650343247.90523434     
   3038921491.6991320        30014570.968161225        646822585.95252323     
   2953273700.6801643        46668605.545884728        644033130.00742006     
   3023497276.5757871       -18579403.666491628        784209905.29291308     
   2940472002.3032150       -3303361.6428998709        778868703.19024718     
   2857459654.8914528        12015769.916712761        775131613.93584585     
   2774460234.3404994        27377991.012358665        772998637.52971709     
   2691473740.6503615        42783301.644048810        772469773.97185886     
   2749800372.4628778       -15325268.608501434        907488869.31074286     
   2671515018.9749832       -1934398.2972034216        901951081.99678493     
   2593381057.7108698        11961112.760013461        898890314.37176847     
   2515398488.6705313        26361264.563155532        898306566.43568254     
   2437567311.8539715        41266057.112225175        900199838.18853152     
   2474020921.4043736       -12695897.634187937        1029415081.8869553     
   2402969508.2459130       -441993.17175769806        1023842252.2851789     
   2332207952.6742024        12778103.246500492        1021619349.2129989     
   2261736254.6892266        26964391.620549679        1022746372.6704198     
   2191554414.2910028        42116871.950426936        1027223322.6574370     
   2196158923.4002657       -10691290.743565798        1149988543.0215597     
   2134835470.1159973        1173853.7334376574        1144542214.0554230     
   2073940339.7814364        14466741.376136184        1143318718.4595466     
   2013473532.3965883        29187372.184543967        1146318056.2339265     
   1953435047.9614544        45335746.158661723        1153540227.3785706     
   2953273700.6801643        46668605.545884728        644033130.00742006     
   2717632277.5264392        19070253.941798806        628137314.88269591     
   2482608065.4849296       -6470727.2882343531        623980991.19066906     
   2248201064.5556459       -29954338.144184828        631564158.93133724     
   2014411274.7385807       -51380578.626068115        650886818.10470462     
   2691473740.6503615        42783301.644048810        772469773.97185886     
   2485065358.5703950        21864190.471070409        758692553.89921570     
   2279107002.1871691        2445164.9539082050        754121433.88959706     
   2073598671.5006936       -15473774.907435298        758756413.94299245     
   1868540366.5109553       -31892629.112970591        772597494.05939555     
   2437567311.8539715        41266057.112225175        900199838.18853152     
   2253153709.7915325        24854708.053504825        888346163.51658535     
   2069022948.0103626        9386159.9323343039        883165197.53797162     
   1885175026.5104573       -5139587.2512741089        884656940.25269520     
   1701609945.2918217       -18722533.497338772        892821391.66074920     
   2191554414.2910028        42116871.950426936        1027223322.6574370     
   2021897331.1898589        28041806.689091563        1017098143.7347929     
   1852355902.9544945        14352257.647043228        1011112282.1358000     
   1682930129.5849278        1048224.8242908716        1009265737.8604555     
   1513620011.0811386       -11870291.779165149        1011558510.9087672     
   1953435047.9614544        45335746.158661723        1153540227.3785706     
   1791296222.7653632        31425486.377835155        1144948494.5538402     
   1629105867.0195827        17343458.098042369        1137962687.6830790     
   1466863980.7241170        3089661.3192969561        1132582806.7662826     
   1304570563.8789494       -11335903.958443463        1128808851.8034492     
   3768162505.0457983        1130448751.5137396        800541015.75658071     
   3779077134.1900477        1008693829.2580690        884850112.67388785     
   3790601706.8910704        888972052.19164276        974081402.29087377     
   3802736223.1488667        771283420.31446052        1068234884.6075383     
   3815480682.9634361        655627933.62652302        1167310559.6238818     
   3207756992.6466022        962327097.79398060        756676698.61032319     
   3235847419.5879650        868198273.09586906        853062256.43690073     
   3263663629.5974379        773155391.95812464        951362520.43291128     
   3291205622.6750212        677198454.38074780        1051577490.5983557     
   3318473398.8207145        580327460.36373854        1153707166.9332333     
   2685592519.2280078        805677755.76840234        721971741.06389809     
   2722265925.3086405        736597183.03049660        829402239.22963846     
   2757780953.9687200        663655352.22408128        935739957.03456724     
   2792137605.2082472        586852263.34915650        1040984894.4786836     
   2825335879.0272212        506187916.40572214        1145137051.5619891     
   2201669084.7900167        660500725.43700504        696426143.11730504     
   2238332651.3520751        613890559.06195199        813870061.05210185     
   2272953680.0049176        560471932.98951244        927213712.09584177     
   2305532170.7485447        500244847.21968651        1036457096.2485238     
   2336068123.5829549        433209301.75247383        1141600213.5101490     
   1755986689.3326271        526796006.79978812        680039904.77054441     
   1784047597.7182679        500078401.19023478        806465721.90429080     
   1809181807.7060297        463605134.25441790        925783785.61673427     
   1831389319.2959123        417376205.99233776        1037994095.9078757     
   1850670132.4879158        361391616.40399390        1143096652.7777140     
   3815480682.9634361        655627933.62652302        1167310559.6238818     
   3797891667.5270753        537635670.12046814        1188930961.4037044     
   3784152004.6375637        432474581.77057850        1205666562.9601243     
   3774261694.2949023        340144668.57685316        1217517364.2931414     
   3768220736.4990902        260645930.53929245        1224483365.4027572     
   3318473398.8207145        580327460.36373854        1153707166.9332333     
   3293743010.4358139        473100371.92747903        1182000059.4765868     
   3272743996.0860524        378311196.94168484        1207200117.2668200     
   3255476355.7714305        295959935.40635443        1229307340.3039327     
   3241940089.4919477        226046587.32148862        1248321728.5879261     
   2825335879.0272212        506187916.40572214        1145137051.5619891     
   2798584019.0374432        411261973.44235730        1179964793.2718780     
   2775445554.5710950        328380682.22375762        1213491665.6989293     
   2755920485.6281772        257544042.74992144        1245717668.8431427     
   2740008812.2086854        198752055.02084816        1276642802.7045190     
   2336068123.5829549        433209301.75247383        1141600213.5101490     
   2312414693.3319650        352120474.66510350        1182825162.7895784     
   2292256680.0926938        282683037.61679751        1224541208.2564535     
   2275594083.8651423        224896990.60755384        1266748349.9107723     
   2262426904.6493082        178762333.63737285        1309446587.7525368     
   1850670132.4879158        361391616.40399390        1143096652.7777140     
   1835235033.3193772        295675875.59571642        1190581168.0296891     
   1823177372.6508474        241218263.12080294        1240348744.9393911     
   1814497150.4823260        198018778.97925204        1292399383.5068200     
   1809194366.8138142        166077423.17106313        1346733083.7319763     
   3768220736.4990902        260645930.53929245        1224483365.4027572     
   3661756992.2513108        168476835.75030613        1192190968.8652036     
   3562953661.9517303        101842454.12198341        1170303162.5548408     
   3471810745.6003528        60742785.654336452        1158819946.4716661     
   3388328243.1971760        45177830.347357273        1157741320.6156843     
   3241940089.4919477        226046587.32148862        1248321728.5879261     
   3164817797.7640133        151912708.40734613        1231356716.7768493     
   3093758820.0044088        97989876.054299355        1222395489.9365752     
   3028763156.2131324        64278090.262347102        1221438048.0671051     
   2969830806.3901834        50777351.031488299        1228484391.1684399     
   2740008812.2086854        198752055.02084816        1276642802.7045190     
   2685368529.4109273        140595558.90465462        1273141892.3100643     
   2635194460.6016240        97326442.749976158        1275243961.6300287     
   2589486605.7807775        68944706.556818366        1282949010.6644125     
   2548244964.9483833        55450350.325175881        1296257039.4132159     
   2262426904.6493082        178762333.63737285        1309446587.7525368     
   2223409187.1920509        134525387.24222267        1317546495.4648538     
   2187260583.7433777        99852154.209016323        1328848577.6352029     
   2153981094.3032837        74742634.537745833        1343352834.2635870     
   2123570718.8717747        59196828.228420615        1361059265.3500054     
   1809194366.8138142        166077423.17106313        1346733083.7319763     
   1778939771.1073864        133702193.42005670        1364570526.2412131     
   1749957189.4296672        105567010.43141299        1383209337.9520984     
   1722246621.7806578        81671874.205136836        1402649518.8646319     
   1695808068.1603584        62016784.741223991        1422891068.9788127     
   3388328243.1971760        45177830.347357273        1157741320.6156843     
   3294124175.1699438        37702173.516988635        1150592744.5623164     
   3199714045.8299980        29539645.644240499        1147423943.0366910     
   3105097855.1773419        20690246.729117036        1148234916.0388038     
   3010275603.2119708        11153976.771623611        1153025663.5686574     
   2969830806.3901834        50777351.031488299        1228484391.1684399     
   2885137589.0742688        39190837.280476093        1220458960.8904088     
   2800738740.6874337        28585553.293063760        1216718454.3827169     
   2716634261.2296801        18961499.069255710        1217262871.6453726     
   2632824150.7010064        10318674.609046340        1222092212.6783731     
   2548244964.9483833        55450350.325175881        1296257039.4132159     
   2473934453.3226538        40014536.147183061        1287938590.1926067     
   2400418740.8677979        27228052.538765669        1284210213.9849474     
   2327697827.5838161        17090899.499929547        1285071910.7902358     
   2255771713.4707060        9603077.0306701660        1290523680.6084714     
   2123570718.8717747        59196828.228420615        1361059265.3500054     
   2060514767.9150980        40173270.117106199        1353031632.4689155     
   1998754046.3710899        25467143.381347656        1349899221.8433762     
   1938288554.2397470        15078448.021142244        1351662033.4733887     
   1879118291.5210724        9007184.0364953279        1358320067.3589542     
   1695808068.1603584        62016784.741223991        1422891068.9788127     
   1644878532.8516059        39667039.190252602        1415738087.7193325     
   1595744657.1973100        23302825.820805490        1413785477.9580057     
   1548406441.1974750        12924144.632894516        1417033239.6948378     
   1502863884.8520999        8530995.6265156865        1425481372.9298234     
   3010275603.2119708        11153976.771623611        1153025663.5686574     
   2921908910.9272623        4853640.4545894861        1144995787.2482660     
   2834604938.6824770        2095704.2706329823        1141959104.3212395     
   2748363686.4776130        2880168.2197496891        1143915614.7875743     
   2663185154.3126736        7207032.3019375801        1150865318.6472671     
   2632824150.7010064        10318674.609046340        1222092212.6783731     
   2557558077.8798075        5927152.4900528193        1215124720.9094601     
   2483110663.1815963        4264490.7810190916        1212800939.7503352     
   2409481906.6063724        5330689.4819452763        1215120869.2010055     
   2336671808.1541400        9125748.5928394794        1222084509.2614591     
   2255771713.4707060        9603077.0306701660        1290523680.6084714     
   2192607737.8742366        6820812.4380776882        1284333834.4879475     
   2130018358.4838214        5953868.5323370695        1282438216.1936398     
   2068003575.2994606        7002245.3134431839        1284836825.7255497     
   2006563388.3211527        9965942.7813968658        1291529663.0836775     
   1879118291.5210724        9007184.0364953279        1358320067.3589542     
   1827057890.9105532        7534620.2986714840        1352623127.9837296     
   1775328024.5891554        7163837.5245859623        1350870933.6511483     
   1723928692.5568786        7894835.7142379284        1353063484.3612168     
   1672859894.8137236        9727614.8676275015        1359200780.1139221     
   1502863884.8520999        8530995.6265156865        1425481372.9298234     
   1460908536.9887543        8068576.0718288422        1419992601.3968081     
   1419039661.4975986        7894397.7577731013        1418099092.1228647     
   1377257258.3786283        8008460.6843345165        1419800845.1079965     
   1335561327.6318443        8410764.8515198827        1425097860.3521979     
   2663185154.3126736        7207032.3019375801        1150865318.6472671     
   2546660971.9449110        3507036.0750329494        1144005413.6457860     
   2429981872.6702614       -709349.84150481224        1141572649.3743415     
   2313147856.4887071       -5442125.4477192163        1143567025.8329310     
   2196158923.4002657       -10691290.743565798        1149988543.0215597     
   2336671808.1541400        9125748.5928394794        1222084509.2614591     
   2232014386.9482327        4568007.1248151064        1214096453.9692900     
   2127330437.0130954       -78163.440648913383        1211007476.9733844     
   2022619958.3487241       -4812763.1035615206        1212817578.2737432     
   1917882950.9551165       -9635791.8639264107        1219526757.8703599     
   2006563388.3211527        9965942.7813968658        1291529663.0836775     
   1915121121.3234644        4954973.9861643314        1282563243.7080941     
   1823780713.7742023        283536.68569529057        1278967840.1949966     
   1732542165.6733642       -4048369.1200301647        1280743452.5443892     
   1641405477.0209556       -8040743.4309936762        1287890080.7562697     
   1672859894.8137236        9727614.8676275015        1359200780.1139221     
   1595981175.0706077        4667936.6590932012        1349405782.8621941     
   1519332702.9535761        375750.53750950098        1345453739.0391791     
   1442914478.4626372       -3148943.4970989227        1347344648.6448793     
   1366726501.5977812       -5906145.4447668195        1355078511.6792936     
   1335561327.6318443        8410764.8515198827        1425097860.3521979     
   1274594548.1896603        3706895.1435899734        1414624071.4315925     
   1213986404.5512216        198478.11481213570        1410465173.5059335     
   1153736896.7165384       -2114486.2347841859        1412621166.5752091     
   1093846024.6855977       -3231997.9052360058        1421092050.6394277     
   2196158923.4002657       -10691290.743565798        1149988543.0215597     
   2134835470.1159973        1173853.7334376574        1144542214.0554230     
   2073940339.7814364        14466741.376136184        1143318718.4595466     
   2013473532.3965883        29187372.184543967        1146318056.2339265     
   1953435047.9614544        45335746.158661723        1153540227.3785706     
   1917882950.9551165       -9635791.8639264107        1219526757.8703599     
   1866763013.0246589        2061065.5666949749        1214863464.3203044     
   1815956262.2973173        14801880.341039300        1213865030.8366971     
   1765462698.7730813        28586652.459070206        1216531457.4195468     
   1715282322.4519589        43415381.920807779        1222862744.0688388     
   1641405477.0209556       -8040743.4309936762        1287890080.7562697     
   1598894845.0048482        3009564.1214206219        1283875497.5846033     
   1556582264.4452517        14720043.195541024        1282967801.1755714     
   1514467735.3421690        27090693.791374624        1285166991.5291731     
   1472551257.6955962        40121515.908903658        1290473068.6454172     
   1366726501.5977812       -5906145.4447668195        1355078511.6792936     
   1331230966.0565586        4019349.3976042867        1351578313.8483105     
   1295818346.2252440        14221229.939663887        1350627029.4761548     
   1260488642.1038487        24699496.181456685        1352224658.5628183     
   1225241853.6923621        35454148.122939765        1356371201.1083114     
   1093846024.6855977       -3231997.9052360058        1421092050.6394277     
   1063771376.1797895        5090421.3952307105        1417971913.1114347     
   1033664507.6372981        13305440.573413551        1416842715.7384524     
   1003525419.0581216        21413059.629313052        1417704458.5204828     
   973354110.44225347        29413278.562906802        1420557141.4575226     
   1953435047.9614544        45335746.158661723        1153540227.3785706     
   1791296222.7653632        31425486.377835155        1144948494.5538402     
   1629105867.0195827        17343458.098042369        1137962687.6830790     
   1466863980.7241170        3089661.3192969561        1132582806.7662826     
   1304570563.8789494       -11335903.958443463        1128808851.8034492     
   1715282322.4519589        43415381.920807779        1222862744.0688388     
   1560185587.8512430        27349278.642304122        1214030267.7575343     
   1405158132.9113398        11514107.566506565        1209506360.6035609     
   1250199957.6322567       -4090131.3065497875        1209291022.6069052     
   1095311062.0139847       -19463437.976901174        1213384253.7675755     
   1472551257.6955962        40121515.908903658        1290473068.6454172     
   1332218451.4141202        24216120.449857414        1281540794.0931387     
   1192075735.0039694        8944357.8952293992        1279619731.9015396     
   1052123108.4651451       -5693771.7549736500        1284709882.0706289     
   912360571.79764581       -19698268.500764489        1296811244.6003804     
   1225241853.6923621        35454148.122939765        1356371201.1083114     
   1107394813.4540002        22026011.800508976        1347480073.5606492     
   989858673.29748142        9634209.0842185020        1348302801.5770268     
   872633433.22279382       -1721260.0259720087        1358839385.1574366     
   755719093.22994018       -12040395.530037820        1379089824.3018894     
   973354110.44225347        29413278.562906802        1420557141.4575226     
   885714673.97088826        20778952.694276273        1411848106.1600711     
   798506947.79186952        13583661.133467108        1415555569.6300166     
   711730931.90519428        7827403.8804661036        1431679531.8673537     
   625386626.31085992        3510180.9352698028        1460219992.8720813     
   1755986689.3326271        526796006.79978812        680039904.77054441     
   1784047597.7182679        500078401.19023478        806465721.90429080     
   1809181807.7060297        463605134.25441790        925783785.61673427     
   1831389319.2959123        417376205.99233776        1037994095.9078757     
   1850670132.4879158        361391616.40399390        1143096652.7777140     
   1326316114.2597897        397894834.27793694        669709166.05241323     
   1339564176.2896342        375517344.34626693        791880944.77545738     
   1350617214.5207071        345823108.41869164        908764414.56660330     
   1359475228.9530087        308812126.49521160        1020359575.4258506     
   1366138219.5865381        264484398.57582578        1126666427.3531995     
   890428140.97545326        267128442.29263598        662330066.99170864     
   894061769.47637057        250650591.88691008        781101427.66967630     
   896232048.77762377        229294910.81563729        896403923.90514958     
   896938978.87921274        203061399.07881775        1008237555.6981286     
   896182559.78113770        171950056.67645115        1116602323.0486135     
   448322769.47961813        134496830.84388545        657902607.58843076     
   447540377.27847695        125478143.81216429        774127170.58694685     
   446026310.47677922        114020541.44525456        888702313.63237345     
   443780569.07452494        100124023.74315634        1001628036.7247092     
   440803153.07171404        83788590.705869660        1112904339.8639553     
 -0.22771596879196435       -6.8314790637589301E-002   656426787.84257936     
 -0.30404650866608224       0.12202953276983831        770958173.52726996     
 -0.38182613549868577       0.30754347957947303        885659583.74827445     
 -0.46105481783599778       0.48822737147767381        1000531018.5055931     
 -0.54173266719595592       0.66408070663372065        1115572477.7992253     
   1850670132.4879158        361391616.40399390        1143096652.7777140     
   1835235033.3193772        295675875.59571642        1190581168.0296891     
   1823177372.6508474        241218263.12080294        1240348744.9393911     
   1814497150.4823260        198018778.97925204        1292399383.5068200     
   1809194366.8138142        166077423.17106313        1346733083.7319763     
   1366138219.5865381        264484398.57582578        1126666427.3531995     
   1360335960.6620698        216929812.65382007        1182026792.0167253     
   1357066780.6120515        177818822.97998112        1238322936.3903627     
   1356330679.4364829        147151429.55430847        1295554860.4741092     
   1358127657.1353643        124927632.37680215        1353722564.2679675     
   896182559.78113770        171950056.67645115        1116602323.0486135     
   896163764.10754895        141401812.54275838        1178853450.8938723     
   897833687.68285120        116482632.57203665        1240693076.5016248     
   901192330.50704467        97192516.764285922        1302121199.8718712     
   906239692.58012974        83531465.119506121        1363137821.0046115     
   440803153.07171404        83788590.705869660        1112904339.8639553     
   442718443.65581453        69091875.262533009        1181061144.6611283     
   445478093.86324769        57209691.896972120        1247459165.2731788     
   449082103.69401294        48142040.609185323        1312098401.7001061     
   453530473.14811146        41888921.399175242        1374978853.9419115     
 -0.54173266719595592       0.66408070663372065        1115572477.7992253     
 -0.69313314245709468       0.81314369157450861        1188649873.3184941     
 -0.84675999185136208       0.95478568961338839        1258621202.7050235     
  -1.0026130355918266        1.0890068229911769        1325486465.9588134     
  -1.1606922154175146        1.2158075027515545        1389245663.0798645     
   1809194366.8138142        166077423.17106313        1346733083.7319763     
   1778939771.1073864        133702193.42005670        1364570526.2412131     
   1749957189.4296672        105567010.43141299        1383209337.9520984     
   1722246621.7806578        81671874.205136836        1402649518.8646319     
   1695808068.1603584        62016784.741223991        1422891068.9788127     
   1358127657.1353643        124927632.37680215        1353722564.2679675     
   1332921369.6135733        99891607.890563965        1372864538.3096948     
   1308669092.6178606        78035618.491251349        1393394794.3845491     
   1285370826.1482270        59359664.178869903        1415313332.4925306     
   1263026570.2046714        43863744.953415871        1438620152.6336372     
   906239692.58012974        83531465.119506121        1363137821.0046115     
   887758607.04719973        66337714.039302111        1383213322.4924273     
   869913528.53771734        51263986.370590329        1405264018.8448491     
   852704457.05168164        38310282.113368571        1429289910.0618749     
   836131392.58909440        27476601.267639488        1455290996.1435041     
   453530473.14811146        41888921.399175242        1374978853.9419115     
   443451483.40826589        33040511.866273448        1395616878.7894118     
   433690497.18923759        25252114.069428757        1418817011.3329966     
   424247514.49102432        18523728.008634508        1444579251.5726633     
   415122535.31362873        12855353.683898821        1472903599.5084136     
  -1.1606922154175146        1.2158075027515545        1389245663.0798645     
  -1.3032290562643056        1.3714754320768077        1410075207.2006478     
  -1.4275799864582481        1.5877632370505692        1434053771.8489923     
  -1.5337466558929349        1.8646655047637073        1461181357.0248983     
  -1.6217271115747369        2.2021877910970691        1491457962.7283659     
   1695808068.1603584        62016784.741223991        1422891068.9788127     
   1644878532.8516059        39667039.190252602        1415738087.7193325     
   1595744657.1973100        23302825.820805490        1413785477.9580057     
   1548406441.1974750        12924144.632894516        1417033239.6948378     
   1502863884.8520999        8530995.6265156865        1425481372.9298234     
   1263026570.2046714        43863744.953415871        1438620152.6336372     
   1226860857.9728780        27710867.660822451        1435123451.4553552     
   1192041890.4805000        16047139.499612987        1436353119.2400308     
   1158569667.7275376        8872560.4697883725        1442309155.9876635     
   1126444189.7139885        6187130.5713431835        1452991561.6982539     
   836131392.58909440        27476601.267639488        1455290996.1435041     
   813375210.47655177        17114304.346115798        1454926840.9788706     
   791516858.18837905        9744773.5058253109        1458815052.2419960     
   770556335.72457683        5368008.7467701435        1466955629.9328783     
   750493643.08514595        3984010.0689504445        1479348574.0515199     
   415122535.31362873        12855353.683898821        1472903599.5084136     
   404421590.36262465        7877349.2461273819        1475148256.2898772     
   394169560.32094634        4395727.8394425362        1481171276.9638972     
   384366445.18859571        2410489.4638491869        1490972661.5304787     
   375012244.96556938        1921634.1193371117        1504552409.9896181     
  -1.6217271115747369        2.2021877910970691        1491457962.7283659     
  -2.3689020754160417        2.3608607399613870        1495787697.3883722     
  -3.1217952902216579        2.5004725053333026        1503421793.4057391     
  -3.8804075223199810        2.6210208797295338        1514360250.7804651     
  -4.6447394007865537        2.7225041131762904        1528603069.5125535     
   1502863884.8520999        8530995.6265156865        1425481372.9298234     
   1460908536.9887543        8068576.0718288422        1419992601.3968081     
   1419039661.4975986        7894397.7577731013        1418099092.1228647     
   1377257258.3786283        8008460.6843345165        1419800845.1079965     
   1335561327.6318443        8410764.8515198827        1425097860.3521979     
   1126444189.7139885        6187130.5713431835        1452991561.6982539     
   1094065749.9763877        5566737.2866260409        1447861657.6864860     
   1061752164.4868032        5162524.8286336064        1446539799.2962239     
   1029503433.2452359        4974493.1973630190        1449025986.5274677     
   997319556.25168526        5002642.3928171992        1455320219.3802216     
   750493643.08514595        3984010.0689504445        1479348574.0515199     
   728300063.93738413        3388028.7934303284        1474552316.4161327     
   706149720.91347027        2936167.9307360649        1473776887.7646859     
   684042614.01340318        2628427.4808642864        1477022288.0971806     
   661978743.23718500        2464807.4438222051        1484288517.4136143     
   375012244.96556938        1921634.1193371117        1504552409.9896181     
   363611478.87174475        1532450.5922439545        1500064577.5857501     
   352232330.77759737        1215327.0640749037        1499810357.5282550     
   340874800.68312889        970263.53483395278        1503789749.8171337     
   329538888.58833796        797260.00451983511        1512002754.4523885     
  -4.6447394007865537        2.7225041131762904        1528603069.5125535     
  -5.2205295031970085        2.6830687854623356        1524398441.1953371     
  -5.9208135189541942        2.2286544404819937        1524640208.5869272     
  -6.7455886572502379        1.3592695135664536        1529328371.6873260     
  -7.6948560618588546        7.4910018664299471E-002   1538462930.4965332     
   1335561327.6318443        8410764.8515198827        1425097860.3521979     
   1274594548.1896603        3706895.1435899734        1414624071.4315925     
   1213986404.5512216        198478.11481213570        1410465173.5059335     
   1153736896.7165384       -2114486.2347841859        1412621166.5752091     
   1093846024.6855977       -3231997.9052360058        1421092050.6394277     
   997319556.25168526        5002642.3928171992        1455320219.3802216     
   952855305.66892040        1852989.9966773391        1446080775.9864628     
   908660031.92725635       -400072.92912673950        1442862029.0330625     
   864733735.02668810       -1756546.3846086264        1445663978.5200167     
   821076414.96722519       -2216430.3697425723        1454486624.4473248     
   661978743.23718500        2464807.4438222051        1484288517.4136143     
   633176465.64359093        617205.59839370847        1476178817.4236197     
   604553505.92844760       -632669.98553192616        1473795619.3193910     
   576109864.09176099       -1284819.3079361618        1477138923.1009300     
   547845540.13352478       -1339242.3688376248        1486208728.7682374     
   329538888.58833796        797260.00451983511        1512002754.4523885     
   315558028.11366749       -458.05127108097076        1504918195.7430618     
   301666826.55479997       -499313.05438873172        1503265944.3649180     
   287865283.91174191       -699305.00480625033        1507046000.3179553     
   274153400.18448818       -600433.90254345536        1516258363.6021726     
  -7.6948560618588546        7.4910018664299471E-002   1538462930.4965332     
  -6.9208477776533321      -0.95231505831311147        1532298910.9447904     
  -6.1936845990812115       -2.1356908343465615        1531273004.1696434     
  -5.5133588628585679       -3.4751910712669036        1535385210.1710882     
  -4.8798769969937101       -4.9708378896578900        1544635528.9491308     
   1093846024.6855977       -3231997.9052360058        1421092050.6394277     
   1063771376.1797895        5090421.3952307105        1417971913.1114347     
   1033664507.6372981        13305440.573413551        1416842715.7384524     
   1003525419.0581216        21413059.629313052        1417704458.5204828     
   973354110.44225347        29413278.562906802        1420557141.4575226     
   821076414.96722519       -2216430.3697425723        1454486624.4473248     
   796075593.98580694        3291933.2855619490        1451457383.5394580     
   771050607.97670710        8719746.8485944867        1450989544.1826861     
   746001456.93992710        14067010.319362432        1453083106.3770063     
   720928140.87546933        19333723.697868645        1457738070.1224244     
   547845540.13352478       -1339242.3688376248        1486208728.7682374     
   529548436.37958431        1844032.5522212088        1483279781.9910085     
   511235222.60697055        4973607.4110360146        1483482698.1609557     
   492905898.81568515        8049482.2076112330        1486817477.2780807     
   474560465.00572747        11071656.941946447        1493284119.3423815     
   274153400.18448818       -600433.90254345536        1516258363.6021726     
   264189903.36111963        746719.19520112872        1513439108.4660914     
   254218351.52808839        2067022.2607350349        1514322177.6732643     
   244238744.68538964        3360475.2940437794        1518907571.2236996     
   234251082.83302540        4627078.2951345295        1527195289.1173933     
  -4.8798769969937101       -4.9708378896578900        1544635528.9491308     
  -5.0695790514250385       -6.7854774683688657        1541935362.9646988     
  -5.2599417495572851       -8.6023178049707845        1543507982.7196097     
  -5.4509629868468021       -10.421354312931028        1549353388.2138634     
  -5.6426379136930169       -12.242569092190870        1559471579.4474583     
   973354110.44225347        29413278.562906802        1420557141.4575226     
   885714673.97088826        20778952.694276273        1411848106.1600711     
   798506947.79186952        13583661.133467108        1415555569.6300166     
   711730931.90519428        7827403.8804661036        1431679531.8673537     
   625386626.31085992        3510180.9352698028        1460219992.8720813     
   720928140.87546933        19333723.697868645        1457738070.1224244     
   664281485.84447920        15582854.471061736        1450530467.4802046     
   607958612.82004619        12911258.599449366        1453620015.6458359     
   551959521.80217552        11318936.083037972        1467006714.6193287     
   496284212.79085988        10805886.921819270        1490690564.4006908     
   474560465.00572747        11071656.941946447        1493284119.3423815     
   442851311.53072715        10387660.391630977        1487452033.0219705     
   411358011.77650541        10423176.243906394        1489797749.5498908     
   380080565.74306077        11178204.498772755        1500321268.9261334     
   349018973.43039101        12652745.156228080        1519022591.1507068     
   234251082.83302540        4627078.2951345295        1527195289.1173933     
   221424151.02964106        5193370.4560066462        1522612802.7853792     
   208705144.66125000        6119414.0668573454        1524088771.3421633     
   196094063.72785360        7405209.1276872829        1531623194.7877409     
   183590908.22944996        9050755.6384952292        1545216073.1221144     
  -5.6426379136930169       -12.242569092190870        1559471579.4474583     
   4.3412161685975645       -15.335819313173799        1556012776.7704306     
   11.474278624315643       -27.931708983287791        1556493081.0226634     
   15.756552793280488       -50.030225235078504        1560912492.2041652     
   17.188035976186104       -81.631379494845390        1569271010.3149176     
 -0.22771596879196435       -6.8314790637589301E-002   656426787.84257936     
 -0.30404650866608224       0.12202953276983831        770958173.52726996     
 -0.38182613549868577       0.30754347957947303        885659583.74827445     
 -0.46105481783599778       0.48822737147767381        1000531018.5055931     
 -0.54173266719595592       0.66408070663372065        1115572477.7992253     
  -448322769.92078543       -134496830.97623563        657902607.74995518     
  -447540377.87469554       -125478143.58667338        774127170.75667989     
  -446026311.23114014       -114020540.87222640        888702313.81374860     
  -443780569.99011946       -100124022.83289468        1001628036.9211612     
  -440803154.15163326       -83788589.468678385        1112904340.0789173     
  -890428141.37382686       -267128442.41214806        662330067.30635846     
  -894061770.02237391       -250650591.66848516        781101428.00051773     
  -896232049.47454154       -229294910.27022257        896403924.25905061     
  -896938979.73032916       -203061398.21736032        1008237556.0819571     
  -896182560.78973663       -171950055.50989848        1116602323.4692373     
  -1326316114.5868402       -397894834.37605208        669709166.51178908     
  -1339564176.7470825       -375517344.12340581        791880945.25878310     
  -1350617215.1120300       -345823107.88644493        908764415.08418083     
  -1359475229.6816831       -308812125.66516936        1020359575.9879817     
  -1366138220.4560421       -264484397.45957884        1126666427.9701858     
  -1755986689.5598254       -526796006.86794764        680039905.36624742     
  -1784047598.0488203       -500078400.95143539        806465722.53147638     
  -1809181808.1436062       -463605133.72089350        925783786.28913879     
  -1831389319.8441832       -417376205.17632198        1037994096.6392343     
  -1850670133.1505513       -361391615.31772101        1143096653.5817630     
 -0.54173266719595592       0.66408070663372065        1115572477.7992253     
 -0.69313314245709468       0.81314369157450861        1188649873.3184941     
 -0.84675999185136208       0.95478568961338839        1258621202.7050235     
  -1.0026130355918266        1.0890068229911769        1325486465.9588134     
  -1.1606922154175146        1.2158075027515545        1389245663.0798645     
  -440803154.15163326       -83788589.468678385        1112904340.0789173     
  -442718445.04188550       -69091873.746759415        1181061144.8977530     
  -445478095.55620247       -57209690.105056062        1247459165.5333991     
  -449082105.69458443       -48142038.543569252        1312098401.9858544     
  -453530475.45703053       -41888919.062296674        1374978854.2551196     
  -896182560.78973663       -171950055.50989848        1116602323.4692373     
  -896163765.42012882       -141401811.11550909        1178853451.3621621     
  -897833689.29642403       -116482630.87413114        1240693077.0214458     
  -901192332.41862273       -97192514.785764366        1302121200.4470885     
  -906239694.78672481       -83531462.850408196        1363137821.6390893     
  -1366138220.4560421       -264484397.45957884        1126666427.9701858     
  -1360335961.8278625       -216929811.29310614        1182026792.7117209     
  -1357066782.0674248       -177818821.35243890        1238322937.1691644     
  -1356330681.1747284       -147151427.63757938        1295554861.3425152     
  -1358127659.1497750       -124927630.14852631        1353722565.2317743     
  -1850670133.1505513       -361391615.31772101        1143096653.5817630     
  -1835235034.2650878       -295675874.27955061        1190581168.9464304     
  -1823177373.8692045       -241218261.53998232        1240348745.9765544     
  -1814497151.9629030       -198018777.09901679        1292399384.6721363     
  -1809194368.5461805       -166077420.95665133        1346733085.0331745     
  -1.1606922154175146        1.2158075027515545        1389245663.0798645     
  -1.3032290562643056        1.3714754320768077        1410075207.2006478     
  -1.4275799864582481        1.5877632370505692        1434053771.8489923     
  -1.5337466558929349        1.8646655047637073        1461181357.0248983     
  -1.6217271115747369        2.2021877910970691        1491457962.7283659     
  -453530475.45703053       -41888919.062296674        1374978854.2551196     
  -443451485.99139923       -33040509.216385320        1395616879.1718166     
  -433690500.02507770       -25252111.034839377        1418817011.7925651     
  -424247517.55806476       -18523724.517655849        1444579252.1173630     
  -415122538.59036171       -12855349.664838523        1472903600.1462109     
  -906239694.78672481       -83531462.850408196        1363137821.6390893     
  -887758609.49438679       -66337711.448694497        1383213323.2479577     
  -869913531.21885192       -51263983.436324865        1405264019.7373652     
  -852704459.96012139       -38310278.813302100        1429289911.1073117     
  -836131395.71819472       -27476597.579626054        1455290997.3577979     
  -1358127659.1497750       -124927630.14852631        1353722565.2317743     
  -1332921371.8121896       -99891605.325447083        1372864539.4290695     
  -1308669095.0089021       -78035615.616692245        1393394795.6833932     
  -1285370828.7399142       -59359661.022269130        1415313333.9947441     
  -1263026573.0052238       -43863741.542171478        1438620154.3631232     
  -1809194368.5461805       -166077420.95665133        1346733085.0331745     
  -1778939772.9448087       -133702190.84664369        1364570527.7151527     
  -1749957191.3952298       -105567007.57594532        1383209339.6306481     
  -1722246623.8974433       -81671871.144554257        1402649520.7796605     
  -1695808070.4514501       -62016781.552476227        1422891071.1621890     
  -1.6217271115747369        2.2021877910970691        1491457962.7283659     
  -2.3689020754160417        2.3608607399613870        1495787697.3883722     
  -3.1217952902216579        2.5004725053333026        1503421793.4057391     
  -3.8804075223199810        2.6210208797295338        1514360250.7804651     
  -4.6447394007865537        2.7225041131762904        1528603069.5125535     
  -415122538.59036171       -12855349.664838523        1472903600.1462109     
  -404421595.14895737       -7877345.0571676642        1475148256.9951530     
  -394169566.61742139       -4395723.4823914766        1481171277.7589481     
  -384366452.99575686       -2410484.9405185580        1490972662.4375989     
  -375012254.28396261       -1921629.4315498620        1504552411.0311036     
  -836131395.71819472       -27476597.579626054        1455290997.3577979     
  -813375215.06679738       -17114300.616528958        1454926842.3408301     
  -791516864.22942054       -9744769.7001659572        1458815053.7962103     
  -770556343.20606685       -5368004.8305470645        1466955631.7239392     
  -750493651.99673438       -3984006.0076642334        1479348576.1240180     
  -1263026573.0052238       -43863741.542171478        1438620154.3631232     
  -1226860862.1224220       -27710864.317224383        1435123453.4254029     
  -1192041895.9577935       -16047136.152854085        1436353121.5175252     
  -1158569674.5113392       -8872557.0490621924        1442309158.6394918     
  -1126444197.7830570       -6187127.0058476329        1452991564.7912993     
  -1695808070.4514501       -62016781.552476227        1422891071.1621890     
  -1644878536.3158326       -39667036.159258962        1415738090.2488723     
  -1595744661.8025396       -23302822.840453386        1413785480.9228945     
  -1548406446.9115708       -12924141.596061945        1417033243.1842515     
  -1502863891.6429274       -8530992.4260919690        1425481377.0329490     
  -4.6447394007865537        2.7225041131762904        1528603069.5125535     
  -5.2205295031970085        2.6830687854623356        1524398441.1953371     
  -5.9208135189541942        2.2286544404819937        1524640208.5869272     
  -6.7455886572502379        1.3592695135664536        1529328371.6873260     
  -7.6948560618588546        7.4910018664299471E-002   1538462930.4965332     
  -375012254.28396261       -1921629.4315498620        1504552411.0311036     
  -363611489.36138451       -1532445.9351442903        1500064578.5074012     
  -352232342.63386196       -1215323.0889220983        1499810358.3038259     
  -340874814.10139489       -970260.89288657904        1503789750.4203787     
  -329538903.76398182       -797259.34703069925        1512002754.8570590     
  -750493651.99673438       -3984006.0076642334        1479348576.1240180     
  -728300074.11487556       -3388024.7371431887        1474552318.3115077     
  -706149732.49863648       -2936164.3520199955        1473776889.4304419     
  -684042627.14801371       -2628424.8522848487        1477022289.4808254     
  -661978758.06301117       -2464806.2379491329        1484288518.4626517     
  -1126444197.7830570       -6187127.0058476329        1452991564.7912993     
  -1094065759.4810061       -5566733.7229397893        1447861660.6076572     
  -1061752175.5151378       -5162521.5606374145        1446539801.9667795     
  -1029503445.8854480       -4974490.5189336538        1449025988.8686674     
  -997319570.59194171       -5002640.5978379250        1455320221.3133214     
  -1502863891.6429274       -8530992.4260919690        1425481377.0329490     
  -1460908545.4597716       -8068572.8925201297        1419992605.3958490     
  -1419039671.6833622       -7894394.7147660851        1418099095.9128346     
  -1377257270.3136952       -8008457.8928213716        1419800848.5839047     
  -1335561341.3507729       -8410762.4266936183        1425097863.4090617     
  -7.6948560618588546        7.4910018664299471E-002   1538462930.4965332     
  -6.9208477776533321      -0.95231505831311147        1532298910.9447904     
  -6.1936845990812115       -2.1356908343465615        1531273004.1696434     
  -5.5133588628585679       -3.4751910712669036        1535385210.1710882     
  -4.8798769969937101       -4.9708378896578900        1544635528.9491308     
  -329538903.76398182       -797259.34703069925        1512002754.8570590     
  -315558041.59653372        457.11348788440228        1504918196.0088551     
  -301666838.57535827        499309.75309820473        1503265944.4972236     
  -287865294.70045269        699298.57180839777        1507046000.3221660     
  -274153409.97182178        600423.56960350275        1516258363.4836769     
  -661978758.06301117       -2464806.2379491329        1484288518.4626517     
  -633176478.61647236       -617205.52398416400        1476178818.0353217     
  -604553517.41563857        632667.70429903269        1473795619.5045390     
  -576109874.46050453        1284813.4469138980        1477138922.8703055     
  -547845549.75107431        1339231.7038525641        1486208728.1326225     
  -997319570.59194171       -5002640.5978379250        1455320221.3133214     
  -952855317.98066509       -1852988.8647361994        1446080777.0241923     
  -908660042.71452165        400071.71792042255        1442862029.1915879     
  -864733744.79350865        1756541.1501420140        1445663977.8155098     
  -821076424.21763456        2216419.4319026470        1454486622.8959579     
  -1335561341.3507729       -8410762.4266936183        1425097863.4090617     
  -1274594559.6891074       -3706892.9087547660        1414624072.9754653     
  -1213986414.4720089       -198478.20603859425        1410465173.5583718     
  -1153736905.6994722        2114481.6814716458        1412621165.1577811     
  -1093846033.3714979        3231986.7537751794        1421092047.7736943     
  -4.8798769969937101       -4.9708378896578900        1544635528.9491308     
  -5.0695790514250385       -6.7854774683688657        1541935362.9646988     
  -5.2599417495572851       -8.6023178049707845        1543507982.7196097     
  -5.4509629868468021       -10.421354312931028        1549353388.2138634     
  -5.6426379136930169       -12.242569092190870        1559471579.4474583     
  -274153409.97182178        600423.56960350275        1516258363.4836769     
  -264189913.53845808       -746734.15256032348        1513439108.5429845     
  -254218362.06742287       -2067041.7491516918        1514322178.1670465     
  -244238755.55872253       -3360499.2201918513        1518907572.3558600     
  -234251094.01234517       -4627106.5656441748        1527195291.1094275     
  -547845549.75107431        1339231.7038525641        1486208728.1326225     
  -529548445.76489651       -1844048.6469068527        1483279781.7803817     
  -511235231.70272213       -4973628.7443439066        1483482698.8183084     
  -492905907.56455016       -8049508.5884563625        1486817479.2463987     
  -474560473.35037827       -11071688.179235309        1493284123.0646536     
  -821076424.21763456        2216419.4319026470        1454486622.8959579     
  -796075601.74889743       -3291950.2685308456        1451457382.6768913     
  -771050614.16583133       -8719769.5878676772        1450989544.6733973     
  -746001461.46844423       -14067038.526134223        1453083108.8854830     
  -720928143.65673399       -19333757.083324045        1457738075.3131392     
  -1093846033.3714979        3231986.7537751794        1421092047.7736943     
  -1063771381.4904542       -5090439.0174049735        1417971911.2325108     
  -1033664509.4567595       -13305464.279752135        1416842715.7323139     
  -1003525417.2704091       -21413089.033246219        1417704461.2731035     
  -973354104.93140519       -29413313.277894199        1420557147.8548796     
  -5.6426379136930169       -12.242569092190870        1559471579.4474583     
   4.3412161685975645       -15.335819313173799        1556012776.7704306     
   11.474278624315643       -27.931708983287791        1556493081.0226634     
   15.756552793280488       -50.030225235078504        1560912492.2041652     
   17.188035976186104       -81.631379494845390        1569271010.3149176     
  -234251094.01234517       -4627106.5656441748        1527195291.1094275     
  -221424141.59839723       -5193401.7586257309        1522612800.3647642     
  -208705117.91956091       -6119459.4019797742        1524088764.2754579     
  -196094022.97582918       -7405279.4956808686        1531623182.8415208     
  -183590856.76720876       -9050862.0397543460        1545216056.0629447     
  -474560473.35037827       -11071688.179235309        1493284123.0646536     
  -442851299.28890508       -10387691.706707120        1487452030.7206464     
  -411357979.84686035       -10423210.632275626        1489797740.7580988     
  -380080515.02424479       -11178244.955941707        1500321253.1770132     
  -349018904.82105708       -12652794.677703619        1519022567.9773922     
  -720928143.65673399       -19333757.083324045        1457738075.3131392     
  -664281468.73030269       -15582885.180048853        1450530467.8380771     
  -607958574.30762386       -12911281.622617155        1453620010.4705822     
  -551959460.38868999       -11318946.411000520        1467006703.2106526     
  -496284126.97351301       -10805879.545238495        1490690546.0582764     
  -973354104.93140519       -29413313.277894199        1420557147.8548796     
  -885714649.92259574       -20778982.178669095        1411848111.7170632     
  -798506901.30185163       -13583672.372996300        1415555573.4129086     
  -711730859.06917799       -7827383.8608901203        1431679532.9424200     
  -625386523.22457469       -3510116.6423551142        1460219990.3055906     
  -1755986689.5598254       -526796006.86794764        680039905.36624742     
  -1784047598.0488203       -500078400.95143539        806465722.53147638     
  -1809181808.1436062       -463605133.72089350        925783786.28913879     
  -1831389319.8441832       -417376205.17632198        1037994096.6392343     
  -1850670133.1505513       -361391615.31772101        1143096653.5817630     
  -2201669084.9003301       -660500725.47009897        696426143.83287823     
  -2238332651.5454941       -613890558.84265041        813870061.79835343     
  -2272953680.2830701       -560471932.52323687        927213712.88720226     
  -2305532171.1130557       -500244846.51185775        1036457097.0994251     
  -2336068124.0354519       -433209300.80851382        1141600214.4350216     
  -2685592519.2159004       -805677755.76477015        721971741.87482715     
  -2722265925.3574061       -736597182.82843637        829402240.07282579     
  -2757780954.0779400       -663655351.82220149        935739957.92513895     
  -2792137605.3775039       -586852262.74606609        1040984895.4317664     
  -2825335879.2560987       -506187915.60003018        1145137052.5927083     
  -3207756992.5065389       -962327097.75196159        756676699.49209392     
  -3235847419.4845524       -868198272.90879309        853062257.35489357     
  -3263663629.5282154       -773155391.61778808        951362521.40294850     
  -3291205622.6375284       -677198453.87894773        1051577491.6362580     
  -3318473398.8124895       -580327459.69226980        1153707168.0548224     
  -3768162504.7722435       -1130448751.4316730        800541016.68467891     
  -3779077133.9269357       -1008693829.0837207        884850113.64455700     
  -3790601706.6338983       -888972051.90999675        974081403.32063055     
  -3802736222.8931279       -771283419.91050124        1068234885.7128997     
  -3815480682.7046266       -655627933.08523405        1167310560.8213646     
  -1850670133.1505513       -361391615.31772101        1143096653.5817630     
  -1835235034.2650878       -295675874.27955061        1190581168.9464304     
  -1823177373.8692045       -241218261.53998232        1240348745.9765544     
  -1814497151.9629030       -198018777.09901679        1292399384.6721363     
  -1809194368.5461805       -166077420.95665133        1346733085.0331745     
  -2336068124.0354519       -433209300.80851382        1141600214.4350216     
  -2312414694.0506992       -352120473.52332902        1182825163.8471718     
  -2292256681.0660453       -282683036.23847169        1224541209.4593921     
  -2275594085.0814881       -224896988.95393968        1266748351.2716811     
  -2262426906.0970292       -178762331.66973341        1309446589.2840402     
  -2825335879.2560987       -506187915.60003018        1145137052.5927083     
  -2798584019.5017357       -411261972.46673495        1179964794.4567382     
  -2775445555.2579870       -328380681.03549039        1213491667.0554500     
  -2755920486.5248542       -257544041.30629551        1245717670.3888435     
  -2740008813.3023372       -198752053.27915215        1276642804.4569197     
  -3318473398.8124895       -580327459.69226980        1153707168.0548224     
  -3293743010.6181951       -473100371.10976779        1182000060.7751281     
  -3272743996.4450321       -378311195.93104041        1207200118.7647283     
  -3255476356.2930026       -295959934.15608752        1229307342.0236230     
  -3241940090.1621046       -226046585.78490865        1248321730.5518134     
  -3815480682.7046266       -655627933.08523405        1167310560.8213646     
  -3797891667.4000778       -537635669.45242751        1188930962.8023424     
  -3784152004.6271801       -432474580.92512143        1205666564.5872281     
  -3774261694.3859315       -340144667.50331318        1217517366.1760201     
  -3768220736.6763315       -260645929.18700373        1224483367.5687196     
  -1809194368.5461805       -166077420.95665133        1346733085.0331745     
  -1778939772.9448087       -133702190.84664369        1364570527.7151527     
  -1749957191.3952298       -105567007.57594532        1383209339.6306481     
  -1722246623.8974433       -81671871.144554257        1402649520.7796605     
  -1695808070.4514501       -62016781.552476227        1422891071.1621890     
  -2262426906.0970292       -178762331.66973341        1309446589.2840402     
  -2223409188.6681871       -134525384.92213392        1317546497.1628766     
  -2187260585.2743616       -99852151.624587536        1328848579.5283439     
  -2153981095.9155493       -74742631.777086854        1343352836.3804426     
  -2123570720.5917552       -59196825.379644036        1361059267.7191737     
  -2740008813.3023372       -198752053.27915215        1276642804.4569197     
  -2685368530.4656997       -140595556.81986511        1273141894.2188549     
  -2635194461.6472983       -97326440.421370029        1275243963.7205362     
  -2589486606.8471336       -68944704.083665371        1282949012.9619629     
  -2548244966.0652103       -55450347.806755304        1296257041.9431350     
  -3241940090.1621046       -226046585.78490865        1248321730.5518134     
  -3164817798.3373442       -151912706.53983665        1231356718.8830886     
  -3093758820.5140419       -97989873.966296196        1222395492.2072232     
  -3028763156.6921997       -64278088.064287305        1221438050.5242181     
  -2969830806.8718176       -50777348.833809376        1228484393.8340738     
  -3768220736.6763315       -260645929.18700373        1224483367.5687196     
  -3661756992.2831202       -168476834.08204591        1192190971.1555755     
  -3562953661.8745918       -101842452.25936449        1170303164.9884055     
  -3471810745.4507422       -60742783.718951464        1158819949.0672107     
  -3388328243.0115781       -45177828.460815668        1157741323.3919890     
  -1695808070.4514501       -62016781.552476227        1422891071.1621890     
  -1644878536.3158326       -39667036.159258962        1415738090.2488723     
  -1595744661.8025396       -23302822.840453386        1413785480.9228945     
  -1548406446.9115708       -12924141.596061945        1417033243.1842515     
  -1502863891.6429274       -8530992.4260919690        1425481377.0329490     
  -2123570720.5917552       -59196825.379644036        1361059267.7191737     
  -2060514770.5944359       -40173267.411411047        1353031635.2303178     
  -1998754049.9673333       -25467140.677235126        1349899225.0688910     
  -1938288558.7104523       -15078445.177125692        1351662037.2348943     
  -1879118296.8237848       -9007180.9110699892        1358320071.7283263     
  -2548244966.0652103       -55450347.806755304        1296257041.9431350     
  -2473934455.2344990       -40014533.772001982        1287938593.1728635     
  -2400418743.5218973       -27228050.130953074        1284210217.4701140     
  -2327697830.9274063       -17090896.883603573        1285071914.8348868     
  -2255771717.4510274       -9603074.0299587250        1290523685.2671804     
  -2969830806.8718176       -50777348.833809376        1228484393.8340738     
  -2885137590.2360191       -39190835.241028786        1220458964.0765119     
  -2800738742.4662266       -28585551.201599717        1216718458.1265640     
  -2716634263.5624337       -18961496.715505362        1217262875.9842315     
  -2632824153.5246463       -10318671.782762408        1222092217.6495135     
  -3388328243.0115781       -45177828.460815668        1157741323.3919890     
  -3294124175.5990009       -37702171.818498611        1150592747.9412613     
  -3199714046.8003216       -29539643.889172316        1147423947.0382416     
  -3105097856.6155376       -20690244.672831059        1148234920.6829269     
  -3010275605.0446491       -11153974.169479966        1153025668.8753202     
  -1502863891.6429274       -8530992.4260919690        1425481377.0329490     
  -1460908545.4597716       -8068572.8925201297        1419992605.3958490     
  -1419039671.6833622       -7894394.7147660851        1418099095.9128346     
  -1377257270.3136952       -8008457.8928213716        1419800848.5839047     
  -1335561341.3507729       -8410762.4266936183        1425097863.4090617     
  -1879118296.8237848       -9007180.9110699892        1358320071.7283263     
  -1827057898.0836532       -7534617.1733803749        1352623132.1870382     
  -1775328033.6553328       -7163834.4750651121        1350870937.6422350     
  -1723928703.5388241       -7894832.8161191940        1353063488.0939186     
  -1672859907.7341232       -9727612.1965354681        1359200783.5420873     
  -2255771717.4510274       -9603074.0299587250        1290523685.2671804     
  -2192607743.7470584       -6820809.3661009073        1284333838.9324579     
  -2130018366.2599666       -5953865.4251660109        1282438220.4366226     
  -2068003584.9897501       -7002242.2071543932        1284836829.7796743     
  -2006563399.9364126       -9965939.7120640278        1291529666.9616139     
  -2632824153.5246463       -10318671.782762408        1222092217.6495135     
  -2557558082.4499817       -5927149.4706752300        1215124725.6321127     
  -2483110669.4972591       -4264487.5650629997        1212800944.2960000     
  -2409481914.6664791       -5330686.0659295321        1215120873.6411760     
  -2336671817.9576445       -9125744.9732778072        1222084513.6676400     
  -3010275605.0446491       -11153974.169479966        1153025668.8753202     
  -2921908914.1924267       -4853637.4871045351        1144995792.2859967     
  -2834604943.3672118       -2095700.8947567940        1141959109.2203646     
  -2748363692.5690074       -2880164.3924453259        1143915619.6784208     
  -2663185161.7978120       -7207027.9801623821        1150865323.6601675     
  -1335561341.3507729       -8410762.4266936183        1425097863.4090617     
  -1274594559.6891074       -3706892.9087547660        1414624072.9754653     
  -1213986414.4720089       -198478.20603859425        1410465173.5583718     
  -1153736905.6994722        2114481.6814716458        1412621165.1577811     
  -1093846033.3714979        3231986.7537751794        1421092047.7736943     
  -1672859907.7341232       -9727612.1965354681        1359200783.5420873     
  -1595981185.7018607       -4667933.9878992438        1349405784.1769626     
  -1519332711.9594641       -375750.07880645990        1345453738.2287114     
  -1442914486.5069313        3148939.5307324529        1347344645.6973314     
  -1366726509.3442590        5906134.8407418132        1355078506.5828211     
  -2006563399.9364126       -9965939.7120640278        1291529666.9616139     
  -1915121130.6753559       -4954970.7552586794        1282563244.8454444     
  -1823780721.5494635       -283535.58233451843        1278967838.5465162     
  -1732542172.5587363        4048365.8067059517        1280743448.0648265     
  -1641405483.7031746        8040733.4118555784        1287890073.4003787     
  -2336671817.9576445       -9125744.9732778072        1222084513.6676400     
  -2232014394.6095953       -4568003.2108420134        1214096454.9809089     
  -2127330443.2420127        78165.283370852470        1211007474.5117857     
  -2022619963.8548934        4812760.5093654394        1212817572.2602725     
  -1917882956.4482453        9635782.4671343565        1219526748.2263675     
  -2663185161.7978120       -7207027.9801623821        1150865323.6601675     
  -2546660977.5045786       -3507031.3546533585        1144005414.5833554     
  -2429981877.0371079        709352.51831340790        1141572646.1245201     
  -2313147860.3954039        5442123.6387193203        1143567018.2836616     
  -2196158927.5794730        10691282.006552815        1149988531.0607812     
  -1093846033.3714979        3231986.7537751794        1421092047.7736943     
  -1063771381.4904542       -5090439.0174049735        1417971911.2325108     
  -1033664509.4567595       -13305464.279752135        1416842715.7323139     
  -1003525417.2704091       -21413089.033246219        1417704461.2731035     
  -973354104.93140519       -29413313.277894199        1420557147.8548796     
  -1366726509.3442590        5906134.8407418132        1355078506.5828211     
  -1331230968.5201559       -4019366.0211338401        1351578309.6954136     
  -1295818343.3206675       -14221252.298386633        1350627026.7441483     
  -1260488633.7457964       -24699523.991031945        1352224657.7290230     
  -1225241839.7955427       -35454181.099065840        1356371202.6500406     
  -1641405483.7031746        8040733.4118555784        1287890073.4003787     
  -1598894845.6641426       -3009580.0591399670        1283875491.0932696     
  -1556582259.0269969       -14720064.869755149        1282967795.6174548     
  -1514467723.7917335       -27090721.019982755        1285166986.9729340     
  -1472551239.9583569       -40121548.509830654        1290473065.1597106     
  -1917882956.4482453        9635782.4671343565        1219526748.2263675     
  -1866763012.9224179       -2061081.1314334869        1214863455.4260738     
  -1815956256.5757403       -14801901.993840694        1213865022.3522277     
  -1765462687.4082179       -28586680.120094299        1216531449.0048327     
  -1715282305.4198499       -43415415.510197341        1222862735.3838851     
  -2196158927.5794730        10691282.006552815        1149988531.0607812     
  -2134835470.2949803       -1173869.2380212545        1144542202.6938255     
  -2073940335.9669054       -14466763.670662045        1143318706.9484749     
  -2013473524.5952554       -29187401.291382551        1146318043.8247261     
  -1953435036.1800272       -45335782.100175977        1153540213.3225782     
  -973354104.93140519       -29413313.277894199        1420557147.8548796     
  -885714649.92259574       -20778982.178669095        1411848111.7170632     
  -798506901.30185163       -13583672.372996300        1415555573.4129086     
  -711730859.06917799       -7827383.8608901203        1431679532.9424200     
  -625386523.22457469       -3510116.6423551142        1460219990.3055906     
  -1225241839.7955427       -35454181.099065840        1356371202.6500406     
  -1107394783.2014096       -22026039.499344289        1347480077.7567861     
  -989858622.02798986       -9634215.9686665535        1348302807.6723137     
  -872633356.27527797        1721289.4929833412        1358839392.3966157     
  -755718985.94328249        12040476.885583550        1379089831.9297030     
  -1472551239.9583569       -40121548.509830654        1290473065.1597106     
  -1332218418.9928613       -24216147.573815763        1281540797.6396053     
  -1192075682.4807177       -8944361.4823045135        1279619741.9033952     
  -1052123030.4219253        5693809.7646907568        1284709897.9510853     
  -912360462.81648993        19698366.167178929        1296811265.7826593     
  -1715282305.4198499       -43415415.510197341        1222862735.3838851     
  -1560185557.2969453       -27349306.402071238        1214030271.3655183     
  -1405158082.6600344       -11514108.913930357        1209506376.1061616     
  -1250199881.5091166        4090176.9542325139        1209291049.6058095     
  -1095310953.8441925        19463551.202425838        1213384291.8644755     
  -1953435036.1800272       -45335782.100175977        1153540213.3225782     
  -1791296198.1136684       -31425515.984128356        1144948498.9345307     
  -1629105822.5659420       -17343458.263523400        1137962710.2806053     
  -1466863909.5368567       -3089608.9383844733        1132582847.3608110     
  -1304570459.0263999        11336031.991314650        1128808910.1751361     
  -3768162504.7722435       -1130448751.4316730        800541016.68467891     
  -3779077133.9269357       -1008693829.0837207        884850113.64455700     
  -3790601706.6338983       -888972051.90999675        974081403.32063055     
  -3802736222.8931279       -771283419.91050124        1068234885.7128997     
  -3815480682.7046266       -655627933.08523405        1167310560.8213646     
  -4339669408.3268709       -1301900822.4980612        858716436.72294581     
  -4335196571.9301872       -1125726985.4078426        942336309.24230254     
  -4331861629.5197496       -953346128.27177739        1020312289.9136921     
  -4329664581.0955572       -784758251.08986628        1092644378.7371140     
  -4328605426.6576138       -619963353.86210918        1159332575.7125692     
  -4895138055.4842777       -1468541416.6452832        936354702.87725866     
  -4905466566.5766840       -1247005308.7249377        1018669408.7831203     
  -4917460922.0893126       -1031022015.5386713        1084774138.2768519     
  -4931121122.0221643       -820591537.08648431        1134668891.3584530     
  -4946447166.3752413       -615713873.36837673        1168353668.0279238     
  -5434568446.2444649       -1630370533.8733394        1033455815.1476176     
  -5489887117.8664246       -1372528799.0350063        1113849412.2670105     
  -5547399584.3425846       -1121999713.7106781        1167466948.4101100     
  -5607105845.6729479       -878783277.90035522        1194308423.5769162     
  -5669005901.8575115       -642879491.60403705        1194373837.7674289     
  -5957960580.6074314       -1787388174.1822293        1150019773.5340226     
  -6088458225.7994099       -1502297456.3380485        1227876319.6939721     
  -6221677616.2795677       -1226279222.7877979        1268390720.3134656     
  -6357618752.0479050       -959333473.53147864        1271562975.3925030     
  -6496281633.1044235       -701460208.56909037        1237393084.9310842     
  -3815480682.7046266       -655627933.08523405        1167310560.8213646     
  -3797891667.4000778       -537635669.45242751        1188930962.8023424     
  -3784152004.6271801       -432474580.92512143        1205666564.5872281     
  -3774261694.3859315       -340144667.50331318        1217517366.1760201     
  -3768220736.6763315       -260645929.18700373        1224483367.5687196     
  -4328605426.6576138       -619963353.86210918        1159332575.7125692     
  -4298124981.2783937       -464168139.04199493        1141345327.9237812     
  -4278260094.4558039       -343758119.41064048        1129435607.0376079     
  -4269010766.1898389       -258733294.96804500        1123603413.0540490     
  -4270376996.4805050       -209093665.71420932        1123848745.9731045     
  -4946447166.3752413       -615713873.36837673        1168353668.0279238     
  -4871754356.3536158       -412719426.99063325        1102864863.4402287     
  -4814443310.9135981       -267664195.88491130        1054415912.8538557     
  -4774514030.0551844       -180548180.05120730        1023006816.2688041     
  -4751966513.7783794       -151371379.48952389        1008637573.6850739     
  -5669005901.8575115       -642879491.60403705        1194373837.7674289     
  -5518779792.6257439       -383289533.29834461        1073489569.3516854     
  -5392701654.0005646       -204192810.34793401        980607482.03597116     
  -5290771485.9819660       -105589322.75280190        915727575.82028568     
  -5212989288.5699511       -87479070.512946844        878849850.70462978     
  -6496281633.1044235       -701460208.56909037        1237393084.9310842     
  -6239201290.0947809       -375878457.96512675        1053219445.6581509     
  -6013035123.7167015       -153343962.79970789        908010314.58395445     
  -5817783133.9701815       -33856723.072824955        801765691.70849502     
  -5653445320.8552284       -17416738.784485102        734485577.03177047     
  -3768220736.6763315       -260645929.18700373        1224483367.5687196     
  -3661756992.2831202       -168476834.08204591        1192190971.1555755     
  -3562953661.8745918       -101842452.25936449        1170303164.9884055     
  -3471810745.4507422       -60742783.718951464        1158819949.0672107     
  -3388328243.0115781       -45177828.460815668        1157741323.3919890     
  -4270376996.4805050       -209093665.71420932        1123848745.9731045     
  -4148105053.9024725       -145146432.51523328        1090647380.0021880     
  -4030239870.0747180       -95888395.150515795        1065714313.5980780     
  -3916781444.9972391       -61319553.620051384        1049049546.7607745     
  -3807729778.6700377       -41439907.923840284        1040653079.4902761     
  -4751966513.7783794       -151371379.48952389        1008637573.6850739     
  -4619990060.6702938       -117477114.49296331        978323169.26319218     
  -4489166711.0780783       -87426527.882637739        954140773.72894919     
  -4359496465.0017366       -61219619.658551216        936090387.08234346     
  -4230979322.4412622       -38856389.820698023        924172009.32337761     
  -5212989288.5699511       -87479070.512946844        878849850.70462978     
  -5077412012.5865803       -85468880.015233517        855218338.93859005     
  -4939734184.8846731       -76456850.455730915        835582545.38101780     
  -4799955805.4642296       -60442981.834449530        819942470.03191793     
  -4658076874.3252554       -37427274.151384592        808298112.89128697     
  -5653445320.8552284       -17416738.784485102        734485577.03177047     
  -5520370909.6513348       -49121729.082040071        721332889.02837610     
  -5381942291.4944992       -62979362.869791031        710039628.55428660     
  -5238159466.3847256       -58989640.147749186        700605795.60949743     
  -5089022434.3220119       -37152560.915901661        693031390.19400954     
  -3388328243.0115781       -45177828.460815668        1157741323.3919890     
  -3294124175.5990009       -37702171.818498611        1150592747.9412613     
  -3199714046.8003216       -29539643.889172316        1147423947.0382416     
  -3105097856.6155376       -20690244.672831059        1148234920.6829269     
  -3010275605.0446491       -11153974.169479966        1153025668.8753202     
  -3807729778.6700377       -41439907.923840284        1040653079.4902761     
  -3701090386.6774225       -29828168.968818903        1032272690.4929870     
  -3595018449.8515463       -20107947.236266613        1028523680.7066270     
  -3489513968.1924138       -12279242.726186275        1029406050.1311961     
  -3384576941.7000194       -6342055.4385747910        1034919798.7666948     
  -4230979322.4412622       -38856389.820698023        924172009.32337761     
  -4110042878.2593980       -22550050.270204544        913657370.80120611     
  -3990447405.7971230       -10713616.451664925        908425716.15318668     
  -3872192905.0544324       -3347088.3650822639        908477045.37931895     
  -3755279376.0313234       -450466.01044416428        913811358.47960591     
  -4658076874.3252554       -37427274.151384592        808298112.89128697     
  -4520981650.3449383       -15867815.722661257        794746788.86591673     
  -4386000914.6370506       -1356651.5353727341        787130053.37792087     
  -4253134667.2015901        6106218.4104859829        785447906.42729998     
  -4122382908.0385647        6520794.1149005890        789700348.01405311     
  -5089022434.3220119       -37152560.915901661        693031390.19400954     
  -4933906702.9340315       -9781465.3261806965        675540944.68712127     
  -4781678976.3713264        7962947.5126166344        664636692.38082910     
  -4632339254.6338978        16080677.600498676        660318633.27513289     
  -4485887537.7217445        14571724.937467813        662586767.37003636     
  -3010275605.0446491       -11153974.169479966        1153025668.8753202     
  -2921908914.1924267       -4853637.4871045351        1144995792.2859967     
  -2834604943.3672118       -2095700.8947567940        1141959109.2203646     
  -2748363692.5690074       -2880164.3924453259        1143915619.6784208     
  -2663185161.7978120       -7207027.9801623821        1150865323.6601675     
  -3384576941.7000194       -6342055.4385747910        1034919798.7666948     
  -3285010248.3099198       -3796672.7556991577        1026923510.7590033     
  -3186050190.7469592       -3273409.4966275692        1023415943.6412607     
  -3087696769.0111341       -4772265.6613414288        1024397097.4134642     
  -2989949983.1024518       -8293241.2498562336        1029866972.0756142     
  -3755279376.0313234       -450466.01044416428        913811358.47960591     
  -3645954030.4854698       -2092442.4417166710        906380757.28672910     
  -3536779236.5668821       -4236257.6305458546        902934404.35005701     
  -3427754994.2755613       -6881911.5769293308        903472299.66958869     
  -3318881303.6115046       -10029404.280874252        907994443.24532855     
  -4122382908.0385647        6520794.1149005890        789700348.01405311     
  -4004740260.7190766        259053.45485162735        783367531.86917353     
  -3886792080.8269820       -4984245.2965142727        780514491.34675705     
  -3768538368.3622851       -9209102.1392040253        781141226.44680202     
  -3649979123.3249869       -12415517.073219299        785247737.16931093     
  -4485887537.7217445        14571724.937467813        662586767.37003636     
  -4361368939.0107422        3257814.9340021610        657883834.50633597     
  -4236088723.5272636       -5517372.4945461750        656156204.63135886     
  -4110046891.2713103       -11753837.348173857        657403877.74509621     
  -3983243442.2428827       -15451579.626888514        661626853.84755826     
  -2663185161.7978120       -7207027.9801623821        1150865323.6601675     
  -2546660977.5045786       -3507031.3546533585        1144005414.5833554     
  -2429981877.0371079        709352.51831340790        1141572646.1245201     
  -2313147860.3954039        5442123.6387193203        1143567018.2836616     
  -2196158927.5794730        10691282.006552815        1149988531.0607812     
  -2989949983.1024518       -8293241.2498562336        1029866972.0756142     
  -2861046265.3124671       -3307781.8312728405        1022555597.9042587     
  -2732090182.8320169        1852226.5555254221        1020043155.9294090     
  -2603081735.6610990        7186783.9105484486        1022329646.1510684     
  -2474020923.7997231        12695890.233769774        1029415068.5692289     
  -3318881303.6115046       -10029404.280874252        907994443.24532855     
  -3176535790.6718340       -3439803.5733398199        900111960.58170068     
  -3034240464.5254631        2982507.8231825829        897400201.69310784     
  -2891995325.1723971        9237529.9086928368        899859166.57955122     
  -2749800372.6126366        15325262.683179259        907488855.24102819     
  -3649979123.3249869       -12415517.073219299        785247737.16931093     
  -3493129553.5826778       -3903096.5808360577        776674502.61567700     
  -3336432722.1174459        4100196.3212854862        773643783.41561031     
  -3179888628.9292908        11594361.633160472        776155579.56910908     
  -3023497274.0182033        18579399.354798555        784209891.07616925     
  -3983243442.2428827       -15451579.626888514        661626853.84755826     
  -3810827554.0450101       -4697660.8538057804        652243224.00619435     
  -3638666955.6079750        5205292.0498099327        648773901.09691858     
  -3466761646.9317861        14257279.083947420        651218885.11974370     
  -3295111628.0164375        22458300.248611212        659578176.07465565     
  -2196158927.5794730        10691282.006552815        1149988531.0607812     
  -2134835470.2949803       -1173869.2380212545        1144542202.6938255     
  -2073940335.9669054       -14466763.670662045        1143318706.9484749     
  -2013473524.5952554       -29187401.291382551        1146318043.8247261     
  -1953435036.1800272       -45335782.100175977        1153540213.3225782     
  -2474020923.7997231        12695890.233769774        1029415068.5692289     
  -2402969508.2342744        441980.18104290962        1023842239.7521350     
  -2332207950.2079687       -12778121.668829918        1021619336.7160535     
  -2261736249.7208123       -26964415.315868497        1022746359.4609826     
  -2191554406.7728019       -42116900.760054708        1027223307.9869288     
  -2749800372.6126366        15325262.683179259        907488855.24102819     
  -2671515018.3107700        1934387.9589440823        901951068.96061218     
  -2593381056.1307778       -11961127.171525359        898890301.62062061     
  -2515398486.0726547       -26361282.708236814        898306553.22105026     
  -2437567308.1364055       -41266078.651185393        900199823.76190531     
  -3023497274.0182033        18579399.354798555        784209891.07616925     
  -2940472000.5244684        3303354.0956926346        778868690.31925476     
  -2857459653.7353296       -12015780.178738475        775131601.66217291     
  -2774460233.6507864       -27378003.468490481        772998625.10492516     
  -2691473740.2708402       -42783315.773567200        772469760.64750850     
  -3295111628.0164375        22458300.248611212        659578176.07465565     
  -3209840454.8753719        4548878.5912677050        654595103.82806170     
  -3124443743.0216289       -12942080.690483212        650343236.84071076     
  -3038921492.4552054       -30014577.596640468        646822575.11260581     
  -2953273703.1761065       -46668612.127198458        644033118.64374208     
  -1953435036.1800272       -45335782.100175977        1153540213.3225782     
  -1791296198.1136684       -31425515.984128356        1144948498.9345307     
  -1629105822.5659420       -17343458.263523400        1137962710.2806053     
  -1466863909.5368567       -3089608.9383844733        1132582847.3608110     
  -1304570459.0263999        11336031.991314650        1128808910.1751361     
  -2191554406.7728019       -42116900.760054708        1027223307.9869288     
  -2021897313.2635956       -28041832.275592804        1017098153.6104932     
  -1852355870.7249396       -14352267.026312590        1011112315.6017245     
  -1682930079.1568427       -1048205.0122137070        1009265793.9606125     
  -1513619938.5592968        11870353.766709566        1011558588.6871593     
  -2437567308.1364055       -41266078.651185393        900199823.76190531     
  -2253153700.2313967       -24854730.112431049        888346176.20318389     
  -2069022931.7488568       -9386179.6485776901        883165235.64566183     
  -1885175002.6887896        5139572.7403705120        884657002.08933520     
  -1701609913.0511940        18722527.054404497        892821475.53419971     
  -2691473740.2708402       -42783315.773567200        772469760.64750850     
  -2485065359.0170708       -21864209.494629025        758692566.71259582     
  -2279107005.6376853       -2445196.1303126812        754121470.41241515     
  -2073598680.1326957        15473724.319366217        758756471.74696910     
  -1868540382.5020878        31892551.854407072        772597570.71624124     
  -2953273703.1761065       -46668612.127198458        644033118.64374208     
  -2717632289.6206160       -19070270.422181368        628137325.13873041     
  -2482608092.3914328        6470683.5284765959        623981019.90199029     
  -2248201111.4885550        29954249.724774122        631564202.93351901     
  -2014411346.9119935        51380428.166692734        650886874.23330379     
  -5957960580.6074314       -1787388174.1822293        1150019773.5340226     
  -6088458225.7994099       -1502297456.3380485        1227876319.6939721     
  -6221677616.2795677       -1226279222.7877979        1268390720.3134656     
  -6357618752.0479050       -959333473.53147864        1271562975.3925030     
  -6496281633.1044235       -701460208.56909037        1237393084.9310842     
  -6810641527.6999750       -2043192458.3099923        1353745973.3922818     
  -6828566012.6925411       -1395476698.1046963        1202730077.7248683     
  -6897863118.6550188       -919003007.79911256        1091968364.1295102     
  -7018532845.5874119       -613771387.39324141        1021460832.6062082     
  -7190575193.4897175       -479781836.88708401        991207483.15496099     
  -8337938356.6488934       -2501381506.9946680        1712333810.0782037     
  -8021585888.2634411       -1424529566.4746745        1275686117.6214027     
  -7805256916.5296345       -681089281.46017575        956888934.84916973     
  -7688951441.4474764       -271060651.95117140        755942261.76150417     
  -7672669463.0169678       -194443677.94766426        672846098.35840619     
  -10539851067.454189       -3161955320.2362571        2225783283.5917878     
  -9667517852.5121117       -1589456061.4479847        1446744439.3835762     
  -8943859009.9034157       -512538043.77098894        863152432.47244418     
  -8368874539.6281052        68798732.794727802        475007262.85839093     
  -7942564441.6861725        154554268.24916983        282308930.54141796     
  -13416379660.115864       -4024913898.0347590        2894094393.9330349     
  -11766361905.438553       -1890256183.0246253        1715905043.0113883     
  -10313669398.776361       -413349294.73155165        810758856.99933290     
  -9058302140.1292877        405806766.84446383        178655835.89686987     
  -8000260129.4973316        567212001.70341587       -180404020.29600289     
  -6496281633.1044235       -701460208.56909037        1237393084.9310842     
  -6239201290.0947809       -375878457.96512675        1053219445.6581509     
  -6013035123.7167015       -153343962.79970789        908010314.58395445     
  -5817783133.9701815       -33856723.072824955        801765691.70849502     
  -5653445320.8552284       -17416738.784485102        734485577.03177047     
  -7190575193.4897175       -479781836.88708401        991207483.15496099     
  -6900516150.4808187       -304484207.47752094        846866102.31724346     
  -6623253061.2514257       -171839757.33298969        723609395.09431207     
  -6358785925.8015423       -81848486.453490734        621437361.48616660     
  -6107114744.1311731       -34510394.839023590        540350001.49280643     
  -7672669463.0169678       -194443677.94766426        672846098.35840619     
  -7400716961.6772375       -184755742.23302937        589474902.61663246     
  -7123442191.2649641       -157326909.60991955        509308545.90569305     
  -6840845151.7801485       -112157180.07833099        432347028.22559243     
  -6552925843.2227850       -49246553.638259649        358590349.57632381     
  -7942564441.6861725        154554268.24916983        282308930.54141796     
  -7739803723.6840467       -16693062.231655598        281045846.55631715     
  -7513602513.7573185       -109805419.63049603        265107767.01810020     
  -7263960811.9059982       -124782803.94734430        234494691.92676997     
  -6990878618.1300774       -61625215.182200909        189206621.28232133     
  -8000260129.4973316        567212001.70341587       -180404020.29600289     
  -7917776436.5012350        199703832.52660370       -78421065.863703713     
  -7793734028.7284870       -29275287.394708633       -8992941.5684691463     
  -7628132906.1790934       -119725358.06053019        27880352.589699574     
  -7420973068.8530464       -71646379.470848083        32198816.610801149     
  -5653445320.8552284       -17416738.784485102        734485577.03177047     
  -5520370909.6513348       -49121729.082040071        721332889.02837610     
  -5381942291.4944992       -62979362.869791031        710039628.55428660     
  -5238159466.3847256       -58989640.147749186        700605795.60949743     
  -5089022434.3220119       -37152560.915901661        693031390.19400954     
  -6107114744.1311731       -34510394.839023590        540350001.49280643     
  -5959458992.0200748       -36358108.373718500        533923193.79943693     
  -5810863006.7545595       -35071711.393687487        529963233.86779916     
  -5661326788.3346243       -30651203.898916483        528470121.69789410     
  -5510850336.7602654       -23096585.889414072        529443857.28972262     
  -6552925843.2227850       -49246553.638259649        358590349.57632381     
  -6388953263.8261147       -20716344.496593475        353739786.09470206     
  -6228454425.0735416       -3765270.8352539539        351963490.60724771     
  -6071429326.9650698        1606667.3457486629        353261463.11395401     
  -5917877969.5006981       -4600529.9535760880        357633703.61482507     
  -6990878618.1300774       -61625215.182200909        189206621.28232133     
  -6808853725.0694561       -2196437.4506525993        180782665.91417703     
  -6634716546.4514532        30939958.805498123        176040398.77262887     
  -6468467082.2760715        37783973.586254597        174979819.85767457     
  -6310105332.5433092        18335606.891601324        177600929.16931295     
  -7420973068.8530464       -71646379.470848083        32198816.610801149     
  -7219160375.7500982        19201612.764095306        15051833.257860795     
  -7029649370.8882923        69043977.528569221        2193958.3639441999     
  -6852440054.2676239        77880714.822582722       -6374808.0709445495     
  -6687532425.8880939        45711824.646133423       -10654466.046806814     
  -5089022434.3220119       -37152560.915901661        693031390.19400954     
  -4933906702.9340315       -9781465.3261806965        675540944.68712127     
  -4781678976.3713264        7962947.5126166344        664636692.38082910     
  -4632339254.6338978        16080677.600498676        660318633.27513289     
  -4485887537.7217445        14571724.937467813        662586767.37003636     
  -5510850336.7602654       -23096585.889414072        529443857.28972262     
  -5344727991.3056507       -10699594.511953115        514332424.36044556     
  -5179447897.5523424       -1110108.8055293560        504556986.94619900     
  -5015010055.5003462        5671871.2298521996        500117545.04698062     
  -4851414465.1496668        9646345.5941920280        501014098.66279316     
  -5917877969.5006981       -4600529.9535760880        357633703.61482507     
  -5744321003.3667784       -8249240.8045728207        347287995.24111724     
  -5569560535.8102036       -7886280.2467291355        341028084.69687027     
  -5393596566.8309813       -3511648.2800467014        338853971.98208690     
  -5216429096.4291067        4874655.0954594612        340765657.09676701     
  -6310105332.5433092        18335606.891601324        177600929.16931295     
  -6132685739.1174173       -2430404.2040445805        174407657.32913136     
  -5952016891.1449146       -12365566.810985804        174049985.63284412     
  -5768098788.6257973       -11469880.929205656        176527914.08045384     
  -5580931431.5600662        256653.44128036499        181841442.67195183     
  -6687532425.8880939        45711824.646133423       -10654466.046806814     
  -6509822198.5575714        6756915.2896227837       -4308589.3755059680     
  -6326816963.5564728       -14547968.498296976        3622689.7541233958     
  -6138516720.8847952       -18202826.717616796        13139371.342073109     
  -5944921470.5425434       -4207659.3683676720        24241455.388358705     
  -4485887537.7217445        14571724.937467813        662586767.37003636     
  -4361368939.0107422        3257814.9340021610        657883834.50633597     
  -4236088723.5272636       -5517372.4945461750        656156204.63135886     
  -4110046891.2713103       -11753837.348173857        657403877.74509621     
  -3983243442.2428827       -15451579.626888514        661626853.84755826     
  -4851414465.1496668        9646345.5941920280        501014098.66279316     
  -4717283369.7614937        3420107.4617807865        497037229.90840447     
  -4583207625.3146467       -2990633.8083803654        496305208.25441271     
  -4449187231.8091249       -9585878.2162957191        498818033.70082009     
  -4315222189.2449284       -16365625.761963844        504575706.24762410     
  -5216429096.4291067        4874655.0954594612        340765657.09676701     
  -5071915378.3304005        3967126.6441085339        336561723.45225489     
  -4928273978.8868198        151869.34234714508        335872181.01981741     
  -4785504898.0983658       -6571116.8098466396        338697029.79945868     
  -4643608135.9650393       -16201831.812463284        345036269.79117090     
  -5580931431.5600662        256653.44128036499        181841442.67195183     
  -5425264964.7174625        4898872.4809930325        176457315.13788587     
  -5271287784.2437859        3910136.9576268196        174857122.92757344     
  -5118999890.1390352       -2709553.1288290024        177040866.04101053     
  -4968401282.4032097       -14960197.778375149        183008544.47820598     
  -5944921470.5425434       -4207659.3683676720        24241455.388358705     
  -5777332128.9226780        6215344.9724256992        16724004.965303607     
  -5612249041.3855381        8284169.0374801159        13260033.977674715     
  -5449672207.9311256        1998812.8267679214        13849542.425486919     
  -5289601628.5594444       -12640723.659705877        18492530.308717318     
  -3983243442.2428827       -15451579.626888514        661626853.84755826     
  -3810827554.0450101       -4697660.8538057804        652243224.00619435     
  -3638666955.6079750        5205292.0498099327        648773901.09691858     
  -3466761646.9317861        14257279.083947420        651218885.11974370     
  -3295111628.0164375        22458300.248611212        659578176.07465565     
  -4315222189.2449284       -16365625.761963844        504575706.24762410     
  -4128691628.3950152       -7083488.1814000607        496129555.76798522     
  -3941913037.7199221        3025415.4830968380        492966180.67148602     
  -3754886417.2196465        13961085.231529713        495085580.95811498     
  -3567611766.8942013        25723521.063880205        502487756.62788361     
  -4643608135.9650393       -16201831.812463284        345036269.79117090     
  -4444767278.3172569       -8932788.1806757450        338114804.85695744     
  -4245175071.2582688        840753.48846101761        335844583.75691897     
  -4044831514.7880821        13118793.194926262        338225606.49105394     
  -3843736608.9066916        27901330.938739777        345257873.05936676     
  -4968401282.4032097       -14960197.778375149        183008544.47820598     
  -4759054503.8117275       -10245560.851616144        178198971.27310485     
  -4548453056.2230206       -1348693.9341080189        177409110.35322168     
  -4336596939.6370869        11730402.974148989        180638961.71855596     
  -4123486154.0539265        28991729.873175144        187888525.36910912     
  -5289601628.5594444       -12640723.659705877        18492530.308717318     
  -5071553304.8784227       -11021806.194214106        16382055.016427139     
  -4851746992.6141634       -3542926.7845730782        17659760.460400630     
  -4630182691.7666492        9795914.5692324638        22325646.640622903     
  -4406860402.3358946        28994717.867183447        30379713.557109162     
  -3295111628.0164375        22458300.248611212        659578176.07465565     
  -3209840454.8753719        4548878.5912677050        654595103.82806170     
  -3124443743.0216289       -12942080.690483212        650343236.84071076     
  -3038921492.4552054       -30014577.596640468        646822575.11260581     
  -2953273703.1761065       -46668612.127198458        644033118.64374208     
  -3567611766.8942013        25723521.063880205        502487756.62788361     
  -3478289252.9086561        8007208.3852295876        496933495.46893793     
  -3389276158.3806233       -10740502.485131979        493719881.47449726     
  -3300572483.3101110       -30519611.547224164        492846914.64455801     
  -3212178227.6971121       -51330118.801025152        494314594.97912532     
  -3843736608.9066916        27901330.938739777        345257873.05936676     
  -3745764348.6330681        11757648.871862173        338624971.78951508     
  -3648536465.9871583       -6867291.9540460110        335942159.58942324     
  -3552052960.9689512       -27973491.538981438        337209436.45909899     
  -3456313833.5784569       -51560949.882936954        342426802.39853472     
  -4123486154.0539265        28991729.873175144        187888525.36910912     
  -4012265742.0486245        15800200.051150084        179669532.78978997     
  -3902224665.8412285       -1322449.0972158909        177010071.18549529     
  -3793362925.4317360       -22376217.571935415        179910140.55621889     
  -3685680520.8201332       -47361105.372949839        188369740.90197223     
  -4406860402.3358946        28994717.867183447        30379713.557109162     
  -4277793433.1553211        20134861.923086166        20067178.469760444     
  -4150340757.9428420        5894026.0853395462        16923616.262707628     
  -4024502376.6984568       -13727789.646058321        20949026.935922049     
  -3900278289.4221644       -38730585.271089077        32143410.489429489     
  -2953273703.1761065       -46668612.127198458        644033118.64374208     
  -2717632289.6206160       -19070270.422181368        628137325.13873041     
  -2482608092.3914328        6470683.5284765959        623981019.90199029     
  -2248201111.4885550        29954249.724774122        631564202.93351901     
  -2014411346.9119935        51380428.166692734        650886874.23330379     
  -3212178227.6971121       -51330118.801025152        494314594.97912532     
  -2950885947.5728121       -20565310.878536344        481056130.60490870     
  -2689478154.9209614        10584538.802443504        475058890.81132001     
  -2427954849.7415471        42119430.241972804        476322875.59836686     
  -2166316032.0345883        74039363.439985871        484848084.96604288     
  -3456313833.5784569       -51560949.882936954        342426802.39853472     
  -3182165725.9928756       -21468187.475258350        332660517.48461181     
  -2907169377.0258741        11452046.203828573        325677193.46368819     
  -2631324786.6774554        47199751.154302120        321476830.33576697     
  -2354631954.9476242        85774927.376153231        320059428.10083586     
  -3685680520.8201332       -47361105.372949839        188369740.90197223     
  -3411471624.8808031       -21778900.212319613        182950485.77785534     
  -3135681758.7061844        9073205.7325810194        175835927.85909611     
  -2858310922.2962866        45195212.461751819        167026067.14570749     
  -2579359115.6511135        86587119.975181222        156520903.63767639     
  -3900278289.4221644       -38730585.271089077        32143410.489429489     
  -3638803644.2365994       -21497449.089754581        31926035.484623000     
  -3375015299.9618888        3448017.3887069225        25535093.997540556     
  -3108913256.5980315        36105814.164353609        12970586.028186310     
  -2840497514.1450410        76475941.237077832       -5767488.4234317252     
 </DataArray>
 <DataArray  type="Float64" Name="VM" NumberOfComponents="1" format="ascii">
   12935484109.720257     
   11340718359.455790     
   10210361203.033352     
   9273035685.3210602     
   8304298404.8063688     
   10130262458.170578     
   9322037629.1730576     
   8826456684.2089996     
   8443663777.8076344     
   8035849001.4113731     
   7982356913.6230993     
   7735002494.6025238     
   7669207952.6495457     
   7669655929.0859127     
   7666415628.3766489     
   6491679791.5179501     
   6586899359.5725193     
   6757448476.0293865     
   6961242035.7566814     
   7171619878.3097420     
   5657782155.5721006     
   5890890143.1177750     
   6116368543.4765644     
   6331759441.9484854     
   6536838941.9147453     
   8304298404.8063688     
   8020643691.4391842     
   7779153295.3013926     
   7569134483.2198257     
   7385621095.6850529     
   8035849001.4113731     
   7746779952.5743589     
   7473425726.8185406     
   7213823073.5546160     
   6967981385.6877661     
   7666415628.3766489     
   7381047572.7806330     
   7101102510.5945396     
   6826658304.2589512     
   6557919979.6071272     
   7171619878.3097420     
   6910881432.8737507     
   6658055534.4081450     
   6409286529.6791334     
   6161429778.4622211     
   6536838941.9147453     
   6328629361.8177443     
   6142596465.2849379     
   5964835327.1098833     
   5786336488.2660894     
   7385621095.6850529     
   7228827323.1939945     
   7064425439.1471815     
   6891719305.9951801     
   6710530487.7986898     
   6967981385.6877661     
   6814953103.7270432     
   6657226862.2282743     
   6494517092.6672792     
   6326775752.9230356     
   6557919979.6071272     
   6407978835.5177269     
   6256344125.2868729     
   6102982257.9357738     
   5947922417.7655954     
   6161429778.4622211     
   6012904513.2763157     
   5865675162.3012590     
   5719779371.0612078     
   5575271785.3275080     
   5786336488.2660894     
   5636195630.1543770     
   5490244691.0555840     
   5348396272.4916172     
   5210694480.8040514     
   6710530487.7986898     
   6513207566.0229330     
   6319558661.5502586     
   6129477839.2605839     
   5942967095.3174486     
   6326775752.9230356     
   6138907845.2028074     
   5953481182.4490328     
   5770478506.7896585     
   5589939813.4729738     
   5947922417.7655954     
   5771631697.7372274     
   5596878072.5580063     
   5423690805.0640631     
   5252137502.1408749     
   5575271785.3275080     
   5413193042.7610245     
   5252110556.2821217     
   5092067873.2955256     
   4933169285.2951565     
   5210694480.8040514     
   5065998115.7641582     
   4922176277.5430555     
   4779265509.2942743     
   4637437883.8462191     
   5942967095.3174486     
   5780514905.0794716     
   5616442691.8584414     
   5450724704.1522675     
   5283389733.8409529     
   5589939813.4729738     
   5436314313.9576664     
   5281934009.0762253     
   5126824322.7778044     
   4971054563.4272337     
   5252137502.1408749     
   5107277527.7631025     
   4962566207.5349092     
   4818070294.1719894     
   4673892840.8153524     
   4933169285.2951565     
   4796878752.7612810     
   4661657539.3603287     
   4527600677.6040812     
   4394835498.5148411     
   4637437883.8462191     
   4509344917.8571577     
   4383232703.5157137     
   4259208184.4709077     
   4137411020.8489890     
   5283389733.8409529     
   5066130889.6920338     
   4850072986.3286724     
   4635249744.2830362     
   4421742192.9478216     
   4971054563.4272337     
   4763949035.4353285     
   4558148170.9823933     
   4353730831.8407650     
   4150835104.1863751     
   4673892840.8153524     
   4478760631.5620766     
   4285260334.2855277     
   4093542135.5778975     
   3903837100.1175456     
   4394835498.5148411     
   4213707735.9199967     
   4034806132.5588984     
   3858382886.9933825     
   3684802423.6678100     
   4137411020.8489890     
   3972504303.1064253     
   3810720064.4552703     
   3652440877.0065265     
   3498199227.3973484     
   4421742192.9478216     
   4288037208.4661450     
   4153394356.3912740     
   4017819919.0266843     
   3881457233.3518696     
   4150835104.1863751     
   4032215789.5535946     
   3913591233.6625962     
   3795039502.5789738     
   3676734348.9749994     
   3903837100.1175456     
   3797226735.3735423     
   3691257425.0701714     
   3586032631.1633534     
   3481712411.1041727     
   3684802423.6678100     
   3587093586.9197006     
   3490298513.7483182     
   3394506183.9494576     
   3299830753.6263452     
   3498199227.3973484     
   3406344366.9337277     
   3315225247.8482533     
   3224883122.7653713     
   3135365108.2622094     
   3881457233.3518696     
   3628524066.9332857     
   3377030271.1950121     
   3127203216.4129157     
   2879514619.6773858     
   3676734348.9749994     
   3415366363.7778640     
   3154962408.6910162     
   2895662085.5866518     
   2637693376.6067138     
   3481712411.1041727     
   3223400871.7929263     
   2967027920.4236460     
   2712994222.9808116     
   2461895863.3709764     
   3299830753.6263452     
   3056421077.6695361     
   2817607907.3672533     
   2584502481.9172673     
   2358820122.7767401     
   3135365108.2622094     
   2918515443.1371813     
   2710628301.5160260     
   2513815531.1173005     
   2331299061.5723686     
   5657782155.5721006     
   5890890143.1177750     
   6116368543.4765644     
   6331759441.9484854     
   6536838941.9147453     
   5151346889.9377670     
   5311275669.4637280     
   5467840706.0102158     
   5618147647.6110640     
   5760730935.9147816     
   4643334780.8818998     
   4755475130.4976845     
   4868739327.2276058     
   4980492968.1722593     
   5088811047.4748726     
   4134010027.4498248     
   4224326686.1357536     
   4320560381.2612143     
   4421053732.2693129     
   4524351756.8448572     
   3624892577.5294123     
   3719655173.1969156     
   3825662996.9606681     
   3942850593.4962802     
   4071123547.7793522     
   6536838941.9147453     
   6328629361.8177443     
   6142596465.2849379     
   5964835327.1098833     
   5786336488.2660894     
   5760730935.9147816     
   5652051866.4280005     
   5559365793.6825285     
   5473612520.3503876     
   5389249820.9422903     
   5088811047.4748726     
   5053968033.5794945     
   5029635490.2322893     
   5010606837.6050520     
   4993679662.5654211     
   4524351756.8448572     
   4538974025.8139677     
   4558274541.6635628     
   4579772319.0686855     
   4601743046.7612133     
   4071123547.7793522     
   4112398532.8874221     
   4151046456.6947985     
   4186167738.6985803     
   4217028688.0919323     
   5786336488.2660894     
   5636195630.1543770     
   5490244691.0555840     
   5348396272.4916172     
   5210694480.8040514     
   5389249820.9422903     
   5248585731.3831682     
   5111138573.9582138     
   4976949106.9061832     
   4846109714.9885845     
   4993679662.5654211     
   4866899895.6671038     
   4743305043.9706879     
   4622863418.5460596     
   4505616158.3449755     
   4601743046.7612133     
   4493806346.6997805     
   4390081518.6680126     
   4290253666.7289100     
   4194235072.3194299     
   4217028688.0919323     
   4133265706.6629534     
   4055980672.3748507     
   3984327181.3876538     
   3918013131.4038596     
   5210694480.8040514     
   5065998115.7641582     
   4922176277.5430555     
   4779265509.2942743     
   4637437883.8462191     
   4846109714.9885845     
   4718331923.5034761     
   4592360694.0130043     
   4468327156.6615944     
   4346474947.3609066     
   4505616158.3449755     
   4393698743.9791737     
   4284477212.1670489     
   4178147929.6619573     
   4074995132.2816777     
   4194235072.3194299     
   4096989592.3769841     
   4003230744.9313993     
   3913188001.2960234     
   3827154692.7630334     
   3918013131.4038596     
   3834067146.7263761     
   3754233511.8944650     
   3678742421.4025760     
   3607868015.4463010     
   4637437883.8462191     
   4509344917.8571577     
   4383232703.5157137     
   4259208184.4709077     
   4137411020.8489890     
   4346474947.3609066     
   4228472077.5336323     
   4112835200.2326012     
   3999725766.1485653     
   3889347935.2374482     
   4074995132.2816777     
   3968618703.1083293     
   3865192643.8082180     
   3764936744.4484639     
   3668126082.9941115     
   3827154692.7630334     
   3733972452.0937476     
   3644535334.5965300     
   3559118847.7572584     
   3478067159.4291778     
   3607868015.4463010     
   3529368131.0874801     
   3455612947.7316222     
   3386919588.6581340     
   3323685663.6914501     
   4137411020.8489890     
   3972504303.1064253     
   3810720064.4552703     
   3652440877.0065265     
   3498199227.3973484     
   3889347935.2374482     
   3741390802.5432363     
   3597367689.0429940     
   3457737325.6380410     
   3323102658.4754195     
   3668126082.9941115     
   3536957647.8860021     
   3410521238.2721457     
   3289327711.9714575     
   3174017411.0031796     
   3478067159.4291778     
   3363479265.6297884     
   3254357812.1394053     
   3151232730.0217619     
   3054740063.2746568     
   3323685663.6914501     
   3225338483.4436431     
   3133065663.7450433     
   3047377182.3059502     
   2968859889.1392765     
   3498199227.3973484     
   3406344366.9337277     
   3315225247.8482533     
   3224883122.7653713     
   3135365108.2622094     
   3323102658.4754195     
   3236666390.1890512     
   3151725327.0340633     
   3068387309.2941003     
   2986777499.1949329     
   3174017411.0031796     
   3095595463.8089986     
   3019728472.4400592     
   2946604732.5588398     
   2876443592.5994973     
   3054740063.2746568     
   2986650903.8930745     
   2922443208.0858245     
   2862380486.6769171     
   2806767968.4819579     
   2968859889.1392765     
   2912893495.6629939     
   2862336062.9027424     
   2817497972.5150876     
   2778735062.8575463     
   3135365108.2622094     
   2918515443.1371813     
   2710628301.5160260     
   2513815531.1173005     
   2331299061.5723686     
   2986777499.1949329     
   2801524069.3031826     
   2625806414.1968632     
   2461558687.9758472     
   2311444044.1950903     
   2876443592.5994973     
   2718233734.8924093     
   2569331854.3008270     
   2431348190.4655848     
   2306312099.5645490     
   2806767968.4819579     
   2671258768.5686555     
   2543990375.4916801     
   2426178645.4335294     
   2319246734.5934525     
   2778735062.8575463     
   2661983946.1168199     
   2551648413.8358846     
   2448550349.4105916     
   2353603538.6629167     
   3624892577.5294123     
   3719655173.1969156     
   3825662996.9606681     
   3942850593.4962802     
   4071123547.7793522     
   3137920612.2079091     
   3255497698.1476111     
   3382487597.9615278     
   3518419885.8035688     
   3662835663.9644651     
   2694722853.3483596     
   2830515498.8835750     
   2973618322.4849958     
   3122948024.5139704     
   3277592829.3280764     
   2298789259.1533093     
   2449501341.6489315     
   2604936905.2214236     
   2763172605.1953273     
   2922778007.1262550     
   1955331001.6978066     
   2119410637.3628733     
   2284852164.1720858     
   2448694884.9940271     
   2608980076.9370337     
   4071123547.7793522     
   4112398532.8874221     
   4151046456.6947985     
   4186167738.6985803     
   4217028688.0919323     
   3662835663.9644651     
   3702116740.3594856     
   3740033863.0275526     
   3775687702.2811260     
   3808328310.9730201     
   3277592829.3280764     
   3320724089.1078749     
   3364106904.1163850     
   3406918444.1514001     
   3448480654.6138983     
   2922778007.1262550     
   2975605498.1065469     
   3030655344.6431952     
   3087245856.0350742     
   3144844329.4032421     
   2608980076.9370337     
   2676812970.4057107     
   2749140471.2446480     
   2825454889.9608178     
   2905403521.9563994     
   4217028688.0919323     
   4133265706.6629534     
   4055980672.3748507     
   3984327181.3876538     
   3918013131.4038596     
   3808328310.9730201     
   3755940789.2829986     
   3709520293.8253245     
   3668594762.7915392     
   3633069627.0007286     
   3448480654.6138983     
   3422877618.9839702     
   3402350608.6029115     
   3386670540.7828312     
   3375821826.3706045     
   3144844329.4032421     
   3141707627.1882644     
   3142163627.1275978     
   3146111458.0181241     
   3153536932.2129750     
   2905403521.9563994     
   2920755552.8753800     
   2937441238.1272593     
   2955405493.3528709     
   2974609134.7000332     
   3918013131.4038596     
   3834067146.7263761     
   3754233511.8944650     
   3678742421.4025760     
   3607868015.4463010     
   3633069627.0007286     
   3561045365.8278384     
   3493723708.6837645     
   3431346162.3358674     
   3374200698.9379878     
   3375821826.3706045     
   3316521813.4596448     
   3262664615.2911282     
   3214485382.3672767     
   3172268904.6625071     
   3153536932.2129750     
   3107513665.2090316     
   3067808254.2417617     
   3034622588.4081044     
   3008212315.4434042     
   2974609134.7000332     
   2941920189.2073689     
   2916526496.6940870     
   2898562974.8307905     
   2888224912.0800629     
   3607868015.4463010     
   3529368131.0874801     
   3455612947.7316222     
   3386919588.6581340     
   3323685663.6914501     
   3374200698.9379878     
   3309918983.6355534     
   3250834647.7995872     
   3197239974.5656829     
   3149486653.7540669     
   3172268904.6625071     
   3121083152.4920187     
   3075430887.1786585     
   3035559941.2248440     
   3001757030.0286207     
   3008212315.4434042     
   2968703268.9104056     
   2934907084.0640397     
   2907013021.9481602     
   2885231741.0166259     
   2888224912.0800629     
   2858613014.6920543     
   2834704309.8242784     
   2816624806.3775463     
   2804509483.5462518     
   3323685663.6914501     
   3225338483.4436431     
   3133065663.7450433     
   3047377182.3059502     
   2968859889.1392765     
   3149486653.7540669     
   3064931293.0689216     
   2987527138.2323093     
   2917795140.8240972     
   2856323637.5574288     
   3001757030.0286207     
   2931404016.5257020     
   2869309197.7596169     
   2815962373.5123506     
   2771904993.7159534     
   2885231741.0166259     
   2828854125.3030119     
   2781822856.5198789     
   2744552526.5263295     
   2717491787.7834125     
   2804509483.5462518     
   2761044006.4270554     
   2727958595.1980925     
   2705558822.0278502     
   2694170137.3081656     
   2968859889.1392765     
   2912893495.6629939     
   2862336062.9027424     
   2817497972.5150876     
   2778735062.8575463     
   2856323637.5574288     
   2812230535.4721265     
   2773344842.2805114     
   2739900259.0482469     
   2712155706.5306859     
   2771904993.7159534     
   2738004873.2962775     
   2708924362.9246979     
   2684824209.0974789     
   2665876624.4079566     
   2717491787.7834125     
   2692049994.5526814     
   2670861175.2369242     
   2654023893.8747330     
   2641640247.2856507     
   2694170137.3081656     
   2675472565.3078918     
   2660303710.2635546     
   2648714977.3630247     
   2640757771.1932921     
   2778735062.8575463     
   2661983946.1168199     
   2551648413.8358846     
   2448550349.4105916     
   2353603538.6629167     
   2712155706.5306859     
   2610338210.7112913     
   2519353036.0572844     
   2440345155.3616190     
   2374512099.1021070     
   2665876624.4079566     
   2582667551.4025278     
   2514506349.6294103     
   2462605215.3178511     
   2428151554.2963128     
   2641640247.2856507     
   2578667208.6100473     
   2534588297.9067688     
   2510443690.7696877     
   2507193990.5535712     
   2640757771.1932921     
   2597395474.2885613     
   2576498384.6029935     
   2578792358.4747329     
   2604928562.6050963     
   1955331001.6978066     
   2119410637.3628733     
   2284852164.1720858     
   2448694884.9940271     
   2608980076.9370337     
   1653853531.8735316     
   1820341223.0505397     
   1988528129.7015736     
   2155717138.3849163     
   2320149801.6940122     
   1393701743.4064274     
   1571124876.0275507     
   1749550393.1196594     
   1926973971.2434113     
   2102145000.7106490     
   1207183596.0887353     
   1399178061.1380613     
   1590741776.2968967     
   1781097720.2957861     
   1969787268.1535780     
   1136964547.9925838     
   1335338727.0597346     
   1534007397.2623146     
   1732970558.6003237     
   1932228211.0737615     
   2608980076.9370337     
   2676812970.4057107     
   2749140471.2446480     
   2825454889.9608178     
   2905403521.9563994     
   2320149801.6940122     
   2407080608.4408126     
   2496451250.7926984     
   2587873189.7578230     
   2681071486.6934481     
   2102145000.7106490     
   2205781303.7930603     
   2309339609.7397933     
   2412584445.9119616     
   2515349382.0862484     
   1969787268.1535780     
   2086840037.5638745     
   2201068177.8478332     
   2312396875.6014352     
   2420774094.3405561     
   1932228211.0737615     
   2058801972.9979413     
   2179995870.5685472     
   2295809903.7855802     
   2406244072.6490397     
   2905403521.9563994     
   2920755552.8753800     
   2937441238.1272593     
   2955405493.3528709     
   2974609134.7000332     
   2681071486.6934481     
   2703290804.5088243     
   2727861563.3381448     
   2754766421.5414462     
   2783997647.3607798     
   2515349382.0862484     
   2544299794.9616194     
   2576641844.7547045     
   2612377109.3577738     
   2651511318.2443199     
   2420774094.3405561     
   2454858131.6742945     
   2493370941.0464907     
   2536315847.5842648     
   2583697055.1449065     
   2406244072.6490397     
   2442321901.3647342     
   2483853993.6282420     
   2530840349.4395633     
   2583280968.7986989     
   2974609134.7000332     
   2941920189.2073689     
   2916526496.6940870     
   2898562974.8307905     
   2888224912.0800629     
   2783997647.3607798     
   2765989161.3833785     
   2755253775.2976985     
   2751881178.7956529     
   2755993245.8083076     
   2651511318.2443199     
   2645446676.7133322     
   2646375788.6667285     
   2654340970.8378549     
   2669397538.2212191     
   2583697055.1449065     
   2586236694.3839102     
   2595238208.2779355     
   2610711645.4472384     
   2632669957.1810007     
   2583280968.7986989     
   2590780289.2131214     
   2604002931.3850603     
   2622948895.3145123     
   2647618181.0014830     
   2888224912.0800629     
   2858613014.6920543     
   2834704309.8242784     
   2816624806.3775463     
   2804509483.5462518     
   2755993245.8083076     
   2734927899.7127104     
   2720164546.7485743     
   2711790872.4156184     
   2709899059.6390057     
   2669397538.2212191     
   2655349047.0798702     
   2648138519.7892380     
   2647811883.1631618     
   2654416600.7651005     
   2632669957.1810007     
   2623402304.2851272     
   2621437456.8216481     
   2626788279.9586787     
   2639467896.1780491     
   2647618181.0014830     
   2640335551.1291213     
   2640754304.5349684     
   2648874441.2190294     
   2664695961.1813016     
   2804509483.5462518     
   2761044006.4270554     
   2727958595.1980925     
   2705558822.0278502     
   2694170137.3081656     
   2709899059.6390057     
   2679481268.4167967     
   2659244112.2313614     
   2649362089.1141486     
   2650016089.1152239     
   2654416600.7651005     
   2633976788.1587119     
   2623373478.4118366     
   2622682332.6054349     
   2631980126.0218401     
   2639467896.1780491     
   2625626276.0119934     
   2621178980.5741596     
   2626143780.8250079     
   2640538455.3022838     
   2664695961.1813016     
   2654019566.1388354     
   2652242643.4804516     
   2659365193.2061439     
   2675387215.3159218     
   2694170137.3081656     
   2675472565.3078918     
   2660303710.2635546     
   2648714977.3630247     
   2640757771.1932921     
   2650016089.1152239     
   2636534120.6046576     
   2627543278.4104199     
   2623084746.3354163     
   2623199152.7425499     
   2631980126.0218401     
   2622938271.7409377     
   2619352258.3916550     
   2621246271.1861382     
   2628643838.3903580     
   2640538455.3022838     
   2634595489.2657447     
   2635075092.1410723     
   2641984808.5661597     
   2655331887.8942575     
   2675387215.3159218     
   2670710390.6420164     
   2673434247.9585090     
   2683558787.2653980     
   2701084008.5626826     
   2640757771.1932921     
   2597395474.2885613     
   2576498384.6029935     
   2578792358.4747329     
   2604928562.6050963     
   2623199152.7425499     
   2596782090.8448405     
   2588622087.9632883     
   2599012493.1767883     
   2628217470.5212007     
   2628643838.3903580     
   2613267236.6614761     
   2612188431.7735195     
   2625496010.3564939     
   2653271034.9543095     
   2655331887.8942575     
   2646309681.3732009     
   2647802462.4643593     
   2659824135.8849921     
   2682387749.6027846     
   2701084008.5626826     
   2695093186.5927157     
   2695925097.9606743     
   2703579742.6665735     
   2718057120.7103825     
   1136964547.9925838     
   1335338727.0597346     
   1534007397.2623146     
   1732970558.6003237     
   1932228211.0737615     
   1207183596.4822569     
   1399178061.5995998     
   1590741776.8246250     
   1781097720.8918462     
   1969787268.8224332     
   1393701744.0560911     
   1571124876.8154507     
   1749550394.0431898     
   1926973972.3069258     
   2102145001.9228947     
   1653853532.6387899     
   1820341224.0067782     
   1988528130.8495784     
   2155717139.7332911     
   2320149803.2566419     
   1955331002.4805291     
   2119410638.3622441     
   2284852165.3944864     
   2448694886.4534788     
   2608980078.6528378     
   1932228211.0737615     
   2058801972.9979413     
   2179995870.5685472     
   2295809903.7855802     
   2406244072.6490397     
   1969787268.8224332     
   2086840038.3473384     
   2201068178.7456722     
   2312396876.6131248     
   2420774095.4653220     
   2102145001.9228947     
   2205781305.2335162     
   2309339611.4086685     
   2412584447.8086948     
   2515349384.2095389     
   2320149803.2566419     
   2407080610.3328419     
   2496451253.0173764     
   2587873192.3169727     
   2681071489.5874214     
   2608980078.6528378     
   2676812972.5308995     
   2749140473.7884989     
   2825454892.9308147     
   2905403525.3579311     
   2406244072.6490397     
   2442321901.3647342     
   2483853993.6282420     
   2530840349.4395633     
   2583280968.7986989     
   2420774095.4653220     
   2454858132.9794159     
   2493370942.5431027     
   2536315849.2832713     
   2583697057.0568805     
   2515349384.2095389     
   2544299797.4002399     
   2576641847.5304689     
   2612377112.4919271     
   2651511321.7575240     
   2681071489.5874214     
   2703290807.7953138     
   2727861567.0486712     
   2754766425.7065883     
   2783997652.0104198     
   2905403525.3579311     
   2920755556.6841946     
   2937441242.3820810     
   2955405498.0910034     
   2974609139.9579759     
   2583280968.7986989     
   2590780289.2131214     
   2604002931.3850603     
   2622948895.3145123     
   2647618181.0014830     
   2583697057.0568805     
   2586236696.6466799     
   2595238210.9136915     
   2610711648.4760218     
   2632669960.6210246     
   2651511321.7575240     
   2645446680.9061642     
   2646375793.5878439     
   2654340976.5322490     
   2669397544.7305474     
   2783997652.0104198     
   2765989166.9776216     
   2755253781.9178171     
   2751881186.5194254     
   2755993254.7100005     
   2974609139.9579759     
   2941920195.5792613     
   2916526504.2985969     
   2898562983.7857594     
   2888224922.5020728     
   2647618181.0014830     
   2640335551.1291213     
   2640754304.5349684     
   2648874441.2190294     
   2664695961.1813016     
   2632669960.6210246     
   2623402307.6369867     
   2621437460.0083885     
   2626788282.9039578     
   2639467898.8067279     
   2669397544.7305474     
   2655349053.5735059     
   2648138526.1264286     
   2647811889.2023053     
   2654416606.3646326     
   2755993254.7100005     
   2734927908.8501334     
   2720164555.9348259     
   2711790881.4592667     
   2709899068.3448248     
   2888224922.5020728     
   2858613025.7721548     
   2834704321.3501744     
   2816624818.1274681     
   2804509495.2889915     
   2664695961.1813016     
   2654019566.1388354     
   2652242643.4804516     
   2659365193.2061439     
   2675387215.3159218     
   2639467898.8067279     
   2625626278.0330954     
   2621178981.9957652     
   2626143781.6620097     
   2640538455.5766783     
   2654416606.3646326     
   2633976792.3131051     
   2623373481.1090736     
   2622682333.8493433     
   2631980125.8340492     
   2709899068.3448248     
   2679481274.6713719     
   2659244115.9690905     
   2649362090.2942185     
   2650016087.7271471     
   2804509495.2889915     
   2761044014.6137366     
   2727958599.6736913     
   2705558822.6673789     
   2694170134.0279827     
   2675387215.3159218     
   2670710390.6420164     
   2673434247.9585090     
   2683558787.2653980     
   2701084008.5626826     
   2640538455.5766783     
   2634595489.6716695     
   2635075093.0802345     
   2641984810.4416122     
   2655331891.1101232     
   2631980125.8340492     
   2622938271.6617475     
   2619352259.2338090     
   2621246273.7679095     
   2628643843.5348105     
   2650016087.7271471     
   2636534118.9765110     
   2627543277.7683415     
   2623084747.9202466     
   2623199157.8087006     
   2694170134.0279827     
   2675472560.9571667     
   2660303706.4691529     
   2648714975.7804332     
   2640757773.5057220     
   2701084008.5626826     
   2695093186.5927157     
   2695925097.9606743     
   2703579742.6665735     
   2718057120.7103825     
   2655331891.1101232     
   2646309675.1668959     
   2647802446.5026035     
   2659824109.9020925     
   2682387713.4038591     
   2628643843.5348105     
   2613267228.1526933     
   2612188409.1960459     
   2625495973.3668222     
   2653270983.2710648     
   2623199157.8087006     
   2596782083.3743858     
   2588622067.7072606     
   2599012459.8974528     
   2628217423.9481950     
   2640757773.5057220     
   2597395470.4547534     
   2576498374.8700495     
   2578792342.9754009     
   2604928541.2407894     
   1955331002.4805291     
   2119410638.3622441     
   2284852165.3944864     
   2448694886.4534788     
   2608980078.6528378     
   2298789259.8871312     
   2449501342.5905232     
   2604936906.3823490     
   2763172606.5911360     
   2922778008.7754397     
   2694722853.9906211     
   2830515499.7099299     
   2973618323.5114999     
   3122948025.7587519     
   3277592830.8108773     
   3137920612.7326860     
   3255497698.8233404     
   3382487598.8075476     
   3518419886.8408384     
   3662835665.2152724     
   3624892577.9196610     
   3719655173.6992860     
   3825662997.5964017     
   3942850594.2888498     
   4071123548.7541733     
   2608980078.6528378     
   2676812972.5308995     
   2749140473.7884989     
   2825454892.9308147     
   2905403525.3579311     
   2922778008.7754397     
   2975605500.1923075     
   3030655347.1848397     
   3087245859.0515184     
   3144844332.9125762     
   3277592830.8108773     
   3320724091.0237565     
   3364106906.4916997     
   3406918447.0131316     
   3448480657.9891434     
   3662835665.2152724     
   3702116742.0131364     
   3740033865.1139569     
   3775687704.8311105     
   3808328314.0176544     
   4071123548.7541733     
   4112398534.2126536     
   4151046458.4009266     
   4186167740.8165441     
   4217028690.6522026     
   2905403525.3579311     
   2920755556.6841946     
   2937441242.3820810     
   2955405498.0910034     
   2974609139.9579759     
   3144844332.9125762     
   3141707631.0592742     
   3142163631.3882504     
   3146111462.6938815     
   3153536937.3283353     
   3448480657.9891434     
   3422877622.6519046     
   3402350612.5836654     
   3386670545.0935731     
   3375821831.0279570     
   3808328314.0176544     
   3755940792.5373096     
   3709520297.3039112     
   3668594766.5059404     
   3633069630.9626646     
   4217028690.6522026     
   4133265709.3433514     
   4055980675.1859174     
   3984327184.3368378     
   3918013134.4995451     
   2974609139.9579759     
   2941920195.5792613     
   2916526504.2985969     
   2898562983.7857594     
   2888224922.5020728     
   3153536937.3283353     
   3107513671.4373727     
   3067808261.6862087     
   3034622597.1729646     
   3008212325.6334867     
   3375821831.0279570     
   3316521819.2035146     
   3262664622.2137508     
   3214485390.5637960     
   3172268914.2303443     
   3633069630.9626646     
   3561045370.8422885     
   3493723714.8351297     
   3431346169.7126303     
   3374200707.6323566     
   3918013134.4995451     
   3834067150.8478813     
   3754233517.1207957     
   3678742427.8173852     
   3607868023.1379247     
   2888224922.5020728     
   2858613025.7721548     
   2834704321.3501744     
   2816624818.1274681     
   2804509495.2889915     
   3008212325.6334867     
   2968703280.0151258     
   2934907095.9630189     
   2907013034.5093985     
   2885231754.0963616     
   3172268914.2303443     
   3121083163.1704712     
   3075430898.9347153     
   3035559954.0140653     
   3001757043.7949257     
   3374200707.6323566     
   3309918993.5252209     
   3250834658.9312072     
   3197239986.9771485     
   3149486667.4746680     
   3607868023.1379247     
   3529368139.9157138     
   3455612957.8125620     
   3386919600.1036763     
   3323685676.6104074     
   2804509495.2889915     
   2761044014.6137366     
   2727958599.6736913     
   2705558822.6673789     
   2694170134.0279827     
   2885231754.0963616     
   2828854133.9227757     
   2781822860.3871975     
   2744552525.3719521     
   2717491781.3741207     
   3001757043.7949257     
   2931404025.1702924     
   2869309200.8474817     
   2815962370.6174159     
   2771904984.4339123     
   3149486667.4746680     
   3064931301.2640562     
   2987527140.3304825     
   2917795136.2433743     
   2856323625.7159147     
   3323685676.6104074     
   3225338490.6864929     
   3133065664.6187501     
   3047377176.0861826     
   2968859875.0762768     
   2694170134.0279827     
   2675472560.9571667     
   2660303706.4691529     
   2648714975.7804332     
   2640757773.5057220     
   2717491781.3741207     
   2692049985.4286709     
   2670861164.3859792     
   2654023882.3245773     
   2641640236.1032553     
   2771904984.4339123     
   2738004859.9133778     
   2708924345.8195553     
   2684824188.6925402     
   2665876601.1686692     
   2856323625.7159147     
   2812230518.7230225     
   2773344820.4352083     
   2739900231.9528766     
   2712155674.0635190     
   2968859875.0762768     
   2912893476.7260995     
   2862336038.3905196     
   2817497941.7353063     
   2778735025.1191797     
   2640757773.5057220     
   2597395470.4547534     
   2576498374.8700495     
   2578792342.9754009     
   2604928541.2407894     
   2641640236.1032553     
   2578667196.6145349     
   2534588286.3906221     
   2510443680.8929954     
   2507193983.1964960     
   2665876601.1686692     
   2582667533.3686557     
   2514506339.2547965     
   2462605214.9458690     
   2428151565.9850936     
   2712155674.0635190     
   2610338189.6381845     
   2519353030.1028175     
   2440345168.2060513     
   2374512134.2076931     
   2778735025.1191797     
   2661983925.7145276     
   2551648415.7872925     
   2448550378.7642622     
   2353603600.3788834     
   3624892577.9196610     
   3719655173.6992860     
   3825662997.5964017     
   3942850594.2888498     
   4071123548.7541733     
   4134010027.7107763     
   4224326686.4709349     
   4320560381.6786690     
   4421053732.7811508     
   4524351757.4665146     
   4643334781.0360270     
   4755475130.6959496     
   4868739327.4644079     
   4980492968.4481192     
   5088811047.7951450     
   5151346890.0037107     
   5311275669.5539656     
   5467840706.1060266     
   5618147647.7022791     
   5760730935.9979496     
   5657782155.5636663     
   5890890143.1261635     
   6116368543.4708424     
   6331759441.9091177     
   6536838941.8311720     
   4071123548.7541733     
   4112398534.2126536     
   4151046458.4009266     
   4186167740.8165441     
   4217028690.6522026     
   4524351757.4665146     
   4538974026.6696320     
   4558274542.7834024     
   4579772320.4827051     
   4601743048.4993267     
   5088811047.7951450     
   5053968034.0011683     
   5029635490.7834539     
   5010606838.3136473     
   4993679663.4614925     
   5760730935.9979496     
   5652051866.4692965     
   5559365793.7065687     
   5473612520.3806343     
   5389249821.0062094     
   6536838941.8311720     
   6328629361.5414982     
   6142596464.8368244     
   5964835326.5067558     
   5786336487.5288000     
   4217028690.6522026     
   4133265709.3433514     
   4055980675.1859174     
   3984327184.3368378     
   3918013134.4995451     
   4601743048.4993267     
   4493806348.4453459     
   4390081520.4361296     
   4290253668.5344434     
   4194235074.1786213     
   4993679663.4614925     
   4866899896.4802752     
   4743305044.7203522     
   4622863419.2529945     
   4505616159.0319433     
   5389249821.0062094     
   5248585731.2888145     
   5111138573.7300577     
   4976949106.5705194     
   4846109714.5742998     
   5786336487.5288000     
   5636195629.1916018     
   5490244689.8983269     
   5348396271.1720381     
   5210694479.3572903     
   3918013134.4995451     
   3834067150.8478813     
   3754233517.1207957     
   3678742427.8173852     
   3607868023.1379247     
   4194235074.1786213     
   4096989595.2040534     
   4003230748.8246260     
   3913188006.3626094     
   3827154699.1194577     
   4505616159.0319433     
   4393698745.4806976     
   4284477214.5898385     
   4178147933.1251493     
   4074995136.9181085     
   4846109714.5742998     
   4718331923.6628857     
   4592360694.8515739     
   4468327158.2993431     
   4346474949.9348364     
   5210694479.3572903     
   5065998114.5703402     
   4922176276.6983910     
   4779265508.9098301     
   4637437884.0515614     
   3607868023.1379247     
   3529368139.9157138     
   3455612957.8125620     
   3386919600.1036763     
   3323685676.6104074     
   3827154699.1194577     
   3733972459.4809289     
   3644535343.1287699     
   3559118857.5524340     
   3478067170.6116443     
   4074995136.9181085     
   3968618708.4820418     
   3865192650.0160179     
   3764936751.5963383     
   3668126091.2012358     
   4346474949.9348364     
   4228472080.3966198     
   4112835203.4502902     
   3999725769.7991710     
   3889347939.4158692     
   4637437884.0515614     
   4509344917.7793341     
   4383232703.1786861     
   4259208183.9129286     
   4137411020.1259260     
   3323685676.6104074     
   3225338490.6864929     
   3133065664.6187501     
   3047377176.0861826     
   2968859875.0762768     
   3478067170.6116443     
   3363479271.4152761     
   3254357811.8784533     
   3151232723.0036778     
   3054740048.7282786     
   3668126091.2012358     
   3536957651.3227949     
   3410521236.3854251     
   3289327704.1246023     
   3174017396.4698920     
   3889347939.4158692     
   3741390802.8029571     
   3597367684.9680247     
   3457737316.7175732     
   3323102644.0907769     
   4137411020.1259260     
   3972504299.4376879     
   3810720057.5886192     
   3652440866.5947905     
   3498199212.9802709     
   2968859875.0762768     
   2912893476.7260995     
   2862336038.3905196     
   2817497941.7353063     
   2778735025.1191797     
   3054740048.7282786     
   2986650885.7666049     
   2922443185.7468705     
   2862380459.4767175     
   2806767935.7455683     
   3174017396.4698920     
   3095595447.3732357     
   3019728453.5678749     
   2946604710.6843233     
   2876443567.1138048     
   3323102644.0907769     
   3236666375.8444037     
   3151725312.3195448     
   3068387293.7629189     
   2986777482.3535604     
   3498199212.9802709     
   3406344354.6483307     
   3315225237.4217200     
   3224883113.8903298     
   3135365100.5904183     
   2778735025.1191797     
   2661983925.7145276     
   2551648415.7872925     
   2448550378.7642622     
   2353603600.3788834     
   2806767935.7455683     
   2671258756.9601965     
   2543990388.6567626     
   2426178687.3388495     
   2319246809.3935394     
   2876443567.1138048     
   2718233730.5093493     
   2569331872.6656899     
   2431348233.8123326     
   2306312170.6247263     
   2986777482.3535604     
   2801524071.8189292     
   2625806435.1568432     
   2461558727.1018887     
   2311444101.8064332     
   3135365100.5904183     
   2918515453.4161315     
   2710628325.8753200     
   2513815565.9437599     
   2331299103.4232759     
   5657782155.5636663     
   5890890143.1261635     
   6116368543.4708424     
   6331759441.9091177     
   6536838941.8311720     
   6491679791.5720005     
   6586899359.4910011     
   6757448475.8223248     
   6961242035.4500275     
   7171619877.9366732     
   7982356913.9972391     
   7735002494.6845570     
   7669207952.4793653     
   7669655928.7092571     
   7666415627.8387060     
   10130262459.117283     
   9322037629.6571579     
   8826456684.2925701     
   8443663777.5446043     
   8035849000.8379717     
   12935484111.491020     
   11340718360.564884     
   10210361203.563810     
   9273035685.3391743     
   8304298404.3396559     
   6536838941.8311720     
   6328629361.5414982     
   6142596464.8368244     
   5964835326.5067558     
   5786336487.5288000     
   7171619877.9366732     
   6910881432.2159262     
   6658055533.4709015     
   6409286528.4640341     
   6161429776.9697046     
   7666415627.8387060     
   7381047571.8747845     
   7101102509.3179922     
   6826658302.6065836     
   6557919977.5709600     
   8035849000.8379717     
   7746779951.5579062     
   7473425725.3525057     
   7213823071.6326303     
   6967981383.3011103     
   8304298404.3396559     
   8020643690.4597464     
   7779153293.7998867     
   7569134481.1907644     
   7385621093.1222906     
   5786336487.5288000     
   5636195629.1916018     
   5490244689.8983269     
   5348396271.1720381     
   5210694479.3572903     
   6161429776.9697046     
   6012904511.4955730     
   5865675160.2558441     
   5719779368.7755308     
   5575271782.8272057     
   6557919977.5709600     
   6407978833.1654615     
   6256344122.6365204     
   6102982255.0059385     
   5947922414.5747757     
   6967981383.3011103     
   6814953101.0343008     
   6657226859.2440968     
   6494517089.4071589     
   6326775749.4018316     
   7385621093.1222906     
   7228827320.3752327     
   7064425436.0861063     
   6891719302.7075348     
   6710530484.3003979     
   5210694479.3572903     
   5065998114.5703402     
   4922176276.6983910     
   4779265508.9098301     
   4637437884.0515614     
   5575271782.8272057     
   5413193040.0024233     
   5252110553.3214703     
   5092067870.2012110     
   4933169282.1526928     
   5947922414.5747757     
   5771631693.6716270     
   5596878067.6275320     
   5423690799.2880201     
   5252137495.5516233     
   6326775749.4018316     
   6138907840.1000137     
   5953481175.7228003     
   5770478498.4063730     
   5589939803.4077778     
   6710530484.3003979     
   6513207560.1588602     
   6319558653.2206688     
   6129477828.3755188     
   5942967081.7928457     
   4637437884.0515614     
   4509344917.7793341     
   4383232703.1786861     
   4259208183.9129286     
   4137411020.1259260     
   4933169282.1526928     
   4796878748.4739199     
   4661657533.9871521     
   4527600671.2191782     
   4394835491.2141285     
   5252137495.5516233     
   5107277518.8696880     
   4962566196.4062834     
   4818070280.8909922     
   4673892825.4878836     
   5589939803.4077778     
   5436314300.1280861     
   5281933991.5398197     
   5126824301.6021585     
   4971054538.7002583     
   5942967081.7928457     
   5780514886.0307541     
   5616442667.3146124     
   5450724674.1453295     
   5283389698.4160156     
   4137411020.1259260     
   3972504299.4376879     
   3810720057.5886192     
   3652440866.5947905     
   3498199212.9802709     
   4394835491.2141285     
   4213707726.9489317     
   4034806121.8204756     
   3858382874.3198690     
   3684802408.8048611     
   4673892825.4878836     
   4478760615.6486244     
   4285260317.8297048     
   4093542118.5774174     
   3903837082.5141454     
   4971054538.7002583     
   4763949010.9930096     
   4558148146.9893370     
   4353730808.4371004     
   4150835081.4848962     
   5283389698.4160156     
   5066130855.1975565     
   4850072953.0304213     
   4635249712.4383659     
   4421742162.8102093     
   3498199212.9802709     
   3406344354.6483307     
   3315225237.4217200     
   3224883113.8903298     
   3135365100.5904183     
   3684802408.8048611     
   3587093576.4090486     
   3490298507.4701905     
   3394506181.7623439     
   3299830755.3536525     
   3903837082.5141454     
   3797226724.1137743     
   3691257420.1738820     
   3586032632.6483264     
   3481712418.9669161     
   4150835081.4848962     
   4032215774.9257545     
   3913591227.2474384     
   3795039504.5412827     
   3676734359.4826040     
   4421742162.8102093     
   4288037187.8609829     
   4153394345.5489082     
   4017819918.2381735     
   3881457242.9459476     
   3135365100.5904183     
   2918515453.4161315     
   2710628325.8753200     
   2513815565.9437599     
   2331299103.4232759     
   3299830755.3536525     
   3056421097.1482620     
   2817607941.7414427     
   2584502528.3730421     
   2358820178.4994283     
   3481712418.9669161     
   3223400893.4747276     
   2967027953.5478721     
   2712994265.0064158     
   2461895911.4691992     
   3676734359.4826040     
   3415366379.8346648     
   3154962427.8637338     
   2895662105.0255718     
   2637693392.6957312     
   3881457242.9459476     
   3628524069.1998491     
   3377030263.1629701     
   3127203194.4645071     
   2879514578.9171166     
 </DataArray>
 <DataArray  type="Float64" Name="strain" NumberOfComponents="3" format="ascii">
  0.20348175815384764        0.0000000000000000       0.12541075704182786     
  0.18665475082561372       -2.7327539809856798E-002   7.4355885179904047E-002
  0.16982774349737983       -4.4679192081865285E-002   3.5132883793861466E-002
  0.15300073616914592       -5.2054956816025427E-002   7.7417528837001384E-003
  0.13617372884091200       -4.9454834012337273E-002  -7.8175075505799302E-003
  0.15985440784693780        0.0000000000000000        9.6450608927077464E-002
  0.15317801723008481       -2.1846654905706465E-002   6.2692259018292465E-002
  0.14650162661323185       -3.6176994321386206E-002   3.7403272056388083E-002
  0.13982523599637889       -4.2991018247039221E-002   2.0583648041364335E-002
  0.13314884537952590       -4.2288726682665513E-002   1.2233386973221239E-002
  0.12645873174372954        0.0000000000000000        7.4201131740388199E-002
  0.12657045030925690       -1.6365770001556132E-002   5.5279731736920412E-002
  0.12668216887478423       -2.7674796560907145E-002   4.1465187151332669E-002
  0.12679388744031161       -3.3927079678053022E-002   3.2757497983624900E-002
  0.12690560600583894       -3.5122619352993781E-002   2.9156664233797133E-002
  0.10329472984422289        0.0000000000000000        5.8662325481760078E-002
  0.10683205006312994       -1.0884885097405801E-002   5.2118303335787909E-002
  0.11036937028203700       -1.9172598800428077E-002   4.7318629078695176E-002
  0.11390669050094404       -2.4863141109066820E-002   4.4263302710481747E-002
  0.11744401071985111       -2.7956512023322048E-002   4.2952324231147782E-002
   9.0362402148417842E-002   0.0000000000000000        4.9834190151193079E-002
   9.3962816491703988E-002  -5.4040001932554645E-003   5.3207973814894942E-002
   9.7563230834990119E-002  -1.0670401039949005E-002   5.4963597838475570E-002
  0.10116364517827625       -1.5799202540080617E-002   5.5101062221934984E-002
  0.10476405952156240       -2.0790404693650309E-002   5.3620366965273163E-002
  0.13617372884091200       -4.9454834012337273E-002  -7.8175075505799302E-003
  0.13296145978713611       -4.2917279396766775E-002  -3.3982461898479366E-003
  0.12974919073336025       -3.8480748695280058E-002  -3.8969413607712125E-004
  0.12653692167958436       -3.6145241907877101E-002   1.2081486107325921E-003
  0.12332465262580847       -3.5910759034557926E-002   1.3952820505810093E-003
  0.13314884537952590       -4.2288726682665513E-002   1.2233386973221239E-002
  0.12891326343467932       -3.8420800919393358E-002   1.2178653334386069E-002
  0.12467768148983271       -3.5737922248351033E-002   1.1488003220370760E-002
  0.12044209954498612       -3.4240090669538502E-002   1.0161436631175216E-002
  0.11620651760013950       -3.3927306182955808E-002   8.1989535667993524E-003
  0.12690560600583894       -3.5122619352993781E-002   2.9156664233797133E-002
  0.12242150400170262       -3.3924322442019907E-002   2.5543912417248772E-002
  0.11793740199756628       -3.2995095801421931E-002   2.2070036957301125E-002
  0.11345329999342992       -3.2334939431199833E-002   1.8735037853954188E-002
  0.10896919798929361       -3.1943853331353605E-002   1.5538915107208104E-002
  0.11744401071985111       -2.7956512023322048E-002   4.2952324231147782E-002
  0.11348618148820599       -2.9427843964646479E-002   3.6697531058740115E-002
  0.10952835225656091       -3.0252269354492850E-002   3.1356407074714140E-002
  0.10557052302491580       -3.0429788192861178E-002   2.6928952279069895E-002
  0.10161269379327069       -2.9960400479751431E-002   2.3415166671807437E-002
  0.10476405952156240       -2.0790404693650309E-002   5.3620366965273163E-002
  0.10210729589418949       -2.4931365487273031E-002   4.5639509258860129E-002
   9.9450532266816605E-002  -2.7509442907563783E-002   3.9347113572609782E-002
   9.6793768639443722E-002  -2.8524636954522526E-002   3.4743179906522106E-002
   9.4137005012070785E-002  -2.7976947628149285E-002   3.1827708260597137E-002
  0.12332465262580847       -3.5910759034557926E-002   1.3952820505810093E-003
  0.12041534770572362       -3.6415828776107287E-002   6.5224610526593008E-004
  0.11750604278563882       -3.6298979833310263E-002   9.5071527903722863E-005
  0.11459673786555402       -3.5560212206166578E-002  -2.7624168150637562E-004
  0.11168743294546918       -3.4199525894676563E-002  -4.6169352296382415E-004
  0.11620651760013950       -3.3927306182955808E-002   8.1989535667993524E-003
  0.11346991327600188       -3.4007661349049742E-002   7.8339154999134686E-003
  0.11073330895186420       -3.3689248728267382E-002   7.6284172569693609E-003
  0.10799670462772652       -3.2972068320608686E-002   7.5824588379670328E-003
  0.10526010030358893       -3.1856120126073528E-002   7.6960402429064878E-003
  0.10896919798929361       -3.1943853331353605E-002   1.5538915107208104E-002
  0.10637897271709237       -3.1599493921992190E-002   1.5328724021281062E-002
  0.10378874744489119       -3.1079517623224612E-002   1.5251751215285325E-002
  0.10119852217269000       -3.0383924435050676E-002   1.5307996689220546E-002
   9.8608296900488779E-002  -2.9512714357470604E-002   1.5497460443086905E-002
  0.10161269379327069       -2.9960400479751431E-002   2.3415166671807437E-002
   9.9142526028995204E-002  -2.9191326494934614E-002   2.3136671669369283E-002
   9.6672358264719718E-002  -2.8469786518181758E-002   2.2965073402851456E-002
   9.4202190500444191E-002  -2.7795780549492725E-002   2.2900371872254091E-002
   9.1732022736168733E-002  -2.7169308588867597E-002   2.2942567077577105E-002
   9.4137005012070785E-002  -2.7976947628149285E-002   3.1827708260597137E-002
   9.1760573211710300E-002  -2.6783159067877066E-002   3.1257758444177733E-002
   8.9384141411349816E-002  -2.5860055413138891E-002   3.0768383819667899E-002
   8.7007709610989373E-002  -2.5207636663934749E-002   3.0359584387067755E-002
   8.4631277810628874E-002  -2.4825902820264645E-002   3.0031360146377278E-002
  0.11168743294546918       -3.4199525894676563E-002  -4.6169352296382415E-004
  0.10853082131795838       -3.2661726272039060E-002  -1.8670554868541189E-004
  0.10537420969044758       -3.1391618711452920E-002   1.5698318518006515E-004
  0.10221759806293682       -3.0389203212918523E-002   5.6937267863170493E-004
   9.9060986435425991E-002  -2.9654479776435372E-002   1.0504629316702152E-003
  0.10526010030358893       -3.1856120126073528E-002   7.6960402429064878E-003
  0.10219927705320489       -3.0622921975079723E-002   7.5576651055003358E-003
   9.9138453802820839E-002  -2.9553991698044832E-002   7.5421659627608051E-003
   9.6077630552436788E-002  -2.8649329294968769E-002   7.6495428146881941E-003
   9.3016807302052751E-002  -2.7908934765851656E-002   7.8797956612826625E-003
   9.8608296900488779E-002  -2.9512714357470604E-002   1.5497460443086905E-002
   9.5697437262311780E-002  -2.8584117678120552E-002   1.5049146382088291E-002
   9.2786577624134864E-002  -2.7716364684636681E-002   1.4777883550836805E-002
   8.9875717985957893E-002  -2.6909455377019290E-002   1.4683671949332556E-002
   8.6964858347780963E-002  -2.6163389755268079E-002   1.4766511577575678E-002
   9.1732022736168733E-002  -2.7169308588867597E-002   2.2942567077577105E-002
   8.9025301945279162E-002  -2.6545313381161298E-002   2.2287738281078797E-002
   8.6318581154389590E-002  -2.5878737671228672E-002   2.1864135949407962E-002
   8.3611860363500018E-002  -2.5169581459069744E-002   2.1671760082564814E-002
   8.0905139572610446E-002  -2.4417844744684461E-002   2.1710610680549153E-002
   8.4631277810628874E-002  -2.4825902820264645E-002   3.0031360146377278E-002
   8.2182871102106980E-002  -2.4506509084202044E-002   2.9273440802471934E-002
   7.9734464393585100E-002  -2.4041110657820552E-002   2.8800923158474323E-002
   7.7286057685063220E-002  -2.3429707541120115E-002   2.8613807214384598E-002
   7.4837650976541353E-002  -2.2672299734100787E-002   2.8712092970202746E-002
   9.9060986435425991E-002  -2.9654479776435372E-002   1.0504629316702152E-003
   9.6319945854961342E-002  -2.8990249836566062E-002   7.2470673983598966E-004
   9.3578905274496721E-002  -2.8199314827872288E-002   5.7460129204492394E-004
   9.0837864694032086E-002  -2.7281674750354392E-002   6.0014658829728174E-004
   8.8096824113567451E-002  -2.6237329604012150E-002   8.0134262859277161E-004
   9.3016807302052751E-002  -2.7908934765851656E-002   7.8797956612826625E-003
   9.0445577345807077E-002  -2.7207972768777261E-002   7.6464834680744498E-003
   8.7874347389561236E-002  -2.6421607961828977E-002   7.5771417792609291E-003
   8.5303117433315506E-002  -2.5549840345006781E-002   7.6717705948416842E-003
   8.2731887477069666E-002  -2.4592669918311161E-002   7.9303699148171591E-003
   8.6964858347780963E-002  -2.6163389755268079E-002   1.4766511577575678E-002
   8.4551758776105337E-002  -2.5425695700988460E-002   1.4584341124043013E-002
   8.2138659204429726E-002  -2.4643901095785618E-002   1.4554460935256093E-002
   7.9725559632754087E-002  -2.3818005939659451E-002   1.4676871011214929E-002
   7.7312460061078475E-002  -2.2948010232610172E-002   1.4951571351919657E-002
   8.0905139572610446E-002  -2.4417844744684461E-002   2.1710610680549153E-002
   7.8638490145856277E-002  -2.3643418633199631E-002   2.1538279707741286E-002
   7.6371840719102135E-002  -2.2866194229742117E-002   2.1506558760030589E-002
   7.4105191292347994E-002  -2.2086171534312034E-002   2.1615447837416979E-002
   7.1838541865593880E-002  -2.1303350546909183E-002   2.1864946939900556E-002
   7.4837650976541353E-002  -2.2672299734100787E-002   2.8712092970202746E-002
   7.2705771455059909E-002  -2.1861141565410885E-002   2.8508299219169336E-002
   7.0573891933578534E-002  -2.1088487363698755E-002   2.8433435253584521E-002
   6.8442012412097103E-002  -2.0354337128964638E-002   2.8487501073447899E-002
   6.6310132890615714E-002  -1.9658690861208195E-002   2.8670496678759816E-002
   8.8096824113567451E-002  -2.6237329604012150E-002   8.0134262859277161E-004
   8.4470779952383057E-002  -2.5174069958150025E-002   7.0988878279121259E-004
   8.0844735791198719E-002  -2.4199686382071095E-002   7.6525610816691181E-004
   7.7218691630014352E-002  -2.3314178875776873E-002   9.6744460471917537E-004
   7.3592647468829986E-002  -2.2517547439265928E-002   1.3164542724490857E-003
   8.2731887477069666E-002  -2.4592669918311161E-002   7.9303699148171591E-003
   7.9266347670787135E-002  -2.3624513323650342E-002   7.7219552013831905E-003
   7.5800807864504521E-002  -2.2719787202933092E-002   7.6877280265753856E-003
   7.2335268058221922E-002  -2.1878491556159309E-002   7.8276883903942718E-003
   6.8869728251939377E-002  -2.1100626383328991E-002   8.1418362928396548E-003
   7.7312460061078475E-002  -2.2948010232610172E-002   1.4951571351919657E-002
   7.4034790977147130E-002  -2.2074956689150854E-002   1.4651641366693710E-002
   7.0757121893215688E-002  -2.1239888023794756E-002   1.4553265287543152E-002
   6.7479452809284246E-002  -2.0442804236541857E-002   1.4656443114468815E-002
   6.4201783725352901E-002  -1.9683705327391998E-002   1.4961174847470560E-002
   7.1838541865593880E-002  -2.1303350546909183E-002   2.1864946939900556E-002
   6.8776109871463029E-002  -2.0525400054651491E-002   2.1498947278722692E-002
   6.5713677877332219E-002  -1.9759988844656365E-002   2.1361867891069933E-002
   6.2651245883201312E-002  -1.9007116916924239E-002   2.1453708776942578E-002
   5.9588813889070544E-002  -1.8266784271455089E-002   2.1774469936340538E-002
   6.6310132890615714E-002  -1.9658690861208195E-002   2.8670496678759816E-002
   6.3490304353734844E-002  -1.8975843420151711E-002   2.8263872937470569E-002
   6.0670475816854030E-002  -1.8280089665518293E-002   2.8113535837155645E-002
   5.7850647279973189E-002  -1.7571429597306783E-002   2.8219485377815587E-002
   5.5030818743092402E-002  -1.6849863215518068E-002   2.8581721559450490E-002
   7.3592647468829986E-002  -2.2517547439265928E-002   1.3164542724490857E-003
   7.1397231882585122E-002  -2.1724548263373333E-002   8.6957751006500050E-004
   6.9201816296340146E-002  -2.0849937538933438E-002   7.3335626887144345E-004
   6.7006400710095171E-002  -1.9893715265946396E-002   9.0779054886847010E-004
   6.4810985123850307E-002  -1.8855881444411859E-002   1.3928803500559139E-003
   6.8869728251939377E-002  -2.1100626383328991E-002   8.1418362928396548E-003
   6.6950096945943949E-002  -2.0324665450355106E-002   7.7856797512076970E-003
   6.5030465639948576E-002  -1.9489082523151013E-002   7.6704362488845268E-003
   6.3110834333953175E-002  -1.8593877601716199E-002   7.7961057858700472E-003
   6.1191203027957775E-002  -1.7639050686050983E-002   8.1626883621644941E-003
   6.4201783725352901E-002  -1.9683705327391998E-002   1.4961174847470560E-002
   6.2488194217725182E-002  -1.8924782637336934E-002   1.4673748972273915E-002
   6.0774604710097380E-002  -1.8128227507368505E-002   1.4557493654504094E-002
   5.9061015202469633E-002  -1.7294039937486232E-002   1.4612408894161058E-002
   5.7347425694841858E-002  -1.6422219927690607E-002   1.4838494691244458E-002
   5.9588813889070544E-002  -1.8266784271455089E-002   2.1774469936340538E-002
   5.8011523697928599E-002  -1.7524899824318846E-002   2.1533785173262418E-002
   5.6434233506786578E-002  -1.6767372491586038E-002   2.1394528485729140E-002
   5.4856943315644627E-002  -1.5994202273256371E-002   2.1356699873740673E-002
   5.3279653124502654E-002  -1.5205389169329869E-002   2.1420299337296896E-002
   5.5030818743092402E-002  -1.6849863215518068E-002   2.8581721559450490E-002
   5.3520085386554284E-002  -1.6125017011300591E-002   2.8365788354173971E-002
   5.2009352030016193E-002  -1.5406517475803308E-002   2.8181540742560157E-002
   5.0498618673478060E-002  -1.4694364609026307E-002   2.8028978724609341E-002
   4.8987885316939983E-002  -1.3988558410969409E-002   2.7908102300321536E-002
   6.4810985123850307E-002  -1.8855881444411859E-002   1.3928803500559139E-003
   6.0539240190932930E-002  -1.7835727134940416E-002   1.3834605017228885E-003
   5.6267495258015554E-002  -1.6932543398142846E-002   1.1065191771607030E-003
   5.1995750325098067E-002  -1.6146330234020116E-002   5.6205637636966288E-004
   4.7724005392180802E-002  -1.5477087642571163E-002  -2.4992790065070380E-004
   6.1191203027957775E-002  -1.7639050686050983E-002   8.1626883621644941E-003
   5.6748965715267108E-002  -1.6694376306689018E-002   7.9278535533078287E-003
   5.2306728402576441E-002  -1.5829628994164596E-002   7.6195554611341865E-003
   4.7864491089885691E-002  -1.5044808748477072E-002   7.2377940856425682E-003
   4.3422253777194997E-002  -1.4339915569626882E-002   6.7825694268335290E-003
   5.7347425694841858E-002  -1.6422219927690607E-002   1.4838494691244458E-002
   5.2928754195289418E-002  -1.5553025478438121E-002   1.4415288427701761E-002
   4.8510082695736895E-002  -1.4726714590186027E-002   1.4112677073752758E-002
   4.4091411196184427E-002  -1.3943287262933920E-002   1.3930660629398468E-002
   3.9672739696631931E-002  -1.3202743496682601E-002   1.3869239094637442E-002
   5.3279653124502654E-002  -1.5205389169329869E-002   2.1420299337296896E-002
   4.9078605630999847E-002  -1.4411674650186862E-002   2.0845765124904748E-002
   4.4877558137496970E-002  -1.3623800186207284E-002   2.0585884015018100E-002
   4.0676510643994121E-002  -1.2841765777391155E-002   2.0640656007636510E-002
   3.6475463150491300E-002  -1.2065571423738319E-002   2.1010081102760814E-002
   4.8987885316939983E-002  -1.3988558410969409E-002   2.7908102300321536E-002
   4.5198520022398325E-002  -1.3270323821935548E-002   2.7219283644916825E-002
   4.1409154727856667E-002  -1.2520885782228555E-002   2.7039176284928995E-002
   3.7619789433315023E-002  -1.1740244291847977E-002   2.7367780220357948E-002
   3.3830424138773352E-002  -1.0928399350794038E-002   2.8205095451203865E-002
   9.0362402148417842E-002   0.0000000000000000        4.9834190151193079E-002
   9.3962816491703988E-002  -5.4040001932554645E-003   5.3207973814894942E-002
   9.7563230834990119E-002  -1.0670401039949005E-002   5.4963597838475570E-002
  0.10116364517827625       -1.5799202540080617E-002   5.5101062221934984E-002
  0.10476405952156240       -2.0790404693650309E-002   5.3620366965273163E-002
   8.2424288109917365E-002   0.0000000000000000        4.4783085284515259E-002
   8.4635474645220712E-002  -4.5739556074372049E-003   4.8266807823926040E-002
   8.6846661180524032E-002  -9.0370026961104147E-003   5.0590234387492425E-002
   8.9057847715827337E-002  -1.3389141266019628E-002   5.1753364975214419E-002
   9.1269034251130671E-002  -1.7630371317164849E-002   5.1756199587092003E-002
   7.4242927182324461E-002   0.0000000000000000        4.0575370417554671E-002
   7.5522749573921799E-002  -3.7439110216189444E-003   4.4142341004876441E-002
   7.6802571965519123E-002  -7.4036043522718240E-003   4.7006879280630652E-002
   7.8082394357116475E-002  -1.0979079991958636E-002   4.9168985244817283E-002
   7.9362216748713812E-002  -1.4470337940679385E-002   5.0628658897436341E-002
   6.5818319365639089E-002   0.0000000000000000        3.7211045550311309E-002
   6.6624641277807276E-002  -2.9138664358006844E-003   4.0834573357746144E-002
   6.7430963189975449E-002  -5.7702060084332315E-003   4.4213532517890237E-002
   6.8237285102143622E-002  -8.5690187178976453E-003   4.7347923030743574E-002
   6.9043607014311809E-002  -1.1310304564193924E-002   5.0237744896306176E-002
   5.7150464659861275E-002   0.0000000000000000        3.4690110682785165E-002
   5.7941149756877121E-002  -2.0838218499824234E-003   3.8343504882535143E-002
   5.8731834853892967E-002  -4.1368076645946425E-003   4.2210194099271195E-002
   5.9522519950908806E-002  -6.1589574438366563E-003   4.6290178332993329E-002
   6.0313205047924652E-002  -8.1502711877084640E-003   5.0583457583701544E-002
  0.10476405952156240       -2.0790404693650309E-002   5.3620366965273163E-002
  0.10210729589418949       -2.4931365487273031E-002   4.5639509258860129E-002
   9.9450532266816605E-002  -2.7509442907563783E-002   3.9347113572609782E-002
   9.6793768639443722E-002  -2.8524636954522526E-002   3.4743179906522106E-002
   9.4137005012070785E-002  -2.7976947628149285E-002   3.1827708260597137E-002
   9.1269034251130671E-002  -1.7630371317164849E-002   5.1756199587092003E-002
   9.0063215556856688E-002  -2.1205740074361663E-002   4.6517881282862432E-002
   8.8857396862582733E-002  -2.3560294762425698E-002   4.2492990824668023E-002
   8.7651578168308736E-002  -2.4694035381356963E-002   3.9681528212508803E-002
   8.6445759474034767E-002  -2.4606961931155427E-002   3.8083493446384703E-002
   7.9362216748713812E-002  -1.4470337940679385E-002   5.0628658897436341E-002
   7.9132308813411226E-002  -1.7480114661450306E-002   4.7790810691191045E-002
   7.8902400878108639E-002  -1.9611146617287648E-002   4.5691356156853401E-002
   7.8672492942806080E-002  -2.0863433808191414E-002   4.4330295294423339E-002
   7.8442585007503479E-002  -2.1236976234161598E-002   4.3707628103900942E-002
   6.9043607014311809E-002  -1.1310304564193924E-002   5.0237744896306176E-002
   6.9314575663853073E-002  -1.3754489248538950E-002   4.9458297483845969E-002
   6.9585544313394365E-002  -1.5661998472149590E-002   4.8942209569165819E-002
   6.9856512962935616E-002  -1.7032832235025851E-002   4.8689481152265818E-002
   7.0127481612476894E-002  -1.7866990537167740E-002   4.8700112233145854E-002
   6.0313205047924652E-002  -8.1502711877084640E-003   5.0583457583701544E-002
   6.0610016108182251E-002  -1.0028863835627575E-002   5.1520341660827189E-002
   6.0906827168439842E-002  -1.1712850327011512E-002   5.2245551061605389E-002
   6.1203638228697441E-002  -1.3202230661860291E-002   5.2759085786036122E-002
   6.1500449288955039E-002  -1.4497004840173910E-002   5.3060945834119480E-002
   9.4137005012070785E-002  -2.7976947628149285E-002   3.1827708260597137E-002
   9.1760573211710300E-002  -2.6783159067877066E-002   3.1257758444177733E-002
   8.9384141411349816E-002  -2.5860055413138891E-002   3.0768383819667899E-002
   8.7007709610989373E-002  -2.5207636663934749E-002   3.0359584387067755E-002
   8.4631277810628874E-002  -2.4825902820264645E-002   3.0031360146377278E-002
   8.6445759474034767E-002  -2.4606961931155427E-002   3.8083493446384703E-002
   8.4196189163659174E-002  -2.3962578725595676E-002   3.7059461267570065E-002
   8.1946618853283582E-002  -2.3424390078452217E-002   3.6208576876815508E-002
   7.9697048542907989E-002  -2.2992395989725110E-002   3.5530840274121206E-002
   7.7447478232532396E-002  -2.2666596459414295E-002   3.5026251459486846E-002
   7.8442585007503479E-002  -2.1236976234161598E-002   4.3707628103900942E-002
   7.6412448783263254E-002  -2.1141998383314264E-002   4.2394003909808811E-002
   7.4382312559023014E-002  -2.0988724743765570E-002   4.1346100099927209E-002
   7.2352176334782775E-002  -2.0777155315515453E-002   4.0563916674256295E-002
   7.0322040110542550E-002  -2.0507290098563946E-002   4.0047453632796035E-002
   7.0127481612476894E-002  -1.7866990537167740E-002   4.8700112233145854E-002
   6.8409352070522525E-002  -1.8321418041032871E-002   4.7261386370893957E-002
   6.6691222528568114E-002  -1.8553059409078924E-002   4.6180953489003106E-002
   6.4973092986613731E-002  -1.8561914641305820E-002   4.5458813587473321E-002
   6.3254963444659362E-002  -1.8347983737713597E-002   4.5094966666304713E-002
   6.1500449288955039E-002  -1.4497004840173910E-002   5.3060945834119480E-002
   6.0186899025436981E-002  -1.5500837698751452E-002   5.1661608650825488E-002
   5.8873348761918923E-002  -1.6117394074392260E-002   5.0713137044043101E-002
   5.7559798498400865E-002  -1.6346673967096156E-002   5.0215531013772199E-002
   5.6246248234882820E-002  -1.6188677376863261E-002   5.0168790560012985E-002
   8.4631277810628874E-002  -2.4825902820264645E-002   3.0031360146377278E-002
   8.2182871102106980E-002  -2.4506509084202044E-002   2.9273440802471934E-002
   7.9734464393585100E-002  -2.4041110657820552E-002   2.8800923158474323E-002
   7.7286057685063220E-002  -2.3429707541120115E-002   2.8613807214384598E-002
   7.4837650976541353E-002  -2.2672299734100787E-002   2.8712092970202746E-002
   7.7447478232532396E-002  -2.2666596459414295E-002   3.5026251459486846E-002
   7.5270355123455118E-002  -2.2340444642459864E-002   3.4439027382236129E-002
   7.3093232014377882E-002  -2.1907393693801902E-002   3.4108968803966827E-002
   7.0916108905300645E-002  -2.1367443613440465E-002   3.4036075724678802E-002
   6.8738985796223367E-002  -2.0720594401375442E-002   3.4220348144372387E-002
   7.0322040110542550E-002  -2.0507290098563946E-002   4.0047453632796035E-002
   6.8387964399983486E-002  -2.0174380200717656E-002   3.9591819263584488E-002
   6.6453888689424423E-002  -1.9773676729783279E-002   3.9365114192427914E-002
   6.4519812978865360E-002  -1.9305179685760773E-002   3.9367338419326388E-002
   6.2585737268306296E-002  -1.8768889068650124E-002   3.9598491944279793E-002
   6.3254963444659362E-002  -1.8347983737713597E-002   4.5094966666304713E-002
   6.1535698931692043E-002  -1.8008315758975477E-002   4.4731816446517018E-002
   5.9816434418724716E-002  -1.7639959765764684E-002   4.4569359323857846E-002
   5.8097169905757390E-002  -1.7242915758081075E-002   4.4607595298327300E-002
   5.6377905392790077E-002  -1.6817183735924821E-002   4.4846524369925228E-002
   5.6246248234882820E-002  -1.6188677376863261E-002   5.0168790560012985E-002
   5.4713558718580788E-002  -1.5842251317233241E-002   4.9859018931033713E-002
   5.3180869202278762E-002  -1.5506242801745982E-002   4.9721704198256604E-002
   5.1648179685976778E-002  -1.5180651830401425E-002   4.9756846361681498E-002
   5.0115490169674731E-002  -1.4865478403199461E-002   4.9964445421308484E-002
   7.4837650976541353E-002  -2.2672299734100787E-002   2.8712092970202746E-002
   7.2705771455059909E-002  -2.1861141565410885E-002   2.8508299219169336E-002
   7.0573891933578534E-002  -2.1088487363698755E-002   2.8433435253584521E-002
   6.8442012412097103E-002  -2.0354337128964638E-002   2.8487501073447899E-002
   6.6310132890615714E-002  -1.9658690861208195E-002   2.8670496678759816E-002
   6.8738985796223367E-002  -2.0720594401375442E-002   3.4220348144372387E-002
   6.6746966301223357E-002  -2.0028018810823056E-002   3.3945926115919636E-002
   6.4754946806223276E-002  -1.9350889594999594E-002   3.3822294354981200E-002
   6.2762927311223252E-002  -1.8689206753904827E-002   3.3849452861557196E-002
   6.0770907816223213E-002  -1.8042970287538818E-002   3.4027401635647603E-002
   6.2585737268306296E-002  -1.8768889068650124E-002   3.9598491944279793E-002
   6.0755438281853605E-002  -1.8194896056235352E-002   3.9276499230656618E-002
   5.8925139295400900E-002  -1.7613291826300295E-002   3.9127157266613838E-002
   5.7094840308948257E-002  -1.7024076378845076E-002   3.9150466052151521E-002
   5.5264541322495517E-002  -1.6427249713869607E-002   3.9346425587269321E-002
   5.6377905392790077E-002  -1.6817183735924821E-002   4.4846524369925228E-002
   5.4731187396950723E-002  -1.6361773301647516E-002   4.4500018563380608E-002
   5.3084469401111424E-002  -1.5875694057601093E-002   4.4348023988482449E-002
   5.1437751405272132E-002  -1.5358946003785295E-002   4.4390540645230556E-002
   4.9791033409432757E-002  -1.4811529140200314E-002   4.4627568533625123E-002
   5.0115490169674731E-002  -1.4865478403199461E-002   4.9964445421308484E-002
   4.8674213646514752E-002  -1.4528650547059818E-002   4.9616484114091530E-002
   4.7232937123354787E-002  -1.4138096288901836E-002   4.9484894520587047E-002
   4.5791660600194802E-002  -1.3693815628725570E-002   4.9569676640794882E-002
   4.4350384077034871E-002  -1.3195808566531075E-002   4.9870830474714911E-002
   6.6310132890615714E-002  -1.9658690861208195E-002   2.8670496678759816E-002
   6.3490304353734844E-002  -1.8975843420151711E-002   2.8263872937470569E-002
   6.0670475816854030E-002  -1.8280089665518293E-002   2.8113535837155645E-002
   5.7850647279973189E-002  -1.7571429597306783E-002   2.8219485377815587E-002
   5.5030818743092402E-002  -1.6849863215518068E-002   2.8581721559450490E-002
   6.0770907816223213E-002  -1.8042970287538818E-002   3.4027401635647603E-002
   5.8199310435816290E-002  -1.7400596129732340E-002   3.3655895026116031E-002
   5.5627713055409367E-002  -1.6750500214316053E-002   3.3524564088557321E-002
   5.3056115675002444E-002  -1.6092682541289687E-002   3.3633408822971965E-002
   5.0484518294595576E-002  -1.5427143110653796E-002   3.3982429229359568E-002
   5.5264541322495517E-002  -1.6427249713869607E-002   3.9346425587269321E-002
   5.2925064129560932E-002  -1.5825348839312872E-002   3.9004851553527911E-002
   5.0585586936626334E-002  -1.5220910763113930E-002   3.8887342222757713E-002
   4.8246109743691708E-002  -1.4613935485272759E-002   3.8993897594959220E-002
   4.5906632550757137E-002  -1.4004423005789413E-002   3.9324517670132189E-002
   4.9791033409432757E-002  -1.4811529140200314E-002   4.4627568533625123E-002
   4.7667565434968896E-002  -1.4250101548893453E-002   4.4310742519706112E-002
   4.5544097460504959E-002  -1.3691321311911860E-002   4.4201870239756892E-002
   4.3420629486041029E-002  -1.3135188429255734E-002   4.4300951693777575E-002
   4.1297161511577168E-002  -1.2581702900925001E-002   4.4607986881768064E-002
   4.4350384077034871E-002  -1.3195808566531075E-002   4.9870830474714911E-002
   4.2426814352040015E-002  -1.2674854258474005E-002   4.9573567924650730E-002
   4.0503244627045215E-002  -1.2161731860709721E-002   4.9468148139554802E-002
   3.8579674902050380E-002  -1.1656441373238857E-002   4.9554571119427016E-002
   3.6656105177055587E-002  -1.1158982796060757E-002   4.9832836864267593E-002
   5.5030818743092402E-002  -1.6849863215518068E-002   2.8581721559450490E-002
   5.3520085386554284E-002  -1.6125017011300591E-002   2.8365788354173971E-002
   5.2009352030016193E-002  -1.5406517475803308E-002   2.8181540742560157E-002
   5.0498618673478060E-002  -1.4694364609026307E-002   2.8028978724609341E-002
   4.8987885316939983E-002  -1.3988558410969409E-002   2.7908102300321536E-002
   5.0484518294595576E-002  -1.5427143110653796E-002   3.3982429229359568E-002
   4.9024383513268086E-002  -1.4757416038897742E-002   3.3750977138244043E-002
   4.7564248731940650E-002  -1.4087035442512053E-002   3.3589036603886652E-002
   4.6104113950613201E-002  -1.3416001321496521E-002   3.3496607626287742E-002
   4.4643979169285780E-002  -1.2744313675850993E-002   3.3473690205447215E-002
   4.5906632550757137E-002  -1.4004423005789413E-002   3.9324517670132189E-002
   4.4534922307735744E-002  -1.3389815066494976E-002   3.9084546886527349E-002
   4.3163212064714428E-002  -1.2767553409220790E-002   3.8951913622776634E-002
   4.1791501821693083E-002  -1.2137638033966733E-002   3.8926617878879577E-002
   4.0419791578671732E-002  -1.1500068940732772E-002   3.9008659654836367E-002
   4.1297161511577168E-002  -1.2581702900925001E-002   4.4607986881768064E-002
   4.0051701769957343E-002  -1.2022214094092196E-002   4.4366497599024418E-002
   3.8806242028337538E-002  -1.1448071375929337E-002   4.4270171799229950E-002
   3.7560782286717699E-002  -1.0859274746436973E-002   4.4319009482384861E-002
   3.6315322545097908E-002  -1.0255824205614564E-002   4.4513010648488935E-002
   3.6656105177055587E-002  -1.1158982796060757E-002   4.9832836864267593E-002
   3.5574721899932771E-002  -1.0654613121689360E-002   4.9596829275734999E-002
   3.4493338622809927E-002  -1.0128589342638245E-002   4.9543811133247018E-002
   3.3411955345687083E-002  -9.5809114589072084E-003   4.9673782436803482E-002
   3.2330572068564267E-002  -9.0115794704962449E-003   4.9986743186404725E-002
   4.8987885316939983E-002  -1.3988558410969409E-002   2.7908102300321536E-002
   4.5198520022398325E-002  -1.3270323821935548E-002   2.7219283644916825E-002
   4.1409154727856667E-002  -1.2520885782228555E-002   2.7039176284928995E-002
   3.7619789433315023E-002  -1.1740244291847977E-002   2.7367780220357948E-002
   3.3830424138773352E-002  -1.0928399350794038E-002   2.8205095451203865E-002
   4.4643979169285780E-002  -1.2744313675850993E-002   3.3473690205447215E-002
   4.1308435023817897E-002  -1.2060923618334135E-002   3.2876677335632681E-002
   3.7972890878349944E-002  -1.1354782261704041E-002   3.2678595468549204E-002
   3.4637346732882067E-002  -1.0625889605960722E-002   3.2879444604196340E-002
   3.1301802587414107E-002  -9.8742456511042853E-003   3.3479224742573810E-002
   4.0419791578671732E-002  -1.1500068940732772E-002   3.9008659654836367E-002
   3.7428288289591355E-002  -1.0851523414732583E-002   3.8495000419052031E-002
   3.4436785000511040E-002  -1.0188678741179576E-002   3.8270491893312102E-002
   3.1445281711430656E-002  -9.5115349200735212E-003   3.8335134077616795E-002
   2.8453778422350390E-002  -8.8200919514147547E-003   3.8688926971965798E-002
   3.6315322545097908E-002  -1.0255824205614564E-002   4.4513010648488935E-002
   3.3558079819718853E-002  -9.6421232111311012E-003   4.4074252895174360E-002
   3.0800837094339693E-002  -9.0225752206550859E-003   4.3814865559218000E-002
   2.8043594368960680E-002  -8.3971802341864590E-003   4.3734848640619738E-002
   2.5286351643581471E-002  -7.7659382517251130E-003   4.3834202139379913E-002
   3.2330572068564267E-002  -9.0115794704962449E-003   4.9986743186404725E-002
   2.9697809614200210E-002  -8.4327230075295634E-003   4.9614434763999737E-002
   2.7065047159836167E-002  -7.8564717001305406E-003   4.9311716466266753E-002
   2.4432284705472131E-002  -7.2828255482989684E-003   4.9078588293205577E-002
   2.1799522251108039E-002  -6.7117845520354713E-003   4.8915050244816127E-002
   5.7150464659861275E-002   0.0000000000000000        3.4690110682785165E-002
   5.7941149756877121E-002  -2.0838218499824234E-003   3.8343504882535143E-002
   5.8731834853892967E-002  -4.1368076645946425E-003   4.2210194099271195E-002
   5.9522519950908806E-002  -6.1589574438366563E-003   4.6290178332993329E-002
   6.0313205047924652E-002  -8.1502711877084640E-003   5.0583457583701544E-002
   4.8650981055140131E-002   0.0000000000000000        3.2789323606447339E-002
   4.9589798960986739E-002  -1.7092658796753410E-003   3.6966031112265700E-002
   5.0528616866833340E-002  -3.4323949486851114E-003   4.1225709218759489E-002
   5.1467434772679954E-002  -5.1693872070293096E-003   4.5568357925928747E-002
   5.2406252678526548E-002  -6.9202426547079294E-003   4.9993977233773440E-002
   4.0731486541624784E-002   0.0000000000000000        3.1285442112768916E-002
   4.1688112839991527E-002  -1.3347099093682590E-003   3.5940763699951001E-002
   4.2644739138358263E-002  -2.7279822327755786E-003   4.0548731471497915E-002
   4.3601365436725006E-002  -4.1798169702219621E-003   4.5109345427409624E-002
   4.4557991735091750E-002  -5.6902141217074053E-003   4.9622605567686190E-002
   3.3391981119315253E-002   0.0000000000000000        3.0178466201749885E-002
   3.4236091393891492E-002  -9.6015393906117544E-004   3.5267702645591079E-002
   3.5080201668467731E-002  -2.0235695168660467E-003   4.0179260857486479E-002
   3.5924311943043977E-002  -3.1902467334146141E-003   4.4913140837436034E-002
   3.6768422217620216E-002  -4.4601855887068777E-003   4.9469342585439786E-002
   2.6632464788211511E-002   0.0000000000000000        2.9468395873390257E-002
   2.7233734622686627E-002  -5.8559796875409364E-004   3.4946847949185934E-002
   2.7835004457161739E-002  -1.3191568009565165E-003   4.0117297376725154E-002
   2.8436274291636851E-002  -2.2006764966072661E-003   4.4979744156007945E-002
   2.9037544126111960E-002  -3.2301570557063475E-003   4.9534188287034278E-002
   6.0313205047924652E-002  -8.1502711877084640E-003   5.0583457583701544E-002
   6.0610016108182251E-002  -1.0028863835627575E-002   5.1520341660827189E-002
   6.0906827168439842E-002  -1.1712850327011512E-002   5.2245551061605389E-002
   6.1203638228697441E-002  -1.3202230661860291E-002   5.2759085786036122E-002
   6.1500449288955039E-002  -1.4497004840173910E-002   5.3060945834119480E-002
   5.2406252678526548E-002  -6.9202426547079294E-003   4.9993977233773440E-002
   5.2530214980959500E-002  -8.5837088533877517E-003   5.1220002577318763E-002
   5.2654177283392445E-002  -1.0058533364735514E-002   5.2312005081562203E-002
   5.2778139585825404E-002  -1.1344716188751247E-002   5.3269984746503747E-002
   5.2902101888258349E-002  -1.2442257325434927E-002   5.4093941572143464E-002
   4.4557991735091750E-002  -5.6902141217074053E-003   4.9622605567686190E-002
   4.4586757116745604E-002  -7.1385538711479278E-003   5.1131807708448045E-002
   4.4615522498399465E-002  -8.4042164024595162E-003   5.2584638846953607E-002
   4.4644287880053347E-002  -9.4872017156421955E-003   5.3981098983202858E-002
   4.4673053261707181E-002  -1.0387509810695958E-002   5.5321188117195830E-002
   3.6768422217620216E-002  -4.4601855887068777E-003   4.9469342585439786E-002
   3.6779642515540563E-002  -5.6933988889080987E-003   5.1255757054215069E-002
   3.6790862813460910E-002  -6.7498994401835113E-003   5.3063452357779650E-002
   3.6802083111381272E-002  -7.6296872425331477E-003   5.4892428496133468E-002
   3.6813303409301612E-002  -8.3327622959569955E-003   5.6742685469276591E-002
   2.9037544126111960E-002  -3.2301570557063475E-003   4.9534188287034278E-002
   2.9108871177344370E-002  -4.2482439066682783E-003   5.1591850614619864E-002
   2.9180198228576773E-002  -5.0955824779075204E-003   5.3748445614040283E-002
   2.9251525279809176E-002  -5.7721727694240964E-003   5.6003973285295536E-002
   2.9322852331041586E-002  -6.2780147812180193E-003   5.8358433628385636E-002
   6.1500449288955039E-002  -1.4497004840173910E-002   5.3060945834119480E-002
   6.0186899025436981E-002  -1.5500837698751452E-002   5.1661608650825488E-002
   5.8873348761918923E-002  -1.6117394074392260E-002   5.0713137044043101E-002
   5.7559798498400865E-002  -1.6346673967096156E-002   5.0215531013772199E-002
   5.6246248234882820E-002  -1.6188677376863261E-002   5.0168790560012985E-002
   5.2902101888258349E-002  -1.2442257325434927E-002   5.4093941572143464E-002
   5.1987399754030161E-002  -1.3292210515364299E-002   5.3358791060330139E-002
   5.1072697619801981E-002  -1.3835629499117055E-002   5.2970471230584924E-002
   5.0157995485573800E-002  -1.4072514276693208E-002   5.2928982082907888E-002
   4.9243293351345620E-002  -1.4002864848092780E-002   5.3234323617299059E-002
   4.4673053261707181E-002  -1.0387509810695958E-002   5.5321188117195830E-002
   4.4053164362325516E-002  -1.1083583331977060E-002   5.5169482000102785E-002
   4.3433275462943857E-002  -1.1553864923841852E-002   5.5260571670634577E-002
   4.2813386563562199E-002  -1.1798354586290248E-002   5.5594457128791207E-002
   4.2193497664180513E-002  -1.1817052319322320E-002   5.6171138374572688E-002
   3.6813303409301612E-002  -8.3327622959569955E-003   5.6742685469276591E-002
   3.6384192850323072E-002  -8.8749561485898763E-003   5.7093681470143667E-002
   3.5955082291344545E-002  -9.2721003485666149E-003   5.7583438364192122E-002
   3.5525971732365998E-002  -9.5241948958873206E-003   5.8211956151422099E-002
   3.5096861173387471E-002  -9.6312397905518633E-003   5.8979234831833573E-002
   2.9322852331041586E-002  -6.2780147812180193E-003   5.8358433628385636E-002
   2.8980485218022822E-002  -6.6663289652026531E-003   5.9131389470452565E-002
   2.8638118105004055E-002  -6.9903357732914520E-003   5.9939071311257600E-002
   2.8295750991985280E-002  -7.2500352054843415E-003   6.0781479150800712E-002
   2.7953383878966523E-002  -7.4454272617813927E-003   6.1658612989081887E-002
   5.6246248234882820E-002  -1.6188677376863261E-002   5.0168790560012985E-002
   5.4713558718580788E-002  -1.5842251317233241E-002   4.9859018931033713E-002
   5.3180869202278762E-002  -1.5506242801745982E-002   4.9721704198256604E-002
   5.1648179685976778E-002  -1.5180651830401425E-002   4.9756846361681498E-002
   5.0115490169674731E-002  -1.4865478403199461E-002   4.9964445421308484E-002
   4.9243293351345620E-002  -1.4002864848092780E-002   5.3234323617299059E-002
   4.7889672298168769E-002  -1.3772507324030077E-002   5.2886554971917708E-002
   4.6536051244991911E-002  -1.3527267815219440E-002   5.2724466356584399E-002
   4.5182430191815059E-002  -1.3267146321660806E-002   5.2748057771299477E-002
   4.3828809138638208E-002  -1.2992142843354260E-002   5.2957329216062832E-002
   4.2193497664180513E-002  -1.1817052319322320E-002   5.6171138374572688E-002
   4.1032168207974978E-002  -1.1702763330826885E-002   5.5810672241679626E-002
   3.9870838751769472E-002  -1.1548292828692895E-002   5.5649109272681060E-002
   3.8709509295563951E-002  -1.1353640812920254E-002   5.5686449467576886E-002
   3.7548179839358424E-002  -1.1118807283509030E-002   5.5922692826367096E-002
   3.5096861173387471E-002  -9.6312397905518633E-003   5.8979234831833573E-002
   3.4141046447999437E-002  -9.6330193376237203E-003   5.8631370740319669E-002
   3.3185231722611432E-002  -9.5693178421663236E-003   5.8495632946546305E-002
   3.2229416997223405E-002  -9.4401353041796959E-003   5.8572021450513510E-002
   3.1273602271835399E-002  -9.2454717236637729E-003   5.8860536252221346E-002
   2.7953383878966523E-002  -7.4454272617813927E-003   6.1658612989081887E-002
   2.7216307018242167E-002  -7.5632753444204864E-003   6.1348650467837745E-002
   2.6479230157517804E-002  -7.5903428556397916E-003   6.1264037378180251E-002
   2.5742153296793444E-002  -7.5266297954391338E-003   6.1404773720109634E-002
   2.5005076436069085E-002  -7.3721361638185712E-003   6.1770859493625679E-002
   5.0115490169674731E-002  -1.4865478403199461E-002   4.9964445421308484E-002
   4.8674213646514752E-002  -1.4528650547059818E-002   4.9616484114091530E-002
   4.7232937123354787E-002  -1.4138096288901836E-002   4.9484894520587047E-002
   4.5791660600194802E-002  -1.3693815628725570E-002   4.9569676640794882E-002
   4.4350384077034871E-002  -1.3195808566531075E-002   4.9870830474714911E-002
   4.3828809138638208E-002  -1.2992142843354260E-002   5.2957329216062832E-002
   4.2596332202213198E-002  -1.2689004514564825E-002   5.2655404572743272E-002
   4.1363855265788174E-002  -1.2344478469557663E-002   5.2554707389181193E-002
   4.0131378329363143E-002  -1.1958564708332772E-002   5.2655237665376900E-002
   3.8898901392938140E-002  -1.1531263230890043E-002   5.2956995401329893E-002
   3.7548179839358424E-002  -1.1118807283509030E-002   5.5922692826367096E-002
   3.6509358235713552E-002  -1.0849358482069887E-002   5.5654466161144389E-002
   3.5470536632068672E-002  -1.0550860650213489E-002   5.5572322701724394E-002
   3.4431715028423800E-002  -1.0223313787939919E-002   5.5676262448107153E-002
   3.3392893424778892E-002  -9.8667178952491497E-003   5.5966285400292692E-002
   3.1273602271835399E-002  -9.2454717236637729E-003   5.8860536252221346E-002
   3.0413291747015861E-002  -9.0097124495749081E-003   5.8613668879294950E-002
   2.9552981222196326E-002  -8.7572428308693440E-003   5.8537740458216428E-002
   2.8692670697376785E-002  -8.4880628675470943E-003   5.8632750988986064E-002
   2.7832360172557254E-002  -8.2021725596081591E-003   5.8898700471603296E-002
   2.5005076436069085E-002  -7.3721361638185712E-003   6.1770859493625679E-002
   2.4308132736120092E-002  -7.1700664170799566E-003   6.1533012727195024E-002
   2.3611189036171112E-002  -6.9636250115251083E-003   6.1450960658657475E-002
   2.2914245336222133E-002  -6.7528119471542327E-003   6.1524703288013176E-002
   2.2217301636273140E-002  -6.5376272239672240E-003   6.1754240615261913E-002
   4.4350384077034871E-002  -1.3195808566531075E-002   4.9870830474714911E-002
   4.2426814352040015E-002  -1.2674854258474005E-002   4.9573567924650730E-002
   4.0503244627045215E-002  -1.2161731860709721E-002   4.9468148139554802E-002
   3.8579674902050380E-002  -1.1656441373238857E-002   4.9554571119427016E-002
   3.6656105177055587E-002  -1.1158982796060757E-002   4.9832836864267593E-002
   3.8898901392938140E-002  -1.1531263230890043E-002   5.2956995401329893E-002
   3.7177399746846473E-002  -1.1083938482660913E-002   5.2610846338669234E-002
   3.5455898100754835E-002  -1.0637954909076291E-002   5.2476990668846660E-002
   3.3734396454663210E-002  -1.0193312510136311E-002   5.2555428391862204E-002
   3.2012894808571571E-002  -9.7500112858410204E-003   5.2846159507715595E-002
   3.3392893424778892E-002  -9.8667178952491497E-003   5.5966285400292692E-002
   3.1893910485460253E-002  -9.4930227068479173E-003   5.5577740560684083E-002
   3.0394927546141561E-002  -9.1141779574427581E-003   5.5421939741783187E-002
   2.8895944606822890E-002  -8.7301836470339896E-003   5.5498882943590205E-002
   2.7396961667504230E-002  -8.3410397756213395E-003   5.5808570166105020E-002
   2.7832360172557254E-002  -8.2021725596081591E-003   5.8898700471603296E-002
   2.6576346567881326E-002  -7.9021069310348177E-003   5.8474250590695075E-002
   2.5320332963205384E-002  -7.5904010058093878E-003   5.8302995358364425E-002
   2.4064319358529446E-002  -7.2670547839315007E-003   5.8384934774611444E-002
   2.2808305753853519E-002  -6.9320682654016863E-003   5.8720068839436056E-002
   2.2217301636273140E-002  -6.5376272239672240E-003   6.1754240615261913E-002
   2.1224707994109721E-002  -6.3111911552218014E-003   6.1300376428702341E-002
   2.0232114351946301E-002  -6.0666240541759064E-003   6.1120157518590457E-002
   1.9239520709782895E-002  -5.8039259208290950E-003   6.1213583884925732E-002
   1.8246927067619476E-002  -5.5230967551819221E-003   6.1580655527708528E-002
   3.6656105177055587E-002  -1.1158982796060757E-002   4.9832836864267593E-002
   3.5574721899932771E-002  -1.0654613121689360E-002   4.9596829275734999E-002
   3.4493338622809927E-002  -1.0128589342638245E-002   4.9543811133247018E-002
   3.3411955345687083E-002  -9.5809114589072084E-003   4.9673782436803482E-002
   3.2330572068564267E-002  -9.0115794704962449E-003   4.9986743186404725E-002
   3.2012894808571571E-002  -9.7500112858410204E-003   5.2846159507715595E-002
   3.1102411555910842E-002  -9.2994639723450456E-003   5.2644083453879859E-002
   3.0191928303250092E-002  -8.8330833058025970E-003   5.2600818002923544E-002
   2.9281445050589338E-002  -8.3508692862142367E-003   5.2716363154847026E-002
   2.8370961797928612E-002  -7.8528219135796662E-003   5.2990718909649681E-002
   2.7396961667504230E-002  -8.3410397756213395E-003   5.5808570166105020E-002
   2.6633199596140369E-002  -7.9443148230005645E-003   5.5634604895332812E-002
   2.5869437524776488E-002  -7.5375772689672410E-003   5.5595271384274766E-002
   2.5105675453412610E-002  -7.1208271135212685E-003   5.5690569632930835E-002
   2.4341913382048753E-002  -6.6940643566629210E-003   5.5920499641301413E-002
   2.2808305753853519E-002  -6.9320682654016863E-003   5.8720068839436056E-002
   2.2167086020621292E-002  -6.5891656736560555E-003   5.8568393600093450E-002
   2.1525866287389082E-002  -6.2420712321318225E-003   5.8527171277300047E-002
   2.0884646554156859E-002  -5.8907849408282986E-003   5.8596401871055456E-002
   2.0243426820924670E-002  -5.5353067997461480E-003   5.8776085381360157E-002
   1.8246927067619476E-002  -5.5230967551819221E-003   6.1580655527708528E-002
   1.7704070829353671E-002  -5.2340165243117687E-003   6.1445449568162169E-002
   1.7161214591087902E-002  -4.9465651952962653E-003   6.1396517681999607E-002
   1.6618358352822129E-002  -4.6607427681353911E-003   6.1433859869220925E-002
   1.6075502114556356E-002  -4.3765492428294861E-003   6.1557476129825983E-002
   3.2330572068564267E-002  -9.0115794704962449E-003   4.9986743186404725E-002
   2.9697809614200210E-002  -8.4327230075295634E-003   4.9614434763999737E-002
   2.7065047159836167E-002  -7.8564717001305406E-003   4.9311716466266753E-002
   2.4432284705472131E-002  -7.2828255482989684E-003   4.9078588293205577E-002
   2.1799522251108039E-002  -6.7117845520354713E-003   4.8915050244816127E-002
   2.8370961797928612E-002  -7.8528219135796662E-003   5.2990718909649681E-002
   2.5866346737642529E-002  -7.3451066285511457E-003   5.2607978269493150E-002
   2.3361731677356459E-002  -6.8338888717815877E-003   5.2411942292820979E-002
   2.0857116617070362E-002  -6.3191686432704473E-003   5.2402610979632558E-002
   1.8352501556784251E-002  -5.8009459430182764E-003   5.2579984329928275E-002
   2.4341913382048753E-002  -6.6940643566629210E-003   5.5920499641301413E-002
   2.2082560254652717E-002  -6.2574902495729778E-003   5.5533434410702673E-002
   1.9823207127256676E-002  -5.8113060434326902E-003   5.5450188382400054E-002
   1.7563853999860622E-002  -5.3555117382419540E-003   5.5670761556393916E-002
   1.5304500872464585E-002  -4.8901073340009704E-003   5.6195153932683151E-002
   2.0243426820924670E-002  -5.5353067997461480E-003   5.8776085381360157E-002
   1.8346450165230791E-002  -5.1698738705948516E-003   5.8390803187628126E-002
   1.6449473509536929E-002  -4.7887232150837650E-003   5.8426454735004497E-002
   1.4552496853843090E-002  -4.3918548332135023E-003   5.8883040023488917E-002
   1.2655520198149191E-002  -3.9792687249836645E-003   5.9760559053081877E-002
   1.6075502114556356E-002  -4.3765492428294861E-003   6.1557476129825983E-002
   1.4658016469376756E-002  -4.0822574916165033E-003   6.1180084600269746E-002
   1.3240530824197155E-002  -3.7661403867348953E-003   6.1340741350634054E-002
   1.1823045179017576E-002  -3.4281979281848701E-003   6.2039446380918656E-002
   1.0405559533837982E-002  -3.0684301159664695E-003   6.3276199691123525E-002
   2.6632464788211511E-002   0.0000000000000000        2.9468395873390257E-002
   2.7233734622686627E-002  -5.8559796875409364E-004   3.4946847949185934E-002
   2.7835004457161739E-002  -1.3191568009565165E-003   4.0117297376725154E-002
   2.8436274291636851E-002  -2.2006764966072661E-003   4.4979744156007945E-002
   2.9037544126111960E-002  -3.2301570557063475E-003   4.9534188287034278E-002
   2.0115794399606812E-002   0.0000000000000000        2.9020730528937909E-002
   2.0448482883095902E-002  -4.3919847567705506E-004   3.4314840940269820E-002
   2.0781171366584993E-002  -9.8936759895867487E-004   3.9379791297886144E-002
   2.1113859850074086E-002  -1.6505073698448499E-003   4.4215581601786860E-002
   2.1446548333563173E-002  -2.4226177883355940E-003   4.8822211851971983E-002
   1.3504826804794375E-002   0.0000000000000000        2.8700969569640706E-002
   1.3647776531838293E-002  -2.9279898260001777E-004   3.3847728532352642E-002
   1.3790726258882210E-002  -6.5957839696083060E-004   3.8844170035889816E-002
   1.3933675985926123E-002  -1.1003382430824346E-003   4.3690294080252240E-002
   1.4076625712970040E-002  -1.6150785209648366E-003   4.8386100665439920E-002
   6.7995620037742087E-003   0.0000000000000000        2.8509112995498666E-002
   6.8316155689137938E-003  -1.4639948952297941E-004   3.3545510725434366E-002
   6.8636691340533814E-003  -3.2978919496298676E-004   3.8510433590736186E-002
   6.8957226991929674E-003  -5.5016911632001881E-004   4.3403881591404063E-002
   6.9277762643325524E-003  -8.0753925359407599E-004   4.8225854727438060E-002
  -3.4536921933447928E-012   0.0000000000000000        2.8445160806511775E-002
  -5.6775894749505618E-012   3.5540580894943830E-012   3.3408187519515034E-002
  -7.9014863228754617E-012   7.0348553371513134E-012   3.8378581962425225E-002
  -1.0125383821321665E-011   1.0442396947141219E-011   4.3356344135242364E-002
  -1.2349281319767869E-011   1.3776675113208459E-011   4.8341474037966431E-002
   2.9037544126111960E-002  -3.2301570557063475E-003   4.9534188287034278E-002
   2.9108871177344370E-002  -4.2482439066682783E-003   5.1591850614619864E-002
   2.9180198228576773E-002  -5.0955824779075204E-003   5.3748445614040283E-002
   2.9251525279809176E-002  -5.7721727694240964E-003   5.6003973285295536E-002
   2.9322852331041586E-002  -6.2780147812180193E-003   5.8358433628385636E-002
   2.1446548333563173E-002  -2.4226177883355940E-003   4.8822211851971983E-002
   2.1587616947765398E-002  -3.1861829257466812E-003   5.1221160987391434E-002
   2.1728685561967619E-002  -3.8216868533939054E-003   5.3660660576915722E-002
   2.1869754176169841E-002  -4.3291295712772739E-003   5.6140710620544730E-002
   2.2010822790372062E-002  -4.7085110793967863E-003   5.8661311118278589E-002
   1.4076625712970040E-002  -1.6150785209648366E-003   4.8386100665439920E-002
   1.4229053672412024E-002  -2.1241219448251054E-003   5.1083649538734462E-002
   1.4381481631854003E-002  -2.5477912288803112E-003   5.3763366648403740E-002
   1.4533909591295982E-002  -2.8860863731304583E-003   5.6425251994447756E-002
   1.4686337550737965E-002  -3.1390073775755464E-003   5.9069305576866495E-002
   6.9277762643325524E-003  -8.0753925359407599E-004   4.8225854727438060E-002
   7.0331813512842433E-003  -1.0620609639035224E-003   5.1179316268648897E-002
   7.1385864382359342E-003  -1.2738956043667031E-003   5.4056563828504413E-002
   7.2439915251876225E-003  -1.4430431749836428E-003   5.6857597407004599E-002
   7.3493966121393143E-003  -1.5695036757543031E-003   5.9582417004149499E-002
  -1.2349281319767869E-011   1.3776675113208459E-011   4.8341474037966431E-002
  -1.5617937498824119E-011   1.7018060571860616E-011   5.1508161177134748E-002
  -1.8886594978922977E-011   2.0146894786146619E-011   5.4540252117217691E-002
  -2.2155251374819662E-011   2.3163178894478748E-011   5.7437746858215254E-002
  -2.5423907770716347E-011   2.6066919456280147E-011   6.0200645400127463E-002
   2.9322852331041586E-002  -6.2780147812180193E-003   5.8358433628385636E-002
   2.8980485218022822E-002  -6.6663289652026531E-003   5.9131389470452565E-002
   2.8638118105004055E-002  -6.9903357732914520E-003   5.9939071311257600E-002
   2.8295750991985280E-002  -7.2500352054843415E-003   6.0781479150800712E-002
   2.7953383878966523E-002  -7.4454272617813927E-003   6.1658612989081887E-002
   2.2010822790372062E-002  -4.7085110793967863E-003   5.8661311118278589E-002
   2.1715898120773403E-002  -4.9997467165584682E-003   5.9490796660086775E-002
   2.1420973451174753E-002  -5.2427518215684473E-003   6.0380441089997135E-002
   2.1126048781576100E-002  -5.4375263944266370E-003   6.1330244408009660E-002
   2.0831124111977444E-002  -5.5840704351330928E-003   6.2340206614124274E-002
   1.4686337550737965E-002  -3.1390073775755464E-003   5.9069305576866495E-002
   1.4464288213923485E-002  -3.3331644679142972E-003   5.9939243974671853E-002
   1.4242238877109004E-002  -3.4951678698454149E-003   6.0894774149943459E-002
   1.4020189540294518E-002  -3.6250175833689316E-003   6.1935896102681243E-002
   1.3798140203480042E-002  -3.7227136084848136E-003   6.3062609832885183E-002
   7.3493966121393143E-003  -1.5695036757543031E-003   5.9582417004149499E-002
   7.2256554974730646E-003  -1.6665822192701053E-003   6.0476731414207847E-002
   7.1019143828068157E-003  -1.7475839181223755E-003   6.1482070491096524E-002
   6.9781732681405660E-003  -1.8125087723112128E-003   6.2598434234815412E-002
   6.8544321534743180E-003  -1.8613567818364964E-003   6.3825822645364585E-002
  -2.5423907770716347E-011   2.6066919456280147E-011   6.0200645400127463E-002
  -2.8577861431455798E-011   2.9374069149268323E-011   6.1103258978694737E-002
  -3.1731815959556986E-011   3.3600620549800730E-011   6.2142330113456337E-002
  -3.4885771788700781E-011   3.8746491692193130E-011   6.3317858804412264E-002
  -3.8039724148397625E-011   4.4811765409491500E-011   6.4629845051562523E-002
   2.7953383878966523E-002  -7.4454272617813927E-003   6.1658612989081887E-002
   2.7216307018242167E-002  -7.5632753444204864E-003   6.1348650467837745E-002
   2.6479230157517804E-002  -7.5903428556397916E-003   6.1264037378180251E-002
   2.5742153296793444E-002  -7.5266297954391338E-003   6.1404773720109634E-002
   2.5005076436069085E-002  -7.3721361638185712E-003   6.1770859493625679E-002
   2.0831124111977444E-002  -5.5840704351330928E-003   6.2340206614124274E-002
   2.0309126627910519E-002  -5.6724564955173487E-003   6.2188682896398721E-002
   1.9787129143843604E-002  -5.6927571274089511E-003   6.2241968500401333E-002
   1.9265131659776686E-002  -5.6449723308078827E-003   6.2500063426132083E-002
   1.8743134175709761E-002  -5.5291021057142231E-003   6.2962967673590997E-002
   1.3798140203480042E-002  -3.7227136084848136E-003   6.3062609832885183E-002
   1.3470681986211951E-002  -3.7816376466141624E-003   6.3046829775751059E-002
   1.3143223768943857E-002  -3.7951713991781402E-003   6.3215318930486500E-002
   1.2815765551675764E-002  -3.7633148661767152E-003   6.3568077297091394E-002
   1.2488307334407679E-002  -3.6860680476098889E-003   6.4105104875565866E-002
   6.8544321534743180E-003  -1.8613567818364964E-003   6.3825822645364585E-002
   6.7009730931464409E-003  -1.8908187977110004E-003   6.3923091105894683E-002
   6.5475140328185594E-003  -1.8975856709473561E-003   6.4184088668435543E-002
   6.3940549724906823E-003  -1.8816574015454921E-003   6.4608815332987415E-002
   6.2405959121628034E-003  -1.8430339895055617E-003   6.5197271099550119E-002
  -3.8039724148397625E-011   4.4811765409491500E-011   6.4629845051562523E-002
  -5.1286004956740960E-011   5.1192189376436659E-011   6.4817466886829461E-002
  -6.4532284030360820E-011   5.7283518206663331E-011   6.5148277714248692E-002
  -7.7778563103980680E-011   6.3085718940425473E-011   6.5622277533820161E-002
  -9.1024843912324016E-011   6.8598765556870944E-011   6.6239466345543979E-002
   2.5005076436069085E-002  -7.3721361638185712E-003   6.1770859493625679E-002
   2.4308132736120092E-002  -7.1700664170799566E-003   6.1533012727195024E-002
   2.3611189036171112E-002  -6.9636250115251083E-003   6.1450960658657475E-002
   2.2914245336222133E-002  -6.7528119471542327E-003   6.1524703288013176E-002
   2.2217301636273140E-002  -6.5376272239672240E-003   6.1754240615261913E-002
   1.8743134175709761E-002  -5.5291021057142231E-003   6.2962967673590997E-002
   1.8206595479840000E-002  -5.3775497951048384E-003   6.2740671833081060E-002
   1.7670056783970219E-002  -5.2227187419567889E-003   6.2683391302836372E-002
   1.7133518088100451E-002  -5.0646089462701299E-003   6.2791126082856932E-002
   1.6596979392230669E-002  -4.9032204080448061E-003   6.3063876173142935E-002
   1.2488307334407679E-002  -3.6860680476098889E-003   6.4105104875565866E-002
   1.2121394254989249E-002  -3.5850331731297480E-003   6.3897267044699085E-002
   1.1754481175570826E-002  -3.4818124723884174E-003   6.3863665136469724E-002
   1.1387568096152399E-002  -3.3764059453859447E-003   6.4004299150877825E-002
   1.1020655016733973E-002  -3.2688135921222217E-003   6.4319169087923289E-002
   6.2405959121628034E-003  -1.8430339895055617E-003   6.5197271099550119E-002
   6.0525290615678585E-003  -1.7925165511546576E-003   6.5002798362049169E-002
   5.8644622109729153E-003  -1.7409062028200719E-003   6.4991782159557712E-002
   5.6763953603779782E-003  -1.6882029445017452E-003   6.5164222492075791E-002
   5.4883285097830341E-003  -1.6344067761996928E-003   6.5520119359603501E-002
  -9.1024843912324016E-011   6.8598765556870944E-011   6.6239466345543979E-002
  -1.0042416898059514E-010   7.0820460607023961E-011   6.6057265785131269E-002
  -1.0982349751831322E-010   6.6748308269470868E-011   6.6067742372100183E-002
  -1.1922282518866956E-010   5.6382435179025414E-011   6.6270896106450788E-002
  -1.2862215112430242E-010   3.9722780620365938E-011   6.6666726988183100E-002
   2.2217301636273140E-002  -6.5376272239672240E-003   6.1754240615261913E-002
   2.1224707994109721E-002  -6.3111911552218014E-003   6.1300376428702341E-002
   2.0232114351946301E-002  -6.0666240541759064E-003   6.1120157518590457E-002
   1.9239520709782895E-002  -5.8039259208290950E-003   6.1213583884925732E-002
   1.8246927067619476E-002  -5.5230967551819221E-003   6.1580655527708528E-002
   1.6596979392230669E-002  -4.9032204080448061E-003   6.3063876173142935E-002
   1.5871656811165286E-002  -4.7333933617333124E-003   6.2663500292746727E-002
   1.5146334230099905E-002  -4.5499680417883936E-003   6.2524021258099374E-002
   1.4421011649034513E-002  -4.3529444482102511E-003   6.2645439069200726E-002
   1.3695689067969134E-002  -4.1423225809985031E-003   6.3027753726050739E-002
   1.1020655016733973E-002  -3.2688135921222217E-003   6.4319169087923289E-002
   1.0549855066067881E-002  -3.1555955682447262E-003   6.3967748755023521E-002
   1.0079055115401785E-002  -3.0333120294011029E-003   6.3864476837173612E-002
   9.6082551647356969E-003  -2.9019629755910742E-003   6.4009353334373631E-002
   9.1374552140696015E-003  -2.7615484068149176E-003   6.4402378246623621E-002
   5.4883285097830341E-003  -1.6344067761996928E-003   6.5520119359603501E-002
   5.2593027588174798E-003  -1.5777977747561886E-003   6.5213121815532682E-002
   5.0302770078519436E-003  -1.5166560170138121E-003   6.5141524255813113E-002
   4.8012512568863970E-003  -1.4509815029721471E-003   6.5305326680444725E-002
   4.5722255059208539E-003  -1.3807742326314987E-003   6.5704529089427477E-002
  -1.2862215112430242E-010   3.9722780620365938E-011   6.6666726988183100E-002
  -1.1058588766932331E-010   1.8732321249714801E-011   6.6399619474274252E-002
  -9.2549622479620730E-011  -4.6264242437032976E-012   6.6355163514017879E-002
  -7.4513359024641623E-011  -3.0353056873488882E-011   6.6533359107413828E-002
  -5.6477093834939041E-011  -5.8447913175996291E-011   6.6934206254462336E-002
   1.8246927067619476E-002  -5.5230967551819221E-003   6.1580655527708528E-002
   1.7704070829353671E-002  -5.2340165243117687E-003   6.1445449568162169E-002
   1.7161214591087902E-002  -4.9465651952962653E-003   6.1396517681999607E-002
   1.6618358352822129E-002  -4.6607427681353911E-003   6.1433859869220925E-002
   1.6075502114556356E-002  -4.3765492428294861E-003   6.1557476129825983E-002
   1.3695689067969134E-002  -4.1423225809985031E-003   6.3027753726050739E-002
   1.3251466900002305E-002  -3.9255124151696685E-003   6.2896486620043185E-002
   1.2807244732035480E-002  -3.7099239257402938E-003   6.2876213581249729E-002
   1.2363022564068639E-002  -3.4955571127102611E-003   6.2966934609670275E-002
   1.1918800396101811E-002  -3.2824119760795356E-003   6.3168649705305058E-002
   9.1374552140696015E-003  -2.7615484068149176E-003   6.4402378246623621E-002
   8.8165871102319666E-003  -2.6170083060275684E-003   6.4275457219610366E-002
   8.4957190063943300E-003  -2.4732826561842530E-003   6.4284250253641415E-002
   8.1748509025566969E-003  -2.3303714572849056E-003   6.4428757348716836E-002
   7.8539827987190586E-003  -2.1882747093295296E-003   6.4708978504836534E-002
   4.5722255059208539E-003  -1.3807742326314987E-003   6.5704529089427477E-002
   4.3994314600426547E-003  -1.3085041968855793E-003   6.5582361366863962E-002
   4.2266374141644650E-003  -1.2366413866281914E-003   6.5620627699174788E-002
   4.0538433682862753E-003  -1.1651858018595519E-003   6.5819328086360318E-002
   3.8810493224080839E-003  -1.0941374425795514E-003   6.6178462528420370E-002
  -5.6477093834939041E-011  -5.8447913175996291E-011   6.6934206254462336E-002
  -5.0565596848572980E-011  -8.7743395882355912E-011   6.6817199061803612E-002
  -4.4654106801100824E-011  -1.1707225466839333E-010   6.6885345917849753E-002
  -3.8742611549458239E-011  -1.4643442361461645E-010   6.7138646822600748E-002
  -3.2831119767262607E-011  -1.7582962863471607E-010   6.7577101776056525E-002
   1.6075502114556356E-002  -4.3765492428294861E-003   6.1557476129825983E-002
   1.4658016469376756E-002  -4.0822574916165033E-003   6.1180084600269746E-002
   1.3240530824197155E-002  -3.7661403867348953E-003   6.1340741350634054E-002
   1.1823045179017576E-002  -3.4281979281848701E-003   6.2039446380918656E-002
   1.0405559533837982E-002  -3.0684301159664695E-003   6.3276199691123525E-002
   1.1918800396101811E-002  -3.2824119760795356E-003   6.3168649705305058E-002
   1.0993443825052678E-002  -3.0616931880380338E-003   6.2856320257475534E-002
   1.0068087254003523E-002  -2.8246054207760746E-003   6.2990200677986219E-002
   9.1427306829544031E-003  -2.5711486742935781E-003   6.3570290966837584E-002
   8.2173741119052346E-003  -2.3013229485906450E-003   6.4596591124029934E-002
   7.8539827987190586E-003  -2.1882747093295296E-003   6.4708978504836534E-002
   7.3289168902206311E-003  -2.0411288844597864E-003   6.4456254764285389E-002
   6.8038509817222245E-003  -1.8830704548174204E-003   6.4557902480495269E-002
   6.2787850732238162E-003  -1.7140994204024249E-003   6.5013921653465784E-002
   5.7537191647253766E-003  -1.5342157812148205E-003   6.5824312283197295E-002
   3.8810493224080839E-003  -1.0941374425795514E-003   6.6178462528420370E-002
   3.6644356648806511E-003  -1.0205645808814279E-003   6.5979888120699770E-002
   3.4478220073532132E-003  -9.4153548885862748E-004   6.6043846758160413E-002
   3.2312083498257905E-003  -8.5705016651114671E-004   6.6370338440802104E-002
   3.0145946922983564E-003  -7.6710861383899598E-004   6.6959363168624955E-002
  -3.2831119767262607E-011  -1.7582962863471607E-010   6.7577101776056525E-002
   1.4903269937582841E-010  -2.7730306939588445E-010   6.7427220326718662E-002
   3.3089652198836639E-010  -5.2289987617637479E-010   6.7448033510982081E-002
   5.1276033939673393E-010  -9.1261985121771083E-010   6.7639541328847155E-002
   6.9462416374399538E-010  -1.4464631714616871E-009   6.8001743780313095E-002
  -3.4536921933447928E-012   0.0000000000000000        2.8445160806511775E-002
  -5.6775894749505618E-012   3.5540580894943830E-012   3.3408187519515034E-002
  -7.9014863228754617E-012   7.0348553371513134E-012   3.8378581962425225E-002
  -1.0125383821321665E-011   1.0442396947141219E-011   4.3356344135242364E-002
  -1.2349281319767869E-011   1.3776675113208459E-011   4.8341474037966431E-002
  -6.7995620104652462E-003   0.0000000000000000        2.8509113002498056E-002
  -6.8316155799782253E-003   1.4639949626225456E-004   3.3545510732789462E-002
  -6.8636691494912043E-003   3.2978920828526104E-004   3.8510433598595774E-002
  -6.8957227190041843E-003   5.5016913606901943E-004   4.3403881599916982E-002
  -6.9277762885171634E-003   8.0753927961352712E-004   4.8225854736753081E-002
  -1.3504826810836375E-002   0.0000000000000000        2.8700969583275532E-002
  -1.3647776542030475E-002   2.9279898897045104E-004   3.3847728546689104E-002
  -1.3790726273224580E-002   6.5957840953566500E-004   3.8844170051225528E-002
  -1.3933676004418683E-002   1.1003382616956402E-003   4.3690294096884810E-002
  -1.4076625735612785E-002   1.6150785454503752E-003   4.8386100683666951E-002
  -2.0115794404567077E-002   0.0000000000000000        2.9020730548844194E-002
  -2.0448482891834343E-002   4.3919848167864794E-004   3.4314840961213934E-002
  -2.0781171379101609E-002   9.8936761078606810E-004   3.9379791320314501E-002
  -2.1113859866368875E-002   1.6505073873222600E-003   4.4215581626145875E-002
  -2.1446548353636141E-002   2.4226178112872303E-003   4.8822211878708048E-002
  -2.6632464791657352E-002   0.0000000000000000        2.9468395899204053E-002
  -2.7233734629389827E-002   5.8559797438684485E-004   3.4946847976363979E-002
  -2.7835004467122303E-002   1.3191568120364729E-003   4.0117297405862680E-002
  -2.8436274304854778E-002   2.2006765129488834E-003   4.4979744187700156E-002
  -2.9037544142587250E-002   3.2301570771240727E-003   4.9534188321876400E-002
  -1.2349281319767869E-011   1.3776675113208459E-011   4.8341474037966431E-002
  -1.5617937498824119E-011   1.7018060571860616E-011   5.1508161177134748E-002
  -1.8886594978922977E-011   2.0146894786146619E-011   5.4540252117217691E-002
  -2.2155251374819662E-011   2.3163178894478748E-011   5.7437746858215254E-002
  -2.5423907770716347E-011   2.6066919456280147E-011   6.0200645400127463E-002
  -6.9277762885171634E-003   8.0753927961352712E-004   4.8225854736753081E-002
  -7.0331813819642947E-003   1.0620609960967707E-003   5.1179316278902633E-002
  -7.1385864754114270E-003   1.2738956426967447E-003   5.4056563839780629E-002
  -7.2439915688585609E-003   1.4430432194134344E-003   5.6857597419387021E-002
  -7.3493966623056923E-003   1.5695037262468750E-003   5.9582417017721850E-002
  -1.4076625735612785E-002   1.6150785454503752E-003   4.8386100683666951E-002
  -1.4229053701424601E-002   2.1241219751754921E-003   5.1083649559027028E-002
  -1.4381481667236412E-002   2.5477912652466014E-003   5.3763366670929319E-002
  -1.4533909633048223E-002   2.8860864156637074E-003   5.6425252019373831E-002
  -1.4686337598860039E-002   3.1390074264268202E-003   5.9069305604360536E-002
  -2.1446548353636141E-002   2.4226178112872303E-003   4.8822211878708048E-002
  -2.1587616973998847E-002   3.1861829542542113E-003   5.1221161017507913E-002
  -2.1728685594361551E-002   3.8216868877964756E-003   5.3660660610663789E-002
  -2.1869754214724244E-002   4.3291296119139858E-003   5.6140710658175663E-002
  -2.2010822835086954E-002   4.7085111266067705E-003   5.8661311160043556E-002
  -2.9037544142587250E-002   3.2301570771240727E-003   4.9534188321876400E-002
  -2.9108871199687043E-002   4.2482439333329279E-003   5.1591850654345316E-002
  -2.9180198256786832E-002   5.0955825103463177E-003   5.3748445658984026E-002
  -2.9251525313886632E-002   5.7721728081642351E-003   5.6003973335792573E-002
  -2.9322852370986419E-002   6.2780148267867139E-003   5.8358433684770901E-002
  -2.5423907770716347E-011   2.6066919456280147E-011   6.0200645400127463E-002
  -2.8577861431455798E-011   2.9374069149268323E-011   6.1103258978694737E-002
  -3.1731815959556986E-011   3.3600620549800730E-011   6.2142330113456337E-002
  -3.4885771788700781E-011   3.8746491692193130E-011   6.3317858804412264E-002
  -3.8039724148397625E-011   4.4811765409491500E-011   6.4629845051562523E-002
  -7.3493966623056923E-003   1.5695037262468750E-003   5.9582417017721850E-002
  -7.2256555537747276E-003   1.6665822763505742E-003   6.0476731430778717E-002
  -7.1019144452437654E-003   1.7475839828780659E-003   6.1482070511011157E-002
  -6.9781733367127998E-003   1.8125088458293931E-003   6.2598434258419058E-002
  -6.8544322281818369E-003   1.8613568652044998E-003   6.3825822673002477E-002
  -1.4686337598860039E-002   3.1390074264268202E-003   5.9069305604360536E-002
  -1.4464288267662974E-002   3.3331645233270254E-003   5.9939244007411505E-002
  -1.4242238936465909E-002   3.4951679321555120E-003   6.0894774188619161E-002
  -1.4020189605268848E-002   3.6250176529122394E-003   6.1935896147983505E-002
  -1.3798140274071783E-002   3.7227136855972065E-003   6.3062609885504578E-002
  -2.2010822835086954E-002   4.7085111266067705E-003   5.8661311160043556E-002
  -2.1715898170242592E-002   4.9997467703034966E-003   5.9490796708593009E-002
  -2.1420973505398240E-002   5.2427518814329721E-003   6.0380441146280370E-002
  -2.1126048840553888E-002   5.4375264599950852E-003   6.1330244473105582E-002
  -2.0831124175709537E-002   5.5840705059899270E-003   6.2340206689068672E-002
  -2.9322852370986419E-002   6.2780148267867139E-003   5.8358433684770901E-002
  -2.8980485261513592E-002   6.6663290172799816E-003   5.9131389534323286E-002
  -2.8638118152040773E-002   6.9903358307103949E-003   5.9939071383994749E-002
  -2.8295751042567950E-002   7.2500352670779779E-003   6.0781479233785289E-002
  -2.7953383933095120E-002   7.4454273263826476E-003   6.1658613083694858E-002
  -3.8039724148397625E-011   4.4811765409491500E-011   6.4629845051562523E-002
  -5.1286004956740960E-011   5.1192189376436659E-011   6.4817466886829461E-002
  -6.4532284030360820E-011   5.7283518206663331E-011   6.5148277714248692E-002
  -7.7778563103980680E-011   6.3085718940425473E-011   6.5622277533820161E-002
  -9.1024843912324016E-011   6.8598765556870944E-011   6.6239466345543979E-002
  -6.8544322281818369E-003   1.8613568652044998E-003   6.3825822673002477E-002
  -6.7009731938634520E-003   1.8908188914586593E-003   6.3923091136456625E-002
  -6.5475141595450655E-003   1.8975857750472488E-003   6.4184088702887748E-002
  -6.3940551252266884E-003   1.8816575159701417E-003   6.4608815372295958E-002
  -6.2405960909082941E-003   1.8430341142273154E-003   6.5197271144681157E-002
  -1.3798140274071783E-002   3.7227136855972065E-003   6.3062609885504578E-002
  -1.3470682081363979E-002   3.7816377317251709E-003   6.3046829834769308E-002
  -1.3143223888656181E-002   3.7951714928110038E-003   6.3215318997835779E-002
  -1.2815765695948379E-002   3.7633149688545498E-003   6.3568077374704032E-002
  -1.2488307503240585E-002   3.6860681598559347E-003   6.4105104965374110E-002
  -2.0831124175709537E-002   5.5840705059899270E-003   6.2340206689068672E-002
  -2.0309126713787578E-002   5.6724565719917033E-003   6.2188682981767461E-002
  -1.9787129251865623E-002   5.6927572105747327E-003   6.2241968599092763E-002
  -1.9265131789943674E-002   5.6449724217389925E-003   6.2500063541044648E-002
  -1.8743134328021712E-002   5.5291022054844916E-003   6.2962967807622977E-002
  -2.7953383933095120E-002   7.4454273263826476E-003   6.1658613083694858E-002
  -2.7216307091134248E-002   7.5632754122581802E-003   6.1348650577451133E-002
  -2.6479230249173393E-002   7.5903429283384755E-003   6.1264037506658764E-002
  -2.5742153407212538E-002   7.5266298746234882E-003   6.1404773871317569E-002
  -2.5005076565251663E-002   7.3721362511131039E-003   6.1770859671427786E-002
  -9.1024843912324016E-011   6.8598765556870944E-011   6.6239466345543979E-002
  -1.0042416898059514E-010   7.0820460607023961E-011   6.6057265785131269E-002
  -1.0982349751831322E-010   6.6748308269470868E-011   6.6067742372100183E-002
  -1.1922282518866956E-010   5.6382435179025414E-011   6.6270896106450788E-002
  -1.2862215112430242E-010   3.9722780620365938E-011   6.6666726988183100E-002
  -6.2405960909082941E-003   1.8430341142273154E-003   6.5197271144681157E-002
  -6.0525292596806876E-003   1.7925166812211846E-003   6.5002798401987388E-002
  -5.8644624284530890E-003   1.7409063283539417E-003   6.4991782193165787E-002
  -5.6763955972254816E-003   1.6882030556255312E-003   6.5164222518216408E-002
  -5.4883287659978769E-003   1.6344068630360642E-003   6.5520119377139224E-002
  -1.2488307503240585E-002   3.6860681598559347E-003   6.4105104965374110E-002
  -1.2121394444895545E-002   3.5850332916219918E-003   6.3897267126831997E-002
  -1.1754481386550509E-002   3.4818125899595161E-003   6.3863665208652484E-002
  -1.1387568328205470E-002   3.3764060548686541E-003   6.4004299210835766E-002
  -1.1020655269860440E-002   3.2688136863492367E-003   6.4319169133381579E-002
  -1.8743134328021712E-002   5.5291022054844916E-003   6.2962967807622977E-002
  -1.8206595656068740E-002   5.3775499020227019E-003   6.2740671959665151E-002
  -1.7670056984115775E-002   5.2227188515650644E-003   6.2683391418560441E-002
  -1.7133518312162799E-002   5.0646090541116798E-003   6.2791126184308918E-002
  -1.6596979640209838E-002   4.9032205096624093E-003   6.3063876256910595E-002
  -2.5005076565251663E-002   7.3721362511131039E-003   6.1770859671427786E-002
  -2.4308132893200260E-002   7.1700665124235230E-003   6.1533012900486794E-002
  -2.3611189221148875E-002   6.9636251131707100E-003   6.1450960822889505E-002
  -2.2914245549097479E-002   6.7528120533547863E-003   6.1524703438635878E-002
  -2.2217301877046080E-002   6.5376273329756374E-003   6.1754240747726008E-002
  -1.2862215112430242E-010   3.9722780620365938E-011   6.6666726988183100E-002
  -1.1058588766932331E-010   1.8732321249714801E-011   6.6399619474274252E-002
  -9.2549622479620730E-011  -4.6264242437032976E-012   6.6355163514017879E-002
  -7.4513359024641623E-011  -3.0353056873488882E-011   6.6533359107413828E-002
  -5.6477093834939041E-011  -5.8447913175996291E-011   6.6934206254462336E-002
  -5.4883287659978769E-003   1.6344068630360642E-003   6.5520119377139224E-002
  -5.2593029788430010E-003   1.5777978265407999E-003   6.5213121827050385E-002
  -5.0302771916881286E-003   1.5166560220950948E-003   6.5141524261546360E-002
  -4.8012514045332536E-003   1.4509814496990701E-003   6.5305326680627190E-002
  -4.5722256173783803E-003   1.3807741093525006E-003   6.5704529084292668E-002
  -1.1020655269860440E-002   3.2688136863492367E-003   6.4319169133381579E-002
  -1.0549855282654619E-002   3.1555956343492925E-003   6.3967748781530609E-002
  -1.0079055295448804E-002   3.0333120488165097E-003   6.3864476845196694E-002
  -9.6082553082429793E-003   2.9019629297510879E-003   6.4009353324379903E-002
  -9.1374553210371683E-003   2.7615482771529143E-003   6.4402378219080306E-002
  -1.6596979640209838E-002   4.9032205096624093E-003   6.3063876256910595E-002
  -1.5871657022020737E-002   4.7333934421577226E-003   6.2663500337715006E-002
  -1.5146334403831630E-002   4.5499680755379489E-003   6.2524021264968810E-002
  -1.4421011785642521E-002   4.3529444098032435E-003   6.2645439038672091E-002
  -1.3695689167453423E-002   4.1423224449532170E-003   6.3027753658824848E-002
  -2.2217301877046080E-002   6.5376273329756374E-003   6.1754240747726008E-002
  -2.1224708196941350E-002   6.3111912499662914E-003   6.1300376495603492E-002
  -2.0232114516836625E-002   6.0666241022594020E-003   6.1120157520862778E-002
  -1.9239520836731895E-002   5.8039258898552222E-003   6.1213583823503850E-002
  -1.8246927156627173E-002   5.5230966127537418E-003   6.1580655403526752E-002
  -5.6477093834939041E-011  -5.8447913175996291E-011   6.6934206254462336E-002
  -5.0565596848572980E-011  -8.7743395882355912E-011   6.6817199061803612E-002
  -4.4654106801100824E-011  -1.1707225466839333E-010   6.6885345917849753E-002
  -3.8742611549458239E-011  -1.4643442361461645E-010   6.7138646822600748E-002
  -3.2831119767262607E-011  -1.7582962863471607E-010   6.7577101776056525E-002
  -4.5722256173783803E-003   1.3807741093525006E-003   6.5704529084292668E-002
  -4.3994315548781665E-003   1.3085039984829516E-003   6.5582361370195991E-002
  -4.2266374923779562E-003   1.2366411145179196E-003   6.5620627720572020E-002
  -4.0538434298777494E-003   1.1651854574570818E-003   6.5819328135420602E-002
  -3.8810493673775322E-003   1.0941370273009898E-003   6.6178462614741862E-002
  -9.1374553210371683E-003   2.7615482771529143E-003   6.4402378219080306E-002
  -8.8165871861804086E-003   2.6170080847093685E-003   6.4275457210483208E-002
  -8.4957190513236490E-003   2.4732823461078787E-003   6.4284250282126698E-002
  -8.1748509164668876E-003   2.3303710613484779E-003   6.4428757434010608E-002
  -7.8539827816101280E-003   2.1882742304313030E-003   6.4708978666134995E-002
  -1.3695689167453423E-002   4.1423224449532170E-003   6.3027753658824848E-002
  -1.3251466944472302E-002   3.9255121709356397E-003   6.2896486582665292E-002
  -1.2807244721491183E-002   3.7099235776980287E-003   6.2876213602513886E-002
  -1.2363022498510066E-002   3.4955566652399841E-003   6.2966934718370934E-002
  -1.1918800275528945E-002   3.2824114335616023E-003   6.3168649930236034E-002
  -1.8246927156627173E-002   5.5230966127537418E-003   6.1580655403526752E-002
  -1.7704070829753879E-002   5.2340162571621884E-003   6.1445449486742132E-002
  -1.7161214502880565E-002   4.9465648092879289E-003   6.1396517681733598E-002
  -1.6618358176007254E-002   4.6607422691312753E-003   6.1433859988501149E-002
  -1.6075501849133950E-002   4.3765486366921236E-003   6.1557476407044787E-002
  -3.2831119767262607E-011  -1.7582962863471607E-010   6.7577101776056525E-002
   1.4903269937582841E-010  -2.7730306939588445E-010   6.7427220326718662E-002
   3.3089652198836639E-010  -5.2289987617637479E-010   6.7448033510982081E-002
   5.1276033939673393E-010  -9.1261985121771083E-010   6.7639541328847155E-002
   6.9462416374399538E-010  -1.4464631714616871E-009   6.8001743780313095E-002
  -3.8810493673775322E-003   1.0941370273009898E-003   6.6178462614741862E-002
  -3.6644353511801585E-003   1.0205640120148907E-003   6.5979888015806454E-002
  -3.4478213349827831E-003   9.4153459956480834E-004   6.6043846451936505E-002
  -3.2312073187854154E-003   8.5704878995113143E-004   6.6370337923132572E-002
  -3.0145933025880409E-003   7.6710658317347136E-004   6.6959362429394265E-002
  -7.8539827816101280E-003   2.1882742304313030E-003   6.4708978666134995E-002
  -7.3289165296148819E-003   2.0411283013327397E-003   6.4456254664561341E-002
  -6.8038502776196280E-003   1.8830697220297080E-003   6.4557902099517617E-002
  -6.2787840256243715E-003   1.7140984925221956E-003   6.5013920971003905E-002
  -5.7537177736291002E-003   1.5342146128102252E-003   6.5824311279020331E-002
  -1.1918800275528945E-002   3.2824114335616023E-003   6.3168649930236034E-002
  -1.0993443386271468E-002   3.0616925906506998E-003   6.2856320272983338E-002
  -1.0068086497013979E-002   2.8246048444945000E-003   6.2990200453725234E-002
  -9.1427296077564967E-003   2.5711481950934411E-003   6.3570290472461613E-002
  -8.2173727184990247E-003   2.3013226424469235E-003   6.4596590329191975E-002
  -1.6075501849133950E-002   4.3765486366921236E-003   6.1557476407044787E-002
  -1.4658015921149917E-002   4.0822568799684933E-003   6.1180084841072735E-002
  -1.3240529993165880E-002   3.7661399669593199E-003   6.1340741514559372E-002
  -1.1823044065181849E-002   3.4281978976643881E-003   6.2039446427504863E-002
  -1.0405558137197804E-002   3.0684306720836219E-003   6.3276199579908932E-002
  -2.6632464791657352E-002   0.0000000000000000        2.9468395899204053E-002
  -2.7233734629389827E-002   5.8559797438684485E-004   3.4946847976363979E-002
  -2.7835004467122303E-002   1.3191568120364729E-003   4.0117297405862680E-002
  -2.8436274304854778E-002   2.2006765129488834E-003   4.4979744187700156E-002
  -2.9037544142587250E-002   3.2301570771240727E-003   4.9534188321876400E-002
  -3.3391981120988339E-002   0.0000000000000000        3.0178466232758057E-002
  -3.4236091398211654E-002   9.6015394368329822E-004   3.5267702677928649E-002
  -3.5080201675434984E-002   2.0235695260280694E-003   4.0179260891778763E-002
  -3.5924311952658307E-002   3.1902467470343162E-003   4.4913140874308422E-002
  -3.6768422229881630E-002   4.4601856067020291E-003   4.9469342625517609E-002
  -4.0731486541441160E-002   0.0000000000000000        3.1285442147909175E-002
  -4.1688112841814583E-002   1.3347099129797555E-003   3.5940763736489120E-002
  -4.2644739142187991E-002   2.7279822400196737E-003   4.0548731510089357E-002
  -4.3601365442561400E-002   4.1798169811197508E-003   4.5109345468709879E-002
  -4.4557991742934823E-002   5.6902141362799880E-003   4.9622605612350691E-002
  -4.8650981053015838E-002   0.0000000000000000        3.2789323644657406E-002
  -4.9589798960198578E-002   1.7092658822762121E-003   3.6966031152045387E-002
  -5.0528616867381318E-002   3.4323949540112763E-003   4.1225709260794434E-002
  -5.1467434774564072E-002   5.1693872152051810E-003   4.5568357970904513E-002
  -5.2406252681746812E-002   6.9202426658579530E-003   4.9993977282375639E-002
  -5.7150464655712357E-002   0.0000000000000000        3.4690110723002751E-002
  -5.7941149753363660E-002   2.0838218515726670E-003   3.8343504924597469E-002
  -5.8731834851014984E-002   4.1368076680028763E-003   4.2210194143893993E-002
  -5.9522519948666294E-002   6.1589574492906200E-003   4.6290178380892319E-002
  -6.0313205046317611E-002   8.1502711954359007E-003   5.0583457635592466E-002
  -2.9037544142587250E-002   3.2301570771240727E-003   4.9534188321876400E-002
  -2.9108871199687043E-002   4.2482439333329279E-003   5.1591850654345316E-002
  -2.9180198256786832E-002   5.0955825103463177E-003   5.3748445658984026E-002
  -2.9251525313886632E-002   5.7721728081642351E-003   5.6003973335792573E-002
  -2.9322852370986419E-002   6.2780148267867139E-003   5.8358433684770901E-002
  -3.6768422229881630E-002   4.4601856067020291E-003   4.9469342625517609E-002
  -3.6779642533228345E-002   5.6933989115313475E-003   5.1255757100044111E-002
  -3.6790862836575060E-002   6.7498994680223641E-003   5.3063452409906987E-002
  -3.6802083139921775E-002   7.6296872761751145E-003   5.4892428555106183E-002
  -3.6813303443268490E-002   8.3327623359895908E-003   5.6742685535641740E-002
  -4.4557991742934823E-002   5.6902141362799880E-003   4.9622605612350691E-002
  -4.4586757129361922E-002   7.1385538897297627E-003   5.1131807759791995E-002
  -4.4615522515789006E-002   8.4042164256984322E-003   5.2584638905736170E-002
  -4.4644287902216091E-002   9.4872017441860121E-003   5.3981099050183223E-002
  -4.4673053288643197E-002   1.0387509845192485E-002   5.5321188193133190E-002
  -5.2406252681746812E-002   6.9202426658579530E-003   4.9993977282375639E-002
  -5.2530214988087742E-002   8.5837088679281779E-003   5.1220002633588883E-002
  -5.2654177294428672E-002   1.0058533383374488E-002   5.2312005146471559E-002
  -5.2778139600769602E-002   1.1344716212196886E-002   5.3269984821023665E-002
  -5.2902101907110533E-002   1.2442257354395378E-002   5.4093941657245244E-002
  -6.0313205046317611E-002   8.1502711954359007E-003   5.0583457635592466E-002
  -6.0610016109405827E-002   1.0028863846126597E-002   5.1520341721434840E-002
  -6.0906827172494064E-002   1.1712850341050546E-002   5.2245551132113217E-002
  -6.1203638235582294E-002   1.3202230680207771E-002   5.2759085867627543E-002
  -6.1500449298670511E-002   1.4497004863598263E-002   5.3060945927977853E-002
  -2.9322852370986419E-002   6.2780148267867139E-003   5.8358433684770901E-002
  -2.8980485261513592E-002   6.6663290172799816E-003   5.9131389534323286E-002
  -2.8638118152040773E-002   6.9903358307103949E-003   5.9939071383994749E-002
  -2.8295751042567950E-002   7.2500352670779779E-003   6.0781479233785289E-002
  -2.7953383933095120E-002   7.4454273263826476E-003   6.1658613083694858E-002
  -3.6813303443268490E-002   8.3327623359895908E-003   5.6742685535641740E-002
  -3.6384192886525786E-002   8.8749561946387043E-003   5.7093681543724649E-002
  -3.5955082329783096E-002   9.2721003992953521E-003   5.7583438446228236E-002
  -3.5525971773040385E-002   9.5241949499596315E-003   5.8211956243152514E-002
  -3.5096861216297702E-002   9.6312398466313759E-003   5.8979234934497526E-002
  -4.4673053288643197E-002   1.0387509845192485E-002   5.5321188193133190E-002
  -4.4053164390329004E-002   1.1083583371997413E-002   5.5169482082817051E-002
  -4.3433275492014790E-002   1.1553864967880325E-002   5.5260571761223239E-002
  -4.2813386593700563E-002   1.1798354632841243E-002   5.5594457228351726E-002
  -4.2193497695386398E-002   1.1817052366880132E-002   5.6171138484202521E-002
  -5.2902101907110533E-002   1.2442257354395378E-002   5.4093941657245244E-002
  -5.1987399772923215E-002   1.3292210549356108E-002   5.3358791151600506E-002
  -5.1072697638735891E-002   1.3835629536465275E-002   5.2970471328979668E-002
  -5.0157995504548560E-002   1.4072514315722878E-002   5.2928982189382787E-002
  -4.9243293370361242E-002   1.4002864887128930E-002   5.3234323732809868E-002
  -6.1500449298670511E-002   1.4497004863598263E-002   5.3060945927977853E-002
  -6.0186899034308440E-002   1.5500837726714838E-002   5.1661608750074944E-002
  -5.8873348769946376E-002   1.6117394105050219E-002   5.0713137149497572E-002
  -5.7559798505584278E-002   1.6346673998604521E-002   5.0215531126245799E-002
  -5.6246248241222221E-002   1.6188677407377630E-002   5.0168790680319528E-002
  -2.7953383933095120E-002   7.4454273263826476E-003   6.1658613083694858E-002
  -2.7216307091134248E-002   7.5632754122581802E-003   6.1348650577451133E-002
  -2.6479230249173393E-002   7.5903429283384755E-003   6.1264037506658764E-002
  -2.5742153407212538E-002   7.5266298746234882E-003   6.1404773871317569E-002
  -2.5005076565251663E-002   7.3721362511131039E-003   6.1770859671427786E-002
  -3.5096861216297702E-002   9.6312398466313759E-003   5.8979234934497526E-002
  -3.4141046506183541E-002   9.6330193961153276E-003   5.8631370859980436E-002
  -3.3185231796069380E-002   9.5693179052160800E-003   5.8495633086318610E-002
  -3.2229417085955246E-002   9.4401353739335010E-003   5.8572021613512090E-002
  -3.1273602375841064E-002   9.2454718022677573E-003   5.8860536441560807E-002
  -4.2193497695386398E-002   1.1817052366880132E-002   5.6171138484202521E-002
  -4.1032168251714969E-002   1.1702763379972461E-002   5.5810672370824085E-002
  -3.9870838808043520E-002   1.1548292882093601E-002   5.5649109423704941E-002
  -3.8709509364372091E-002   1.1353640873243641E-002   5.5686449642845096E-002
  -3.7548179920700669E-002   1.1118807353422494E-002   5.5922693028244486E-002
  -4.9243293370361242E-002   1.4002864887128930E-002   5.3234323732809868E-002
  -4.7889672327728505E-002   1.3772507363829616E-002   5.2886555109982178E-002
  -4.6536051285095775E-002   1.3527267858971136E-002   5.2724466518817771E-002
  -4.5182430242463038E-002   1.3267146372553745E-002   5.2748057959316696E-002
  -4.3828809199830288E-002   1.2992142904577189E-002   5.2957329431478919E-002
  -5.6246248241222221E-002   1.6188677407377630E-002   5.0168790680319528E-002
  -5.4713558734224191E-002   1.5842251347686694E-002   4.9859019077454658E-002
  -5.3180869227226167E-002   1.5506242835848737E-002   4.9721704371657134E-002
  -5.1648179720228143E-002   1.5180651871863838E-002   4.9756846562926837E-002
  -5.0115490213230085E-002   1.4865478455731912E-002   4.9964445651263872E-002
  -2.5005076565251663E-002   7.3721362511131039E-003   6.1770859671427786E-002
  -2.4308132893200260E-002   7.1700665124235230E-003   6.1533012900486794E-002
  -2.3611189221148875E-002   6.9636251131707100E-003   6.1450960822889505E-002
  -2.2914245549097479E-002   6.7528120533547863E-003   6.1524703438635878E-002
  -2.2217301877046080E-002   6.5376273329756374E-003   6.1754240747726008E-002
  -3.1273602375841064E-002   9.2454718022677573E-003   5.8860536441560807E-002
  -3.0413291882193987E-002   9.0097125375285941E-003   5.8613669061438320E-002
  -2.9552981388546888E-002   8.7572429270255797E-003   5.8537740631163515E-002
  -2.8692670894899807E-002   8.4880629707588008E-003   5.8632751150736476E-002
  -2.7832360401252709E-002   8.2021726687283580E-003   5.8898700620157118E-002
  -3.7548179920700669E-002   1.1118807353422494E-002   5.5922693028244486E-002
  -3.6509358348953802E-002   1.0849358562633610E-002   5.5654466353739843E-002
  -3.5470536777206949E-002   1.0550860740880401E-002   5.5572322885586979E-002
  -3.4431715205460067E-002   1.0223313888162845E-002   5.5676262623785888E-002
  -3.3392893633713221E-002   9.8667180044809955E-003   5.5966285568336605E-002
  -4.3828809199830288E-002   1.2992142904577189E-002   5.2957329431478919E-002
  -4.2596332293479651E-002   1.2689004587738653E-002   5.2655404777391557E-002
  -4.1363855387129000E-002   1.2344478554735246E-002   5.2554707586160002E-002
  -4.0131378480778336E-002   1.1958564805566903E-002   5.2655237857784296E-002
  -3.8898901574427686E-002   1.1531263340233591E-002   5.2956995592264397E-002
  -5.0115490213230085E-002   1.4865478455731912E-002   4.9964445651263872E-002
  -4.8674213715771589E-002   1.4528650612843724E-002   4.9616484332393185E-002
  -4.7232937218313079E-002   1.4138096368590113E-002   4.9484894732882465E-002
  -4.5791660720854568E-002   1.3693815722970950E-002   4.9569676852731566E-002
  -4.4350384223396058E-002   1.3195808675986354E-002   4.9870830691940593E-002
  -2.2217301877046080E-002   6.5376273329756374E-003   6.1754240747726008E-002
  -2.1224708196941350E-002   6.3111912499662914E-003   6.1300376495603492E-002
  -2.0232114516836625E-002   6.0666241022594020E-003   6.1120157520862778E-002
  -1.9239520836731895E-002   5.8039258898552222E-003   6.1213583823503850E-002
  -1.8246927156627173E-002   5.5230966127537418E-003   6.1580655403526752E-002
  -2.7832360401252709E-002   8.2021726687283580E-003   5.8898700620157118E-002
  -2.6576346758424851E-002   7.9021070287109835E-003   5.8474250647668383E-002
  -2.5320333115597039E-002   7.5904010584838810E-003   5.8302995323244164E-002
  -2.4064319472769182E-002   7.2670547580468633E-003   5.8384934646884358E-002
  -2.2808305829941360E-002   6.9320681274003260E-003   5.8720068618588916E-002
  -3.3392893633713221E-002   9.8667180044809955E-003   5.5966285568336605E-002
  -3.1893910657479638E-002   9.4930228074558004E-003   5.5577740609969256E-002
  -3.0394927681246051E-002   9.1141780147084087E-003   5.5421939670349037E-002
  -2.8895944705012468E-002   8.7301836262387803E-003   5.5498882749475814E-002
  -2.7396961728778854E-002   8.3410396420467992E-003   5.5808569847349748E-002
  -3.8898901574427686E-002   1.1531263340233591E-002   5.2956995592264397E-002
  -3.7177399894105713E-002   1.1083938586200610E-002   5.2610846382506050E-002
  -3.5455898213783733E-002   1.0637954970932912E-002   5.2476990562177382E-002
  -3.3734396533461719E-002   1.0193312494430559E-002   5.2555428131278475E-002
  -3.2012894853139760E-002   9.7500111566934666E-003   5.2846159089809254E-002
  -4.4350384223396058E-002   1.3195808675986354E-002   4.9870830691940593E-002
  -4.2426814468303042E-002   1.2674854364945337E-002   4.9573567965278731E-002
  -4.0503244713210033E-002   1.2161731927157429E-002   4.9468147998729201E-002
  -3.8579674958116997E-002   1.1656441362622342E-002   4.9554570792292002E-002
  -3.6656105203023981E-002   1.1158982671339912E-002   4.9832836345967191E-002
  -1.8246927156627173E-002   5.5230966127537418E-003   6.1580655403526752E-002
  -1.7704070829753879E-002   5.2340162571621884E-003   6.1445449486742132E-002
  -1.7161214502880565E-002   4.9465648092879289E-003   6.1396517681733598E-002
  -1.6618358176007254E-002   4.6607422691312753E-003   6.1433859988501149E-002
  -1.6075501849133950E-002   4.3765486366921236E-003   6.1557476407044787E-002
  -2.2808305829941360E-002   6.9320681274003260E-003   5.8720068618588916E-002
  -2.2167085978563594E-002   6.5891654089152152E-003   5.8568393420134590E-002
  -2.1525866127185857E-002   6.2420708449635598E-003   5.8527171158913094E-002
  -2.0884646275808116E-002   5.8907844355451169E-003   5.8596401834924330E-002
  -2.0243426424430382E-002   5.5353061806599491E-003   5.8776085448168425E-002
  -2.7396961728778854E-002   8.3410396420467992E-003   5.5808569847349748E-002
  -2.6633199527440012E-002   7.9443145606683807E-003   5.5634604614041683E-002
  -2.5869437326101172E-002   7.5375768806390658E-003   5.5595271143423039E-002
  -2.5105675124762313E-002   7.1208266019589551E-003   5.5690569435493810E-002
  -2.4341912923423463E-002   6.6940637246279411E-003   5.5920499490254127E-002
  -3.2012894853139760E-002   9.7500111566934666E-003   5.2846159089809254E-002
  -3.1102411476383131E-002   9.2994637124215324E-003   5.2644083068463195E-002
  -3.0191928099626467E-002   8.8330829163146898E-003   5.2600817635263197E-002
  -2.9281444722869827E-002   8.3508687683728506E-003   5.2716362790209421E-002
  -2.8370961346113176E-002   7.8528212685959609E-003   5.2990718533301694E-002
  -3.6656105203023981E-002   1.1158982671339912E-002   4.9832836345967191E-002
  -3.5574721825392897E-002   1.0654612864174545E-002   4.9596828783399105E-002
  -3.4493338447761784E-002   1.0128588951990161E-002   4.9543810634433916E-002
  -3.3411955070130679E-002   9.5809109347865691E-003   4.9673781899071470E-002
  -3.2330571692499574E-002   9.0115788125638696E-003   4.9986742577311727E-002
  -1.6075501849133950E-002   4.3765486366921236E-003   6.1557476407044787E-002
  -1.4658015921149917E-002   4.0822568799684933E-003   6.1180084841072735E-002
  -1.3240529993165880E-002   3.7661399669593199E-003   6.1340741514559372E-002
  -1.1823044065181849E-002   3.4281978976643881E-003   6.2039446427504863E-002
  -1.0405558137197804E-002   3.0684306720836219E-003   6.3276199579908932E-002
  -2.0243426424430382E-002   5.5353061806599491E-003   5.8776085448168425E-002
  -1.8346449522526769E-002   5.1698732576846429E-003   5.8390803369460731E-002
  -1.6449472620623167E-002   4.7887228439955076E-003   5.8426454999133598E-002
  -1.4552495718719550E-002   4.3918549395927792E-003   5.8883040337186679E-002
  -1.2655518816815960E-002   3.9792695444761383E-003   5.9760559383620460E-002
  -2.4341912923423463E-002   6.6940637246279411E-003   5.5920499490254127E-002
  -2.2082559578678607E-002   6.2574896354007092E-003   5.5533434564382894E-002
  -1.9823206233933775E-002   5.8113057210318481E-003   5.5450188815813789E-002
  -1.7563852889188877E-002   5.3555119815211390E-003   5.5670762244547027E-002
  -1.5304499544444062E-002   4.8901084168687659E-003   5.6195154850581908E-002
  -2.8370961346113176E-002   7.8528212685959609E-003   5.2990718533301694E-002
  -2.5866346089605398E-002   7.3451060131168727E-003   5.2607978425839128E-002
  -2.3361730833097592E-002   6.8338885980680011E-003   5.2411942964600333E-002
  -2.0857115576589775E-002   6.3191690234494589E-003   5.2402612149585082E-002
  -1.8352500320082007E-002   5.8009472892613934E-003   5.2579985980793942E-002
  -3.2330571692499574E-002   9.0115788125638696E-003   4.9986742577311727E-002
  -2.9697809055307167E-002   8.4327223908328697E-003   4.9614434953829667E-002
  -2.7065046418114753E-002   7.8564714751043208E-003   4.9311717445492897E-002
  -2.4432283780922357E-002   7.2828260653778759E-003   4.9078590052301807E-002
  -2.1799521143729905E-002   6.7117861616539098E-003   4.8915052774255896E-002
  -5.7150464655712357E-002   0.0000000000000000        3.4690110723002751E-002
  -5.7941149753363660E-002   2.0838218515726670E-003   3.8343504924597469E-002
  -5.8731834851014984E-002   4.1368076680028763E-003   4.2210194143893993E-002
  -5.9522519948666294E-002   6.1589574492906200E-003   4.6290178380892319E-002
  -6.0313205046317611E-002   8.1502711954359007E-003   5.0583457635592466E-002
  -6.5818319359624206E-002   0.0000000000000000        3.7211045591327652E-002
  -6.6624641271797236E-002   2.9138664361868941E-003   4.0834573400499778E-002
  -6.7430963183970266E-002   5.7702060097357885E-003   4.4213532562926657E-002
  -6.8237285096143296E-002   8.5690187206466858E-003   4.7347923078608273E-002
  -6.9043607008316354E-002   1.1310304568919582E-002   5.0237744947544669E-002
  -7.4242927174844875E-002   0.0000000000000000        4.0575370458014542E-002
  -7.5522749565986702E-002   3.7439110208011225E-003   4.4142341047268545E-002
  -7.6802571957128515E-002   7.4036043514687077E-003   4.7006879325330250E-002
  -7.8082394348270315E-002   1.0979079992002750E-002   4.9168985292199631E-002
  -7.9362216739412128E-002   1.4470337942403258E-002   5.0628658947876701E-002
  -8.2424288101374379E-002   0.0000000000000000        4.4783085323063430E-002
  -8.4635474635932045E-002   4.5739556054153483E-003   4.8266807864903782E-002
  -8.6846661170489683E-002   9.0370026932016199E-003   5.0590234431104768E-002
  -8.9057847705047349E-002   1.3389141263358818E-002   5.1753365021666366E-002
  -9.1269034239605015E-002   1.7630371315886940E-002   5.1756199636588590E-002
  -9.0362402139212705E-002   0.0000000000000000        4.9834190186474309E-002
  -9.3962816481633266E-002   5.4040001900295780E-003   5.3207973853405463E-002
  -9.7563230824053812E-002   1.0670401034934541E-002   5.4963597880250181E-002
 -0.10116364516647436        1.5799202534714882E-002   5.5101062267008463E-002
 -0.10476405950889493        2.0790404689370611E-002   5.3620367013680309E-002
  -6.0313205046317611E-002   8.1502711954359007E-003   5.0583457635592466E-002
  -6.0610016109405827E-002   1.0028863846126597E-002   5.1520341721434840E-002
  -6.0906827172494064E-002   1.1712850341050546E-002   5.2245551132113217E-002
  -6.1203638235582294E-002   1.3202230680207771E-002   5.2759085867627543E-002
  -6.1500449298670511E-002   1.4497004863598263E-002   5.3060945927977853E-002
  -6.9043607008316354E-002   1.1310304568919582E-002   5.0237744947544669E-002
  -6.9314575659429931E-002   1.3754489255692058E-002   4.9458297543363852E-002
  -6.9585544310543535E-002   1.5661998482101678E-002   4.8942209638296340E-002
  -6.9856512961657097E-002   1.7032832248148447E-002   4.8689481232342124E-002
  -7.0127481612770701E-002   1.7866990553832368E-002   4.8700112325501192E-002
  -7.9362216739412128E-002   1.4470337942403258E-002   5.0628658947876701E-002
  -7.9132308804273771E-002   1.7480114665257528E-002   4.7790810749076575E-002
  -7.8902400869135414E-002   1.9611146623152803E-002   4.5691356223667080E-002
  -7.8672492933997043E-002   2.0863433816089134E-002   4.4330295371648176E-002
  -7.8442584998858700E-002   2.1236976244066497E-002   4.3707628193019869E-002
  -9.1269034239605015E-002   1.7630371315886940E-002   5.1756199636588590E-002
  -9.0063215543937356E-002   2.1205740074822978E-002   4.6517881338573035E-002
  -8.8857396848269737E-002   2.3560294764203921E-002   4.2492990888225418E-002
  -8.7651578152602092E-002   2.4694035384029801E-002   3.9681528285545713E-002
  -8.6445759456934446E-002   2.4606961934300640E-002   3.8083493530533960E-002
 -0.10476405950889493        2.0790404689370611E-002   5.3620367013680309E-002
 -0.10210729587842071        2.4931365484388457E-002   4.5639509311853205E-002
  -9.9450532247946491E-002   2.7509442905255047E-002   3.9347113631971360E-002
  -9.6793768617472242E-002   2.8524636951970495E-002   3.4743179974034782E-002
  -9.4137004986998049E-002   2.7976947624534725E-002   3.1827708338043388E-002
  -6.1500449298670511E-002   1.4497004863598263E-002   5.3060945927977853E-002
  -6.0186899034308440E-002   1.5500837726714838E-002   5.1661608750074944E-002
  -5.8873348769946376E-002   1.6117394105050219E-002   5.0713137149497572E-002
  -5.7559798505584278E-002   1.6346673998604521E-002   5.0215531126245799E-002
  -5.6246248241222221E-002   1.6188677407377630E-002   5.0168790680319528E-002
  -7.0127481612770701E-002   1.7866990553832368E-002   4.8700112325501192E-002
  -6.8409352069131707E-002   1.8321418060925142E-002   4.7261386466761479E-002
  -6.6691222525492727E-002   1.8553059431198331E-002   4.6180953589250048E-002
  -6.4973092981853733E-002   1.8561914664652006E-002   4.5458813692966893E-002
  -6.3254963438214767E-002   1.8347983761286185E-002   4.5094966777911964E-002
  -7.8442584998858700E-002   2.1236976244066497E-002   4.3707628193019869E-002
  -7.6412448772040079E-002   2.1141998395135416E-002   4.2394004001404993E-002
  -7.4382312545221457E-002   2.0988724757346432E-002   4.1346100194921132E-002
  -7.2352176318402850E-002   2.0777155330699494E-002   4.0563916773568215E-002
  -7.0322040091584215E-002   2.0507290115194678E-002   4.0047453737346361E-002
  -8.6445759456934446E-002   2.4606961934300640E-002   3.8083493530533960E-002
  -8.4196189143033492E-002   2.3962578729345672E-002   3.7059461354005570E-002
  -8.1946618829132567E-002   2.3424390083494517E-002   3.6208576966510773E-002
  -7.9697048515231586E-002   2.2992395996746993E-002   3.5530840368049779E-002
  -7.7447478201330675E-002   2.2666596469103201E-002   3.5026251558622434E-002
  -9.4137004986998049E-002   2.7976947624534725E-002   3.1827708338043388E-002
  -9.1760573182112046E-002   2.6783159063556005E-002   3.1257758524562966E-002
  -8.9384141377226028E-002   2.5860055409642646E-002   3.0768383904019089E-002
  -8.7007709572340025E-002   2.5207636662794478E-002   3.0359584476411558E-002
  -8.4631277767454022E-002   2.4825902823011697E-002   3.0031360241740412E-002
  -5.6246248241222221E-002   1.6188677407377630E-002   5.0168790680319528E-002
  -5.4713558734224191E-002   1.5842251347686694E-002   4.9859019077454658E-002
  -5.3180869227226167E-002   1.5506242835848737E-002   4.9721704371657134E-002
  -5.1648179720228143E-002   1.5180651871863838E-002   4.9756846562926837E-002
  -5.0115490213230085E-002   1.4865478455731912E-002   4.9964445651263872E-002
  -6.3254963438214767E-002   1.8347983761286185E-002   4.5094966777911964E-002
  -6.1535698933112948E-002   1.8008315783906798E-002   4.4731816588029438E-002
  -5.9816434428011107E-002   1.7639959795319952E-002   4.4569359497287173E-002
  -5.8097169922909302E-002   1.7242915795525629E-002   4.4607595505685167E-002
  -5.6377905417807447E-002   1.6817183784523848E-002   4.4846524613223443E-002
  -7.0322040091584215E-002   2.0507290115194678E-002   4.0047453737346361E-002
  -6.8387964386305608E-002   2.0174380220126912E-002   3.9591819401385599E-002
  -6.6453888681027057E-002   1.9773676754791199E-002   3.9365114366638088E-002
  -6.4519812975748464E-002   1.9305179719187458E-002   3.9367338633103821E-002
  -6.2585737270469843E-002   1.8768889113315881E-002   3.9598492200782924E-002
  -7.7447478201330675E-002   2.2666596469103201E-002   3.5026251558622434E-002
  -7.5270355093802338E-002   2.2340444656347005E-002   3.4439027517523056E-002
  -7.3093231986273974E-002   2.1907393714262372E-002   3.4108968979709907E-002
  -7.0916108878745596E-002   2.1367443642849381E-002   3.4036075945183000E-002
  -6.8738985771217259E-002   2.0720594442107838E-002   3.4220348413942302E-002
  -8.4631277767454022E-002   2.4825902823011697E-002   3.0031360241740412E-002
  -8.2182871055602957E-002   2.4506509092567144E-002   2.9273440936441922E-002
  -7.9734464343751865E-002   2.4041110673733580E-002   2.8800923336502596E-002
  -7.7286057631900787E-002   2.3429707566511131E-002   2.8613807441922427E-002
  -7.4837650920049736E-002   2.2672299770899851E-002   2.8712093252701576E-002
  -5.0115490213230085E-002   1.4865478455731912E-002   4.9964445651263872E-002
  -4.8674213715771589E-002   1.4528650612843724E-002   4.9616484332393185E-002
  -4.7232937218313079E-002   1.4138096368590113E-002   4.9484894732882465E-002
  -4.5791660720854568E-002   1.3693815722970950E-002   4.9569676852731566E-002
  -4.4350384223396058E-002   1.3195808675986354E-002   4.9870830691940593E-002
  -5.6377905417807447E-002   1.6817183784523848E-002   4.4846524613223443E-002
  -5.4731187441386837E-002   1.6361773362287946E-002   4.4500018799556812E-002
  -5.3084469464966179E-002   1.5875694128791001E-002   4.4348024224454635E-002
  -5.1437751488545527E-002   1.5358946084033313E-002   4.4390540887916781E-002
  -4.9791033512124910E-002   1.4811529228014653E-002   4.4627568789943284E-002
  -6.2585737270469843E-002   1.8768889113315881E-002   3.9598492200782924E-002
  -6.0755438295882577E-002   1.8194896111732070E-002   3.9276499482424926E-002
  -5.8925139321295304E-002   1.7613291888991977E-002   3.9127157521835806E-002
  -5.7094840346708045E-002   1.7024076445095650E-002   3.9150466319015510E-002
  -5.5264541372120710E-002   1.6427249780042952E-002   3.9346425873964239E-002
  -6.8738985771217259E-002   2.0720594442107838E-002   3.4220348413942302E-002
  -6.6746966279258871E-002   2.0028018861176243E-002   3.3945926380997520E-002
  -6.4754946787300469E-002   1.9350889649193008E-002   3.3822294625026138E-002
  -6.2762927295342066E-002   1.8689206806158026E-002   3.3849453146028087E-002
  -6.0770907803383685E-002   1.8042970332071279E-002   3.4027401944003471E-002
  -7.4837650920049736E-002   2.2672299770899851E-002   2.8712093252701576E-002
  -7.2705771391515711E-002   2.1861141610620416E-002   2.8508299495274558E-002
  -7.0573891862981672E-002   2.1088487409393883E-002   2.8433435534025553E-002
  -6.8442012334447633E-002   2.0354337167220318E-002   2.8487501368954171E-002
  -6.6310132805913607E-002   1.9658690884099606E-002   2.8670497000060857E-002
  -4.4350384223396058E-002   1.3195808675986354E-002   4.9870830691940593E-002
  -4.2426814468303042E-002   1.2674854364945337E-002   4.9573567965278731E-002
  -4.0503244713210033E-002   1.2161731927157429E-002   4.9468147998729201E-002
  -3.8579674958116997E-002   1.1656441362622342E-002   4.9554570792292002E-002
  -3.6656105203023981E-002   1.1158982671339912E-002   4.9832836345967191E-002
  -4.9791033512124910E-002   1.4811529228014653E-002   4.4627568789943284E-002
  -4.7667565512718092E-002   1.4250101629374456E-002   4.4310742575851214E-002
  -4.5544097513311246E-002   1.3691321356752176E-002   4.4201870090274389E-002
  -4.3420629513904387E-002   1.3135188410147967E-002   4.4300951333212969E-002
  -4.1297161514497568E-002   1.2581702789561444E-002   4.4607986304666586E-002
  -5.5264541372120710E-002   1.6427249780042952E-002   3.9346425873964239E-002
  -5.2925064159997204E-002   1.5825348893803506E-002   3.9004851625207032E-002
  -5.0585586947873636E-002   1.5220910786347026E-002   3.8887342073368004E-002
  -4.8246109735750088E-002   1.4613935457673534E-002   3.8993897218447218E-002
  -4.5906632523626506E-002   1.4004422907782837E-002   3.9324517060444555E-002
  -6.0770907803383685E-002   1.8042970332071279E-002   3.4027401944003471E-002
  -5.8199310410140447E-002   1.7400596158232785E-002   3.3655895113346004E-002
  -5.5627713016897201E-002   1.6750500215941991E-002   3.3524563948009782E-002
  -5.3056115623653984E-002   1.6092682505199130E-002   3.3633408447994728E-002
  -5.0484518230410717E-002   1.5427143026004328E-002   3.3982428613300669E-002
  -6.6310132805913607E-002   1.9658690884099606E-002   2.8670497000060857E-002
  -6.3490304263147807E-002   1.8975843422661620E-002   2.8263873040268422E-002
  -6.0670475720381964E-002   1.8280089645536707E-002   2.8113535714199805E-002
  -5.7850647177616170E-002   1.7571429552724720E-002   2.8219485021855562E-002
  -5.5030818634850348E-002   1.6849863144225707E-002   2.8581720963235080E-002
  -3.6656105203023981E-002   1.1158982671339912E-002   4.9832836345967191E-002
  -3.5574721825392897E-002   1.0654612864174545E-002   4.9596828783399105E-002
  -3.4493338447761784E-002   1.0128588951990161E-002   4.9543810634433916E-002
  -3.3411955070130679E-002   9.5809109347865691E-003   4.9673781899071470E-002
  -3.2330571692499574E-002   9.0115788125638696E-003   4.9986742577311727E-002
  -4.1297161514497568E-002   1.2581702789561444E-002   4.4607986304666586E-002
  -4.0051701704809789E-002   1.2022213877522087E-002   4.4366497055925852E-002
  -3.8806241895121996E-002   1.1448071056559345E-002   4.4270171257695654E-002
  -3.7560782085434195E-002   1.0859274326672920E-002   4.4319008909975914E-002
  -3.6315322275746423E-002   1.0255823687863097E-002   4.4513010012766918E-002
  -4.5906632523626506E-002   1.4004422907782837E-002   3.9324517060444555E-002
  -4.4534922244974226E-002   1.3389814890869586E-002   3.9084546321626529E-002
  -4.3163211966322002E-002   1.2767553161128466E-002   3.8951913070226891E-002
  -4.1791501687669722E-002   1.2137637718559325E-002   3.8926617306245512E-002
  -4.0419791409017497E-002   1.1500068563162269E-002   3.9008659029682563E-002
  -5.0484518230410717E-002   1.5427143026004328E-002   3.3982428613300669E-002
  -4.9024383445886270E-002   1.4757415904217218E-002   3.3750976580501038E-002
  -4.7564248661361802E-002   1.4087035265697673E-002   3.3589036072027491E-002
  -4.6104113876837320E-002   1.3416001110445757E-002   3.3496607087880090E-002
  -4.4643979092312831E-002   1.2744313438461413E-002   3.3473689628058703E-002
  -5.5030818634850348E-002   1.6849863144225707E-002   2.8581720963235080E-002
  -5.3520085307545873E-002   1.6125016917564655E-002   2.8365787832549338E-002
  -5.2009351980241397E-002   1.5406517370266756E-002   2.8181540263097465E-002
  -5.0498618652936894E-002   1.4694364502332021E-002   2.8028978254879586E-002
  -4.8987885325632446E-002   1.3988558313760557E-002   2.7908101807895491E-002
  -3.2330571692499574E-002   9.0115788125638696E-003   4.9986742577311727E-002
  -2.9697809055307167E-002   8.4327223908328697E-003   4.9614434953829667E-002
  -2.7065046418114753E-002   7.8564714751043208E-003   4.9311717445492897E-002
  -2.4432283780922357E-002   7.2828260653778759E-003   4.9078590052301807E-002
  -2.1799521143729905E-002   6.7117861616539098E-003   4.8915052774255896E-002
  -3.6315322275746423E-002   1.0255823687863097E-002   4.4513010012766918E-002
  -3.3558079393015292E-002   9.6421226950580974E-003   4.4074253323121371E-002
  -3.0800836510284098E-002   9.0225749031861563E-003   4.3814867009408065E-002
  -2.8043593627552977E-002   8.3971803122473189E-003   4.3734851071626543E-002
  -2.5286350744821828E-002   7.7659389222416442E-003   4.3834205509776902E-002
  -4.0419791409017497E-002   1.1500068563162269E-002   3.9008659029682563E-002
  -3.7428288019961120E-002   1.0851522999283131E-002   3.8495000968804635E-002
  -3.4436784630904729E-002   1.0188678331267992E-002   3.8270493544645345E-002
  -3.1445281241848345E-002   9.5115345591167896E-003   3.8335136757204527E-002
  -2.8453777852791920E-002   8.8200916828293785E-003   3.8688930606481986E-002
  -4.4643979092312831E-002   1.2744313438461413E-002   3.3473689628058703E-002
  -4.1308434936144708E-002   1.2060923303508206E-002   3.2876677890879155E-002
  -3.7972890779976530E-002   1.1354781759349883E-002   3.2678597051204655E-002
  -3.4637346623808421E-002   1.0625888805986246E-002   3.2879447109035329E-002
  -3.1301802467640166E-002   9.8742444434172238E-003   3.3479228064370453E-002
  -4.8987885325632446E-002   1.3988558313760557E-002   2.7908101807895491E-002
  -4.5198520141566029E-002   1.3270323607733392E-002   2.7219284089344986E-002
  -4.1409154957499597E-002   1.2520885187431774E-002   2.7039177529086245E-002
  -3.7619789773433117E-002   1.1740243052855676E-002   2.7367782127119156E-002
  -3.3830424589366692E-002   1.0928397204004847E-002   2.8205097883443164E-002
  -9.0362402139212705E-002   0.0000000000000000        4.9834190186474309E-002
  -9.3962816481633266E-002   5.4040001900295780E-003   5.3207973853405463E-002
  -9.7563230824053812E-002   1.0670401034934541E-002   5.4963597880250181E-002
 -0.10116364516647436        1.5799202534714882E-002   5.5101062267008463E-002
 -0.10476405950889493        2.0790404689370611E-002   5.3620367013680309E-002
 -0.10329472983678295        0.0000000000000000        5.8662325513665542E-002
 -0.10683205005435220        1.0884885095051101E-002   5.2118303368077629E-002
 -0.11036937027192142        1.9172598796623221E-002   4.7318629112278771E-002
 -0.11390669048949066        2.4863141104716369E-002   4.4263302746269023E-002
 -0.11744401070705988        2.7956512019330523E-002   4.2952324270048310E-002
 -0.12645873174250821        0.0000000000000000        7.4201131770055495E-002
 -0.12657045030535063        1.6365770000072631E-002   5.5279731763594117E-002
 -0.12668216886819303        2.7674796558311905E-002   4.1465187176797355E-002
 -0.12679388743103542        3.3927079674717857E-002   3.2757498009665181E-002
 -0.12690560599387782        3.5122619349290438E-002   2.9156664262197603E-002
 -0.15985440785638855        0.0000000000000000        9.6450608955644140E-002
 -0.15317801723462859        2.1846654905094142E-002   6.2692259039954970E-002
 -0.14650162661286867        3.6176994320000599E-002   3.7403272073805914E-002
 -0.13982523599110872        4.2991018244719320E-002   2.0583648057196941E-002
 -0.13314884536934873        4.2288726679250363E-002   1.2233386990128112E-002
 -0.20348175817842393        0.0000000000000000       0.12541075707043151     
 -0.18665475084218611        2.7327539810115684E-002   7.4355885197160160E-002
 -0.16982774350594829        4.4679192081689280E-002   3.5132883803304427E-002
 -0.15300073616971047        5.2054956814720839E-002   7.7417528888643616E-003
 -0.13617372883347262        4.9454834009210261E-002  -7.8175075461601254E-003
 -0.10476405950889493        2.0790404689370611E-002   5.3620367013680309E-002
 -0.10210729587842071        2.4931365484388457E-002   4.5639509311853205E-002
  -9.9450532247946491E-002   2.7509442905255047E-002   3.9347113631971360E-002
  -9.6793768617472242E-002   2.8524636951970495E-002   3.4743179974034782E-002
  -9.4137004986998049E-002   2.7976947624534725E-002   3.1827708338043388E-002
 -0.11744401070705988        2.7956512019330523E-002   4.2952324270048310E-002
 -0.11348618147062603        2.9427843961112074E-002   3.6697531100413884E-002
 -0.10952835223419215        3.0252269350707302E-002   3.1356407120753521E-002
 -0.10557052299775826        3.0429788188116202E-002   2.6928952331067221E-002
 -0.10161269376132442        2.9960400473338804E-002   2.3415166731354946E-002
 -0.12690560599387782        3.5122619349290438E-002   2.9156664262197603E-002
 -0.12242150398345547        3.3924322437835698E-002   2.5543912446720739E-002
 -0.11793740197303314        3.2995095796159495E-002   2.2070036989246700E-002
 -0.11345329996261082        3.2334939424261890E-002   1.8735037889775673E-002
 -0.10896919795218846        3.1943853322142932E-002   1.5538915148307365E-002
 -0.13314884536934873        4.2288726679250363E-002   1.2233386990128112E-002
 -0.12891326341690917        3.8420800914559308E-002   1.2178653350773744E-002
 -0.12467768146446950        3.5737922241611667E-002   1.1488003237451009E-002
 -0.12044209951202992        3.4240090660407591E-002   1.0161436650160033E-002
 -0.11620651755959030        3.3927306170947046E-002   8.1989535889005916E-003
 -0.13617372883347262        4.9454834009210261E-002  -7.8175075461601254E-003
 -0.13296145977098695        4.2917279391282905E-002  -3.3982461874271612E-003
 -0.12974919070850124        3.8480748687063963E-002  -3.8969413463366305E-004
 -0.12653692164601557        3.6145241896553298E-002   1.2081486122203148E-003
 -0.12332465258352987        3.5910759019751104E-002   1.3952820531347165E-003
  -9.4137004986998049E-002   2.7976947624534725E-002   3.1827708338043388E-002
  -9.1760573182112046E-002   2.6783159063556005E-002   3.1257758524562966E-002
  -8.9384141377226028E-002   2.5860055409642646E-002   3.0768383904019089E-002
  -8.7007709572340025E-002   2.5207636662794478E-002   3.0359584476411558E-002
  -8.4631277767454022E-002   2.4825902823011697E-002   3.0031360241740412E-002
 -0.10161269376132442        2.9960400473338804E-002   2.3415166731354946E-002
  -9.9142525991799318E-002   2.9191326487205065E-002   2.3136671731308935E-002
  -9.6672358222274227E-002   2.8469786510544673E-002   2.2965073467604631E-002
  -9.4202190452749163E-002   2.7795780543357847E-002   2.2900371940242078E-002
  -9.1732022683224015E-002   2.7169308585644425E-002   2.2942567149221313E-002
 -0.10896919795218846        3.1943853322142932E-002   1.5538915148307365E-002
 -0.10637897267461895        3.1599493910854017E-002   1.5328724064103757E-002
 -0.10378874739704944        3.1079517611446811E-002   1.5251751259647402E-002
 -0.10119852211947991        3.0383924423921162E-002   1.5307996734938007E-002
  -9.8608296841910414E-002   2.9512714348277222E-002   1.5497460489975752E-002
 -0.11620651755959030        3.3927306170947046E-002   8.1989535889005916E-003
 -0.11346991323057101        3.4007661334503073E-002   7.8339155229476716E-003
 -0.11073330890155172        3.3689248712348907E-002   7.6284172801472511E-003
 -0.10799670457253246        3.2972068304484597E-002   7.5824588604992312E-003
 -0.10526010024351316        3.1856120110909901E-002   7.6960402640035615E-003
 -0.12332465258352987        3.5910759019751104E-002   1.3952820531347165E-003
 -0.12041534765965545        3.6415828758152080E-002   6.5224610784063441E-004
 -0.11750604273578105        3.6298979813250948E-002   9.5071529104248653E-005
 -0.11459673781190666        3.5560212185047839E-002  -2.7624168307426381E-004
 -0.11168743288803223        3.4199525873542691E-002  -4.6169352869496194E-004
  -8.4631277767454022E-002   2.4825902823011697E-002   3.0031360241740412E-002
  -8.2182871055602957E-002   2.4506509092567144E-002   2.9273440936441922E-002
  -7.9734464343751865E-002   2.4041110673733580E-002   2.8800923336502596E-002
  -7.7286057631900787E-002   2.3429707566511131E-002   2.8613807441922427E-002
  -7.4837650920049736E-002   2.2672299770899851E-002   2.8712093252701576E-002
  -9.1732022683224015E-002   2.7169308585644425E-002   2.2942567149221313E-002
  -8.9025301882534408E-002   2.6545313381329032E-002   2.2287738388952642E-002
  -8.6318581081844731E-002   2.5878737674336225E-002   2.1864136101001956E-002
  -8.3611860281155040E-002   2.5169581464665938E-002   2.1671760285369161E-002
  -8.0905139480465404E-002   2.4417844752318202E-002   2.1710610942054370E-002
  -9.8608296841910414E-002   2.9512714348277222E-002   1.5497460489975752E-002
  -9.5697437185423437E-002   2.8584117670091010E-002   1.5049146460448415E-002
  -9.2786577528936418E-002   2.7716364674938865E-002   1.4777883670197712E-002
  -8.9875717872449454E-002   2.6909455362820797E-002   1.4683672119223766E-002
  -8.6964858215962421E-002   2.6163389733736525E-002   1.4766511807526569E-002
 -0.10526010024351316        3.1856120110909901E-002   7.6960402640035615E-003
 -0.10219927696427007        3.0622921958853012E-002   7.5576651509290261E-003
  -9.9138453685026995E-002   2.9553991675541479E-002   7.5421660440899126E-003
  -9.6077630405783931E-002   2.8649329260975562E-002   7.6495429434863330E-003
  -9.3016807126540826E-002   2.7908934715155001E-002   7.8797958491179133E-003
 -0.11168743288803223        3.4199525873542691E-002  -4.6169352869496194E-004
 -0.10853082121907431        3.2661726247614903E-002  -1.8670553960525860E-004
 -0.10537420955011639        3.1391618676144081E-002   1.5698322267868048E-004
 -0.10221759788115850        3.0389203159130362E-002   5.6937275815650140E-004
  -9.9060986212200552E-002   2.9654479696573255E-002   1.0504630668288772E-003
  -7.4837650920049736E-002   2.2672299770899851E-002   2.8712093252701576E-002
  -7.2705771391515711E-002   2.1861141610620416E-002   2.8508299495274558E-002
  -7.0573891862981672E-002   2.1088487409393883E-002   2.8433435534025553E-002
  -6.8442012334447633E-002   2.0354337167220318E-002   2.8487501368954171E-002
  -6.6310132805913607E-002   1.9658690884099606E-002   2.8670497000060857E-002
  -8.0905139480465404E-002   2.4417844752318202E-002   2.1710610942054370E-002
  -7.8638490033333813E-002   2.3643418639837155E-002   2.1538279962697526E-002
  -7.6371840586202208E-002   2.2866194229766892E-002   2.1506559024357885E-002
  -7.4105191139070603E-002   2.2086171522107362E-002   2.1615448127035537E-002
  -7.1838541691938998E-002   2.1303350516858582E-002   2.1864947270730378E-002
  -8.6964858215962421E-002   2.6163389733736525E-002   1.4766511807526569E-002
  -8.4551758605393879E-002   2.5425695669053811E-002   1.4584341349597713E-002
  -8.2138658994825392E-002   2.4643901050139881E-002   1.4554461177525423E-002
  -7.9725559384256864E-002   2.3818005876994383E-002   1.4676871291309877E-002
  -7.7312459773688336E-002   2.2948010149617476E-002   1.4951571690950738E-002
  -9.3016807126540826E-002   2.7908934715155001E-002   7.8797958491179133E-003
  -9.0445577107696018E-002   2.7207972698270536E-002   7.6464836559750546E-003
  -8.7874347088851237E-002   2.6421607870512714E-002   7.5771419935281824E-003
  -8.5303117070006443E-002   2.5549840231881359E-002   7.6717708617771224E-003
  -8.2731887051161634E-002   2.4592669782376467E-002   7.9303702607222588E-003
  -9.9060986212200552E-002   2.9654479696573255E-002   1.0504630668288772E-003
  -9.6319945540240093E-002   2.8990249727487150E-002   7.2470688182982301E-004
  -9.3578904868279716E-002   2.8199314690885699E-002   5.7460147236590431E-004
  -9.0837864196319271E-002   2.7281674586768428E-002   6.0014683843776645E-004
  -8.8096823524358880E-002   2.6237329415135457E-002   8.0134298004441717E-004
  -6.6310132805913607E-002   1.9658690884099606E-002   2.8670497000060857E-002
  -6.3490304263147807E-002   1.8975843422661620E-002   2.8263873040268422E-002
  -6.0670475720381964E-002   1.8280089645536707E-002   2.8113535714199805E-002
  -5.7850647177616170E-002   1.7571429552724720E-002   2.8219485021855562E-002
  -5.5030818634850348E-002   1.6849863144225707E-002   2.8581720963235080E-002
  -7.1838541691938998E-002   2.1303350516858582E-002   2.1864947270730378E-002
  -6.8776109699009921E-002   2.0525400005618408E-002   2.1498947416612693E-002
  -6.5713677706080859E-002   1.9759988779984562E-002   2.1361867829097728E-002
  -6.2651245713151754E-002   1.9007116839957060E-002   2.1453708508184982E-002
  -5.9588813720222761E-002   1.8266784185535678E-002   2.1774469453874956E-002
  -7.7312459773688336E-002   2.2948010149617476E-002   1.4951571690950738E-002
  -7.4034790697717581E-002   2.2074956588575029E-002   1.4651641543801490E-002
  -7.0757121621746785E-002   2.1239887914432362E-002   1.4553265296133155E-002
  -6.7479452545776003E-002   2.0442804127189181E-002   1.4656442947945672E-002
  -6.4201783469805221E-002   1.9683705226845788E-002   1.4961174499239227E-002
  -8.2731887051161634E-002   2.4592669782376467E-002   7.9303702607222588E-003
  -7.9266347259270717E-002   2.3624513171531705E-002   7.7219554218345438E-003
  -7.5800807467379799E-002   2.2719787048879968E-002   7.6877281153062728E-003
  -7.2335267675488854E-002   2.1878491414421247E-002   7.8276883411374249E-003
  -6.8869727883597978E-002   2.1100626268155884E-002   8.1418360993280627E-003
  -8.8096823524358880E-002   2.6237329415135457E-002   8.0134298004441717E-004
  -8.4470779383669314E-002   2.5174069754488548E-002   7.0988905071184272E-004
  -8.0844735242979859E-002   2.4199686183327934E-002   7.6525628661736067E-004
  -7.7218691102290321E-002   2.3314178701653789E-002   9.6744468776032572E-004
  -7.3592646961600838E-002   2.2517547309465868E-002   1.3164542541413971E-003
  -5.5030818634850348E-002   1.6849863144225707E-002   2.8581720963235080E-002
  -5.3520085307545873E-002   1.6125016917564655E-002   2.8365787832549338E-002
  -5.2009351980241397E-002   1.5406517370266756E-002   2.8181540263097465E-002
  -5.0498618652936894E-002   1.4694364502332021E-002   2.8028978254879586E-002
  -4.8987885325632446E-002   1.3988558313760557E-002   2.7908101807895491E-002
  -5.9588813720222761E-002   1.8266784185535678E-002   2.1774469453874956E-002
  -5.8011523590403749E-002   1.7524899737630439E-002   2.1533784803653977E-002
  -5.6434233460584723E-002   1.6767372417150914E-002   2.1394528197228216E-002
  -5.4856943330765733E-002   1.5994202224096820E-002   2.1356699634597513E-002
  -5.3279653200946742E-002   1.5205389158468474E-002   2.1420299115762098E-002
  -6.4201783469805221E-002   1.9683705226845788E-002   1.4961174499239227E-002
  -6.2488194054910448E-002   1.8924782557696376E-002   1.4673748777545653E-002
  -6.0774604640015738E-002   1.8128227464035022E-002   1.4557493582208342E-002
  -5.9061015225120944E-002   1.7294039945861733E-002   1.4612408913227622E-002
  -5.7347425810226262E-002   1.6422220003176669E-002   1.4838494770603172E-002
  -6.8869727883597978E-002   2.1100626268155884E-002   8.1418360993280627E-003
  -6.6950096701066164E-002   2.0324665377762292E-002   7.7856797542242319E-003
  -6.5030465518534392E-002   1.9489082510919211E-002   7.6704364180381294E-003
  -6.3110834336002591E-002   1.8593877667626421E-002   7.7961060907694854E-003
  -6.1191203153470805E-002   1.7639050847884835E-002   8.1626887724187969E-003
  -7.3592646961600838E-002   2.2517547309465868E-002   1.3164542541413971E-003
  -7.1397231528870786E-002   2.1724548197828042E-002   8.6957773368961933E-004
  -6.9201816096140734E-002   2.0849937557803205E-002   7.3335670471733061E-004
  -6.7006400663410653E-002   1.9893715389391310E-002   9.0779116722328884E-004
  -6.4810985230680629E-002   1.8855881692592669E-002   1.3928811212086112E-003
  -4.8987885325632446E-002   1.3988558313760557E-002   2.7908101807895491E-002
  -4.5198520141566029E-002   1.3270323607733392E-002   2.7219284089344986E-002
  -4.1409154957499597E-002   1.2520885187431774E-002   2.7039177529086245E-002
  -3.7619789773433117E-002   1.1740243052855676E-002   2.7367782127119156E-002
  -3.3830424589366692E-002   1.0928397204004847E-002   2.8205097883443164E-002
  -5.3279653200946742E-002   1.5205389158468474E-002   2.1420299115762098E-002
  -4.9078605905154185E-002   1.4411674556555121E-002   2.0845765659546045E-002
  -4.4877558609361573E-002   1.3623799754645533E-002   2.0585885268490534E-002
  -4.0676511313568989E-002   1.2841764752740618E-002   2.0640657942595897E-002
  -3.6475464017776404E-002   1.2065569550839372E-002   2.1010083681861857E-002
  -5.7347425810226262E-002   1.6422220003176669E-002   1.4838494770603172E-002
  -5.2928754495838302E-002   1.5553025505376739E-002   1.4415289090999844E-002
  -4.8510083181450378E-002   1.4726714321859846E-002   1.4112678383426489E-002
  -4.4091411867062433E-002   1.3943286452625644E-002   1.3930662647883237E-002
  -3.9672740552674501E-002   1.3202741897674009E-002   1.3869241884369554E-002
  -6.1191203153470805E-002   1.7639050847884835E-002   8.1626887724187969E-003
  -5.6748965913618450E-002   1.6694376454198689E-002   7.9278543837070642E-003
  -5.2306728673765977E-002   1.5829628889073938E-002   7.6195568738941649E-003
  -4.7864491433913532E-002   1.5044808152510629E-002   7.2377962429806576E-003
  -4.3422254194061136E-002   1.4339914244508589E-002   6.7825724909659768E-003
  -6.4810985230680629E-002   1.8855881692592669E-002   1.3928811212086112E-003
  -6.0539240158494545E-002   1.7835727403020418E-002   1.3834615376669968E-003
  -5.6267495086308350E-002   1.6932543456287891E-002   1.1065207398934240E-003
  -5.1995750014122294E-002   1.6146329852396051E-002   5.6205872788807343E-004
  -4.7724004941936071E-002   1.5477086591343170E-002  -2.4992449834870811E-004
 </DataArray>
 </PointData>
 </Piece>
 <Piece  NumberOfPoints="          1600 "  NumberOfCells="         1024 ">
 <Points>
 <DataArray  type="Float64" NumberOfComponents="3"  format="ascii" >
  0.50000000000000000        0.0000000000000000        0.0000000000000000     
  0.53125000000000000        0.0000000000000000        0.0000000000000000     
  0.56250000000000000        0.0000000000000000        0.0000000000000000     
  0.59375000000000000        0.0000000000000000        0.0000000000000000     
  0.62500000000000000        0.0000000000000000        0.0000000000000000     
  0.50000000000000000        3.1250000000000000E-002   0.0000000000000000     
  0.53125000000000000        3.1250000000000000E-002   0.0000000000000000     
  0.56250000000000000        3.1250000000000000E-002   0.0000000000000000     
  0.59375000000000000        3.1250000000000000E-002   0.0000000000000000     
  0.62500000000000000        3.1250000000000000E-002   0.0000000000000000     
  0.50000000000000000        6.2500000000000000E-002   0.0000000000000000     
  0.53125000000000000        6.2500000000000000E-002   0.0000000000000000     
  0.56250000000000000        6.2500000000000000E-002   0.0000000000000000     
  0.59375000000000000        6.2500000000000000E-002   0.0000000000000000     
  0.62500000000000000        6.2500000000000000E-002   0.0000000000000000     
  0.50000000000000000        9.3750000000000000E-002   0.0000000000000000     
  0.53125000000000000        9.3750000000000000E-002   0.0000000000000000     
  0.56250000000000000        9.3750000000000000E-002   0.0000000000000000     
  0.59375000000000000        9.3750000000000000E-002   0.0000000000000000     
  0.62500000000000000        9.3750000000000000E-002   0.0000000000000000     
  0.50000000000000000       0.12500000000000000        0.0000000000000000     
  0.53125000000000000       0.12500000000000000        0.0000000000000000     
  0.56250000000000000       0.12500000000000000        0.0000000000000000     
  0.59375000000000000       0.12500000000000000        0.0000000000000000     
  0.62500000000000000       0.12500000000000000        0.0000000000000000     
  0.62500000000000000        0.0000000000000000        0.0000000000000000     
  0.65625000000000000        0.0000000000000000        0.0000000000000000     
  0.68750000000000000        0.0000000000000000        0.0000000000000000     
  0.71875000000000000        0.0000000000000000        0.0000000000000000     
  0.75000000000000000        0.0000000000000000        0.0000000000000000     
  0.62500000000000000        3.1250000000000000E-002   0.0000000000000000     
  0.65625000000000000        3.1250000000000000E-002   0.0000000000000000     
  0.68750000000000000        3.1250000000000000E-002   0.0000000000000000     
  0.71875000000000000        3.1250000000000000E-002   0.0000000000000000     
  0.75000000000000000        3.1250000000000000E-002   0.0000000000000000     
  0.62500000000000000        6.2500000000000000E-002   0.0000000000000000     
  0.65625000000000000        6.2500000000000000E-002   0.0000000000000000     
  0.68750000000000000        6.2500000000000000E-002   0.0000000000000000     
  0.71875000000000000        6.2500000000000000E-002   0.0000000000000000     
  0.75000000000000000        6.2500000000000000E-002   0.0000000000000000     
  0.62500000000000000        9.3750000000000000E-002   0.0000000000000000     
  0.65625000000000000        9.3750000000000000E-002   0.0000000000000000     
  0.68750000000000000        9.3750000000000000E-002   0.0000000000000000     
  0.71875000000000000        9.3750000000000000E-002   0.0000000000000000     
  0.75000000000000000        9.3750000000000000E-002   0.0000000000000000     
  0.62500000000000000       0.12500000000000000        0.0000000000000000     
  0.65625000000000000       0.12500000000000000        0.0000000000000000     
  0.68750000000000000       0.12500000000000000        0.0000000000000000     
  0.71875000000000000       0.12500000000000000        0.0000000000000000     
  0.75000000000000000       0.12500000000000000        0.0000000000000000     
  0.75000000000000000        0.0000000000000000        0.0000000000000000     
  0.78125000000000000        0.0000000000000000        0.0000000000000000     
  0.81250000000000000        0.0000000000000000        0.0000000000000000     
  0.84375000000000000        0.0000000000000000        0.0000000000000000     
  0.87500000000000000        0.0000000000000000        0.0000000000000000     
  0.75000000000000000        3.1250000000000000E-002   0.0000000000000000     
  0.78125000000000000        3.1250000000000000E-002   0.0000000000000000     
  0.81250000000000000        3.1250000000000000E-002   0.0000000000000000     
  0.84375000000000000        3.1250000000000000E-002   0.0000000000000000     
  0.87500000000000000        3.1250000000000000E-002   0.0000000000000000     
  0.75000000000000000        6.2500000000000000E-002   0.0000000000000000     
  0.78125000000000000        6.2500000000000000E-002   0.0000000000000000     
  0.81250000000000000        6.2500000000000000E-002   0.0000000000000000     
  0.84375000000000000        6.2500000000000000E-002   0.0000000000000000     
  0.87500000000000000        6.2500000000000000E-002   0.0000000000000000     
  0.75000000000000000        9.3750000000000000E-002   0.0000000000000000     
  0.78125000000000000        9.3750000000000000E-002   0.0000000000000000     
  0.81250000000000000        9.3750000000000000E-002   0.0000000000000000     
  0.84375000000000000        9.3750000000000000E-002   0.0000000000000000     
  0.87500000000000000        9.3750000000000000E-002   0.0000000000000000     
  0.75000000000000000       0.12500000000000000        0.0000000000000000     
  0.78125000000000000       0.12500000000000000        0.0000000000000000     
  0.81250000000000000       0.12500000000000000        0.0000000000000000     
  0.84375000000000000       0.12500000000000000        0.0000000000000000     
  0.87500000000000000       0.12500000000000000        0.0000000000000000     
  0.87500000000000000        0.0000000000000000        0.0000000000000000     
  0.90625000000000000        0.0000000000000000        0.0000000000000000     
  0.93750000000000000        0.0000000000000000        0.0000000000000000     
  0.96875000000000000        0.0000000000000000        0.0000000000000000     
   1.0000000000000000        0.0000000000000000        0.0000000000000000     
  0.87500000000000000        3.1250000000000000E-002   0.0000000000000000     
  0.90625000000000000        3.1250000000000000E-002   0.0000000000000000     
  0.93750000000000000        3.1250000000000000E-002   0.0000000000000000     
  0.96875000000000000        3.1250000000000000E-002   0.0000000000000000     
   1.0000000000000000        3.1250000000000000E-002   0.0000000000000000     
  0.87500000000000000        6.2500000000000000E-002   0.0000000000000000     
  0.90625000000000000        6.2500000000000000E-002   0.0000000000000000     
  0.93750000000000000        6.2500000000000000E-002   0.0000000000000000     
  0.96875000000000000        6.2500000000000000E-002   0.0000000000000000     
   1.0000000000000000        6.2500000000000000E-002   0.0000000000000000     
  0.87500000000000000        9.3750000000000000E-002   0.0000000000000000     
  0.90625000000000000        9.3750000000000000E-002   0.0000000000000000     
  0.93750000000000000        9.3750000000000000E-002   0.0000000000000000     
  0.96875000000000000        9.3750000000000000E-002   0.0000000000000000     
   1.0000000000000000        9.3750000000000000E-002   0.0000000000000000     
  0.87500000000000000       0.12500000000000000        0.0000000000000000     
  0.90625000000000000       0.12500000000000000        0.0000000000000000     
  0.93750000000000000       0.12500000000000000        0.0000000000000000     
  0.96875000000000000       0.12500000000000000        0.0000000000000000     
   1.0000000000000000       0.12500000000000000        0.0000000000000000     
   1.0000000000000000        0.0000000000000000        0.0000000000000000     
   1.0312500000000000        0.0000000000000000        0.0000000000000000     
   1.0625000000000000        0.0000000000000000        0.0000000000000000     
   1.0937500000000000        0.0000000000000000        0.0000000000000000     
   1.1250000000000000        0.0000000000000000        0.0000000000000000     
   1.0000000000000000        3.1250000000000000E-002   0.0000000000000000     
   1.0312500000000000        3.1250000000000000E-002   0.0000000000000000     
   1.0625000000000000        3.1250000000000000E-002   0.0000000000000000     
   1.0937500000000000        3.1250000000000000E-002   0.0000000000000000     
   1.1250000000000000        3.1250000000000000E-002   0.0000000000000000     
   1.0000000000000000        6.2500000000000000E-002   0.0000000000000000     
   1.0312500000000000        6.2500000000000000E-002   0.0000000000000000     
   1.0625000000000000        6.2500000000000000E-002   0.0000000000000000     
   1.0937500000000000        6.2500000000000000E-002   0.0000000000000000     
   1.1250000000000000        6.2500000000000000E-002   0.0000000000000000     
   1.0000000000000000        9.3750000000000000E-002   0.0000000000000000     
   1.0312500000000000        9.3750000000000000E-002   0.0000000000000000     
   1.0625000000000000        9.3750000000000000E-002   0.0000000000000000     
   1.0937500000000000        9.3750000000000000E-002   0.0000000000000000     
   1.1250000000000000        9.3750000000000000E-002   0.0000000000000000     
   1.0000000000000000       0.12500000000000000        0.0000000000000000     
   1.0312500000000000       0.12500000000000000        0.0000000000000000     
   1.0625000000000000       0.12500000000000000        0.0000000000000000     
   1.0937500000000000       0.12500000000000000        0.0000000000000000     
   1.1250000000000000       0.12500000000000000        0.0000000000000000     
   1.1250000000000000        0.0000000000000000        0.0000000000000000     
   1.1562500000000000        0.0000000000000000        0.0000000000000000     
   1.1875000000000000        0.0000000000000000        0.0000000000000000     
   1.2187500000000000        0.0000000000000000        0.0000000000000000     
   1.2500000000000000        0.0000000000000000        0.0000000000000000     
   1.1250000000000000        3.1250000000000000E-002   0.0000000000000000     
   1.1562500000000000        3.1250000000000000E-002   0.0000000000000000     
   1.1875000000000000        3.1250000000000000E-002   0.0000000000000000     
   1.2187500000000000        3.1250000000000000E-002   0.0000000000000000     
   1.2500000000000000        3.1250000000000000E-002   0.0000000000000000     
   1.1250000000000000        6.2500000000000000E-002   0.0000000000000000     
   1.1562500000000000        6.2500000000000000E-002   0.0000000000000000     
   1.1875000000000000        6.2500000000000000E-002   0.0000000000000000     
   1.2187500000000000        6.2500000000000000E-002   0.0000000000000000     
   1.2500000000000000        6.2500000000000000E-002   0.0000000000000000     
   1.1250000000000000        9.3750000000000000E-002   0.0000000000000000     
   1.1562500000000000        9.3750000000000000E-002   0.0000000000000000     
   1.1875000000000000        9.3750000000000000E-002   0.0000000000000000     
   1.2187500000000000        9.3750000000000000E-002   0.0000000000000000     
   1.2500000000000000        9.3750000000000000E-002   0.0000000000000000     
   1.1250000000000000       0.12500000000000000        0.0000000000000000     
   1.1562500000000000       0.12500000000000000        0.0000000000000000     
   1.1875000000000000       0.12500000000000000        0.0000000000000000     
   1.2187500000000000       0.12500000000000000        0.0000000000000000     
   1.2500000000000000       0.12500000000000000        0.0000000000000000     
   1.2500000000000000        0.0000000000000000        0.0000000000000000     
   1.2812500000000000        0.0000000000000000        0.0000000000000000     
   1.3125000000000000        0.0000000000000000        0.0000000000000000     
   1.3437500000000000        0.0000000000000000        0.0000000000000000     
   1.3750000000000000        0.0000000000000000        0.0000000000000000     
   1.2500000000000000        3.1250000000000000E-002   0.0000000000000000     
   1.2812500000000000        3.1250000000000000E-002   0.0000000000000000     
   1.3125000000000000        3.1250000000000000E-002   0.0000000000000000     
   1.3437500000000000        3.1250000000000000E-002   0.0000000000000000     
   1.3750000000000000        3.1250000000000000E-002   0.0000000000000000     
   1.2500000000000000        6.2500000000000000E-002   0.0000000000000000     
   1.2812500000000000        6.2500000000000000E-002   0.0000000000000000     
   1.3125000000000000        6.2500000000000000E-002   0.0000000000000000     
   1.3437500000000000        6.2500000000000000E-002   0.0000000000000000     
   1.3750000000000000        6.2500000000000000E-002   0.0000000000000000     
   1.2500000000000000        9.3750000000000000E-002   0.0000000000000000     
   1.2812500000000000        9.3750000000000000E-002   0.0000000000000000     
   1.3125000000000000        9.3750000000000000E-002   0.0000000000000000     
   1.3437500000000000        9.3750000000000000E-002   0.0000000000000000     
   1.3750000000000000        9.3750000000000000E-002   0.0000000000000000     
   1.2500000000000000       0.12500000000000000        0.0000000000000000     
   1.2812500000000000       0.12500000000000000        0.0000000000000000     
   1.3125000000000000       0.12500000000000000        0.0000000000000000     
   1.3437500000000000       0.12500000000000000        0.0000000000000000     
   1.3750000000000000       0.12500000000000000        0.0000000000000000     
   1.3750000000000000        0.0000000000000000        0.0000000000000000     
   1.4062500000000000        0.0000000000000000        0.0000000000000000     
   1.4375000000000000        0.0000000000000000        0.0000000000000000     
   1.4687500000000000        0.0000000000000000        0.0000000000000000     
   1.5000000000000000        0.0000000000000000        0.0000000000000000     
   1.3750000000000000        3.1250000000000000E-002   0.0000000000000000     
   1.4062500000000000        3.1250000000000000E-002   0.0000000000000000     
   1.4375000000000000        3.1250000000000000E-002   0.0000000000000000     
   1.4687500000000000        3.1250000000000000E-002   0.0000000000000000     
   1.5000000000000000        3.1250000000000000E-002   0.0000000000000000     
   1.3750000000000000        6.2500000000000000E-002   0.0000000000000000     
   1.4062500000000000        6.2500000000000000E-002   0.0000000000000000     
   1.4375000000000000        6.2500000000000000E-002   0.0000000000000000     
   1.4687500000000000        6.2500000000000000E-002   0.0000000000000000     
   1.5000000000000000        6.2500000000000000E-002   0.0000000000000000     
   1.3750000000000000        9.3750000000000000E-002   0.0000000000000000     
   1.4062500000000000        9.3750000000000000E-002   0.0000000000000000     
   1.4375000000000000        9.3750000000000000E-002   0.0000000000000000     
   1.4687500000000000        9.3750000000000000E-002   0.0000000000000000     
   1.5000000000000000        9.3750000000000000E-002   0.0000000000000000     
   1.3750000000000000       0.12500000000000000        0.0000000000000000     
   1.4062500000000000       0.12500000000000000        0.0000000000000000     
   1.4375000000000000       0.12500000000000000        0.0000000000000000     
   1.4687500000000000       0.12500000000000000        0.0000000000000000     
   1.5000000000000000       0.12500000000000000        0.0000000000000000     
  0.50000000000000000       0.12500000000000000        0.0000000000000000     
  0.53125000000000000       0.12500000000000000        0.0000000000000000     
  0.56250000000000000       0.12500000000000000        0.0000000000000000     
  0.59375000000000000       0.12500000000000000        0.0000000000000000     
  0.62500000000000000       0.12500000000000000        0.0000000000000000     
  0.50000000000000000       0.15625000000000000        0.0000000000000000     
  0.53125000000000000       0.15625000000000000        0.0000000000000000     
  0.56250000000000000       0.15625000000000000        0.0000000000000000     
  0.59375000000000000       0.15625000000000000        0.0000000000000000     
  0.62500000000000000       0.15625000000000000        0.0000000000000000     
  0.50000000000000000       0.18750000000000000        0.0000000000000000     
  0.53125000000000000       0.18750000000000000        0.0000000000000000     
  0.56250000000000000       0.18750000000000000        0.0000000000000000     
  0.59375000000000000       0.18750000000000000        0.0000000000000000     
  0.62500000000000000       0.18750000000000000        0.0000000000000000     
  0.50000000000000000       0.21875000000000000        0.0000000000000000     
  0.53125000000000000       0.21875000000000000        0.0000000000000000     
  0.56250000000000000       0.21875000000000000        0.0000000000000000     
  0.59375000000000000       0.21875000000000000        0.0000000000000000     
  0.62500000000000000       0.21875000000000000        0.0000000000000000     
  0.50000000000000000       0.25000000000000000        0.0000000000000000     
  0.53125000000000000       0.25000000000000000        0.0000000000000000     
  0.56250000000000000       0.25000000000000000        0.0000000000000000     
  0.59375000000000000       0.25000000000000000        0.0000000000000000     
  0.62500000000000000       0.25000000000000000        0.0000000000000000     
  0.62500000000000000       0.12500000000000000        0.0000000000000000     
  0.65625000000000000       0.12500000000000000        0.0000000000000000     
  0.68750000000000000       0.12500000000000000        0.0000000000000000     
  0.71875000000000000       0.12500000000000000        0.0000000000000000     
  0.75000000000000000       0.12500000000000000        0.0000000000000000     
  0.62500000000000000       0.15625000000000000        0.0000000000000000     
  0.65625000000000000       0.15625000000000000        0.0000000000000000     
  0.68750000000000000       0.15625000000000000        0.0000000000000000     
  0.71875000000000000       0.15625000000000000        0.0000000000000000     
  0.75000000000000000       0.15625000000000000        0.0000000000000000     
  0.62500000000000000       0.18750000000000000        0.0000000000000000     
  0.65625000000000000       0.18750000000000000        0.0000000000000000     
  0.68750000000000000       0.18750000000000000        0.0000000000000000     
  0.71875000000000000       0.18750000000000000        0.0000000000000000     
  0.75000000000000000       0.18750000000000000        0.0000000000000000     
  0.62500000000000000       0.21875000000000000        0.0000000000000000     
  0.65625000000000000       0.21875000000000000        0.0000000000000000     
  0.68750000000000000       0.21875000000000000        0.0000000000000000     
  0.71875000000000000       0.21875000000000000        0.0000000000000000     
  0.75000000000000000       0.21875000000000000        0.0000000000000000     
  0.62500000000000000       0.25000000000000000        0.0000000000000000     
  0.65625000000000000       0.25000000000000000        0.0000000000000000     
  0.68750000000000000       0.25000000000000000        0.0000000000000000     
  0.71875000000000000       0.25000000000000000        0.0000000000000000     
  0.75000000000000000       0.25000000000000000        0.0000000000000000     
  0.75000000000000000       0.12500000000000000        0.0000000000000000     
  0.78125000000000000       0.12500000000000000        0.0000000000000000     
  0.81250000000000000       0.12500000000000000        0.0000000000000000     
  0.84375000000000000       0.12500000000000000        0.0000000000000000     
  0.87500000000000000       0.12500000000000000        0.0000000000000000     
  0.75000000000000000       0.15625000000000000        0.0000000000000000     
  0.78125000000000000       0.15625000000000000        0.0000000000000000     
  0.81250000000000000       0.15625000000000000        0.0000000000000000     
  0.84375000000000000       0.15625000000000000        0.0000000000000000     
  0.87500000000000000       0.15625000000000000        0.0000000000000000     
  0.75000000000000000       0.18750000000000000        0.0000000000000000     
  0.78125000000000000       0.18750000000000000        0.0000000000000000     
  0.81250000000000000       0.18750000000000000        0.0000000000000000     
  0.84375000000000000       0.18750000000000000        0.0000000000000000     
  0.87500000000000000       0.18750000000000000        0.0000000000000000     
  0.75000000000000000       0.21875000000000000        0.0000000000000000     
  0.78125000000000000       0.21875000000000000        0.0000000000000000     
  0.81250000000000000       0.21875000000000000        0.0000000000000000     
  0.84375000000000000       0.21875000000000000        0.0000000000000000     
  0.87500000000000000       0.21875000000000000        0.0000000000000000     
  0.75000000000000000       0.25000000000000000        0.0000000000000000     
  0.78125000000000000       0.25000000000000000        0.0000000000000000     
  0.81250000000000000       0.25000000000000000        0.0000000000000000     
  0.84375000000000000       0.25000000000000000        0.0000000000000000     
  0.87500000000000000       0.25000000000000000        0.0000000000000000     
  0.87500000000000000       0.12500000000000000        0.0000000000000000     
  0.90625000000000000       0.12500000000000000        0.0000000000000000     
  0.93750000000000000       0.12500000000000000        0.0000000000000000     
  0.96875000000000000       0.12500000000000000        0.0000000000000000     
   1.0000000000000000       0.12500000000000000        0.0000000000000000     
  0.87500000000000000       0.15625000000000000        0.0000000000000000     
  0.90625000000000000       0.15625000000000000        0.0000000000000000     
  0.93750000000000000       0.15625000000000000        0.0000000000000000     
  0.96875000000000000       0.15625000000000000        0.0000000000000000     
   1.0000000000000000       0.15625000000000000        0.0000000000000000     
  0.87500000000000000       0.18750000000000000        0.0000000000000000     
  0.90625000000000000       0.18750000000000000        0.0000000000000000     
  0.93750000000000000       0.18750000000000000        0.0000000000000000     
  0.96875000000000000       0.18750000000000000        0.0000000000000000     
   1.0000000000000000       0.18750000000000000        0.0000000000000000     
  0.87500000000000000       0.21875000000000000        0.0000000000000000     
  0.90625000000000000       0.21875000000000000        0.0000000000000000     
  0.93750000000000000       0.21875000000000000        0.0000000000000000     
  0.96875000000000000       0.21875000000000000        0.0000000000000000     
   1.0000000000000000       0.21875000000000000        0.0000000000000000     
  0.87500000000000000       0.25000000000000000        0.0000000000000000     
  0.90625000000000000       0.25000000000000000        0.0000000000000000     
  0.93750000000000000       0.25000000000000000        0.0000000000000000     
  0.96875000000000000       0.25000000000000000        0.0000000000000000     
   1.0000000000000000       0.25000000000000000        0.0000000000000000     
   1.0000000000000000       0.12500000000000000        0.0000000000000000     
   1.0312500000000000       0.12500000000000000        0.0000000000000000     
   1.0625000000000000       0.12500000000000000        0.0000000000000000     
   1.0937500000000000       0.12500000000000000        0.0000000000000000     
   1.1250000000000000       0.12500000000000000        0.0000000000000000     
   1.0000000000000000       0.15625000000000000        0.0000000000000000     
   1.0312500000000000       0.15625000000000000        0.0000000000000000     
   1.0625000000000000       0.15625000000000000        0.0000000000000000     
   1.0937500000000000       0.15625000000000000        0.0000000000000000     
   1.1250000000000000       0.15625000000000000        0.0000000000000000     
   1.0000000000000000       0.18750000000000000        0.0000000000000000     
   1.0312500000000000       0.18750000000000000        0.0000000000000000     
   1.0625000000000000       0.18750000000000000        0.0000000000000000     
   1.0937500000000000       0.18750000000000000        0.0000000000000000     
   1.1250000000000000       0.18750000000000000        0.0000000000000000     
   1.0000000000000000       0.21875000000000000        0.0000000000000000     
   1.0312500000000000       0.21875000000000000        0.0000000000000000     
   1.0625000000000000       0.21875000000000000        0.0000000000000000     
   1.0937500000000000       0.21875000000000000        0.0000000000000000     
   1.1250000000000000       0.21875000000000000        0.0000000000000000     
   1.0000000000000000       0.25000000000000000        0.0000000000000000     
   1.0312500000000000       0.25000000000000000        0.0000000000000000     
   1.0625000000000000       0.25000000000000000        0.0000000000000000     
   1.0937500000000000       0.25000000000000000        0.0000000000000000     
   1.1250000000000000       0.25000000000000000        0.0000000000000000     
   1.1250000000000000       0.12500000000000000        0.0000000000000000     
   1.1562500000000000       0.12500000000000000        0.0000000000000000     
   1.1875000000000000       0.12500000000000000        0.0000000000000000     
   1.2187500000000000       0.12500000000000000        0.0000000000000000     
   1.2500000000000000       0.12500000000000000        0.0000000000000000     
   1.1250000000000000       0.15625000000000000        0.0000000000000000     
   1.1562500000000000       0.15625000000000000        0.0000000000000000     
   1.1875000000000000       0.15625000000000000        0.0000000000000000     
   1.2187500000000000       0.15625000000000000        0.0000000000000000     
   1.2500000000000000       0.15625000000000000        0.0000000000000000     
   1.1250000000000000       0.18750000000000000        0.0000000000000000     
   1.1562500000000000       0.18750000000000000        0.0000000000000000     
   1.1875000000000000       0.18750000000000000        0.0000000000000000     
   1.2187500000000000       0.18750000000000000        0.0000000000000000     
   1.2500000000000000       0.18750000000000000        0.0000000000000000     
   1.1250000000000000       0.21875000000000000        0.0000000000000000     
   1.1562500000000000       0.21875000000000000        0.0000000000000000     
   1.1875000000000000       0.21875000000000000        0.0000000000000000     
   1.2187500000000000       0.21875000000000000        0.0000000000000000     
   1.2500000000000000       0.21875000000000000        0.0000000000000000     
   1.1250000000000000       0.25000000000000000        0.0000000000000000     
   1.1562500000000000       0.25000000000000000        0.0000000000000000     
   1.1875000000000000       0.25000000000000000        0.0000000000000000     
   1.2187500000000000       0.25000000000000000        0.0000000000000000     
   1.2500000000000000       0.25000000000000000        0.0000000000000000     
   1.2500000000000000       0.12500000000000000        0.0000000000000000     
   1.2812500000000000       0.12500000000000000        0.0000000000000000     
   1.3125000000000000       0.12500000000000000        0.0000000000000000     
   1.3437500000000000       0.12500000000000000        0.0000000000000000     
   1.3750000000000000       0.12500000000000000        0.0000000000000000     
   1.2500000000000000       0.15625000000000000        0.0000000000000000     
   1.2812500000000000       0.15625000000000000        0.0000000000000000     
   1.3125000000000000       0.15625000000000000        0.0000000000000000     
   1.3437500000000000       0.15625000000000000        0.0000000000000000     
   1.3750000000000000       0.15625000000000000        0.0000000000000000     
   1.2500000000000000       0.18750000000000000        0.0000000000000000     
   1.2812500000000000       0.18750000000000000        0.0000000000000000     
   1.3125000000000000       0.18750000000000000        0.0000000000000000     
   1.3437500000000000       0.18750000000000000        0.0000000000000000     
   1.3750000000000000       0.18750000000000000        0.0000000000000000     
   1.2500000000000000       0.21875000000000000        0.0000000000000000     
   1.2812500000000000       0.21875000000000000        0.0000000000000000     
   1.3125000000000000       0.21875000000000000        0.0000000000000000     
   1.3437500000000000       0.21875000000000000        0.0000000000000000     
   1.3750000000000000       0.21875000000000000        0.0000000000000000     
   1.2500000000000000       0.25000000000000000        0.0000000000000000     
   1.2812500000000000       0.25000000000000000        0.0000000000000000     
   1.3125000000000000       0.25000000000000000        0.0000000000000000     
   1.3437500000000000       0.25000000000000000        0.0000000000000000     
   1.3750000000000000       0.25000000000000000        0.0000000000000000     
   1.3750000000000000       0.12500000000000000        0.0000000000000000     
   1.4062500000000000       0.12500000000000000        0.0000000000000000     
   1.4375000000000000       0.12500000000000000        0.0000000000000000     
   1.4687500000000000       0.12500000000000000        0.0000000000000000     
   1.5000000000000000       0.12500000000000000        0.0000000000000000     
   1.3750000000000000       0.15625000000000000        0.0000000000000000     
   1.4062500000000000       0.15625000000000000        0.0000000000000000     
   1.4375000000000000       0.15625000000000000        0.0000000000000000     
   1.4687500000000000       0.15625000000000000        0.0000000000000000     
   1.5000000000000000       0.15625000000000000        0.0000000000000000     
   1.3750000000000000       0.18750000000000000        0.0000000000000000     
   1.4062500000000000       0.18750000000000000        0.0000000000000000     
   1.4375000000000000       0.18750000000000000        0.0000000000000000     
   1.4687500000000000       0.18750000000000000        0.0000000000000000     
   1.5000000000000000       0.18750000000000000        0.0000000000000000     
   1.3750000000000000       0.21875000000000000        0.0000000000000000     
   1.4062500000000000       0.21875000000000000        0.0000000000000000     
   1.4375000000000000       0.21875000000000000        0.0000000000000000     
   1.4687500000000000       0.21875000000000000        0.0000000000000000     
   1.5000000000000000       0.21875000000000000        0.0000000000000000     
   1.3750000000000000       0.25000000000000000        0.0000000000000000     
   1.4062500000000000       0.25000000000000000        0.0000000000000000     
   1.4375000000000000       0.25000000000000000        0.0000000000000000     
   1.4687500000000000       0.25000000000000000        0.0000000000000000     
   1.5000000000000000       0.25000000000000000        0.0000000000000000     
  0.50000000000000000       0.25000000000000000        0.0000000000000000     
  0.53125000000000000       0.25000000000000000        0.0000000000000000     
  0.56250000000000000       0.25000000000000000        0.0000000000000000     
  0.59375000000000000       0.25000000000000000        0.0000000000000000     
  0.62500000000000000       0.25000000000000000        0.0000000000000000     
  0.50000000000000000       0.28125000000000000        0.0000000000000000     
  0.53125000000000000       0.28125000000000000        0.0000000000000000     
  0.56250000000000000       0.28125000000000000        0.0000000000000000     
  0.59375000000000000       0.28125000000000000        0.0000000000000000     
  0.62500000000000000       0.28125000000000000        0.0000000000000000     
  0.50000000000000000       0.31250000000000000        0.0000000000000000     
  0.53125000000000000       0.31250000000000000        0.0000000000000000     
  0.56250000000000000       0.31250000000000000        0.0000000000000000     
  0.59375000000000000       0.31250000000000000        0.0000000000000000     
  0.62500000000000000       0.31250000000000000        0.0000000000000000     
  0.50000000000000000       0.34375000000000000        0.0000000000000000     
  0.53125000000000000       0.34375000000000000        0.0000000000000000     
  0.56250000000000000       0.34375000000000000        0.0000000000000000     
  0.59375000000000000       0.34375000000000000        0.0000000000000000     
  0.62500000000000000       0.34375000000000000        0.0000000000000000     
  0.50000000000000000       0.37500000000000000        0.0000000000000000     
  0.53125000000000000       0.37500000000000000        0.0000000000000000     
  0.56250000000000000       0.37500000000000000        0.0000000000000000     
  0.59375000000000000       0.37500000000000000        0.0000000000000000     
  0.62500000000000000       0.37500000000000000        0.0000000000000000     
  0.62500000000000000       0.25000000000000000        0.0000000000000000     
  0.65625000000000000       0.25000000000000000        0.0000000000000000     
  0.68750000000000000       0.25000000000000000        0.0000000000000000     
  0.71875000000000000       0.25000000000000000        0.0000000000000000     
  0.75000000000000000       0.25000000000000000        0.0000000000000000     
  0.62500000000000000       0.28125000000000000        0.0000000000000000     
  0.65625000000000000       0.28125000000000000        0.0000000000000000     
  0.68750000000000000       0.28125000000000000        0.0000000000000000     
  0.71875000000000000       0.28125000000000000        0.0000000000000000     
  0.75000000000000000       0.28125000000000000        0.0000000000000000     
  0.62500000000000000       0.31250000000000000        0.0000000000000000     
  0.65625000000000000       0.31250000000000000        0.0000000000000000     
  0.68750000000000000       0.31250000000000000        0.0000000000000000     
  0.71875000000000000       0.31250000000000000        0.0000000000000000     
  0.75000000000000000       0.31250000000000000        0.0000000000000000     
  0.62500000000000000       0.34375000000000000        0.0000000000000000     
  0.65625000000000000       0.34375000000000000        0.0000000000000000     
  0.68750000000000000       0.34375000000000000        0.0000000000000000     
  0.71875000000000000       0.34375000000000000        0.0000000000000000     
  0.75000000000000000       0.34375000000000000        0.0000000000000000     
  0.62500000000000000       0.37500000000000000        0.0000000000000000     
  0.65625000000000000       0.37500000000000000        0.0000000000000000     
  0.68750000000000000       0.37500000000000000        0.0000000000000000     
  0.71875000000000000       0.37500000000000000        0.0000000000000000     
  0.75000000000000000       0.37500000000000000        0.0000000000000000     
  0.75000000000000000       0.25000000000000000        0.0000000000000000     
  0.78125000000000000       0.25000000000000000        0.0000000000000000     
  0.81250000000000000       0.25000000000000000        0.0000000000000000     
  0.84375000000000000       0.25000000000000000        0.0000000000000000     
  0.87500000000000000       0.25000000000000000        0.0000000000000000     
  0.75000000000000000       0.28125000000000000        0.0000000000000000     
  0.78125000000000000       0.28125000000000000        0.0000000000000000     
  0.81250000000000000       0.28125000000000000        0.0000000000000000     
  0.84375000000000000       0.28125000000000000        0.0000000000000000     
  0.87500000000000000       0.28125000000000000        0.0000000000000000     
  0.75000000000000000       0.31250000000000000        0.0000000000000000     
  0.78125000000000000       0.31250000000000000        0.0000000000000000     
  0.81250000000000000       0.31250000000000000        0.0000000000000000     
  0.84375000000000000       0.31250000000000000        0.0000000000000000     
  0.87500000000000000       0.31250000000000000        0.0000000000000000     
  0.75000000000000000       0.34375000000000000        0.0000000000000000     
  0.78125000000000000       0.34375000000000000        0.0000000000000000     
  0.81250000000000000       0.34375000000000000        0.0000000000000000     
  0.84375000000000000       0.34375000000000000        0.0000000000000000     
  0.87500000000000000       0.34375000000000000        0.0000000000000000     
  0.75000000000000000       0.37500000000000000        0.0000000000000000     
  0.78125000000000000       0.37500000000000000        0.0000000000000000     
  0.81250000000000000       0.37500000000000000        0.0000000000000000     
  0.84375000000000000       0.37500000000000000        0.0000000000000000     
  0.87500000000000000       0.37500000000000000        0.0000000000000000     
  0.87500000000000000       0.25000000000000000        0.0000000000000000     
  0.90625000000000000       0.25000000000000000        0.0000000000000000     
  0.93750000000000000       0.25000000000000000        0.0000000000000000     
  0.96875000000000000       0.25000000000000000        0.0000000000000000     
   1.0000000000000000       0.25000000000000000        0.0000000000000000     
  0.87500000000000000       0.28125000000000000        0.0000000000000000     
  0.90625000000000000       0.28125000000000000        0.0000000000000000     
  0.93750000000000000       0.28125000000000000        0.0000000000000000     
  0.96875000000000000       0.28125000000000000        0.0000000000000000     
   1.0000000000000000       0.28125000000000000        0.0000000000000000     
  0.87500000000000000       0.31250000000000000        0.0000000000000000     
  0.90625000000000000       0.31250000000000000        0.0000000000000000     
  0.93750000000000000       0.31250000000000000        0.0000000000000000     
  0.96875000000000000       0.31250000000000000        0.0000000000000000     
   1.0000000000000000       0.31250000000000000        0.0000000000000000     
  0.87500000000000000       0.34375000000000000        0.0000000000000000     
  0.90625000000000000       0.34375000000000000        0.0000000000000000     
  0.93750000000000000       0.34375000000000000        0.0000000000000000     
  0.96875000000000000       0.34375000000000000        0.0000000000000000     
   1.0000000000000000       0.34375000000000000        0.0000000000000000     
  0.87500000000000000       0.37500000000000000        0.0000000000000000     
  0.90625000000000000       0.37500000000000000        0.0000000000000000     
  0.93750000000000000       0.37500000000000000        0.0000000000000000     
  0.96875000000000000       0.37500000000000000        0.0000000000000000     
   1.0000000000000000       0.37500000000000000        0.0000000000000000     
   1.0000000000000000       0.25000000000000000        0.0000000000000000     
   1.0312500000000000       0.25000000000000000        0.0000000000000000     
   1.0625000000000000       0.25000000000000000        0.0000000000000000     
   1.0937500000000000       0.25000000000000000        0.0000000000000000     
   1.1250000000000000       0.25000000000000000        0.0000000000000000     
   1.0000000000000000       0.28125000000000000        0.0000000000000000     
   1.0312500000000000       0.28125000000000000        0.0000000000000000     
   1.0625000000000000       0.28125000000000000        0.0000000000000000     
   1.0937500000000000       0.28125000000000000        0.0000000000000000     
   1.1250000000000000       0.28125000000000000        0.0000000000000000     
   1.0000000000000000       0.31250000000000000        0.0000000000000000     
   1.0312500000000000       0.31250000000000000        0.0000000000000000     
   1.0625000000000000       0.31250000000000000        0.0000000000000000     
   1.0937500000000000       0.31250000000000000        0.0000000000000000     
   1.1250000000000000       0.31250000000000000        0.0000000000000000     
   1.0000000000000000       0.34375000000000000        0.0000000000000000     
   1.0312500000000000       0.34375000000000000        0.0000000000000000     
   1.0625000000000000       0.34375000000000000        0.0000000000000000     
   1.0937500000000000       0.34375000000000000        0.0000000000000000     
   1.1250000000000000       0.34375000000000000        0.0000000000000000     
   1.0000000000000000       0.37500000000000000        0.0000000000000000     
   1.0312500000000000       0.37500000000000000        0.0000000000000000     
   1.0625000000000000       0.37500000000000000        0.0000000000000000     
   1.0937500000000000       0.37500000000000000        0.0000000000000000     
   1.1250000000000000       0.37500000000000000        0.0000000000000000     
   1.1250000000000000       0.25000000000000000        0.0000000000000000     
   1.1562500000000000       0.25000000000000000        0.0000000000000000     
   1.1875000000000000       0.25000000000000000        0.0000000000000000     
   1.2187500000000000       0.25000000000000000        0.0000000000000000     
   1.2500000000000000       0.25000000000000000        0.0000000000000000     
   1.1250000000000000       0.28125000000000000        0.0000000000000000     
   1.1562500000000000       0.28125000000000000        0.0000000000000000     
   1.1875000000000000       0.28125000000000000        0.0000000000000000     
   1.2187500000000000       0.28125000000000000        0.0000000000000000     
   1.2500000000000000       0.28125000000000000        0.0000000000000000     
   1.1250000000000000       0.31250000000000000        0.0000000000000000     
   1.1562500000000000       0.31250000000000000        0.0000000000000000     
   1.1875000000000000       0.31250000000000000        0.0000000000000000     
   1.2187500000000000       0.31250000000000000        0.0000000000000000     
   1.2500000000000000       0.31250000000000000        0.0000000000000000     
   1.1250000000000000       0.34375000000000000        0.0000000000000000     
   1.1562500000000000       0.34375000000000000        0.0000000000000000     
   1.1875000000000000       0.34375000000000000        0.0000000000000000     
   1.2187500000000000       0.34375000000000000        0.0000000000000000     
   1.2500000000000000       0.34375000000000000        0.0000000000000000     
   1.1250000000000000       0.37500000000000000        0.0000000000000000     
   1.1562500000000000       0.37500000000000000        0.0000000000000000     
   1.1875000000000000       0.37500000000000000        0.0000000000000000     
   1.2187500000000000       0.37500000000000000        0.0000000000000000     
   1.2500000000000000       0.37500000000000000        0.0000000000000000     
   1.2500000000000000       0.25000000000000000        0.0000000000000000     
   1.2812500000000000       0.25000000000000000        0.0000000000000000     
   1.3125000000000000       0.25000000000000000        0.0000000000000000     
   1.3437500000000000       0.25000000000000000        0.0000000000000000     
   1.3750000000000000       0.25000000000000000        0.0000000000000000     
   1.2500000000000000       0.28125000000000000        0.0000000000000000     
   1.2812500000000000       0.28125000000000000        0.0000000000000000     
   1.3125000000000000       0.28125000000000000        0.0000000000000000     
   1.3437500000000000       0.28125000000000000        0.0000000000000000     
   1.3750000000000000       0.28125000000000000        0.0000000000000000     
   1.2500000000000000       0.31250000000000000        0.0000000000000000     
   1.2812500000000000       0.31250000000000000        0.0000000000000000     
   1.3125000000000000       0.31250000000000000        0.0000000000000000     
   1.3437500000000000       0.31250000000000000        0.0000000000000000     
   1.3750000000000000       0.31250000000000000        0.0000000000000000     
   1.2500000000000000       0.34375000000000000        0.0000000000000000     
   1.2812500000000000       0.34375000000000000        0.0000000000000000     
   1.3125000000000000       0.34375000000000000        0.0000000000000000     
   1.3437500000000000       0.34375000000000000        0.0000000000000000     
   1.3750000000000000       0.34375000000000000        0.0000000000000000     
   1.2500000000000000       0.37500000000000000        0.0000000000000000     
   1.2812500000000000       0.37500000000000000        0.0000000000000000     
   1.3125000000000000       0.37500000000000000        0.0000000000000000     
   1.3437500000000000       0.37500000000000000        0.0000000000000000     
   1.3750000000000000       0.37500000000000000        0.0000000000000000     
   1.3750000000000000       0.25000000000000000        0.0000000000000000     
   1.4062500000000000       0.25000000000000000        0.0000000000000000     
   1.4375000000000000       0.25000000000000000        0.0000000000000000     
   1.4687500000000000       0.25000000000000000        0.0000000000000000     
   1.5000000000000000       0.25000000000000000        0.0000000000000000     
   1.3750000000000000       0.28125000000000000        0.0000000000000000     
   1.4062500000000000       0.28125000000000000        0.0000000000000000     
   1.4375000000000000       0.28125000000000000        0.0000000000000000     
   1.4687500000000000       0.28125000000000000        0.0000000000000000     
   1.5000000000000000       0.28125000000000000        0.0000000000000000     
   1.3750000000000000       0.31250000000000000        0.0000000000000000     
   1.4062500000000000       0.31250000000000000        0.0000000000000000     
   1.4375000000000000       0.31250000000000000        0.0000000000000000     
   1.4687500000000000       0.31250000000000000        0.0000000000000000     
   1.5000000000000000       0.31250000000000000        0.0000000000000000     
   1.3750000000000000       0.34375000000000000        0.0000000000000000     
   1.4062500000000000       0.34375000000000000        0.0000000000000000     
   1.4375000000000000       0.34375000000000000        0.0000000000000000     
   1.4687500000000000       0.34375000000000000        0.0000000000000000     
   1.5000000000000000       0.34375000000000000        0.0000000000000000     
   1.3750000000000000       0.37500000000000000        0.0000000000000000     
   1.4062500000000000       0.37500000000000000        0.0000000000000000     
   1.4375000000000000       0.37500000000000000        0.0000000000000000     
   1.4687500000000000       0.37500000000000000        0.0000000000000000     
   1.5000000000000000       0.37500000000000000        0.0000000000000000     
  0.50000000000000000       0.37500000000000000        0.0000000000000000     
  0.53125000000000000       0.37500000000000000        0.0000000000000000     
  0.56250000000000000       0.37500000000000000        0.0000000000000000     
  0.59375000000000000       0.37500000000000000        0.0000000000000000     
  0.62500000000000000       0.37500000000000000        0.0000000000000000     
  0.50000000000000000       0.40625000000000000        0.0000000000000000     
  0.53125000000000000       0.40625000000000000        0.0000000000000000     
  0.56250000000000000       0.40625000000000000        0.0000000000000000     
  0.59375000000000000       0.40625000000000000        0.0000000000000000     
  0.62500000000000000       0.40625000000000000        0.0000000000000000     
  0.50000000000000000       0.43750000000000000        0.0000000000000000     
  0.53125000000000000       0.43750000000000000        0.0000000000000000     
  0.56250000000000000       0.43750000000000000        0.0000000000000000     
  0.59375000000000000       0.43750000000000000        0.0000000000000000     
  0.62500000000000000       0.43750000000000000        0.0000000000000000     
  0.50000000000000000       0.46875000000000000        0.0000000000000000     
  0.53125000000000000       0.46875000000000000        0.0000000000000000     
  0.56250000000000000       0.46875000000000000        0.0000000000000000     
  0.59375000000000000       0.46875000000000000        0.0000000000000000     
  0.62500000000000000       0.46875000000000000        0.0000000000000000     
  0.50000000000000000       0.50000000000000000        0.0000000000000000     
  0.53125000000000000       0.50000000000000000        0.0000000000000000     
  0.56250000000000000       0.50000000000000000        0.0000000000000000     
  0.59375000000000000       0.50000000000000000        0.0000000000000000     
  0.62500000000000000       0.50000000000000000        0.0000000000000000     
  0.62500000000000000       0.37500000000000000        0.0000000000000000     
  0.65625000000000000       0.37500000000000000        0.0000000000000000     
  0.68750000000000000       0.37500000000000000        0.0000000000000000     
  0.71875000000000000       0.37500000000000000        0.0000000000000000     
  0.75000000000000000       0.37500000000000000        0.0000000000000000     
  0.62500000000000000       0.40625000000000000        0.0000000000000000     
  0.65625000000000000       0.40625000000000000        0.0000000000000000     
  0.68750000000000000       0.40625000000000000        0.0000000000000000     
  0.71875000000000000       0.40625000000000000        0.0000000000000000     
  0.75000000000000000       0.40625000000000000        0.0000000000000000     
  0.62500000000000000       0.43750000000000000        0.0000000000000000     
  0.65625000000000000       0.43750000000000000        0.0000000000000000     
  0.68750000000000000       0.43750000000000000        0.0000000000000000     
  0.71875000000000000       0.43750000000000000        0.0000000000000000     
  0.75000000000000000       0.43750000000000000        0.0000000000000000     
  0.62500000000000000       0.46875000000000000        0.0000000000000000     
  0.65625000000000000       0.46875000000000000        0.0000000000000000     
  0.68750000000000000       0.46875000000000000        0.0000000000000000     
  0.71875000000000000       0.46875000000000000        0.0000000000000000     
  0.75000000000000000       0.46875000000000000        0.0000000000000000     
  0.62500000000000000       0.50000000000000000        0.0000000000000000     
  0.65625000000000000       0.50000000000000000        0.0000000000000000     
  0.68750000000000000       0.50000000000000000        0.0000000000000000     
  0.71875000000000000       0.50000000000000000        0.0000000000000000     
  0.75000000000000000       0.50000000000000000        0.0000000000000000     
  0.75000000000000000       0.37500000000000000        0.0000000000000000     
  0.78125000000000000       0.37500000000000000        0.0000000000000000     
  0.81250000000000000       0.37500000000000000        0.0000000000000000     
  0.84375000000000000       0.37500000000000000        0.0000000000000000     
  0.87500000000000000       0.37500000000000000        0.0000000000000000     
  0.75000000000000000       0.40625000000000000        0.0000000000000000     
  0.78125000000000000       0.40625000000000000        0.0000000000000000     
  0.81250000000000000       0.40625000000000000        0.0000000000000000     
  0.84375000000000000       0.40625000000000000        0.0000000000000000     
  0.87500000000000000       0.40625000000000000        0.0000000000000000     
  0.75000000000000000       0.43750000000000000        0.0000000000000000     
  0.78125000000000000       0.43750000000000000        0.0000000000000000     
  0.81250000000000000       0.43750000000000000        0.0000000000000000     
  0.84375000000000000       0.43750000000000000        0.0000000000000000     
  0.87500000000000000       0.43750000000000000        0.0000000000000000     
  0.75000000000000000       0.46875000000000000        0.0000000000000000     
  0.78125000000000000       0.46875000000000000        0.0000000000000000     
  0.81250000000000000       0.46875000000000000        0.0000000000000000     
  0.84375000000000000       0.46875000000000000        0.0000000000000000     
  0.87500000000000000       0.46875000000000000        0.0000000000000000     
  0.75000000000000000       0.50000000000000000        0.0000000000000000     
  0.78125000000000000       0.50000000000000000        0.0000000000000000     
  0.81250000000000000       0.50000000000000000        0.0000000000000000     
  0.84375000000000000       0.50000000000000000        0.0000000000000000     
  0.87500000000000000       0.50000000000000000        0.0000000000000000     
  0.87500000000000000       0.37500000000000000        0.0000000000000000     
  0.90625000000000000       0.37500000000000000        0.0000000000000000     
  0.93750000000000000       0.37500000000000000        0.0000000000000000     
  0.96875000000000000       0.37500000000000000        0.0000000000000000     
   1.0000000000000000       0.37500000000000000        0.0000000000000000     
  0.87500000000000000       0.40625000000000000        0.0000000000000000     
  0.90625000000000000       0.40625000000000000        0.0000000000000000     
  0.93750000000000000       0.40625000000000000        0.0000000000000000     
  0.96875000000000000       0.40625000000000000        0.0000000000000000     
   1.0000000000000000       0.40625000000000000        0.0000000000000000     
  0.87500000000000000       0.43750000000000000        0.0000000000000000     
  0.90625000000000000       0.43750000000000000        0.0000000000000000     
  0.93750000000000000       0.43750000000000000        0.0000000000000000     
  0.96875000000000000       0.43750000000000000        0.0000000000000000     
   1.0000000000000000       0.43750000000000000        0.0000000000000000     
  0.87500000000000000       0.46875000000000000        0.0000000000000000     
  0.90625000000000000       0.46875000000000000        0.0000000000000000     
  0.93750000000000000       0.46875000000000000        0.0000000000000000     
  0.96875000000000000       0.46875000000000000        0.0000000000000000     
   1.0000000000000000       0.46875000000000000        0.0000000000000000     
  0.87500000000000000       0.50000000000000000        0.0000000000000000     
  0.90625000000000000       0.50000000000000000        0.0000000000000000     
  0.93750000000000000       0.50000000000000000        0.0000000000000000     
  0.96875000000000000       0.50000000000000000        0.0000000000000000     
   1.0000000000000000       0.50000000000000000        0.0000000000000000     
   1.0000000000000000       0.37500000000000000        0.0000000000000000     
   1.0312500000000000       0.37500000000000000        0.0000000000000000     
   1.0625000000000000       0.37500000000000000        0.0000000000000000     
   1.0937500000000000       0.37500000000000000        0.0000000000000000     
   1.1250000000000000       0.37500000000000000        0.0000000000000000     
   1.0000000000000000       0.40625000000000000        0.0000000000000000     
   1.0312500000000000       0.40625000000000000        0.0000000000000000     
   1.0625000000000000       0.40625000000000000        0.0000000000000000     
   1.0937500000000000       0.40625000000000000        0.0000000000000000     
   1.1250000000000000       0.40625000000000000        0.0000000000000000     
   1.0000000000000000       0.43750000000000000        0.0000000000000000     
   1.0312500000000000       0.43750000000000000        0.0000000000000000     
   1.0625000000000000       0.43750000000000000        0.0000000000000000     
   1.0937500000000000       0.43750000000000000        0.0000000000000000     
   1.1250000000000000       0.43750000000000000        0.0000000000000000     
   1.0000000000000000       0.46875000000000000        0.0000000000000000     
   1.0312500000000000       0.46875000000000000        0.0000000000000000     
   1.0625000000000000       0.46875000000000000        0.0000000000000000     
   1.0937500000000000       0.46875000000000000        0.0000000000000000     
   1.1250000000000000       0.46875000000000000        0.0000000000000000     
   1.0000000000000000       0.50000000000000000        0.0000000000000000     
   1.0312500000000000       0.50000000000000000        0.0000000000000000     
   1.0625000000000000       0.50000000000000000        0.0000000000000000     
   1.0937500000000000       0.50000000000000000        0.0000000000000000     
   1.1250000000000000       0.50000000000000000        0.0000000000000000     
   1.1250000000000000       0.37500000000000000        0.0000000000000000     
   1.1562500000000000       0.37500000000000000        0.0000000000000000     
   1.1875000000000000       0.37500000000000000        0.0000000000000000     
   1.2187500000000000       0.37500000000000000        0.0000000000000000     
   1.2500000000000000       0.37500000000000000        0.0000000000000000     
   1.1250000000000000       0.40625000000000000        0.0000000000000000     
   1.1562500000000000       0.40625000000000000        0.0000000000000000     
   1.1875000000000000       0.40625000000000000        0.0000000000000000     
   1.2187500000000000       0.40625000000000000        0.0000000000000000     
   1.2500000000000000       0.40625000000000000        0.0000000000000000     
   1.1250000000000000       0.43750000000000000        0.0000000000000000     
   1.1562500000000000       0.43750000000000000        0.0000000000000000     
   1.1875000000000000       0.43750000000000000        0.0000000000000000     
   1.2187500000000000       0.43750000000000000        0.0000000000000000     
   1.2500000000000000       0.43750000000000000        0.0000000000000000     
   1.1250000000000000       0.46875000000000000        0.0000000000000000     
   1.1562500000000000       0.46875000000000000        0.0000000000000000     
   1.1875000000000000       0.46875000000000000        0.0000000000000000     
   1.2187500000000000       0.46875000000000000        0.0000000000000000     
   1.2500000000000000       0.46875000000000000        0.0000000000000000     
   1.1250000000000000       0.50000000000000000        0.0000000000000000     
   1.1562500000000000       0.50000000000000000        0.0000000000000000     
   1.1875000000000000       0.50000000000000000        0.0000000000000000     
   1.2187500000000000       0.50000000000000000        0.0000000000000000     
   1.2500000000000000       0.50000000000000000        0.0000000000000000     
   1.2500000000000000       0.37500000000000000        0.0000000000000000     
   1.2812500000000000       0.37500000000000000        0.0000000000000000     
   1.3125000000000000       0.37500000000000000        0.0000000000000000     
   1.3437500000000000       0.37500000000000000        0.0000000000000000     
   1.3750000000000000       0.37500000000000000        0.0000000000000000     
   1.2500000000000000       0.40625000000000000        0.0000000000000000     
   1.2812500000000000       0.40625000000000000        0.0000000000000000     
   1.3125000000000000       0.40625000000000000        0.0000000000000000     
   1.3437500000000000       0.40625000000000000        0.0000000000000000     
   1.3750000000000000       0.40625000000000000        0.0000000000000000     
   1.2500000000000000       0.43750000000000000        0.0000000000000000     
   1.2812500000000000       0.43750000000000000        0.0000000000000000     
   1.3125000000000000       0.43750000000000000        0.0000000000000000     
   1.3437500000000000       0.43750000000000000        0.0000000000000000     
   1.3750000000000000       0.43750000000000000        0.0000000000000000     
   1.2500000000000000       0.46875000000000000        0.0000000000000000     
   1.2812500000000000       0.46875000000000000        0.0000000000000000     
   1.3125000000000000       0.46875000000000000        0.0000000000000000     
   1.3437500000000000       0.46875000000000000        0.0000000000000000     
   1.3750000000000000       0.46875000000000000        0.0000000000000000     
   1.2500000000000000       0.50000000000000000        0.0000000000000000     
   1.2812500000000000       0.50000000000000000        0.0000000000000000     
   1.3125000000000000       0.50000000000000000        0.0000000000000000     
   1.3437500000000000       0.50000000000000000        0.0000000000000000     
   1.3750000000000000       0.50000000000000000        0.0000000000000000     
   1.3750000000000000       0.37500000000000000        0.0000000000000000     
   1.4062500000000000       0.37500000000000000        0.0000000000000000     
   1.4375000000000000       0.37500000000000000        0.0000000000000000     
   1.4687500000000000       0.37500000000000000        0.0000000000000000     
   1.5000000000000000       0.37500000000000000        0.0000000000000000     
   1.3750000000000000       0.40625000000000000        0.0000000000000000     
   1.4062500000000000       0.40625000000000000        0.0000000000000000     
   1.4375000000000000       0.40625000000000000        0.0000000000000000     
   1.4687500000000000       0.40625000000000000        0.0000000000000000     
   1.5000000000000000       0.40625000000000000        0.0000000000000000     
   1.3750000000000000       0.43750000000000000        0.0000000000000000     
   1.4062500000000000       0.43750000000000000        0.0000000000000000     
   1.4375000000000000       0.43750000000000000        0.0000000000000000     
   1.4687500000000000       0.43750000000000000        0.0000000000000000     
   1.5000000000000000       0.43750000000000000        0.0000000000000000     
   1.3750000000000000       0.46875000000000000        0.0000000000000000     
   1.4062500000000000       0.46875000000000000        0.0000000000000000     
   1.4375000000000000       0.46875000000000000        0.0000000000000000     
   1.4687500000000000       0.46875000000000000        0.0000000000000000     
   1.5000000000000000       0.46875000000000000        0.0000000000000000     
   1.3750000000000000       0.50000000000000000        0.0000000000000000     
   1.4062500000000000       0.50000000000000000        0.0000000000000000     
   1.4375000000000000       0.50000000000000000        0.0000000000000000     
   1.4687500000000000       0.50000000000000000        0.0000000000000000     
   1.5000000000000000       0.50000000000000000        0.0000000000000000     
  0.50000000000000000       0.50000000000000000        0.0000000000000000     
  0.53125000000000000       0.50000000000000000        0.0000000000000000     
  0.56250000000000000       0.50000000000000000        0.0000000000000000     
  0.59375000000000000       0.50000000000000000        0.0000000000000000     
  0.62500000000000000       0.50000000000000000        0.0000000000000000     
  0.50000000000000000       0.53125000000000000        0.0000000000000000     
  0.53125000000000000       0.53125000000000000        0.0000000000000000     
  0.56250000000000000       0.53125000000000000        0.0000000000000000     
  0.59375000000000000       0.53125000000000000        0.0000000000000000     
  0.62500000000000000       0.53125000000000000        0.0000000000000000     
  0.50000000000000000       0.56250000000000000        0.0000000000000000     
  0.53125000000000000       0.56250000000000000        0.0000000000000000     
  0.56250000000000000       0.56250000000000000        0.0000000000000000     
  0.59375000000000000       0.56250000000000000        0.0000000000000000     
  0.62500000000000000       0.56250000000000000        0.0000000000000000     
  0.50000000000000000       0.59375000000000000        0.0000000000000000     
  0.53125000000000000       0.59375000000000000        0.0000000000000000     
  0.56250000000000000       0.59375000000000000        0.0000000000000000     
  0.59375000000000000       0.59375000000000000        0.0000000000000000     
  0.62500000000000000       0.59375000000000000        0.0000000000000000     
  0.50000000000000000       0.62500000000000000        0.0000000000000000     
  0.53125000000000000       0.62500000000000000        0.0000000000000000     
  0.56250000000000000       0.62500000000000000        0.0000000000000000     
  0.59375000000000000       0.62500000000000000        0.0000000000000000     
  0.62500000000000000       0.62500000000000000        0.0000000000000000     
  0.62500000000000000       0.50000000000000000        0.0000000000000000     
  0.65625000000000000       0.50000000000000000        0.0000000000000000     
  0.68750000000000000       0.50000000000000000        0.0000000000000000     
  0.71875000000000000       0.50000000000000000        0.0000000000000000     
  0.75000000000000000       0.50000000000000000        0.0000000000000000     
  0.62500000000000000       0.53125000000000000        0.0000000000000000     
  0.65625000000000000       0.53125000000000000        0.0000000000000000     
  0.68750000000000000       0.53125000000000000        0.0000000000000000     
  0.71875000000000000       0.53125000000000000        0.0000000000000000     
  0.75000000000000000       0.53125000000000000        0.0000000000000000     
  0.62500000000000000       0.56250000000000000        0.0000000000000000     
  0.65625000000000000       0.56250000000000000        0.0000000000000000     
  0.68750000000000000       0.56250000000000000        0.0000000000000000     
  0.71875000000000000       0.56250000000000000        0.0000000000000000     
  0.75000000000000000       0.56250000000000000        0.0000000000000000     
  0.62500000000000000       0.59375000000000000        0.0000000000000000     
  0.65625000000000000       0.59375000000000000        0.0000000000000000     
  0.68750000000000000       0.59375000000000000        0.0000000000000000     
  0.71875000000000000       0.59375000000000000        0.0000000000000000     
  0.75000000000000000       0.59375000000000000        0.0000000000000000     
  0.62500000000000000       0.62500000000000000        0.0000000000000000     
  0.65625000000000000       0.62500000000000000        0.0000000000000000     
  0.68750000000000000       0.62500000000000000        0.0000000000000000     
  0.71875000000000000       0.62500000000000000        0.0000000000000000     
  0.75000000000000000       0.62500000000000000        0.0000000000000000     
  0.75000000000000000       0.50000000000000000        0.0000000000000000     
  0.78125000000000000       0.50000000000000000        0.0000000000000000     
  0.81250000000000000       0.50000000000000000        0.0000000000000000     
  0.84375000000000000       0.50000000000000000        0.0000000000000000     
  0.87500000000000000       0.50000000000000000        0.0000000000000000     
  0.75000000000000000       0.53125000000000000        0.0000000000000000     
  0.78125000000000000       0.53125000000000000        0.0000000000000000     
  0.81250000000000000       0.53125000000000000        0.0000000000000000     
  0.84375000000000000       0.53125000000000000        0.0000000000000000     
  0.87500000000000000       0.53125000000000000        0.0000000000000000     
  0.75000000000000000       0.56250000000000000        0.0000000000000000     
  0.78125000000000000       0.56250000000000000        0.0000000000000000     
  0.81250000000000000       0.56250000000000000        0.0000000000000000     
  0.84375000000000000       0.56250000000000000        0.0000000000000000     
  0.87500000000000000       0.56250000000000000        0.0000000000000000     
  0.75000000000000000       0.59375000000000000        0.0000000000000000     
  0.78125000000000000       0.59375000000000000        0.0000000000000000     
  0.81250000000000000       0.59375000000000000        0.0000000000000000     
  0.84375000000000000       0.59375000000000000        0.0000000000000000     
  0.87500000000000000       0.59375000000000000        0.0000000000000000     
  0.75000000000000000       0.62500000000000000        0.0000000000000000     
  0.78125000000000000       0.62500000000000000        0.0000000000000000     
  0.81250000000000000       0.62500000000000000        0.0000000000000000     
  0.84375000000000000       0.62500000000000000        0.0000000000000000     
  0.87500000000000000       0.62500000000000000        0.0000000000000000     
  0.87500000000000000       0.50000000000000000        0.0000000000000000     
  0.90625000000000000       0.50000000000000000        0.0000000000000000     
  0.93750000000000000       0.50000000000000000        0.0000000000000000     
  0.96875000000000000       0.50000000000000000        0.0000000000000000     
   1.0000000000000000       0.50000000000000000        0.0000000000000000     
  0.87500000000000000       0.53125000000000000        0.0000000000000000     
  0.90625000000000000       0.53125000000000000        0.0000000000000000     
  0.93750000000000000       0.53125000000000000        0.0000000000000000     
  0.96875000000000000       0.53125000000000000        0.0000000000000000     
   1.0000000000000000       0.53125000000000000        0.0000000000000000     
  0.87500000000000000       0.56250000000000000        0.0000000000000000     
  0.90625000000000000       0.56250000000000000        0.0000000000000000     
  0.93750000000000000       0.56250000000000000        0.0000000000000000     
  0.96875000000000000       0.56250000000000000        0.0000000000000000     
   1.0000000000000000       0.56250000000000000        0.0000000000000000     
  0.87500000000000000       0.59375000000000000        0.0000000000000000     
  0.90625000000000000       0.59375000000000000        0.0000000000000000     
  0.93750000000000000       0.59375000000000000        0.0000000000000000     
  0.96875000000000000       0.59375000000000000        0.0000000000000000     
   1.0000000000000000       0.59375000000000000        0.0000000000000000     
  0.87500000000000000       0.62500000000000000        0.0000000000000000     
  0.90625000000000000       0.62500000000000000        0.0000000000000000     
  0.93750000000000000       0.62500000000000000        0.0000000000000000     
  0.96875000000000000       0.62500000000000000        0.0000000000000000     
   1.0000000000000000       0.62500000000000000        0.0000000000000000     
   1.0000000000000000       0.50000000000000000        0.0000000000000000     
   1.0312500000000000       0.50000000000000000        0.0000000000000000     
   1.0625000000000000       0.50000000000000000        0.0000000000000000     
   1.0937500000000000       0.50000000000000000        0.0000000000000000     
   1.1250000000000000       0.50000000000000000        0.0000000000000000     
   1.0000000000000000       0.53125000000000000        0.0000000000000000     
   1.0312500000000000       0.53125000000000000        0.0000000000000000     
   1.0625000000000000       0.53125000000000000        0.0000000000000000     
   1.0937500000000000       0.53125000000000000        0.0000000000000000     
   1.1250000000000000       0.53125000000000000        0.0000000000000000     
   1.0000000000000000       0.56250000000000000        0.0000000000000000     
   1.0312500000000000       0.56250000000000000        0.0000000000000000     
   1.0625000000000000       0.56250000000000000        0.0000000000000000     
   1.0937500000000000       0.56250000000000000        0.0000000000000000     
   1.1250000000000000       0.56250000000000000        0.0000000000000000     
   1.0000000000000000       0.59375000000000000        0.0000000000000000     
   1.0312500000000000       0.59375000000000000        0.0000000000000000     
   1.0625000000000000       0.59375000000000000        0.0000000000000000     
   1.0937500000000000       0.59375000000000000        0.0000000000000000     
   1.1250000000000000       0.59375000000000000        0.0000000000000000     
   1.0000000000000000       0.62500000000000000        0.0000000000000000     
   1.0312500000000000       0.62500000000000000        0.0000000000000000     
   1.0625000000000000       0.62500000000000000        0.0000000000000000     
   1.0937500000000000       0.62500000000000000        0.0000000000000000     
   1.1250000000000000       0.62500000000000000        0.0000000000000000     
   1.1250000000000000       0.50000000000000000        0.0000000000000000     
   1.1562500000000000       0.50000000000000000        0.0000000000000000     
   1.1875000000000000       0.50000000000000000        0.0000000000000000     
   1.2187500000000000       0.50000000000000000        0.0000000000000000     
   1.2500000000000000       0.50000000000000000        0.0000000000000000     
   1.1250000000000000       0.53125000000000000        0.0000000000000000     
   1.1562500000000000       0.53125000000000000        0.0000000000000000     
   1.1875000000000000       0.53125000000000000        0.0000000000000000     
   1.2187500000000000       0.53125000000000000        0.0000000000000000     
   1.2500000000000000       0.53125000000000000        0.0000000000000000     
   1.1250000000000000       0.56250000000000000        0.0000000000000000     
   1.1562500000000000       0.56250000000000000        0.0000000000000000     
   1.1875000000000000       0.56250000000000000        0.0000000000000000     
   1.2187500000000000       0.56250000000000000        0.0000000000000000     
   1.2500000000000000       0.56250000000000000        0.0000000000000000     
   1.1250000000000000       0.59375000000000000        0.0000000000000000     
   1.1562500000000000       0.59375000000000000        0.0000000000000000     
   1.1875000000000000       0.59375000000000000        0.0000000000000000     
   1.2187500000000000       0.59375000000000000        0.0000000000000000     
   1.2500000000000000       0.59375000000000000        0.0000000000000000     
   1.1250000000000000       0.62500000000000000        0.0000000000000000     
   1.1562500000000000       0.62500000000000000        0.0000000000000000     
   1.1875000000000000       0.62500000000000000        0.0000000000000000     
   1.2187500000000000       0.62500000000000000        0.0000000000000000     
   1.2500000000000000       0.62500000000000000        0.0000000000000000     
   1.2500000000000000       0.50000000000000000        0.0000000000000000     
   1.2812500000000000       0.50000000000000000        0.0000000000000000     
   1.3125000000000000       0.50000000000000000        0.0000000000000000     
   1.3437500000000000       0.50000000000000000        0.0000000000000000     
   1.3750000000000000       0.50000000000000000        0.0000000000000000     
   1.2500000000000000       0.53125000000000000        0.0000000000000000     
   1.2812500000000000       0.53125000000000000        0.0000000000000000     
   1.3125000000000000       0.53125000000000000        0.0000000000000000     
   1.3437500000000000       0.53125000000000000        0.0000000000000000     
   1.3750000000000000       0.53125000000000000        0.0000000000000000     
   1.2500000000000000       0.56250000000000000        0.0000000000000000     
   1.2812500000000000       0.56250000000000000        0.0000000000000000     
   1.3125000000000000       0.56250000000000000        0.0000000000000000     
   1.3437500000000000       0.56250000000000000        0.0000000000000000     
   1.3750000000000000       0.56250000000000000        0.0000000000000000     
   1.2500000000000000       0.59375000000000000        0.0000000000000000     
   1.2812500000000000       0.59375000000000000        0.0000000000000000     
   1.3125000000000000       0.59375000000000000        0.0000000000000000     
   1.3437500000000000       0.59375000000000000        0.0000000000000000     
   1.3750000000000000       0.59375000000000000        0.0000000000000000     
   1.2500000000000000       0.62500000000000000        0.0000000000000000     
   1.2812500000000000       0.62500000000000000        0.0000000000000000     
   1.3125000000000000       0.62500000000000000        0.0000000000000000     
   1.3437500000000000       0.62500000000000000        0.0000000000000000     
   1.3750000000000000       0.62500000000000000        0.0000000000000000     
   1.3750000000000000       0.50000000000000000        0.0000000000000000     
   1.4062500000000000       0.50000000000000000        0.0000000000000000     
   1.4375000000000000       0.50000000000000000        0.0000000000000000     
   1.4687500000000000       0.50000000000000000        0.0000000000000000     
   1.5000000000000000       0.50000000000000000        0.0000000000000000     
   1.3750000000000000       0.53125000000000000        0.0000000000000000     
   1.4062500000000000       0.53125000000000000        0.0000000000000000     
   1.4375000000000000       0.53125000000000000        0.0000000000000000     
   1.4687500000000000       0.53125000000000000        0.0000000000000000     
   1.5000000000000000       0.53125000000000000        0.0000000000000000     
   1.3750000000000000       0.56250000000000000        0.0000000000000000     
   1.4062500000000000       0.56250000000000000        0.0000000000000000     
   1.4375000000000000       0.56250000000000000        0.0000000000000000     
   1.4687500000000000       0.56250000000000000        0.0000000000000000     
   1.5000000000000000       0.56250000000000000        0.0000000000000000     
   1.3750000000000000       0.59375000000000000        0.0000000000000000     
   1.4062500000000000       0.59375000000000000        0.0000000000000000     
   1.4375000000000000       0.59375000000000000        0.0000000000000000     
   1.4687500000000000       0.59375000000000000        0.0000000000000000     
   1.5000000000000000       0.59375000000000000        0.0000000000000000     
   1.3750000000000000       0.62500000000000000        0.0000000000000000     
   1.4062500000000000       0.62500000000000000        0.0000000000000000     
   1.4375000000000000       0.62500000000000000        0.0000000000000000     
   1.4687500000000000       0.62500000000000000        0.0000000000000000     
   1.5000000000000000       0.62500000000000000        0.0000000000000000     
  0.50000000000000000       0.62500000000000000        0.0000000000000000     
  0.53125000000000000       0.62500000000000000        0.0000000000000000     
  0.56250000000000000       0.62500000000000000        0.0000000000000000     
  0.59375000000000000       0.62500000000000000        0.0000000000000000     
  0.62500000000000000       0.62500000000000000        0.0000000000000000     
  0.50000000000000000       0.65625000000000000        0.0000000000000000     
  0.53125000000000000       0.65625000000000000        0.0000000000000000     
  0.56250000000000000       0.65625000000000000        0.0000000000000000     
  0.59375000000000000       0.65625000000000000        0.0000000000000000     
  0.62500000000000000       0.65625000000000000        0.0000000000000000     
  0.50000000000000000       0.68750000000000000        0.0000000000000000     
  0.53125000000000000       0.68750000000000000        0.0000000000000000     
  0.56250000000000000       0.68750000000000000        0.0000000000000000     
  0.59375000000000000       0.68750000000000000        0.0000000000000000     
  0.62500000000000000       0.68750000000000000        0.0000000000000000     
  0.50000000000000000       0.71875000000000000        0.0000000000000000     
  0.53125000000000000       0.71875000000000000        0.0000000000000000     
  0.56250000000000000       0.71875000000000000        0.0000000000000000     
  0.59375000000000000       0.71875000000000000        0.0000000000000000     
  0.62500000000000000       0.71875000000000000        0.0000000000000000     
  0.50000000000000000       0.75000000000000000        0.0000000000000000     
  0.53125000000000000       0.75000000000000000        0.0000000000000000     
  0.56250000000000000       0.75000000000000000        0.0000000000000000     
  0.59375000000000000       0.75000000000000000        0.0000000000000000     
  0.62500000000000000       0.75000000000000000        0.0000000000000000     
  0.62500000000000000       0.62500000000000000        0.0000000000000000     
  0.65625000000000000       0.62500000000000000        0.0000000000000000     
  0.68750000000000000       0.62500000000000000        0.0000000000000000     
  0.71875000000000000       0.62500000000000000        0.0000000000000000     
  0.75000000000000000       0.62500000000000000        0.0000000000000000     
  0.62500000000000000       0.65625000000000000        0.0000000000000000     
  0.65625000000000000       0.65625000000000000        0.0000000000000000     
  0.68750000000000000       0.65625000000000000        0.0000000000000000     
  0.71875000000000000       0.65625000000000000        0.0000000000000000     
  0.75000000000000000       0.65625000000000000        0.0000000000000000     
  0.62500000000000000       0.68750000000000000        0.0000000000000000     
  0.65625000000000000       0.68750000000000000        0.0000000000000000     
  0.68750000000000000       0.68750000000000000        0.0000000000000000     
  0.71875000000000000       0.68750000000000000        0.0000000000000000     
  0.75000000000000000       0.68750000000000000        0.0000000000000000     
  0.62500000000000000       0.71875000000000000        0.0000000000000000     
  0.65625000000000000       0.71875000000000000        0.0000000000000000     
  0.68750000000000000       0.71875000000000000        0.0000000000000000     
  0.71875000000000000       0.71875000000000000        0.0000000000000000     
  0.75000000000000000       0.71875000000000000        0.0000000000000000     
  0.62500000000000000       0.75000000000000000        0.0000000000000000     
  0.65625000000000000       0.75000000000000000        0.0000000000000000     
  0.68750000000000000       0.75000000000000000        0.0000000000000000     
  0.71875000000000000       0.75000000000000000        0.0000000000000000     
  0.75000000000000000       0.75000000000000000        0.0000000000000000     
  0.75000000000000000       0.62500000000000000        0.0000000000000000     
  0.78125000000000000       0.62500000000000000        0.0000000000000000     
  0.81250000000000000       0.62500000000000000        0.0000000000000000     
  0.84375000000000000       0.62500000000000000        0.0000000000000000     
  0.87500000000000000       0.62500000000000000        0.0000000000000000     
  0.75000000000000000       0.65625000000000000        0.0000000000000000     
  0.78125000000000000       0.65625000000000000        0.0000000000000000     
  0.81250000000000000       0.65625000000000000        0.0000000000000000     
  0.84375000000000000       0.65625000000000000        0.0000000000000000     
  0.87500000000000000       0.65625000000000000        0.0000000000000000     
  0.75000000000000000       0.68750000000000000        0.0000000000000000     
  0.78125000000000000       0.68750000000000000        0.0000000000000000     
  0.81250000000000000       0.68750000000000000        0.0000000000000000     
  0.84375000000000000       0.68750000000000000        0.0000000000000000     
  0.87500000000000000       0.68750000000000000        0.0000000000000000     
  0.75000000000000000       0.71875000000000000        0.0000000000000000     
  0.78125000000000000       0.71875000000000000        0.0000000000000000     
  0.81250000000000000       0.71875000000000000        0.0000000000000000     
  0.84375000000000000       0.71875000000000000        0.0000000000000000     
  0.87500000000000000       0.71875000000000000        0.0000000000000000     
  0.75000000000000000       0.75000000000000000        0.0000000000000000     
  0.78125000000000000       0.75000000000000000        0.0000000000000000     
  0.81250000000000000       0.75000000000000000        0.0000000000000000     
  0.84375000000000000       0.75000000000000000        0.0000000000000000     
  0.87500000000000000       0.75000000000000000        0.0000000000000000     
  0.87500000000000000       0.62500000000000000        0.0000000000000000     
  0.90625000000000000       0.62500000000000000        0.0000000000000000     
  0.93750000000000000       0.62500000000000000        0.0000000000000000     
  0.96875000000000000       0.62500000000000000        0.0000000000000000     
   1.0000000000000000       0.62500000000000000        0.0000000000000000     
  0.87500000000000000       0.65625000000000000        0.0000000000000000     
  0.90625000000000000       0.65625000000000000        0.0000000000000000     
  0.93750000000000000       0.65625000000000000        0.0000000000000000     
  0.96875000000000000       0.65625000000000000        0.0000000000000000     
   1.0000000000000000       0.65625000000000000        0.0000000000000000     
  0.87500000000000000       0.68750000000000000        0.0000000000000000     
  0.90625000000000000       0.68750000000000000        0.0000000000000000     
  0.93750000000000000       0.68750000000000000        0.0000000000000000     
  0.96875000000000000       0.68750000000000000        0.0000000000000000     
   1.0000000000000000       0.68750000000000000        0.0000000000000000     
  0.87500000000000000       0.71875000000000000        0.0000000000000000     
  0.90625000000000000       0.71875000000000000        0.0000000000000000     
  0.93750000000000000       0.71875000000000000        0.0000000000000000     
  0.96875000000000000       0.71875000000000000        0.0000000000000000     
   1.0000000000000000       0.71875000000000000        0.0000000000000000     
  0.87500000000000000       0.75000000000000000        0.0000000000000000     
  0.90625000000000000       0.75000000000000000        0.0000000000000000     
  0.93750000000000000       0.75000000000000000        0.0000000000000000     
  0.96875000000000000       0.75000000000000000        0.0000000000000000     
   1.0000000000000000       0.75000000000000000        0.0000000000000000     
   1.0000000000000000       0.62500000000000000        0.0000000000000000     
   1.0312500000000000       0.62500000000000000        0.0000000000000000     
   1.0625000000000000       0.62500000000000000        0.0000000000000000     
   1.0937500000000000       0.62500000000000000        0.0000000000000000     
   1.1250000000000000       0.62500000000000000        0.0000000000000000     
   1.0000000000000000       0.65625000000000000        0.0000000000000000     
   1.0312500000000000       0.65625000000000000        0.0000000000000000     
   1.0625000000000000       0.65625000000000000        0.0000000000000000     
   1.0937500000000000       0.65625000000000000        0.0000000000000000     
   1.1250000000000000       0.65625000000000000        0.0000000000000000     
   1.0000000000000000       0.68750000000000000        0.0000000000000000     
   1.0312500000000000       0.68750000000000000        0.0000000000000000     
   1.0625000000000000       0.68750000000000000        0.0000000000000000     
   1.0937500000000000       0.68750000000000000        0.0000000000000000     
   1.1250000000000000       0.68750000000000000        0.0000000000000000     
   1.0000000000000000       0.71875000000000000        0.0000000000000000     
   1.0312500000000000       0.71875000000000000        0.0000000000000000     
   1.0625000000000000       0.71875000000000000        0.0000000000000000     
   1.0937500000000000       0.71875000000000000        0.0000000000000000     
   1.1250000000000000       0.71875000000000000        0.0000000000000000     
   1.0000000000000000       0.75000000000000000        0.0000000000000000     
   1.0312500000000000       0.75000000000000000        0.0000000000000000     
   1.0625000000000000       0.75000000000000000        0.0000000000000000     
   1.0937500000000000       0.75000000000000000        0.0000000000000000     
   1.1250000000000000       0.75000000000000000        0.0000000000000000     
   1.1250000000000000       0.62500000000000000        0.0000000000000000     
   1.1562500000000000       0.62500000000000000        0.0000000000000000     
   1.1875000000000000       0.62500000000000000        0.0000000000000000     
   1.2187500000000000       0.62500000000000000        0.0000000000000000     
   1.2500000000000000       0.62500000000000000        0.0000000000000000     
   1.1250000000000000       0.65625000000000000        0.0000000000000000     
   1.1562500000000000       0.65625000000000000        0.0000000000000000     
   1.1875000000000000       0.65625000000000000        0.0000000000000000     
   1.2187500000000000       0.65625000000000000        0.0000000000000000     
   1.2500000000000000       0.65625000000000000        0.0000000000000000     
   1.1250000000000000       0.68750000000000000        0.0000000000000000     
   1.1562500000000000       0.68750000000000000        0.0000000000000000     
   1.1875000000000000       0.68750000000000000        0.0000000000000000     
   1.2187500000000000       0.68750000000000000        0.0000000000000000     
   1.2500000000000000       0.68750000000000000        0.0000000000000000     
   1.1250000000000000       0.71875000000000000        0.0000000000000000     
   1.1562500000000000       0.71875000000000000        0.0000000000000000     
   1.1875000000000000       0.71875000000000000        0.0000000000000000     
   1.2187500000000000       0.71875000000000000        0.0000000000000000     
   1.2500000000000000       0.71875000000000000        0.0000000000000000     
   1.1250000000000000       0.75000000000000000        0.0000000000000000     
   1.1562500000000000       0.75000000000000000        0.0000000000000000     
   1.1875000000000000       0.75000000000000000        0.0000000000000000     
   1.2187500000000000       0.75000000000000000        0.0000000000000000     
   1.2500000000000000       0.75000000000000000        0.0000000000000000     
   1.2500000000000000       0.62500000000000000        0.0000000000000000     
   1.2812500000000000       0.62500000000000000        0.0000000000000000     
   1.3125000000000000       0.62500000000000000        0.0000000000000000     
   1.3437500000000000       0.62500000000000000        0.0000000000000000     
   1.3750000000000000       0.62500000000000000        0.0000000000000000     
   1.2500000000000000       0.65625000000000000        0.0000000000000000     
   1.2812500000000000       0.65625000000000000        0.0000000000000000     
   1.3125000000000000       0.65625000000000000        0.0000000000000000     
   1.3437500000000000       0.65625000000000000        0.0000000000000000     
   1.3750000000000000       0.65625000000000000        0.0000000000000000     
   1.2500000000000000       0.68750000000000000        0.0000000000000000     
   1.2812500000000000       0.68750000000000000        0.0000000000000000     
   1.3125000000000000       0.68750000000000000        0.0000000000000000     
   1.3437500000000000       0.68750000000000000        0.0000000000000000     
   1.3750000000000000       0.68750000000000000        0.0000000000000000     
   1.2500000000000000       0.71875000000000000        0.0000000000000000     
   1.2812500000000000       0.71875000000000000        0.0000000000000000     
   1.3125000000000000       0.71875000000000000        0.0000000000000000     
   1.3437500000000000       0.71875000000000000        0.0000000000000000     
   1.3750000000000000       0.71875000000000000        0.0000000000000000     
   1.2500000000000000       0.75000000000000000        0.0000000000000000     
   1.2812500000000000       0.75000000000000000        0.0000000000000000     
   1.3125000000000000       0.75000000000000000        0.0000000000000000     
   1.3437500000000000       0.75000000000000000        0.0000000000000000     
   1.3750000000000000       0.75000000000000000        0.0000000000000000     
   1.3750000000000000       0.62500000000000000        0.0000000000000000     
   1.4062500000000000       0.62500000000000000        0.0000000000000000     
   1.4375000000000000       0.62500000000000000        0.0000000000000000     
   1.4687500000000000       0.62500000000000000        0.0000000000000000     
   1.5000000000000000       0.62500000000000000        0.0000000000000000     
   1.3750000000000000       0.65625000000000000        0.0000000000000000     
   1.4062500000000000       0.65625000000000000        0.0000000000000000     
   1.4375000000000000       0.65625000000000000        0.0000000000000000     
   1.4687500000000000       0.65625000000000000        0.0000000000000000     
   1.5000000000000000       0.65625000000000000        0.0000000000000000     
   1.3750000000000000       0.68750000000000000        0.0000000000000000     
   1.4062500000000000       0.68750000000000000        0.0000000000000000     
   1.4375000000000000       0.68750000000000000        0.0000000000000000     
   1.4687500000000000       0.68750000000000000        0.0000000000000000     
   1.5000000000000000       0.68750000000000000        0.0000000000000000     
   1.3750000000000000       0.71875000000000000        0.0000000000000000     
   1.4062500000000000       0.71875000000000000        0.0000000000000000     
   1.4375000000000000       0.71875000000000000        0.0000000000000000     
   1.4687500000000000       0.71875000000000000        0.0000000000000000     
   1.5000000000000000       0.71875000000000000        0.0000000000000000     
   1.3750000000000000       0.75000000000000000        0.0000000000000000     
   1.4062500000000000       0.75000000000000000        0.0000000000000000     
   1.4375000000000000       0.75000000000000000        0.0000000000000000     
   1.4687500000000000       0.75000000000000000        0.0000000000000000     
   1.5000000000000000       0.75000000000000000        0.0000000000000000     
  0.50000000000000000       0.75000000000000000        0.0000000000000000     
  0.53125000000000000       0.75000000000000000        0.0000000000000000     
  0.56250000000000000       0.75000000000000000        0.0000000000000000     
  0.59375000000000000       0.75000000000000000        0.0000000000000000     
  0.62500000000000000       0.75000000000000000        0.0000000000000000     
  0.50000000000000000       0.78125000000000000        0.0000000000000000     
  0.53125000000000000       0.78125000000000000        0.0000000000000000     
  0.56250000000000000       0.78125000000000000        0.0000000000000000     
  0.59375000000000000       0.78125000000000000        0.0000000000000000     
  0.62500000000000000       0.78125000000000000        0.0000000000000000     
  0.50000000000000000       0.81250000000000000        0.0000000000000000     
  0.53125000000000000       0.81250000000000000        0.0000000000000000     
  0.56250000000000000       0.81250000000000000        0.0000000000000000     
  0.59375000000000000       0.81250000000000000        0.0000000000000000     
  0.62500000000000000       0.81250000000000000        0.0000000000000000     
  0.50000000000000000       0.84375000000000000        0.0000000000000000     
  0.53125000000000000       0.84375000000000000        0.0000000000000000     
  0.56250000000000000       0.84375000000000000        0.0000000000000000     
  0.59375000000000000       0.84375000000000000        0.0000000000000000     
  0.62500000000000000       0.84375000000000000        0.0000000000000000     
  0.50000000000000000       0.87500000000000000        0.0000000000000000     
  0.53125000000000000       0.87500000000000000        0.0000000000000000     
  0.56250000000000000       0.87500000000000000        0.0000000000000000     
  0.59375000000000000       0.87500000000000000        0.0000000000000000     
  0.62500000000000000       0.87500000000000000        0.0000000000000000     
  0.62500000000000000       0.75000000000000000        0.0000000000000000     
  0.65625000000000000       0.75000000000000000        0.0000000000000000     
  0.68750000000000000       0.75000000000000000        0.0000000000000000     
  0.71875000000000000       0.75000000000000000        0.0000000000000000     
  0.75000000000000000       0.75000000000000000        0.0000000000000000     
  0.62500000000000000       0.78125000000000000        0.0000000000000000     
  0.65625000000000000       0.78125000000000000        0.0000000000000000     
  0.68750000000000000       0.78125000000000000        0.0000000000000000     
  0.71875000000000000       0.78125000000000000        0.0000000000000000     
  0.75000000000000000       0.78125000000000000        0.0000000000000000     
  0.62500000000000000       0.81250000000000000        0.0000000000000000     
  0.65625000000000000       0.81250000000000000        0.0000000000000000     
  0.68750000000000000       0.81250000000000000        0.0000000000000000     
  0.71875000000000000       0.81250000000000000        0.0000000000000000     
  0.75000000000000000       0.81250000000000000        0.0000000000000000     
  0.62500000000000000       0.84375000000000000        0.0000000000000000     
  0.65625000000000000       0.84375000000000000        0.0000000000000000     
  0.68750000000000000       0.84375000000000000        0.0000000000000000     
  0.71875000000000000       0.84375000000000000        0.0000000000000000     
  0.75000000000000000       0.84375000000000000        0.0000000000000000     
  0.62500000000000000       0.87500000000000000        0.0000000000000000     
  0.65625000000000000       0.87500000000000000        0.0000000000000000     
  0.68750000000000000       0.87500000000000000        0.0000000000000000     
  0.71875000000000000       0.87500000000000000        0.0000000000000000     
  0.75000000000000000       0.87500000000000000        0.0000000000000000     
  0.75000000000000000       0.75000000000000000        0.0000000000000000     
  0.78125000000000000       0.75000000000000000        0.0000000000000000     
  0.81250000000000000       0.75000000000000000        0.0000000000000000     
  0.84375000000000000       0.75000000000000000        0.0000000000000000     
  0.87500000000000000       0.75000000000000000        0.0000000000000000     
  0.75000000000000000       0.78125000000000000        0.0000000000000000     
  0.78125000000000000       0.78125000000000000        0.0000000000000000     
  0.81250000000000000       0.78125000000000000        0.0000000000000000     
  0.84375000000000000       0.78125000000000000        0.0000000000000000     
  0.87500000000000000       0.78125000000000000        0.0000000000000000     
  0.75000000000000000       0.81250000000000000        0.0000000000000000     
  0.78125000000000000       0.81250000000000000        0.0000000000000000     
  0.81250000000000000       0.81250000000000000        0.0000000000000000     
  0.84375000000000000       0.81250000000000000        0.0000000000000000     
  0.87500000000000000       0.81250000000000000        0.0000000000000000     
  0.75000000000000000       0.84375000000000000        0.0000000000000000     
  0.78125000000000000       0.84375000000000000        0.0000000000000000     
  0.81250000000000000       0.84375000000000000        0.0000000000000000     
  0.84375000000000000       0.84375000000000000        0.0000000000000000     
  0.87500000000000000       0.84375000000000000        0.0000000000000000     
  0.75000000000000000       0.87500000000000000        0.0000000000000000     
  0.78125000000000000       0.87500000000000000        0.0000000000000000     
  0.81250000000000000       0.87500000000000000        0.0000000000000000     
  0.84375000000000000       0.87500000000000000        0.0000000000000000     
  0.87500000000000000       0.87500000000000000        0.0000000000000000     
  0.87500000000000000       0.75000000000000000        0.0000000000000000     
  0.90625000000000000       0.75000000000000000        0.0000000000000000     
  0.93750000000000000       0.75000000000000000        0.0000000000000000     
  0.96875000000000000       0.75000000000000000        0.0000000000000000     
   1.0000000000000000       0.75000000000000000        0.0000000000000000     
  0.87500000000000000       0.78125000000000000        0.0000000000000000     
  0.90625000000000000       0.78125000000000000        0.0000000000000000     
  0.93750000000000000       0.78125000000000000        0.0000000000000000     
  0.96875000000000000       0.78125000000000000        0.0000000000000000     
   1.0000000000000000       0.78125000000000000        0.0000000000000000     
  0.87500000000000000       0.81250000000000000        0.0000000000000000     
  0.90625000000000000       0.81250000000000000        0.0000000000000000     
  0.93750000000000000       0.81250000000000000        0.0000000000000000     
  0.96875000000000000       0.81250000000000000        0.0000000000000000     
   1.0000000000000000       0.81250000000000000        0.0000000000000000     
  0.87500000000000000       0.84375000000000000        0.0000000000000000     
  0.90625000000000000       0.84375000000000000        0.0000000000000000     
  0.93750000000000000       0.84375000000000000        0.0000000000000000     
  0.96875000000000000       0.84375000000000000        0.0000000000000000     
   1.0000000000000000       0.84375000000000000        0.0000000000000000     
  0.87500000000000000       0.87500000000000000        0.0000000000000000     
  0.90625000000000000       0.87500000000000000        0.0000000000000000     
  0.93750000000000000       0.87500000000000000        0.0000000000000000     
  0.96875000000000000       0.87500000000000000        0.0000000000000000     
   1.0000000000000000       0.87500000000000000        0.0000000000000000     
   1.0000000000000000       0.75000000000000000        0.0000000000000000     
   1.0312500000000000       0.75000000000000000        0.0000000000000000     
   1.0625000000000000       0.75000000000000000        0.0000000000000000     
   1.0937500000000000       0.75000000000000000        0.0000000000000000     
   1.1250000000000000       0.75000000000000000        0.0000000000000000     
   1.0000000000000000       0.78125000000000000        0.0000000000000000     
   1.0312500000000000       0.78125000000000000        0.0000000000000000     
   1.0625000000000000       0.78125000000000000        0.0000000000000000     
   1.0937500000000000       0.78125000000000000        0.0000000000000000     
   1.1250000000000000       0.78125000000000000        0.0000000000000000     
   1.0000000000000000       0.81250000000000000        0.0000000000000000     
   1.0312500000000000       0.81250000000000000        0.0000000000000000     
   1.0625000000000000       0.81250000000000000        0.0000000000000000     
   1.0937500000000000       0.81250000000000000        0.0000000000000000     
   1.1250000000000000       0.81250000000000000        0.0000000000000000     
   1.0000000000000000       0.84375000000000000        0.0000000000000000     
   1.0312500000000000       0.84375000000000000        0.0000000000000000     
   1.0625000000000000       0.84375000000000000        0.0000000000000000     
   1.0937500000000000       0.84375000000000000        0.0000000000000000     
   1.1250000000000000       0.84375000000000000        0.0000000000000000     
   1.0000000000000000       0.87500000000000000        0.0000000000000000     
   1.0312500000000000       0.87500000000000000        0.0000000000000000     
   1.0625000000000000       0.87500000000000000        0.0000000000000000     
   1.0937500000000000       0.87500000000000000        0.0000000000000000     
   1.1250000000000000       0.87500000000000000        0.0000000000000000     
   1.1250000000000000       0.75000000000000000        0.0000000000000000     
   1.1562500000000000       0.75000000000000000        0.0000000000000000     
   1.1875000000000000       0.75000000000000000        0.0000000000000000     
   1.2187500000000000       0.75000000000000000        0.0000000000000000     
   1.2500000000000000       0.75000000000000000        0.0000000000000000     
   1.1250000000000000       0.78125000000000000        0.0000000000000000     
   1.1562500000000000       0.78125000000000000        0.0000000000000000     
   1.1875000000000000       0.78125000000000000        0.0000000000000000     
   1.2187500000000000       0.78125000000000000        0.0000000000000000     
   1.2500000000000000       0.78125000000000000        0.0000000000000000     
   1.1250000000000000       0.81250000000000000        0.0000000000000000     
   1.1562500000000000       0.81250000000000000        0.0000000000000000     
   1.1875000000000000       0.81250000000000000        0.0000000000000000     
   1.2187500000000000       0.81250000000000000        0.0000000000000000     
   1.2500000000000000       0.81250000000000000        0.0000000000000000     
   1.1250000000000000       0.84375000000000000        0.0000000000000000     
   1.1562500000000000       0.84375000000000000        0.0000000000000000     
   1.1875000000000000       0.84375000000000000        0.0000000000000000     
   1.2187500000000000       0.84375000000000000        0.0000000000000000     
   1.2500000000000000       0.84375000000000000        0.0000000000000000     
   1.1250000000000000       0.87500000000000000        0.0000000000000000     
   1.1562500000000000       0.87500000000000000        0.0000000000000000     
   1.1875000000000000       0.87500000000000000        0.0000000000000000     
   1.2187500000000000       0.87500000000000000        0.0000000000000000     
   1.2500000000000000       0.87500000000000000        0.0000000000000000     
   1.2500000000000000       0.75000000000000000        0.0000000000000000     
   1.2812500000000000       0.75000000000000000        0.0000000000000000     
   1.3125000000000000       0.75000000000000000        0.0000000000000000     
   1.3437500000000000       0.75000000000000000        0.0000000000000000     
   1.3750000000000000       0.75000000000000000        0.0000000000000000     
   1.2500000000000000       0.78125000000000000        0.0000000000000000     
   1.2812500000000000       0.78125000000000000        0.0000000000000000     
   1.3125000000000000       0.78125000000000000        0.0000000000000000     
   1.3437500000000000       0.78125000000000000        0.0000000000000000     
   1.3750000000000000       0.78125000000000000        0.0000000000000000     
   1.2500000000000000       0.81250000000000000        0.0000000000000000     
   1.2812500000000000       0.81250000000000000        0.0000000000000000     
   1.3125000000000000       0.81250000000000000        0.0000000000000000     
   1.3437500000000000       0.81250000000000000        0.0000000000000000     
   1.3750000000000000       0.81250000000000000        0.0000000000000000     
   1.2500000000000000       0.84375000000000000        0.0000000000000000     
   1.2812500000000000       0.84375000000000000        0.0000000000000000     
   1.3125000000000000       0.84375000000000000        0.0000000000000000     
   1.3437500000000000       0.84375000000000000        0.0000000000000000     
   1.3750000000000000       0.84375000000000000        0.0000000000000000     
   1.2500000000000000       0.87500000000000000        0.0000000000000000     
   1.2812500000000000       0.87500000000000000        0.0000000000000000     
   1.3125000000000000       0.87500000000000000        0.0000000000000000     
   1.3437500000000000       0.87500000000000000        0.0000000000000000     
   1.3750000000000000       0.87500000000000000        0.0000000000000000     
   1.3750000000000000       0.75000000000000000        0.0000000000000000     
   1.4062500000000000       0.75000000000000000        0.0000000000000000     
   1.4375000000000000       0.75000000000000000        0.0000000000000000     
   1.4687500000000000       0.75000000000000000        0.0000000000000000     
   1.5000000000000000       0.75000000000000000        0.0000000000000000     
   1.3750000000000000       0.78125000000000000        0.0000000000000000     
   1.4062500000000000       0.78125000000000000        0.0000000000000000     
   1.4375000000000000       0.78125000000000000        0.0000000000000000     
   1.4687500000000000       0.78125000000000000        0.0000000000000000     
   1.5000000000000000       0.78125000000000000        0.0000000000000000     
   1.3750000000000000       0.81250000000000000        0.0000000000000000     
   1.4062500000000000       0.81250000000000000        0.0000000000000000     
   1.4375000000000000       0.81250000000000000        0.0000000000000000     
   1.4687500000000000       0.81250000000000000        0.0000000000000000     
   1.5000000000000000       0.81250000000000000        0.0000000000000000     
   1.3750000000000000       0.84375000000000000        0.0000000000000000     
   1.4062500000000000       0.84375000000000000        0.0000000000000000     
   1.4375000000000000       0.84375000000000000        0.0000000000000000     
   1.4687500000000000       0.84375000000000000        0.0000000000000000     
   1.5000000000000000       0.84375000000000000        0.0000000000000000     
   1.3750000000000000       0.87500000000000000        0.0000000000000000     
   1.4062500000000000       0.87500000000000000        0.0000000000000000     
   1.4375000000000000       0.87500000000000000        0.0000000000000000     
   1.4687500000000000       0.87500000000000000        0.0000000000000000     
   1.5000000000000000       0.87500000000000000        0.0000000000000000     
  0.50000000000000000       0.87500000000000000        0.0000000000000000     
  0.53125000000000000       0.87500000000000000        0.0000000000000000     
  0.56250000000000000       0.87500000000000000        0.0000000000000000     
  0.59375000000000000       0.87500000000000000        0.0000000000000000     
  0.62500000000000000       0.87500000000000000        0.0000000000000000     
  0.50000000000000000       0.90625000000000000        0.0000000000000000     
  0.53125000000000000       0.90625000000000000        0.0000000000000000     
  0.56250000000000000       0.90625000000000000        0.0000000000000000     
  0.59375000000000000       0.90625000000000000        0.0000000000000000     
  0.62500000000000000       0.90625000000000000        0.0000000000000000     
  0.50000000000000000       0.93750000000000000        0.0000000000000000     
  0.53125000000000000       0.93750000000000000        0.0000000000000000     
  0.56250000000000000       0.93750000000000000        0.0000000000000000     
  0.59375000000000000       0.93750000000000000        0.0000000000000000     
  0.62500000000000000       0.93750000000000000        0.0000000000000000     
  0.50000000000000000       0.96875000000000000        0.0000000000000000     
  0.53125000000000000       0.96875000000000000        0.0000000000000000     
  0.56250000000000000       0.96875000000000000        0.0000000000000000     
  0.59375000000000000       0.96875000000000000        0.0000000000000000     
  0.62500000000000000       0.96875000000000000        0.0000000000000000     
  0.50000000000000000        1.0000000000000000        0.0000000000000000     
  0.53125000000000000        1.0000000000000000        0.0000000000000000     
  0.56250000000000000        1.0000000000000000        0.0000000000000000     
  0.59375000000000000        1.0000000000000000        0.0000000000000000     
  0.62500000000000000        1.0000000000000000        0.0000000000000000     
  0.62500000000000000       0.87500000000000000        0.0000000000000000     
  0.65625000000000000       0.87500000000000000        0.0000000000000000     
  0.68750000000000000       0.87500000000000000        0.0000000000000000     
  0.71875000000000000       0.87500000000000000        0.0000000000000000     
  0.75000000000000000       0.87500000000000000        0.0000000000000000     
  0.62500000000000000       0.90625000000000000        0.0000000000000000     
  0.65625000000000000       0.90625000000000000        0.0000000000000000     
  0.68750000000000000       0.90625000000000000        0.0000000000000000     
  0.71875000000000000       0.90625000000000000        0.0000000000000000     
  0.75000000000000000       0.90625000000000000        0.0000000000000000     
  0.62500000000000000       0.93750000000000000        0.0000000000000000     
  0.65625000000000000       0.93750000000000000        0.0000000000000000     
  0.68750000000000000       0.93750000000000000        0.0000000000000000     
  0.71875000000000000       0.93750000000000000        0.0000000000000000     
  0.75000000000000000       0.93750000000000000        0.0000000000000000     
  0.62500000000000000       0.96875000000000000        0.0000000000000000     
  0.65625000000000000       0.96875000000000000        0.0000000000000000     
  0.68750000000000000       0.96875000000000000        0.0000000000000000     
  0.71875000000000000       0.96875000000000000        0.0000000000000000     
  0.75000000000000000       0.96875000000000000        0.0000000000000000     
  0.62500000000000000        1.0000000000000000        0.0000000000000000     
  0.65625000000000000        1.0000000000000000        0.0000000000000000     
  0.68750000000000000        1.0000000000000000        0.0000000000000000     
  0.71875000000000000        1.0000000000000000        0.0000000000000000     
  0.75000000000000000        1.0000000000000000        0.0000000000000000     
  0.75000000000000000       0.87500000000000000        0.0000000000000000     
  0.78125000000000000       0.87500000000000000        0.0000000000000000     
  0.81250000000000000       0.87500000000000000        0.0000000000000000     
  0.84375000000000000       0.87500000000000000        0.0000000000000000     
  0.87500000000000000       0.87500000000000000        0.0000000000000000     
  0.75000000000000000       0.90625000000000000        0.0000000000000000     
  0.78125000000000000       0.90625000000000000        0.0000000000000000     
  0.81250000000000000       0.90625000000000000        0.0000000000000000     
  0.84375000000000000       0.90625000000000000        0.0000000000000000     
  0.87500000000000000       0.90625000000000000        0.0000000000000000     
  0.75000000000000000       0.93750000000000000        0.0000000000000000     
  0.78125000000000000       0.93750000000000000        0.0000000000000000     
  0.81250000000000000       0.93750000000000000        0.0000000000000000     
  0.84375000000000000       0.93750000000000000        0.0000000000000000     
  0.87500000000000000       0.93750000000000000        0.0000000000000000     
  0.75000000000000000       0.96875000000000000        0.0000000000000000     
  0.78125000000000000       0.96875000000000000        0.0000000000000000     
  0.81250000000000000       0.96875000000000000        0.0000000000000000     
  0.84375000000000000       0.96875000000000000        0.0000000000000000     
  0.87500000000000000       0.96875000000000000        0.0000000000000000     
  0.75000000000000000        1.0000000000000000        0.0000000000000000     
  0.78125000000000000        1.0000000000000000        0.0000000000000000     
  0.81250000000000000        1.0000000000000000        0.0000000000000000     
  0.84375000000000000        1.0000000000000000        0.0000000000000000     
  0.87500000000000000        1.0000000000000000        0.0000000000000000     
  0.87500000000000000       0.87500000000000000        0.0000000000000000     
  0.90625000000000000       0.87500000000000000        0.0000000000000000     
  0.93750000000000000       0.87500000000000000        0.0000000000000000     
  0.96875000000000000       0.87500000000000000        0.0000000000000000     
   1.0000000000000000       0.87500000000000000        0.0000000000000000     
  0.87500000000000000       0.90625000000000000        0.0000000000000000     
  0.90625000000000000       0.90625000000000000        0.0000000000000000     
  0.93750000000000000       0.90625000000000000        0.0000000000000000     
  0.96875000000000000       0.90625000000000000        0.0000000000000000     
   1.0000000000000000       0.90625000000000000        0.0000000000000000     
  0.87500000000000000       0.93750000000000000        0.0000000000000000     
  0.90625000000000000       0.93750000000000000        0.0000000000000000     
  0.93750000000000000       0.93750000000000000        0.0000000000000000     
  0.96875000000000000       0.93750000000000000        0.0000000000000000     
   1.0000000000000000       0.93750000000000000        0.0000000000000000     
  0.87500000000000000       0.96875000000000000        0.0000000000000000     
  0.90625000000000000       0.96875000000000000        0.0000000000000000     
  0.93750000000000000       0.96875000000000000        0.0000000000000000     
  0.96875000000000000       0.96875000000000000        0.0000000000000000     
   1.0000000000000000       0.96875000000000000        0.0000000000000000     
  0.87500000000000000        1.0000000000000000        0.0000000000000000     
  0.90625000000000000        1.0000000000000000        0.0000000000000000     
  0.93750000000000000        1.0000000000000000        0.0000000000000000     
  0.96875000000000000        1.0000000000000000        0.0000000000000000     
   1.0000000000000000        1.0000000000000000        0.0000000000000000     
   1.0000000000000000       0.87500000000000000        0.0000000000000000     
   1.0312500000000000       0.87500000000000000        0.0000000000000000     
   1.0625000000000000       0.87500000000000000        0.0000000000000000     
   1.0937500000000000       0.87500000000000000        0.0000000000000000     
   1.1250000000000000       0.87500000000000000        0.0000000000000000     
   1.0000000000000000       0.90625000000000000        0.0000000000000000     
   1.0312500000000000       0.90625000000000000        0.0000000000000000     
   1.0625000000000000       0.90625000000000000        0.0000000000000000     
   1.0937500000000000       0.90625000000000000        0.0000000000000000     
   1.1250000000000000       0.90625000000000000        0.0000000000000000     
   1.0000000000000000       0.93750000000000000        0.0000000000000000     
   1.0312500000000000       0.93750000000000000        0.0000000000000000     
   1.0625000000000000       0.93750000000000000        0.0000000000000000     
   1.0937500000000000       0.93750000000000000        0.0000000000000000     
   1.1250000000000000       0.93750000000000000        0.0000000000000000     
   1.0000000000000000       0.96875000000000000        0.0000000000000000     
   1.0312500000000000       0.96875000000000000        0.0000000000000000     
   1.0625000000000000       0.96875000000000000        0.0000000000000000     
   1.0937500000000000       0.96875000000000000        0.0000000000000000     
   1.1250000000000000       0.96875000000000000        0.0000000000000000     
   1.0000000000000000        1.0000000000000000        0.0000000000000000     
   1.0312500000000000        1.0000000000000000        0.0000000000000000     
   1.0625000000000000        1.0000000000000000        0.0000000000000000     
   1.0937500000000000        1.0000000000000000        0.0000000000000000     
   1.1250000000000000        1.0000000000000000        0.0000000000000000     
   1.1250000000000000       0.87500000000000000        0.0000000000000000     
   1.1562500000000000       0.87500000000000000        0.0000000000000000     
   1.1875000000000000       0.87500000000000000        0.0000000000000000     
   1.2187500000000000       0.87500000000000000        0.0000000000000000     
   1.2500000000000000       0.87500000000000000        0.0000000000000000     
   1.1250000000000000       0.90625000000000000        0.0000000000000000     
   1.1562500000000000       0.90625000000000000        0.0000000000000000     
   1.1875000000000000       0.90625000000000000        0.0000000000000000     
   1.2187500000000000       0.90625000000000000        0.0000000000000000     
   1.2500000000000000       0.90625000000000000        0.0000000000000000     
   1.1250000000000000       0.93750000000000000        0.0000000000000000     
   1.1562500000000000       0.93750000000000000        0.0000000000000000     
   1.1875000000000000       0.93750000000000000        0.0000000000000000     
   1.2187500000000000       0.93750000000000000        0.0000000000000000     
   1.2500000000000000       0.93750000000000000        0.0000000000000000     
   1.1250000000000000       0.96875000000000000        0.0000000000000000     
   1.1562500000000000       0.96875000000000000        0.0000000000000000     
   1.1875000000000000       0.96875000000000000        0.0000000000000000     
   1.2187500000000000       0.96875000000000000        0.0000000000000000     
   1.2500000000000000       0.96875000000000000        0.0000000000000000     
   1.1250000000000000        1.0000000000000000        0.0000000000000000     
   1.1562500000000000        1.0000000000000000        0.0000000000000000     
   1.1875000000000000        1.0000000000000000        0.0000000000000000     
   1.2187500000000000        1.0000000000000000        0.0000000000000000     
   1.2500000000000000        1.0000000000000000        0.0000000000000000     
   1.2500000000000000       0.87500000000000000        0.0000000000000000     
   1.2812500000000000       0.87500000000000000        0.0000000000000000     
   1.3125000000000000       0.87500000000000000        0.0000000000000000     
   1.3437500000000000       0.87500000000000000        0.0000000000000000     
   1.3750000000000000       0.87500000000000000        0.0000000000000000     
   1.2500000000000000       0.90625000000000000        0.0000000000000000     
   1.2812500000000000       0.90625000000000000        0.0000000000000000     
   1.3125000000000000       0.90625000000000000        0.0000000000000000     
   1.3437500000000000       0.90625000000000000        0.0000000000000000     
   1.3750000000000000       0.90625000000000000        0.0000000000000000     
   1.2500000000000000       0.93750000000000000        0.0000000000000000     
   1.2812500000000000       0.93750000000000000        0.0000000000000000     
   1.3125000000000000       0.93750000000000000        0.0000000000000000     
   1.3437500000000000       0.93750000000000000        0.0000000000000000     
   1.3750000000000000       0.93750000000000000        0.0000000000000000     
   1.2500000000000000       0.96875000000000000        0.0000000000000000     
   1.2812500000000000       0.96875000000000000        0.0000000000000000     
   1.3125000000000000       0.96875000000000000        0.0000000000000000     
   1.3437500000000000       0.96875000000000000        0.0000000000000000     
   1.3750000000000000       0.96875000000000000        0.0000000000000000     
   1.2500000000000000        1.0000000000000000        0.0000000000000000     
   1.2812500000000000        1.0000000000000000        0.0000000000000000     
   1.3125000000000000        1.0000000000000000        0.0000000000000000     
   1.3437500000000000        1.0000000000000000        0.0000000000000000     
   1.3750000000000000        1.0000000000000000        0.0000000000000000     
   1.3750000000000000       0.87500000000000000        0.0000000000000000     
   1.4062500000000000       0.87500000000000000        0.0000000000000000     
   1.4375000000000000       0.87500000000000000        0.0000000000000000     
   1.4687500000000000       0.87500000000000000        0.0000000000000000     
   1.5000000000000000       0.87500000000000000        0.0000000000000000     
   1.3750000000000000       0.90625000000000000        0.0000000000000000     
   1.4062500000000000       0.90625000000000000        0.0000000000000000     
   1.4375000000000000       0.90625000000000000        0.0000000000000000     
   1.4687500000000000       0.90625000000000000        0.0000000000000000     
   1.5000000000000000       0.90625000000000000        0.0000000000000000     
   1.3750000000000000       0.93750000000000000        0.0000000000000000     
   1.4062500000000000       0.93750000000000000        0.0000000000000000     
   1.4375000000000000       0.93750000000000000        0.0000000000000000     
   1.4687500000000000       0.93750000000000000        0.0000000000000000     
   1.5000000000000000       0.93750000000000000        0.0000000000000000     
   1.3750000000000000       0.96875000000000000        0.0000000000000000     
   1.4062500000000000       0.96875000000000000        0.0000000000000000     
   1.4375000000000000       0.96875000000000000        0.0000000000000000     
   1.4687500000000000       0.96875000000000000        0.0000000000000000     
   1.5000000000000000       0.96875000000000000        0.0000000000000000     
   1.3750000000000000        1.0000000000000000        0.0000000000000000     
   1.4062500000000000        1.0000000000000000        0.0000000000000000     
   1.4375000000000000        1.0000000000000000        0.0000000000000000     
   1.4687500000000000        1.0000000000000000        0.0000000000000000     
   1.5000000000000000        1.0000000000000000        0.0000000000000000     
 </DataArray>
 </Points>
 <Cells>
 <DataArray  type="Int32"  Name="connectivity"  format="ascii">
           0           1           6           5
           1           2           7           6
           2           3           8           7
           3           4           9           8
           5           6          11          10
           6           7          12          11
           7           8          13          12
           8           9          14          13
          10          11          16          15
          11          12          17          16
          12          13          18          17
          13          14          19          18
          15          16          21          20
          16          17          22          21
          17          18          23          22
          18          19          24          23
          25          26          31          30
          26          27          32          31
          27          28          33          32
          28          29          34          33
          30          31          36          35
          31          32          37          36
          32          33          38          37
          33          34          39          38
          35          36          41          40
          36          37          42          41
          37          38          43          42
          38          39          44          43
          40          41          46          45
          41          42          47          46
          42          43          48          47
          43          44          49          48
          50          51          56          55
          51          52          57          56
          52          53          58          57
          53          54          59          58
          55          56          61          60
          56          57          62          61
          57          58          63          62
          58          59          64          63
          60          61          66          65
          61          62          67          66
          62          63          68          67
          63          64          69          68
          65          66          71          70
          66          67          72          71
          67          68          73          72
          68          69          74          73
          75          76          81          80
          76          77          82          81
          77          78          83          82
          78          79          84          83
          80          81          86          85
          81          82          87          86
          82          83          88          87
          83          84          89          88
          85          86          91          90
          86          87          92          91
          87          88          93          92
          88          89          94          93
          90          91          96          95
          91          92          97          96
          92          93          98          97
          93          94          99          98
         100         101         106         105
         101         102         107         106
         102         103         108         107
         103         104         109         108
         105         106         111         110
         106         107         112         111
         107         108         113         112
         108         109         114         113
         110         111         116         115
         111         112         117         116
         112         113         118         117
         113         114         119         118
         115         116         121         120
         116         117         122         121
         117         118         123         122
         118         119         124         123
         125         126         131         130
         126         127         132         131
         127         128         133         132
         128         129         134         133
         130         131         136         135
         131         132         137         136
         132         133         138         137
         133         134         139         138
         135         136         141         140
         136         137         142         141
         137         138         143         142
         138         139         144         143
         140         141         146         145
         141         142         147         146
         142         143         148         147
         143         144         149         148
         150         151         156         155
         151         152         157         156
         152         153         158         157
         153         154         159         158
         155         156         161         160
         156         157         162         161
         157         158         163         162
         158         159         164         163
         160         161         166         165
         161         162         167         166
         162         163         168         167
         163         164         169         168
         165         166         171         170
         166         167         172         171
         167         168         173         172
         168         169         174         173
         175         176         181         180
         176         177         182         181
         177         178         183         182
         178         179         184         183
         180         181         186         185
         181         182         187         186
         182         183         188         187
         183         184         189         188
         185         186         191         190
         186         187         192         191
         187         188         193         192
         188         189         194         193
         190         191         196         195
         191         192         197         196
         192         193         198         197
         193         194         199         198
         200         201         206         205
         201         202         207         206
         202         203         208         207
         203         204         209         208
         205         206         211         210
         206         207         212         211
         207         208         213         212
         208         209         214         213
         210         211         216         215
         211         212         217         216
         212         213         218         217
         213         214         219         218
         215         216         221         220
         216         217         222         221
         217         218         223         222
         218         219         224         223
         225         226         231         230
         226         227         232         231
         227         228         233         232
         228         229         234         233
         230         231         236         235
         231         232         237         236
         232         233         238         237
         233         234         239         238
         235         236         241         240
         236         237         242         241
         237         238         243         242
         238         239         244         243
         240         241         246         245
         241         242         247         246
         242         243         248         247
         243         244         249         248
         250         251         256         255
         251         252         257         256
         252         253         258         257
         253         254         259         258
         255         256         261         260
         256         257         262         261
         257         258         263         262
         258         259         264         263
         260         261         266         265
         261         262         267         266
         262         263         268         267
         263         264         269         268
         265         266         271         270
         266         267         272         271
         267         268         273         272
         268         269         274         273
         275         276         281         280
         276         277         282         281
         277         278         283         282
         278         279         284         283
         280         281         286         285
         281         282         287         286
         282         283         288         287
         283         284         289         288
         285         286         291         290
         286         287         292         291
         287         288         293         292
         288         289         294         293
         290         291         296         295
         291         292         297         296
         292         293         298         297
         293         294         299         298
         300         301         306         305
         301         302         307         306
         302         303         308         307
         303         304         309         308
         305         306         311         310
         306         307         312         311
         307         308         313         312
         308         309         314         313
         310         311         316         315
         311         312         317         316
         312         313         318         317
         313         314         319         318
         315         316         321         320
         316         317         322         321
         317         318         323         322
         318         319         324         323
         325         326         331         330
         326         327         332         331
         327         328         333         332
         328         329         334         333
         330         331         336         335
         331         332         337         336
         332         333         338         337
         333         334         339         338
         335         336         341         340
         336         337         342         341
         337         338         343         342
         338         339         344         343
         340         341         346         345
         341         342         347         346
         342         343         348         347
         343         344         349         348
         350         351         356         355
         351         352         357         356
         352         353         358         357
         353         354         359         358
         355         356         361         360
         356         357         362         361
         357         358         363         362
         358         359         364         363
         360         361         366         365
         361         362         367         366
         362         363         368         367
         363         364         369         368
         365         366         371         370
         366         367         372         371
         367         368         373         372
         368         369         374         373
         375         376         381         380
         376         377         382         381
         377         378         383         382
         378         379         384         383
         380         381         386         385
         381         382         387         386
         382         383         388         387
         383         384         389         388
         385         386         391         390
         386         387         392         391
         387         388         393         392
         388         389         394         393
         390         391         396         395
         391         392         397         396
         392         393         398         397
         393         394         399         398
         400         401         406         405
         401         402         407         406
         402         403         408         407
         403         404         409         408
         405         406         411         410
         406         407         412         411
         407         408         413         412
         408         409         414         413
         410         411         416         415
         411         412         417         416
         412         413         418         417
         413         414         419         418
         415         416         421         420
         416         417         422         421
         417         418         423         422
         418         419         424         423
         425         426         431         430
         426         427         432         431
         427         428         433         432
         428         429         434         433
         430         431         436         435
         431         432         437         436
         432         433         438         437
         433         434         439         438
         435         436         441         440
         436         437         442         441
         437         438         443         442
         438         439         444         443
         440         441         446         445
         441         442         447         446
         442         443         448         447
         443         444         449         448
         450         451         456         455
         451         452         457         456
         452         453         458         457
         453         454         459         458
         455         456         461         460
         456         457         462         461
         457         458         463         462
         458         459         464         463
         460         461         466         465
         461         462         467         466
         462         463         468         467
         463         464         469         468
         465         466         471         470
         466         467         472         471
         467         468         473         472
         468         469         474         473
         475         476         481         480
         476         477         482         481
         477         478         483         482
         478         479         484         483
         480         481         486         485
         481         482         487         486
         482         483         488         487
         483         484         489         488
         485         486         491         490
         486         487         492         491
         487         488         493         492
         488         489         494         493
         490         491         496         495
         491         492         497         496
         492         493         498         497
         493         494         499         498
         500         501         506         505
         501         502         507         506
         502         503         508         507
         503         504         509         508
         505         506         511         510
         506         507         512         511
         507         508         513         512
         508         509         514         513
         510         511         516         515
         511         512         517         516
         512         513         518         517
         513         514         519         518
         515         516         521         520
         516         517         522         521
         517         518         523         522
         518         519         524         523
         525         526         531         530
         526         527         532         531
         527         528         533         532
         528         529         534         533
         530         531         536         535
         531         532         537         536
         532         533         538         537
         533         534         539         538
         535         536         541         540
         536         537         542         541
         537         538         543         542
         538         539         544         543
         540         541         546         545
         541         542         547         546
         542         543         548         547
         543         544         549         548
         550         551         556         555
         551         552         557         556
         552         553         558         557
         553         554         559         558
         555         556         561         560
         556         557         562         561
         557         558         563         562
         558         559         564         563
         560         561         566         565
         561         562         567         566
         562         563         568         567
         563         564         569         568
         565         566         571         570
         566         567         572         571
         567         568         573         572
         568         569         574         573
         575         576         581         580
         576         577         582         581
         577         578         583         582
         578         579         584         583
         580         581         586         585
         581         582         587         586
         582         583         588         587
         583         584         589         588
         585         586         591         590
         586         587         592         591
         587         588         593         592
         588         589         594         593
         590         591         596         595
         591         592         597         596
         592         593         598         597
         593         594         599         598
         600         601         606         605
         601         602         607         606
         602         603         608         607
         603         604         609         608
         605         606         611         610
         606         607         612         611
         607         608         613         612
         608         609         614         613
         610         611         616         615
         611         612         617         616
         612         613         618         617
         613         614         619         618
         615         616         621         620
         616         617         622         621
         617         618         623         622
         618         619         624         623
         625         626         631         630
         626         627         632         631
         627         628         633         632
         628         629         634         633
         630         631         636         635
         631         632         637         636
         632         633         638         637
         633         634         639         638
         635         636         641         640
         636         637         642         641
         637         638         643         642
         638         639         644         643
         640         641         646         645
         641         642         647         646
         642         643         648         647
         643         644         649         648
         650         651         656         655
         651         652         657         656
         652         653         658         657
         653         654         659         658
         655         656         661         660
         656         657         662         661
         657         658         663         662
         658         659         664         663
         660         661         666         665
         661         662         667         666
         662         663         668         667
         663         664         669         668
         665         666         671         670
         666         667         672         671
         667         668         673         672
         668         669         674         673
         675         676         681         680
         676         677         682         681
         677         678         683         682
         678         679         684         683
         680         681         686         685
         681         682         687         686
         682         683         688         687
         683         684         689         688
         685         686         691         690
         686         687         692         691
         687         688         693         692
         688         689         694         693
         690         691         696         695
         691         692         697         696
         692         693         698         697
         693         694         699         698
         700         701         706         705
         701         702         707         706
         702         703         708         707
         703         704         709         708
         705         706         711         710
         706         707         712         711
         707         708         713         712
         708         709         714         713
         710         711         716         715
         711         712         717         716
         712         713         718         717
         713         714         719         718
         715         716         721         720
         716         717         722         721
         717         718         723         722
         718         719         724         723
         725         726         731         730
         726         727         732         731
         727         728         733         732
         728         729         734         733
         730         731         736         735
         731         732         737         736
         732         733         738         737
         733         734         739         738
         735         736         741         740
         736         737         742         741
         737         738         743         742
         738         739         744         743
         740         741         746         745
         741         742         747         746
         742         743         748         747
         743         744         749         748
         750         751         756         755
         751         752         757         756
         752         753         758         757
         753         754         759         758
         755         756         761         760
         756         757         762         761
         757         758         763         762
         758         759         764         763
         760         761         766         765
         761         762         767         766
         762         763         768         767
         763         764         769         768
         765         766         771         770
         766         767         772         771
         767         768         773         772
         768         769         774         773
         775         776         781         780
         776         777         782         781
         777         778         783         782
         778         779         784         783
         780         781         786         785
         781         782         787         786
         782         783         788         787
         783         784         789         788
         785         786         791         790
         786         787         792         791
         787         788         793         792
         788         789         794         793
         790         791         796         795
         791         792         797         796
         792         793         798         797
         793         794         799         798
         800         801         806         805
         801         802         807         806
         802         803         808         807
         803         804         809         808
         805         806         811         810
         806         807         812         811
         807         808         813         812
         808         809         814         813
         810         811         816         815
         811         812         817         816
         812         813         818         817
         813         814         819         818
         815         816         821         820
         816         817         822         821
         817         818         823         822
         818         819         824         823
         825         826         831         830
         826         827         832         831
         827         828         833         832
         828         829         834         833
         830         831         836         835
         831         832         837         836
         832         833         838         837
         833         834         839         838
         835         836         841         840
         836         837         842         841
         837         838         843         842
         838         839         844         843
         840         841         846         845
         841         842         847         846
         842         843         848         847
         843         844         849         848
         850         851         856         855
         851         852         857         856
         852         853         858         857
         853         854         859         858
         855         856         861         860
         856         857         862         861
         857         858         863         862
         858         859         864         863
         860         861         866         865
         861         862         867         866
         862         863         868         867
         863         864         869         868
         865         866         871         870
         866         867         872         871
         867         868         873         872
         868         869         874         873
         875         876         881         880
         876         877         882         881
         877         878         883         882
         878         879         884         883
         880         881         886         885
         881         882         887         886
         882         883         888         887
         883         884         889         888
         885         886         891         890
         886         887         892         891
         887         888         893         892
         888         889         894         893
         890         891         896         895
         891         892         897         896
         892         893         898         897
         893         894         899         898
         900         901         906         905
         901         902         907         906
         902         903         908         907
         903         904         909         908
         905         906         911         910
         906         907         912         911
         907         908         913         912
         908         909         914         913
         910         911         916         915
         911         912         917         916
         912         913         918         917
         913         914         919         918
         915         916         921         920
         916         917         922         921
         917         918         923         922
         918         919         924         923
         925         926         931         930
         926         927         932         931
         927         928         933         932
         928         929         934         933
         930         931         936         935
         931         932         937         936
         932         933         938         937
         933         934         939         938
         935         936         941         940
         936         937         942         941
         937         938         943         942
         938         939         944         943
         940         941         946         945
         941         942         947         946
         942         943         948         947
         943         944         949         948
         950         951         956         955
         951         952         957         956
         952         953         958         957
         953         954         959         958
         955         956         961         960
         956         957         962         961
         957         958         963         962
         958         959         964         963
         960         961         966         965
         961         962         967         966
         962         963         968         967
         963         964         969         968
         965         966         971         970
         966         967         972         971
         967         968         973         972
         968         969         974         973
         975         976         981         980
         976         977         982         981
         977         978         983         982
         978         979         984         983
         980         981         986         985
         981         982         987         986
         982         983         988         987
         983         984         989         988
         985         986         991         990
         986         987         992         991
         987         988         993         992
         988         989         994         993
         990         991         996         995
         991         992         997         996
         992         993         998         997
         993         994         999         998
        1000        1001        1006        1005
        1001        1002        1007        1006
        1002        1003        1008        1007
        1003        1004        1009        1008
        1005        1006        1011        1010
        1006        1007        1012        1011
        1007        1008        1013        1012
        1008        1009        1014        1013
        1010        1011        1016        1015
        1011        1012        1017        1016
        1012        1013        1018        1017
        1013        1014        1019        1018
        1015        1016        1021        1020
        1016        1017        1022        1021
        1017        1018        1023        1022
        1018        1019        1024        1023
        1025        1026        1031        1030
        1026        1027        1032        1031
        1027        1028        1033        1032
        1028        1029        1034        1033
        1030        1031        1036        1035
        1031        1032        1037        1036
        1032        1033        1038        1037
        1033        1034        1039        1038
        1035        1036        1041        1040
        1036        1037        1042        1041
        1037        1038        1043        1042
        1038        1039        1044        1043
        1040        1041        1046        1045
        1041        1042        1047        1046
        1042        1043        1048        1047
        1043        1044        1049        1048
        1050        1051        1056        1055
        1051        1052        1057        1056
        1052        1053        1058        1057
        1053        1054        1059        1058
        1055        1056        1061        1060
        1056        1057        1062        1061
        1057        1058        1063        1062
        1058        1059        1064        1063
        1060        1061        1066        1065
        1061        1062        1067        1066
        1062        1063        1068        1067
        1063        1064        1069        1068
        1065        1066        1071        1070
        1066        1067        1072        1071
        1067        1068        1073        1072
        1068        1069        1074        1073
        1075        1076        1081        1080
        1076        1077        1082        1081
        1077        1078        1083        1082
        1078        1079        1084        1083
        1080        1081        1086        1085
        1081        1082        1087        1086
        1082        1083        1088        1087
        1083        1084        1089        1088
        1085        1086        1091        1090
        1086        1087        1092        1091
        1087        1088        1093        1092
        1088        1089        1094        1093
        1090        1091        1096        1095
        1091        1092        1097        1096
        1092        1093        1098        1097
        1093        1094        1099        1098
        1100        1101        1106        1105
        1101        1102        1107        1106
        1102        1103        1108        1107
        1103        1104        1109        1108
        1105        1106        1111        1110
        1106        1107        1112        1111
        1107        1108        1113        1112
        1108        1109        1114        1113
        1110        1111        1116        1115
        1111        1112        1117        1116
        1112        1113        1118        1117
        1113        1114        1119        1118
        1115        1116        1121        1120
        1116        1117        1122        1121
        1117        1118        1123        1122
        1118        1119        1124        1123
        1125        1126        1131        1130
        1126        1127        1132        1131
        1127        1128        1133        1132
        1128        1129        1134        1133
        1130        1131        1136        1135
        1131        1132        1137        1136
        1132        1133        1138        1137
        1133        1134        1139        1138
        1135        1136        1141        1140
        1136        1137        1142        1141
        1137        1138        1143        1142
        1138        1139        1144        1143
        1140        1141        1146        1145
        1141        1142        1147        1146
        1142        1143        1148        1147
        1143        1144        1149        1148
        1150        1151        1156        1155
        1151        1152        1157        1156
        1152        1153        1158        1157
        1153        1154        1159        1158
        1155        1156        1161        1160
        1156        1157        1162        1161
        1157        1158        1163        1162
        1158        1159        1164        1163
        1160        1161        1166        1165
        1161        1162        1167        1166
        1162        1163        1168        1167
        1163        1164        1169        1168
        1165        1166        1171        1170
        1166        1167        1172        1171
        1167        1168        1173        1172
        1168        1169        1174        1173
        1175        1176        1181        1180
        1176        1177        1182        1181
        1177        1178        1183        1182
        1178        1179        1184        1183
        1180        1181        1186        1185
        1181        1182        1187        1186
        1182        1183        1188        1187
        1183        1184        1189        1188
        1185        1186        1191        1190
        1186        1187        1192        1191
        1187        1188        1193        1192
        1188        1189        1194        1193
        1190        1191        1196        1195
        1191        1192        1197        1196
        1192        1193        1198        1197
        1193        1194        1199        1198
        1200        1201        1206        1205
        1201        1202        1207        1206
        1202        1203        1208        1207
        1203        1204        1209        1208
        1205        1206        1211        1210
        1206        1207        1212        1211
        1207        1208        1213        1212
        1208        1209        1214        1213
        1210        1211        1216        1215
        1211        1212        1217        1216
        1212        1213        1218        1217
        1213        1214        1219        1218
        1215        1216        1221        1220
        1216        1217        1222        1221
        1217        1218        1223        1222
        1218        1219        1224        1223
        1225        1226        1231        1230
        1226        1227        1232        1231
        1227        1228        1233        1232
        1228        1229        1234        1233
        1230        1231        1236        1235
        1231        1232        1237        1236
        1232        1233        1238        1237
        1233        1234        1239        1238
        1235        1236        1241        1240
        1236        1237        1242        1241
        1237        1238        1243        1242
        1238        1239        1244        1243
        1240        1241        1246        1245
        1241        1242        1247        1246
        1242        1243        1248        1247
        1243        1244        1249        1248
        1250        1251        1256        1255
        1251        1252        1257        1256
        1252        1253        1258        1257
        1253        1254        1259        1258
        1255        1256        1261        1260
        1256        1257        1262        1261
        1257        1258        1263        1262
        1258        1259        1264        1263
        1260        1261        1266        1265
        1261        1262        1267        1266
        1262        1263        1268        1267
        1263        1264        1269        1268
        1265        1266        1271        1270
        1266        1267        1272        1271
        1267        1268        1273        1272
        1268        1269        1274        1273
        1275        1276        1281        1280
        1276        1277        1282        1281
        1277        1278        1283        1282
        1278        1279        1284        1283
        1280        1281        1286        1285
        1281        1282        1287        1286
        1282        1283        1288        1287
        1283        1284        1289        1288
        1285        1286        1291        1290
        1286        1287        1292        1291
        1287        1288        1293        1292
        1288        1289        1294        1293
        1290        1291        1296        1295
        1291        1292        1297        1296
        1292        1293        1298        1297
        1293        1294        1299        1298
        1300        1301        1306        1305
        1301        1302        1307        1306
        1302        1303        1308        1307
        1303        1304        1309        1308
        1305        1306        1311        1310
        1306        1307        1312        1311
        1307        1308        1313        1312
        1308        1309        1314        1313
        1310        1311        1316        1315
        1311        1312        1317        1316
        1312        1313        1318        1317
        1313        1314        1319        1318
        1315        1316        1321        1320
        1316        1317        1322        1321
        1317        1318        1323        1322
        1318        1319        1324        1323
        1325        1326        1331        1330
        1326        1327        1332        1331
        1327        1328        1333        1332
        1328        1329        1334        1333
        1330        1331        1336        1335
        1331        1332        1337        1336
        1332        1333        1338        1337
        1333        1334        1339        1338
        1335        1336        1341        1340
        1336        1337        1342        1341
        1337        1338        1343        1342
        1338        1339        1344        1343
        1340        1341        1346        1345
        1341        1342        1347        1346
        1342        1343        1348        1347
        1343        1344        1349        1348
        1350        1351        1356        1355
        1351        1352        1357        1356
        1352        1353        1358        1357
        1353        1354        1359        1358
        1355        1356        1361        1360
        1356        1357        1362        1361
        1357        1358        1363        1362
        1358        1359        1364        1363
        1360        1361        1366        1365
        1361        1362        1367        1366
        1362        1363        1368        1367
        1363        1364        1369        1368
        1365        1366        1371        1370
        1366        1367        1372        1371
        1367        1368        1373        1372
        1368        1369        1374        1373
        1375        1376        1381        1380
        1376        1377        1382        1381
        1377        1378        1383        1382
        1378        1379        1384        1383
        1380        1381        1386        1385
        1381        1382        1387        1386
        1382        1383        1388        1387
        1383        1384        1389        1388
        1385        1386        1391        1390
        1386        1387        1392        1391
        1387        1388        1393        1392
        1388        1389        1394        1393
        1390        1391        1396        1395
        1391        1392        1397        1396
        1392        1393        1398        1397
        1393        1394        1399        1398
        1400        1401        1406        1405
        1401        1402        1407        1406
        1402        1403        1408        1407
        1403        1404        1409        1408
        1405        1406        1411        1410
        1406        1407        1412        1411
        1407        1408        1413        1412
        1408        1409        1414        1413
        1410        1411        1416        1415
        1411        1412        1417        1416
        1412        1413        1418        1417
        1413        1414        1419        1418
        1415        1416        1421        1420
        1416        1417        1422        1421
        1417        1418        1423        1422
        1418        1419        1424        1423
        1425        1426        1431        1430
        1426        1427        1432        1431
        1427        1428        1433        1432
        1428        1429        1434        1433
        1430        1431        1436        1435
        1431        1432        1437        1436
        1432        1433        1438        1437
        1433        1434        1439        1438
        1435        1436        1441        1440
        1436        1437        1442        1441
        1437        1438        1443        1442
        1438        1439        1444        1443
        1440        1441        1446        1445
        1441        1442        1447        1446
        1442        1443        1448        1447
        1443        1444        1449        1448
        1450        1451        1456        1455
        1451        1452        1457        1456
        1452        1453        1458        1457
        1453        1454        1459        1458
        1455        1456        1461        1460
        1456        1457        1462        1461
        1457        1458        1463        1462
        1458        1459        1464        1463
        1460        1461        1466        1465
        1461        1462        1467        1466
        1462        1463        1468        1467
        1463        1464        1469        1468
        1465        1466        1471        1470
        1466        1467        1472        1471
        1467        1468        1473        1472
        1468        1469        1474        1473
        1475        1476        1481        1480
        1476        1477        1482        1481
        1477        1478        1483        1482
        1478        1479        1484        1483
        1480        1481        1486        1485
        1481        1482        1487        1486
        1482        1483        1488        1487
        1483        1484        1489        1488
        1485        1486        1491        1490
        1486        1487        1492        1491
        1487        1488        1493        1492
        1488        1489        1494        1493
        1490        1491        1496        1495
        1491        1492        1497        1496
        1492        1493        1498        1497
        1493        1494        1499        1498
        1500        1501        1506        1505
        1501        1502        1507        1506
        1502        1503        1508        1507
        1503        1504        1509        1508
        1505        1506        1511        1510
        1506        1507        1512        1511
        1507        1508        1513        1512
        1508        1509        1514        1513
        1510        1511        1516        1515
        1511        1512        1517        1516
        1512        1513        1518        1517
        1513        1514        1519        1518
        1515        1516        1521        1520
        1516        1517        1522        1521
        1517        1518        1523        1522
        1518        1519        1524        1523
        1525        1526        1531        1530
        1526        1527        1532        1531
        1527        1528        1533        1532
        1528        1529        1534        1533
        1530        1531        1536        1535
        1531        1532        1537        1536
        1532        1533        1538        1537
        1533        1534        1539        1538
        1535        1536        1541        1540
        1536        1537        1542        1541
        1537        1538        1543        1542
        1538        1539        1544        1543
        1540        1541        1546        1545
        1541        1542        1547        1546
        1542        1543        1548        1547
        1543        1544        1549        1548
        1550        1551        1556        1555
        1551        1552        1557        1556
        1552        1553        1558        1557
        1553        1554        1559        1558
        1555        1556        1561        1560
        1556        1557        1562        1561
        1557        1558        1563        1562
        1558        1559        1564        1563
        1560        1561        1566        1565
        1561        1562        1567        1566
        1562        1563        1568        1567
        1563        1564        1569        1568
        1565        1566        1571        1570
        1566        1567        1572        1571
        1567        1568        1573        1572
        1568        1569        1574        1573
        1575        1576        1581        1580
        1576        1577        1582        1581
        1577        1578        1583        1582
        1578        1579        1584        1583
        1580        1581        1586        1585
        1581        1582        1587        1586
        1582        1583        1588        1587
        1583        1584        1589        1588
        1585        1586        1591        1590
        1586        1587        1592        1591
        1587        1588        1593        1592
        1588        1589        1594        1593
        1590        1591        1596        1595
        1591        1592        1597        1596
        1592        1593        1598        1597
        1593        1594        1599        1598
 </DataArray>
 <DataArray  type="Int32"  Name="offsets"  format="ascii"> 
           4
           8
          12
          16
          20
          24
          28
          32
          36
          40
          44
          48
          52
          56
          60
          64
          68
          72
          76
          80
          84
          88
          92
          96
         100
         104
         108
         112
         116
         120
         124
         128
         132
         136
         140
         144
         148
         152
         156
         160
         164
         168
         172
         176
         180
         184
         188
         192
         196
         200
         204
         208
         212
         216
         220
         224
         228
         232
         236
         240
         244
         248
         252
         256
         260
         264
         268
         272
         276
         280
         284
         288
         292
         296
         300
         304
         308
         312
         316
         320
         324
         328
         332
         336
         340
         344
         348
         352
         356
         360
         364
         368
         372
         376
         380
         384
         388
         392
         396
         400
         404
         408
         412
         416
         420
         424
         428
         432
         436
         440
         444
         448
         452
         456
         460
         464
         468
         472
         476
         480
         484
         488
         492
         496
         500
         504
         508
         512
         516
         520
         524
         528
         532
         536
         540
         544
         548
         552
         556
         560
         564
         568
         572
         576
         580
         584
         588
         592
         596
         600
         604
         608
         612
         616
         620
         624
         628
         632
         636
         640
         644
         648
         652
         656
         660
         664
         668
         672
         676
         680
         684
         688
         692
         696
         700
         704
         708
         712
         716
         720
         724
         728
         732
         736
         740
         744
         748
         752
         756
         760
         764
         768
         772
         776
         780
         784
         788
         792
         796
         800
         804
         808
         812
         816
         820
         824
         828
         832
         836
         840
         844
         848
         852
         856
         860
         864
         868
         872
         876
         880
         884
         888
         892
         896
         900
         904
         908
         912
         916
         920
         924
         928
         932
         936
         940
         944
         948
         952
         956
         960
         964
         968
         972
         976
         980
         984
         988
         992
         996
        1000
        1004
        1008
        1012
        1016
        1020
        1024
        1028
        1032
        1036
        1040
        1044
        1048
        1052
        1056
        1060
        1064
        1068
        1072
        1076
        1080
        1084
        1088
        1092
        1096
        1100
        1104
        1108
        1112
        1116
        1120
        1124
        1128
        1132
        1136
        1140
        1144
        1148
        1152
        1156
        1160
        1164
        1168
        1172
        1176
        1180
        1184
        1188
        1192
        1196
        1200
        1204
        1208
        1212
        1216
        1220
        1224
        1228
        1232
        1236
        1240
        1244
        1248
        1252
        1256
        1260
        1264
        1268
        1272
        1276
        1280
        1284
        1288
        1292
        1296
        1300
        1304
        1308
        1312
        1316
        1320
        1324
        1328
        1332
        1336
        1340
        1344
        1348
        1352
        1356
        1360
        1364
        1368
        1372
        1376
        1380
        1384
        1388
        1392
        1396
        1400
        1404
        1408
        1412
        1416
        1420
        1424
        1428
        1432
        1436
        1440
        1444
        1448
        1452
        1456
        1460
        1464
        1468
        1472
        1476
        1480
        1484
        1488
        1492
        1496
        1500
        1504
        1508
        1512
        1516
        1520
        1524
        1528
        1532
        1536
        1540
        1544
        1548
        1552
        1556
        1560
        1564
        1568
        1572
        1576
        1580
        1584
        1588
        1592
        1596
        1600
        1604
        1608
        1612
        1616
        1620
        1624
        1628
        1632
        1636
        1640
        1644
        1648
        1652
        1656
        1660
        1664
        1668
        1672
        1676
        1680
        1684
        1688
        1692
        1696
        1700
        1704
        1708
        1712
        1716
        1720
        1724
        1728
        1732
        1736
        1740
        1744
        1748
        1752
        1756
        1760
        1764
        1768
        1772
        1776
        1780
        1784
        1788
        1792
        1796
        1800
        1804
        1808
        1812
        1816
        1820
        1824
        1828
        1832
        1836
        1840
        1844
        1848
        1852
        1856
        1860
        1864
        1868
        1872
        1876
        1880
        1884
        1888
        1892
        1896
        1900
        1904
        1908
        1912
        1916
        1920
        1924
        1928
        1932
        1936
        1940
        1944
        1948
        1952
        1956
        1960
        1964
        1968
        1972
        1976
        1980
        1984
        1988
        1992
        1996
        2000
        2004
        2008
        2012
        2016
        2020
        2024
        2028
        2032
        2036
        2040
        2044
        2048
        2052
        2056
        2060
        2064
        2068
        2072
        2076
        2080
        2084
        2088
        2092
        2096
        2100
        2104
        2108
        2112
        2116
        2120
        2124
        2128
        2132
        2136
        2140
        2144
        2148
        2152
        2156
        2160
        2164
        2168
        2172
        2176
        2180
        2184
        2188
        2192
        2196
        2200
        2204
        2208
        2212
        2216
        2220
        2224
        2228
        2232
        2236
        2240
        2244
        2248
        2252
        2256
        2260
        2264
        2268
        2272
        2276
        2280
        2284
        2288
        2292
        2296
        2300
        2304
        2308
        2312
        2316
        2320
        2324
        2328
        2332
        2336
        2340
        2344
        2348
        2352
        2356
        2360
        2364
        2368
        2372
        2376
        2380
        2384
        2388
        2392
        2396
        2400
        2404
        2408
        2412
        2416
        2420
        2424
        2428
        2432
        2436
        2440
        2444
        2448
        2452
        2456
        2460
        2464
        2468
        2472
        2476
        2480
        2484
        2488
        2492
        2496
        2500
        2504
        2508
        2512
        2516
        2520
        2524
        2528
        2532
        2536
        2540
        2544
        2548
        2552
        2556
        2560
        2564
        2568
        2572
        2576
        2580
        2584
        2588
        2592
        2596
        2600
        2604
        2608
        2612
        2616
        2620
        2624
        2628
        2632
        2636
        2640
        2644
        2648
        2652
        2656
        2660
        2664
        2668
        2672
        2676
        2680
        2684
        2688
        2692
        2696
        2700
        2704
        2708
        2712
        2716
        2720
        2724
        2728
        2732
        2736
        2740
        2744
        2748
        2752
        2756
        2760
        2764
        2768
        2772
        2776
        2780
        2784
        2788
        2792
        2796
        2800
        2804
        2808
        2812
        2816
        2820
        2824
        2828
        2832
        2836
        2840
        2844
        2848
        2852
        2856
        2860
        2864
        2868
        2872
        2876
        2880
        2884
        2888
        2892
        2896
        2900
        2904
        2908
        2912
        2916
        2920
        2924
        2928
        2932
        2936
        2940
        2944
        2948
        2952
        2956
        2960
        2964
        2968
        2972
        2976
        2980
        2984
        2988
        2992
        2996
        3000
        3004
        3008
        3012
        3016
        3020
        3024
        3028
        3032
        3036
        3040
        3044
        3048
        3052
        3056
        3060
        3064
        3068
        3072
        3076
        3080
        3084
        3088
        3092
        3096
        3100
        3104
        3108
        3112
        3116
        3120
        3124
        3128
        3132
        3136
        3140
        3144
        3148
        3152
        3156
        3160
        3164
        3168
        3172
        3176
        3180
        3184
        3188
        3192
        3196
        3200
        3204
        3208
        3212
        3216
        3220
        3224
        3228
        3232
        3236
        3240
        3244
        3248
        3252
        3256
        3260
        3264
        3268
        3272
        3276
        3280
        3284
        3288
        3292
        3296
        3300
        3304
        3308
        3312
        3316
        3320
        3324
        3328
        3332
        3336
        3340
        3344
        3348
        3352
        3356
        3360
        3364
        3368
        3372
        3376
        3380
        3384
        3388
        3392
        3396
        3400
        3404
        3408
        3412
        3416
        3420
        3424
        3428
        3432
        3436
        3440
        3444
        3448
        3452
        3456
        3460
        3464
        3468
        3472
        3476
        3480
        3484
        3488
        3492
        3496
        3500
        3504
        3508
        3512
        3516
        3520
        3524
        3528
        3532
        3536
        3540
        3544
        3548
        3552
        3556
        3560
        3564
        3568
        3572
        3576
        3580
        3584
        3588
        3592
        3596
        3600
        3604
        3608
        3612
        3616
        3620
        3624
        3628
        3632
        3636
        3640
        3644
        3648
        3652
        3656
        3660
        3664
        3668
        3672
        3676
        3680
        3684
        3688
        3692
        3696
        3700
        3704
        3708
        3712
        3716
        3720
        3724
        3728
        3732
        3736
        3740
        3744
        3748
        3752
        3756
        3760
        3764
        3768
        3772
        3776
        3780
        3784
        3788
        3792
        3796
        3800
        3804
        3808
        3812
        3816
        3820
        3824
        3828
        3832
        3836
        3840
        3844
        3848
        3852
        3856
        3860
        3864
        3868
        3872
        3876
        3880
        3884
        3888
        3892
        3896
        3900
        3904
        3908
        3912
        3916
        3920
        3924
        3928
        3932
        3936
        3940
        3944
        3948
        3952
        3956
        3960
        3964
        3968
        3972
        3976
        3980
        3984
        3988
        3992
        3996
        4000
        4004
        4008
        4012
        4016
        4020
        4024
        4028
        4032
        4036
        4040
        4044
        4048
        4052
        4056
        4060
        4064
        4068
        4072
        4076
        4080
        4084
        4088
        4092
        4096
 </DataArray>
 <DataArray  type="UInt8"  Name="types"  format="ascii">
 9
 9
 9
 9
 9
 9
 9
 9
 9
 9
 9
 9
 9
 9
 9
 9
 9
 9
 9
 9
 9
 9
 9
 9
 9
 9
 9
 9
 9
 9
 9
 9
 9
 9
 9
 9
 9
 9
 9
 9
 9
 9
 9
 9
 9
 9
 9
 9
 9
 9
 9
 9
 9
 9
 9
 9
 9
 9
 9
 9
 9
 9
 9
 9
 9
 9
 9
 9
 9
 9
 9
 9
 9
 9
 9
 9
 9
 9
 9
 9
 9
 9
 9
 9
 9
 9
 9
 9
 9
 9
 9
 9
 9
 9
 9
 9
 9
 9
 9
 9
 9
 9
 9
 9
 9
 9
 9
 9
 9
 9
 9
 9
 9
 9
 9
 9
 9
 9
 9
 9
 9
 9
 9
 9
 9
 9
 9
 9
 9
 9
 9
 9
 9
 9
 9
 9
 9
 9
 9
 9
 9
 9
 9
 9
 9
 9
 9
 9
 9
 9
 9
 9
 9
 9
 9
 9
 9
 9
 9
 9
 9
 9
 9
 9
 9
 9
 9
 9
 9
 9
 9
 9
 9
 9
 9
 9
 9
 9
 9
 9
 9
 9
 9
 9
 9
 9
 9
 9
 9
 9
 9
 9
 9
 9
 9
 9
 9
 9
 9
 9
 9
 9
 9
 9
 9
 9
 9
 9
 9
 9
 9
 9
 9
 9
 9
 9
 9
 9
 9
 9
 9
 9
 9
 9
 9
 9
 9
 9
 9
 9
 9
 9
 9
 9
 9
 9
 9
 9
 9
 9
 9
 9
 9
 9
 9
 9
 9
 9
 9
 9
 9
 9
 9
 9
 9
 9
 9
 9
 9
 9
 9
 9
 9
 9
 9
 9
 9
 9
 9
 9
 9
 9
 9
 9
 9
 9
 9
 9
 9
 9
 9
 9
 9
 9
 9
 9
 9
 9
 9
 9
 9
 9
 9
 9
 9
 9
 9
 9
 9
 9
 9
 9
 9
 9
 9
 9
 9
 9
 9
 9
 9
 9
 9
 9
 9
 9
 9
 9
 9
 9
 9
 9
 9
 9
 9
 9
 9
 9
 9
 9
 9
 9
 9
 9
 9
 9
 9
 9
 9
 9
 9
 9
 9
 9
 9
 9
 9
 9
 9
 9
 9
 9
 9
 9
 9
 9
 9
 9
 9
 9
 9
 9
 9
 9
 9
 9
 9
 9
 9
 9
 9
 9
 9
 9
 9
 9
 9
 9
 9
 9
 9
 9
 9
 9
 9
 9
 9
 9
 9
 9
 9
 9
 9
 9
 9
 9
 9
 9
 9
 9
 9
 9
 9
 9
 9
 9
 9
 9
 9
 9
 9
 9
 9
 9
 9
 9
 9
 9
 9
 9
 9
 9
 9
 9
 9
 9
 9
 9
 9
 9
 9
 9
 9
 9
 9
 9
 9
 9
 9
 9
 9
 9
 9
 9
 9
 9
 9
 9
 9
 9
 9
 9
 9
 9
 9
 9
 9
 9
 9
 9
 9
 9
 9
 9
 9
 9
 9
 9
 9
 9
 9
 9
 9
 9
 9
 9
 9
 9
 9
 9
 9
 9
 9
 9
 9
 9
 9
 9
 9
 9
 9
 9
 9
 9
 9
 9
 9
 9
 9
 9
 9
 9
 9
 9
 9
 9
 9
 9
 9
 9
 9
 9
 9
 9
 9
 9
 9
 9
 9
 9
 9
 9
 9
 9
 9
 9
 9
 9
 9
 9
 9
 9
 9
 9
 9
 9
 9
 9
 9
 9
 9
 9
 9
 9
 9
 9
 9
 9
 9
 9
 9
 9
 9
 9
 9
 9
 9
 9
 9
 9
 9
 9
 9
 9
 9
 9
 9
 9
 9
 9
 9
 9
 9
 9
 9
 9
 9
 9
 9
 9
 9
 9
 9
 9
 9
 9
 9
 9
 9
 9
 9
 9
 9
 9
 9
 9
 9
 9
 9
 9
 9
 9
 9
 9
 9
 9
 9
 9
 9
 9
 9
 9
 9
 9
 9
 9
 9
 9
 9
 9
 9
 9
 9
 9
 9
 9
 9
 9
 9
 9
 9
 9
 9
 9
 9
 9
 9
 9
 9
 9
 9
 9
 9
 9
 9
 9
 9
 9
 9
 9
 9
 9
 9
 9
 9
 9
 9
 9
 9
 9
 9
 9
 9
 9
 9
 9
 9
 9
 9
 9
 9
 9
 9
 9
 9
 9
 9
 9
 9
 9
 9
 9
 9
 9
 9
 9
 9
 9
 9
 9
 9
 9
 9
 9
 9
 9
 9
 9
 9
 9
 9
 9
 9
 9
 9
 9
 9
 9
 9
 9
 9
 9
 9
 9
 9
 9
 9
 9
 9
 9
 9
 9
 9
 9
 9
 9
 9
 9
 9
 9
 9
 9
 9
 9
 9
 9
 9
 9
 9
 9
 9
 9
 9
 9
 9
 9
 9
 9
 9
 9
 9
 9
 9
 9
 9
 9
 9
 9
 9
 9
 9
 9
 9
 9
 9
 9
 9
 9
 9
 9
 9
 9
 9
 9
 9
 9
 9
 9
 9
 9
 9
 9
 9
 9
 9
 9
 9
 9
 9
 9
 9
 9
 9
 9
 9
 9
 9
 9
 9
 9
 9
 9
 9
 9
 9
 9
 9
 9
 9
 9
 9
 9
 9
 9
 9
 9
 9
 9
 9
 9
 9
 9
 9
 9
 9
 9
 9
 9
 9
 9
 9
 9
 9
 9
 9
 9
 9
 9
 9
 9
 9
 9
 9
 9
 9
 9
 9
 9
 9
 9
 9
 9
 9
 9
 9
 9
 9
 9
 9
 9
 9
 9
 9
 9
 9
 9
 9
 9
 9
 9
 9
 9
 9
 9
 9
 9
 9
 9
 9
 9
 9
 9
 9
 9
 9
 9
 9
 9
 9
 9
 9
 9
 9
 9
 9
 9
 9
 9
 9
 9
 9
 9
 9
 9
 9
 9
 9
 9
 9
 9
 9
 9
 9
 9
 9
 9
 9
 9
 9
 9
 9
 9
 9
 9
 9
 9
 9
 9
 9
 9
 9
 9
 9
 9
 9
 9
 9
 9
 9
 9
 9
 9
 9
 9
 9
 9
 9
 9
 9
 9
 9
 9
 9
 9
 9
 9
 9
 9
 9
 9
 9
 9
 9
 9
 9
 9
 9
 9
 9
 9
 9
 9
 9
 9
 9
 9
 9
 9
 9
 9
 9
 9
 9
 9
 9
 9
 9
 9
 9
 9
 9
 9
 9
 9
 9
 9
 9
 9
 9
 9
 9
 9
 9
 9
 9
 9
 9
 9
 9
 9
 9
 9
 9
 9
 9
 9
 9
 9
 9
 9
 9
 9
 9
 9
 </DataArray>
 </Cells> 
 <PointData>
 <DataArray  type="Float64" Name="disp" NumberOfComponents="3" format="ascii">
   6.5270958742904159E-002   6.2791463279776846E-002   0.0000000000000000     
   6.8423880875940965E-002   6.8181488167336157E-002   0.0000000000000000     
   7.1434491705979611E-002   7.3749040805630800E-002   0.0000000000000000     
   7.4302791233020082E-002   7.9494121194660747E-002   0.0000000000000000     
   7.7028779457062380E-002   8.5416729334426025E-002   0.0000000000000000     
   6.0051949068440413E-002   6.1889442338261005E-002   0.0000000000000000     
   6.3027859880157078E-002   6.7303730351946339E-002   0.0000000000000000     
   6.5864188126174186E-002   7.2897362864664569E-002   0.0000000000000000     
   6.8560933806491725E-002   7.8670339876415668E-002   0.0000000000000000     
   7.1118096921109708E-002   8.4622661387199635E-002   0.0000000000000000     
   5.5055313225771924E-002   6.1042997976682181E-002   0.0000000000000000     
   5.7847103291492792E-002   6.6481519834209066E-002   0.0000000000000000     
   6.0504033437674687E-002   7.2100514989478517E-002   0.0000000000000000     
   6.3026103664317615E-002   7.7899983442490550E-002   0.0000000000000000     
   6.5413313971421583E-002   8.3879925193245150E-002   0.0000000000000000     
   5.0281051214898675E-002   6.0252130195040388E-002   0.0000000000000000     
   5.2881611109948087E-002   6.5714856614124323E-002   0.0000000000000000     
   5.5354027640481120E-002   7.1358497180072658E-002   0.0000000000000000     
   5.7698300806497731E-002   7.7183051892885421E-002   0.0000000000000000     
   5.9914430607997969E-002   8.3188520752562597E-002   0.0000000000000000     
   4.5729163035820669E-002   5.9516838993335604E-002   0.0000000000000000     
   4.8131383335522998E-002   6.5003740691692111E-002   0.0000000000000000     
   5.0414170734593471E-002   7.0671309436447005E-002   0.0000000000000000     
   5.2577525233032107E-002   7.6519545227600280E-002   0.0000000000000000     
   5.4621446830838888E-002   8.2548448065151964E-002   0.0000000000000000     
   7.7028779457062380E-002   8.5416729334426025E-002   0.0000000000000000     
   7.9650063350441613E-002   9.1508291200124006E-002   0.0000000000000000     
   8.2204249885492867E-002   9.7760232766952115E-002   0.0000000000000000     
   8.4691339062216126E-002  0.10417255403491033        0.0000000000000000     
   8.7111330880611432E-002  0.11074525500399864        0.0000000000000000     
   7.1118096921109708E-002   8.4622661387199635E-002   0.0000000000000000     
   7.3574927659585065E-002   9.0744222933862084E-002   0.0000000000000000     
   7.5970676211474686E-002   9.7024920053248684E-002   0.0000000000000000     
   7.8305342576778555E-002  0.10346475274535935        0.0000000000000000     
   8.0578926755496716E-002  0.11006372101019414        0.0000000000000000     
   6.5413313971421583E-002   8.3879925193245150E-002   0.0000000000000000     
   6.7705223241949442E-002   9.0029217781729773E-002   0.0000000000000000     
   6.9941390358864083E-002   9.6336738747931874E-002   0.0000000000000000     
   7.2121815322165508E-002  0.10280248809185141        0.0000000000000000     
   7.4246498131853703E-002  0.10942646581348844        0.0000000000000000     
   5.9914430607997969E-002   8.3188520752562597E-002   0.0000000000000000     
   6.2040950097534762E-002   8.9363275743727072E-002   0.0000000000000000     
   6.4116392327661101E-002   9.5695688851001687E-002   0.0000000000000000     
   6.6140757298376956E-002  0.10218576007438653        0.0000000000000000     
   6.8114045009682378E-002  0.10883348941388153        0.0000000000000000     
   5.4621446830838888E-002   8.2548448065151964E-002   0.0000000000000000     
   5.6582108226341021E-002   8.8746396819853926E-002   0.0000000000000000     
   5.8495682117865710E-002   9.5101770362458177E-002   0.0000000000000000     
   6.0362168505412941E-002  0.10161456869296463        0.0000000000000000     
   6.2181567388982714E-002  0.10828479181137336        0.0000000000000000     
   8.7111330880611432E-002  0.11074525500399864        0.0000000000000000     
   8.9441380571742557E-002  0.11746359705067974        0.0000000000000000     
   9.1658643366673342E-002  0.12431284155141631        0.0000000000000000     
   9.3763119265403788E-002  0.13129298850620832        0.0000000000000000     
   9.5754808267933922E-002  0.13840403791505579        0.0000000000000000     
   8.0578926755496716E-002  0.11006372101019414        0.0000000000000000     
   8.2768216793801822E-002  0.11680824384571051        0.0000000000000000     
   8.4850000737866513E-002  0.12368474024986592        0.0000000000000000     
   8.6824278587690817E-002  0.13069321022266037        0.0000000000000000     
   8.8691050343274735E-002  0.13783365376409384        0.0000000000000000     
   7.4246498131853703E-002  0.10942646581348844        0.0000000000000000     
   7.6292501619808259E-002  0.11619596559926887        0.0000000000000000     
   7.8236888617908715E-002  0.12309828113561860        0.0000000000000000     
   8.0079659126155098E-002  0.13013341242253773        0.0000000000000000     
   8.1820813144547422E-002  0.13730135946002614        0.0000000000000000     
   6.8114045009682378E-002  0.10883348941388153        0.0000000000000000     
   7.0014235049761842E-002  0.11562676231135478        0.0000000000000000     
   7.1819307006799962E-002  0.12255346420867437        0.0000000000000000     
   7.3529260880796671E-002  0.12961359510584033        0.0000000000000000     
   7.5144096671752009E-002  0.13680715500285262        0.0000000000000000     
   6.2181567388982714E-002  0.10828479181137336        0.0000000000000000     
   6.3933417083662611E-002  0.11510063398196824        0.0000000000000000     
   6.5597255904540200E-002  0.12205028946903319        0.0000000000000000     
   6.7173083851615509E-002  0.12913375827256823        0.0000000000000000     
   6.8660900924888496E-002  0.13635104039257337        0.0000000000000000     
   9.5754808267933922E-002  0.13840403791505579        0.0000000000000000     
   9.7647550357464766E-002  0.14563644401194786        0.0000000000000000     
   9.9455185517197398E-002  0.15298066103087360        0.0000000000000000     
  0.10117771374713186       0.16043668897183302        0.0000000000000000     
  0.10281513504726808       0.16800452783482617        0.0000000000000000     
   8.8691050343274735E-002  0.13783365376409384        0.0000000000000000     
   9.0464453322241262E-002  0.14509520000783893        0.0000000000000000     
   9.2158624842213446E-002  0.15246697808756815        0.0000000000000000     
   9.3773564903191275E-002  0.15994898800328158        0.0000000000000000     
   9.5309273505174791E-002  0.16754122975497915        0.0000000000000000     
   8.1820813144547422E-002  0.13730135946002614        0.0000000000000000     
   8.3474129375125605E-002  0.14459031817886053        0.0000000000000000     
   8.5053386519929608E-002  0.15198848450981758        0.0000000000000000     
   8.6558584578959388E-002  0.15949585845289727        0.0000000000000000     
   8.7989723552215016E-002  0.16711244000809958        0.0000000000000000     
   7.5144096671752009E-002  0.13680715500285262        0.0000000000000000     
   7.6676578516117783E-002  0.14412179852501267        0.0000000000000000     
   7.8139470550345855E-002  0.15154518029762182        0.0000000000000000     
   7.9532772774436183E-002  0.15907730032068007        0.0000000000000000     
   8.0856485188388796E-002  0.16671815859418740        0.0000000000000000     
   6.8660900924888496E-002  0.13635104039257337        0.0000000000000000     
   7.0071800745217835E-002  0.14368964104629534        0.0000000000000000     
   7.1416876933462228E-002  0.15113706545098088        0.0000000000000000     
   7.2696129489621633E-002  0.15869331360663003        0.0000000000000000     
   7.3909558413696105E-002  0.16635838551324272        0.0000000000000000     
  0.10281513504726808       0.16800452783482617        0.0000000000000000     
  0.10436622386127442       0.17567241740948886        0.0000000000000000     
  0.10582975463281917       0.18342859748545695        0.0000000000000000     
  0.10720572736190229       0.19127306806273048        0.0000000000000000     
  0.10849414204852381       0.19920582914130944        0.0000000000000000     
   9.5309273505174791E-002  0.16754122975497915        0.0000000000000000     
   9.6762397308911480E-002  0.17523334190374465        0.0000000000000000     
   9.8129582975148913E-002  0.18301496301066195        0.0000000000000000     
   9.9410830503887104E-002  0.19088609307573101        0.0000000000000000     
  0.10060613989512604       0.19884673209895187        0.0000000000000000     
   8.7989723552215016E-002  0.16711244000809958        0.0000000000000000     
   8.9342072363291627E-002  0.17482871129094749        0.0000000000000000     
   9.0610899935784403E-002  0.18263515441696410        0.0000000000000000     
   9.1796206269693342E-002  0.19053176938614927        0.0000000000000000     
   9.2897991365018445E-002  0.19851855619850317        0.0000000000000000     
   8.0856485188388796E-002  0.16671815859418740        0.0000000000000000     
   8.2105249024414878E-002  0.17445852557109734        0.0000000000000000     
   8.3273705514725599E-002  0.18228917170436329        0.0000000000000000     
   8.4361854659321001E-002  0.19021009699398528        0.0000000000000000     
   8.5369696458201069E-002  0.19822130143996330        0.0000000000000000     
   7.3909558413696105E-002  0.16635838551324272        0.0000000000000000     
   7.5051927292281176E-002  0.17412278474419418        0.0000000000000000     
   7.6117999711972514E-002  0.18197701487285964        0.0000000000000000     
   7.7107775672770093E-002  0.18992107589923901        0.0000000000000000     
   7.8021255174673898E-002  0.19795496782333230        0.0000000000000000     
  0.10849414204852381       0.19920582914130944        0.0000000000000000     
  0.10970128358408793       0.20722390652070161        0.0000000000000000     
  0.11083343685999882       0.21532432600041476        0.0000000000000000     
  0.11189060187625649       0.22350708758044885        0.0000000000000000     
  0.11287277863286095       0.23177219126080395        0.0000000000000000     
  0.10060613989512604       0.19884673209895187        0.0000000000000000     
  0.10172210848857820       0.20689104786317031        0.0000000000000000     
  0.10276533362395608       0.21501320815123204        0.0000000000000000     
  0.10373581530125972       0.22321321296313712        0.0000000000000000     
  0.10463355352048910       0.23149106229888564        0.0000000000000000     
   9.2897991365018445E-002  0.19851855619850317        0.0000000000000000     
   9.3922195629267860E-002  0.20658800781862555        0.0000000000000000     
   9.4874759469949763E-002  0.21473261721111633        0.0000000000000000     
   9.5755682887064111E-002  0.22295238437597562        0.0000000000000000     
   9.6564965880610934E-002  0.23124730931320331        0.0000000000000000     
   8.5369696458201069E-002  0.19822130143996330        0.0000000000000000     
   8.6301545006156957E-002  0.20631478638706741        0.0000000000000000     
   8.7161714397979803E-002  0.21448255318006776        0.0000000000000000     
   8.7950204633669635E-002  0.22272460181896417        0.0000000000000000     
   8.8667015713226424E-002  0.23104093230375686        0.0000000000000000     
   7.8021255174673898E-002  0.19795496782333230        0.0000000000000000     
   7.8860156619245447E-002  0.20607138356849589        0.0000000000000000     
   7.9626198408046231E-002  0.21426301605808609        0.0000000000000000     
   8.0319380541076305E-002  0.22252986529210289        0.0000000000000000     
   8.0939703018335613E-002  0.23087193127054637        0.0000000000000000     
  0.11287277863286095       0.23177219126080395        0.0000000000000000     
  0.11380787321519847       0.24013576100830769        0.0000000000000000     
  0.11472379170865535       0.24861392078978772        0.0000000000000000     
  0.11562053411323152       0.25720667060524416        0.0000000000000000     
  0.11649810042892707       0.26591401045467689        0.0000000000000000     
  0.10463355352048910       0.23149106229888564        0.0000000000000000     
  0.10546329177894012       0.23987001905882996        0.0000000000000000     
  0.10622977357390873       0.24837334614332249        0.0000000000000000     
  0.10693299890539489       0.25700104355236331        0.0000000000000000     
  0.10757296777339864       0.26575311128595241        0.0000000000000000     
   9.6564965880610934E-002  0.23124730931320331        0.0000000000000000     
   9.7293173330410973E-002  0.23964379469202765        0.0000000000000000     
   9.7930870116285026E-002  0.24816824318167693        0.0000000000000000     
   9.8478056238233080E-002  0.25682065478215121        0.0000000000000000     
   9.8934731696255176E-002  0.26560102949345038        0.0000000000000000     
   8.8667015713226424E-002  0.23104093230375686        0.0000000000000000     
   8.9297517869611029E-002  0.23945708790790077        0.0000000000000000     
   8.9827081335784251E-002  0.24799861190485109        0.0000000000000000     
   9.0255706111746159E-002  0.25666550429460777        0.0000000000000000     
   9.0583392197496684E-002  0.26545776507717089        0.0000000000000000     
   8.0939703018335613E-002  0.23087193127054637        0.0000000000000000     
   8.1476325396540275E-002  0.23930989870644939        0.0000000000000000     
   8.1918407232406440E-002  0.24786445231284496        0.0000000000000000     
   8.2265948525934052E-002  0.25653559208973309        0.0000000000000000     
   8.2518949277123138E-002  0.26532331803711373        0.0000000000000000     
  0.11649810042892707       0.26591401045467689        0.0000000000000000     
  0.11729695015032854       0.27490075368510269        0.0000000000000000     
  0.11795754277202253       0.28433171364353843        0.0000000000000000     
  0.11847987829400905       0.29420689032998404        0.0000000000000000     
  0.11886395671628808       0.30452628374443941        0.0000000000000000     
  0.10757296777339864       0.26575311128595241        0.0000000000000000     
  0.10813078197045289       0.27476178343991520        0.0000000000000000     
  0.10858754328909059       0.28415929411007707        0.0000000000000000     
  0.10894325172931175       0.29394564329643796        0.0000000000000000     
  0.10919790729111634       0.30412083099899800        0.0000000000000000     
   9.8934731696255176E-002  0.26560102949345038        0.0000000000000000     
   9.9311972850380209E-002  0.27460766508931611        0.0000000000000000     
   9.9620856060637183E-002  0.28393885934349011        0.0000000000000000     
   9.9861381327026100E-002  0.29359461225597216        0.0000000000000000     
  0.10003354864954694       0.30357492382676243        0.0000000000000000     
   9.0583392197496684E-002  0.26545776507717089        0.0000000000000000     
   9.0840522790110498E-002  0.27443839863330560        0.0000000000000000     
   9.1057481086662312E-002  0.28367040934377752        0.0000000000000000     
   9.1234267087152127E-002  0.29315379720858653        0.0000000000000000     
   9.1370880791579900E-002  0.30288856222773269        0.0000000000000000     
   8.2518949277123138E-002  0.26532331803711373        0.0000000000000000     
   8.2716431789643774E-002  0.27425398407188367        0.0000000000000000     
   8.2897418367165979E-002  0.28335394411093945        0.0000000000000000     
   8.3061909009689794E-002  0.29262319815428117        0.0000000000000000     
   8.3209903717215192E-002  0.30206174620190884        0.0000000000000000     
   4.5729163035820669E-002   5.9516838993335604E-002   0.0000000000000000     
   4.8131383335522998E-002   6.5003740691692111E-002   0.0000000000000000     
   5.0414170734593471E-002   7.0671309436447005E-002   0.0000000000000000     
   5.2577525233032107E-002   7.6519545227600280E-002   0.0000000000000000     
   5.4621446830838888E-002   8.2548448065151964E-002   0.0000000000000000     
   4.1348223925510907E-002   5.8839646174971810E-002   0.0000000000000000     
   4.3549262717578044E-002   6.4349067849082578E-002   0.0000000000000000     
   4.5640673929666906E-002   7.0038816677867474E-002   0.0000000000000000     
   4.7622457561777479E-002   7.5908892661326499E-002   0.0000000000000000     
   4.9494613613909777E-002   8.1959295799459639E-002   0.0000000000000000     
   3.7086809120942393E-002   5.8223073543352932E-002   0.0000000000000000     
   3.9088092005473800E-002   6.3751733868465860E-002   0.0000000000000000     
   4.0989748435356542E-002   6.9460883823600023E-002   0.0000000000000000     
   4.2791778410590620E-002   7.5350523408755449E-002   0.0000000000000000     
   4.4494181931176040E-002   8.1420652623932097E-002   0.0000000000000000     
   3.2944918622115106E-002   5.7667121098479004E-002   0.0000000000000000     
   3.4747871199210238E-002   6.3211738749841970E-002   0.0000000000000000     
   3.6461394251662387E-002   6.8937510873644678E-002   0.0000000000000000     
   3.8085487779471544E-002   7.4844437469887115E-002   0.0000000000000000     
   3.9620151782637697E-002   8.0932518538569309E-002   0.0000000000000000     
   2.8922552429029066E-002   5.7171788840349999E-002   0.0000000000000000     
   3.0528600298787390E-002   6.2729082493210894E-002   0.0000000000000000     
   3.2055611378584446E-002   6.8468697828001399E-002   0.0000000000000000     
   3.3503585668420231E-002   7.4390634844721526E-002   0.0000000000000000     
   3.4872523168294749E-002   8.0494893543371290E-002   0.0000000000000000     
   5.4621446830838888E-002   8.2548448065151964E-002   0.0000000000000000     
   5.6582108226341021E-002   8.8746396819853926E-002   0.0000000000000000     
   5.8495682117865710E-002   9.5101770362458177E-002   0.0000000000000000     
   6.0362168505412941E-002  0.10161456869296463        0.0000000000000000     
   6.2181567388982714E-002  0.10828479181137336        0.0000000000000000     
   4.9494613613909777E-002   8.1959295799459639E-002   0.0000000000000000     
   5.1290215833714882E-002   8.8178543824042166E-002   0.0000000000000000     
   5.3042337968843903E-002   9.4555154466849284E-002   0.0000000000000000     
   5.4750980019296840E-002  0.10108912772788098        0.0000000000000000     
   5.6416141985073692E-002  0.10778046360713731        0.0000000000000000     
   4.4494181931176040E-002   8.1420652623932097E-002   0.0000000000000000     
   4.6126791125002994E-002   8.7659679570223484E-002   0.0000000000000000     
   4.7719438119961675E-002   9.4056012348723003E-002   0.0000000000000000     
   4.9272122916052097E-002  0.10060965095943072        0.0000000000000000     
   5.0784845513274224E-002  0.10732059540234661        0.0000000000000000     
   3.9620151782637697E-002   8.0932518538569309E-002   0.0000000000000000     
   4.1091834100205366E-002   8.7189804058397852E-002   0.0000000000000000     
   4.2526982571219028E-002   9.3604344008079390E-002   0.0000000000000000     
   4.3925597195678678E-002  0.10017613838761384        0.0000000000000000     
   4.5287677973584323E-002  0.10690518719700132        0.0000000000000000     
   3.4872523168294749E-002   8.0494893543371290E-002   0.0000000000000000     
   3.6185344759321988E-002   8.6768917288565339E-002   0.0000000000000000     
   3.7464971322615948E-002   9.3200149444918376E-002   0.0000000000000000     
   3.8711402858176619E-002   9.9788590012430400E-002   0.0000000000000000     
   3.9924639366004003E-002  0.10653423899110140        0.0000000000000000     
   6.2181567388982714E-002  0.10828479181137336        0.0000000000000000     
   6.3933417083662611E-002  0.11510063398196824        0.0000000000000000     
   6.5597255904540200E-002  0.12205028946903319        0.0000000000000000     
   6.7173083851615509E-002  0.12913375827256823        0.0000000000000000     
   6.8660900924888496E-002  0.13635104039257337        0.0000000000000000     
   5.6416141985073692E-002  0.10778046360713731        0.0000000000000000     
   5.8019188404394149E-002  0.11461753521728457        0.0000000000000000     
   5.9541483815477941E-002  0.12158871567098926        0.0000000000000000     
   6.0983028218325054E-002  0.12869400496825129        0.0000000000000000     
   6.2343821612935481E-002  0.13593340310907073        0.0000000000000000     
   5.0784845513274224E-002  0.10732059540234661        0.0000000000000000     
   5.2240689694840060E-002  0.11417742062347910        0.0000000000000000     
   5.3622739243961569E-002  0.12116870156883672        0.0000000000000000     
   5.4930994160638756E-002  0.12829443823841935        0.0000000000000000     
   5.6165454444871615E-002  0.13555463063222709        0.0000000000000000     
   4.5287677973584323E-002  0.10690518719700132        0.0000000000000000     
   4.6597920955000351E-002  0.11378029020055182        0.0000000000000000     
   4.7841022189991117E-002  0.12079024716257554        0.0000000000000000     
   4.9016981678556622E-002  0.12793505808307237        0.0000000000000000     
   5.0125799420696879E-002  0.13521472296204246        0.0000000000000000     
   3.9924639366004003E-002  0.10653423899110140        0.0000000000000000     
   4.1090882184875013E-002  0.11342614394850273        0.0000000000000000     
   4.2196332653566565E-002  0.12045335245220573        0.0000000000000000     
   4.3240990772078665E-002  0.12761586450221041        0.0000000000000000     
   4.4224856540411292E-002  0.13491368009851679        0.0000000000000000     
   6.8660900924888496E-002  0.13635104039257337        0.0000000000000000     
   7.0071800745217835E-002  0.14368964104629534        0.0000000000000000     
   7.1416876933462228E-002  0.15113706545098088        0.0000000000000000     
   7.2696129489621633E-002  0.15869331360663003        0.0000000000000000     
   7.3909558413696105E-002  0.16635838551324272        0.0000000000000000     
   6.2343821612935481E-002  0.13593340310907073        0.0000000000000000     
   6.3633158783736876E-002  0.14329443752726070        0.0000000000000000     
   6.4860334515156937E-002  0.15076463565663439        0.0000000000000000     
   6.6025348807195613E-002  0.15834399749719186        0.0000000000000000     
   6.7128201659852935E-002  0.16603252304893301        0.0000000000000000     
   5.6165454444871615E-002  0.13555463063222709        0.0000000000000000     
   5.7334015352986108E-002  0.14293677975246097        0.0000000000000000     
   5.8444572141308215E-002  0.15042838660132202        0.0000000000000000     
   5.9497124809837931E-002  0.15802945117881026        0.0000000000000000     
   6.0491673358575263E-002  0.16573997348492572        0.0000000000000000     
   5.0125799420696879E-002  0.13521472296204246        0.0000000000000000     
   5.1174370452965488E-002  0.14261666772189602        0.0000000000000000     
   5.2169589811916064E-002  0.15012831828504369        0.0000000000000000     
   5.3111457497548593E-002  0.15774967465148526        0.0000000000000000     
   5.3999973509863096E-002  0.16548073682122089        0.0000000000000000     
   4.4224856540411292E-002  0.13491368009851679        0.0000000000000000     
   4.5154224083675032E-002  0.14233410143556602        0.0000000000000000     
   4.6035387526980470E-002  0.14986443070779942        0.0000000000000000     
   4.6868346870327614E-002  0.15750466791521694        0.0000000000000000     
   4.7653102113716435E-002  0.16525481305781858        0.0000000000000000     
   7.3909558413696105E-002  0.16635838551324272        0.0000000000000000     
   7.5051927292281176E-002  0.17412278474419418        0.0000000000000000     
   7.6117999711972514E-002  0.18197701487285964        0.0000000000000000     
   7.7107775672770093E-002  0.18992107589923901        0.0000000000000000     
   7.8021255174673898E-002  0.19795496782333230        0.0000000000000000     
   6.7128201659852935E-002  0.16603252304893301        0.0000000000000000     
   6.8164076603433071E-002  0.17382024552163072        0.0000000000000000     
   6.9128157168240278E-002  0.18169719812505791        0.0000000000000000     
   7.0020443354274486E-002  0.18966338085921450        0.0000000000000000     
   7.0840935161535737E-002  0.19771879372410053        0.0000000000000000     
   6.0491673358575263E-002  0.16573997348492572        0.0000000000000000     
   6.1423666394413004E-002  0.17354966461479956        0.0000000000000000     
   6.2288552524243944E-002  0.18144823566356297        0.0000000000000000     
   6.3086331748068103E-002  0.18943568663121590        0.0000000000000000     
   6.3817004065885446E-002  0.19751201751775846        0.0000000000000000     
   5.3999973509863096E-002  0.16548073682122089        0.0000000000000000     
   5.4830696665220953E-002  0.17331104202370068        0.0000000000000000     
   5.5599185779983559E-002  0.18123012748837483        0.0000000000000000     
   5.6305440854150908E-002  0.18923799321524326        0.0000000000000000     
   5.6949461887722999E-002  0.19733463920430597        0.0000000000000000     
   4.7653102113716435E-002  0.16525481305781858        0.0000000000000000     
   4.8385167415856939E-002  0.17310437774833415        0.0000000000000000     
   4.9060056935459104E-002  0.18104287359949342        0.0000000000000000     
   4.9677770672522929E-002  0.18907030061129645        0.0000000000000000     
   5.0238308627048416E-002  0.19718665878374320        0.0000000000000000     
   7.8021255174673898E-002  0.19795496782333230        0.0000000000000000     
   7.8860156619245447E-002  0.20607138356849589        0.0000000000000000     
   7.9626198408046231E-002  0.21426301605808609        0.0000000000000000     
   8.0319380541076305E-002  0.22252986529210289        0.0000000000000000     
   8.0939703018335613E-002  0.23087193127054637        0.0000000000000000     
   7.0840935161535737E-002  0.19771879372410053        0.0000000000000000     
   7.1588834326840101E-002  0.20585700448671843        0.0000000000000000     
   7.2263342587003634E-002  0.21407158091407058        0.0000000000000000     
   7.2864459942026338E-002  0.22236252300615705        0.0000000000000000     
   7.3392186391908240E-002  0.23072983076297776        0.0000000000000000     
   6.3817004065885446E-002  0.19751201751775846        0.0000000000000000     
   6.4478381987247702E-002  0.20567085426554255        0.0000000000000000     
   6.5068278021706547E-002  0.21390582281692039        0.0000000000000000     
   6.5586692169262009E-002  0.22221692317189184        0.0000000000000000     
   6.6033624429914034E-002  0.23060415533045703        0.0000000000000000     
   5.6949461887722999E-002  0.19733463920430597        0.0000000000000000     
   5.7528799600468229E-002  0.20551293290496833        0.0000000000000000     
   5.8041004712154995E-002  0.21376574176663546        0.0000000000000000     
   5.8486077222783261E-002  0.22209306578930735        0.0000000000000000     
   5.8864017132353057E-002  0.23049490497298414        0.0000000000000000     
   5.0238308627048416E-002  0.19718665878374320        0.0000000000000000     
   5.0740087166501704E-002  0.20538324040499562        0.0000000000000000     
   5.1181522658348945E-002  0.21365133776321577        0.0000000000000000     
   5.1562615102590130E-002  0.22199095085840359        0.0000000000000000     
   5.1883364499225260E-002  0.23040207969055912        0.0000000000000000     
   8.0939703018335613E-002  0.23087193127054637        0.0000000000000000     
   8.1476325396540275E-002  0.23930989870644939        0.0000000000000000     
   8.1918407232406440E-002  0.24786445231284496        0.0000000000000000     
   8.2265948525934052E-002  0.25653559208973309        0.0000000000000000     
   8.2518949277123138E-002  0.26532331803711373        0.0000000000000000     
   7.3392186391908240E-002  0.23072983076297776        0.0000000000000000     
   7.3843064775074435E-002  0.23918723472287343        0.0000000000000000     
   7.4213637929950130E-002  0.24774846542418480        0.0000000000000000     
   7.4503905856535269E-002  0.25641352286691194        0.0000000000000000     
   7.4713868554829921E-002  0.26518240705105467        0.0000000000000000     
   6.6033624429914034E-002  0.23060415533045703        0.0000000000000000     
   6.6411204869089205E-002  0.23907410359237302        0.0000000000000000     
   6.6721563552213967E-002  0.24763335225739702        0.0000000000000000     
   6.6964700479288347E-002  0.25628190132552908        0.0000000000000000     
   6.7140615650312346E-002  0.26501975079676909        0.0000000000000000     
   5.8864017132353057E-002  0.23049490497298414        0.0000000000000000     
   5.9180745678584550E-002  0.23897050531494807        0.0000000000000000     
   5.9442184099197957E-002  0.24751911281248154        0.0000000000000000     
   5.9648332394193246E-002  0.25614072746558453        0.0000000000000000     
   5.9799190563570442E-002  0.26483534927425706        0.0000000000000000     
   5.1883364499225260E-002  0.23040207969055912        0.0000000000000000     
   5.2151687203560518E-002  0.23887643989059862        0.0000000000000000     
   5.2375499570902082E-002  0.24740574708943835        0.0000000000000000     
   5.2554801601249986E-002  0.25599000128707838        0.0000000000000000     
   5.2689593294604195E-002  0.26462920248351862        0.0000000000000000     
   8.2518949277123138E-002  0.26532331803711373        0.0000000000000000     
   8.2716431789643774E-002  0.27425398407188367        0.0000000000000000     
   8.2897418367165979E-002  0.28335394411093945        0.0000000000000000     
   8.3061909009689794E-002  0.29262319815428117        0.0000000000000000     
   8.3209903717215192E-002  0.30206174620190884        0.0000000000000000     
   7.4713868554829921E-002  0.26518240705105467        0.0000000000000000     
   7.4884518711615944E-002  0.27404874965439452        0.0000000000000000     
   7.5056849013675264E-002  0.28300618235471298        0.0000000000000000     
   7.5230859461007910E-002  0.29205470515200999        0.0000000000000000     
   7.5406550053613852E-002  0.30119431804628549        0.0000000000000000     
   6.7140615650312346E-002  0.26501975079676909        0.0000000000000000     
   6.7289602418662997E-002  0.27381702363018268        0.0000000000000000     
   6.7451954137717304E-002  0.28264384278483529        0.0000000000000000     
   6.7627670807475268E-002  0.29150020826072687        0.0000000000000000     
   6.7816752427936916E-002  0.30038612005785759        0.0000000000000000     
   5.9799190563570442E-002  0.26483534927425706        0.0000000000000000     
   5.9931682910784927E-002  0.27355880599924803        0.0000000000000000     
   6.0082733739292071E-002  0.28226692540130638        0.0000000000000000     
   6.0252343049091876E-002  0.29095970748043204        0.0000000000000000     
   6.0440510840184376E-002  0.29963715223662496        0.0000000000000000     
   5.2689593294604195E-002  0.26462920248351862        0.0000000000000000     
   5.2810760187981719E-002  0.27327409676159070        0.0000000000000000     
   5.2949187818399565E-002  0.28187543020412631        0.0000000000000000     
   5.3104876185857734E-002  0.29043320281112528        0.0000000000000000     
   5.3277825290356219E-002  0.29894741458258778        0.0000000000000000     
   2.8922552429029066E-002   5.7171788840349999E-002   0.0000000000000000     
   3.0528600298787390E-002   6.2729082493210894E-002   0.0000000000000000     
   3.2055611378584446E-002   6.8468697828001399E-002   0.0000000000000000     
   3.3503585668420231E-002   7.4390634844721526E-002   0.0000000000000000     
   3.4872523168294749E-002   8.0494893543371290E-002   0.0000000000000000     
   2.5018098679108543E-002   5.6736185091721208E-002   0.0000000000000000     
   2.6426976435703173E-002   6.2303802228563472E-002   0.0000000000000000     
   2.7767067267797312E-002   6.8055063937580276E-002   0.0000000000000000     
   2.9038371175390969E-002   7.3989970218771642E-002   0.0000000000000000     
   3.0240888158484143E-002   8.0108521072137562E-002   0.0000000000000000     
   2.1229945509777810E-002   5.6359418175347904E-002   0.0000000000000000     
   2.2439696741455521E-002   6.1935935085890514E-002   0.0000000000000000     
   2.3590429370975600E-002   6.7697228453291361E-002   0.0000000000000000     
   2.4682143398338033E-002   7.3643298277550423E-002   0.0000000000000000     
   2.5714838823542831E-002   7.9774144558667728E-002   0.0000000000000000     
   1.7558092921036862E-002   5.6041488091230079E-002   0.0000000000000000     
   1.8566761216044458E-002   6.1625481065192063E-002   0.0000000000000000     
   1.9525697688119303E-002   6.7395191375134667E-002   0.0000000000000000     
   2.0434902337261428E-002   7.3350619021057883E-002   0.0000000000000000     
   2.1294375163470824E-002   7.9491764002961735E-002   0.0000000000000000     
   1.4002540912885711E-002   5.5782394839367741E-002   0.0000000000000000     
   1.4808169859469953E-002   6.1372440166468076E-002   0.0000000000000000     
   1.5572872219228434E-002   6.7148952703110179E-002   0.0000000000000000     
   1.6296647992161149E-002   7.3111932449294037E-002   0.0000000000000000     
   1.6979497178268105E-002   7.9261379405019650E-002   0.0000000000000000     
   3.4872523168294749E-002   8.0494893543371290E-002   0.0000000000000000     
   3.6185344759321988E-002   8.6768917288565339E-002   0.0000000000000000     
   3.7464971322615948E-002   9.3200149444918376E-002   0.0000000000000000     
   3.8711402858176619E-002   9.9788590012430400E-002   0.0000000000000000     
   3.9924639366004003E-002  0.10653423899110140        0.0000000000000000     
   3.0240888158484143E-002   8.0108521072137562E-002   0.0000000000000000     
   3.1394183291158236E-002   8.6397489357421253E-002   0.0000000000000000     
   3.2517821647494657E-002   9.2843647934365892E-002   0.0000000000000000     
   3.3611803227493416E-002   9.9446996802971491E-002   0.0000000000000000     
   3.4676128031154510E-002  0.10620753596323804        0.0000000000000000     
   2.5714838823542831E-002   7.9774144558667728E-002   0.0000000000000000     
   2.6705209884519455E-002   8.6075990361660956E-002   0.0000000000000000     
   2.7669950819197375E-002   9.2535058751547813E-002   0.0000000000000000     
   2.8609061627576596E-002   9.9151349728328286E-002   0.0000000000000000     
   2.9522542309657118E-002  0.10592486329200237        0.0000000000000000     
   2.1294375163470824E-002   7.9491764002961735E-002   0.0000000000000000     
   2.2118424539405646E-002   8.5804420301284420E-002   0.0000000000000000     
   2.2921358837724094E-002   9.2274381896464100E-002   0.0000000000000000     
   2.3703178058426151E-002   9.8901648788500759E-002   0.0000000000000000     
   2.4463882201511827E-002  0.10568622097739444        0.0000000000000000     
   1.6979497178268105E-002   7.9261379405019650E-002   0.0000000000000000     
   1.7633827255816817E-002   8.5582779176291687E-002   0.0000000000000000     
   1.8272045703074811E-002   9.2061617369114807E-002   0.0000000000000000     
   1.8894152520042083E-002   9.8697893983488966E-002   0.0000000000000000     
   1.9500147706718637E-002  0.10549160901941421        0.0000000000000000     
   3.9924639366004003E-002  0.10653423899110140        0.0000000000000000     
   4.1090882184875013E-002  0.11342614394850273        0.0000000000000000     
   4.2196332653566565E-002  0.12045335245220573        0.0000000000000000     
   4.3240990772078665E-002  0.12761586450221041        0.0000000000000000     
   4.4224856540411292E-002  0.13491368009851679        0.0000000000000000     
   3.4676128031154510E-002  0.10620753596323804        0.0000000000000000     
   3.5698458109352099E-002  0.11311455230590425        0.0000000000000000     
   3.6666455512960355E-002  0.12015733272170888        0.0000000000000000     
   3.7580120241979285E-002  0.12733587721065193        0.0000000000000000     
   3.8439452296408883E-002  0.13465018577273336        0.0000000000000000     
   2.9522542309657118E-002  0.10592486329200237        0.0000000000000000     
   3.0399533453319659E-002  0.11284508571132887        0.0000000000000000     
   3.1229175646444934E-002  0.11990150325506656        0.0000000000000000     
   3.2011468889032953E-002  0.12709411592321543        0.0000000000000000     
   3.2746413181083713E-002  0.13442292371577544        0.0000000000000000     
   2.4463882201511827E-002  0.10568622097739444        0.0000000000000000     
   2.5194108216777686E-002  0.11261774416477660        0.0000000000000000     
   2.5884493054020297E-002  0.11968586405227875        0.0000000000000000     
   2.6535036713239663E-002  0.12689058063990089        0.0000000000000000     
   2.7145739194435779E-002  0.13423189392764304        0.0000000000000000     
   1.9500147706718637E-002  0.10549160901941421        0.0000000000000000     
   2.0082182399726183E-002  0.11243252766624739        0.0000000000000000     
   2.0632407735686441E-002  0.11951041511334545        0.0000000000000000     
   2.1150823714599407E-002  0.12672527136070838        0.0000000000000000     
   2.1637430336465077E-002  0.13407709640833609        0.0000000000000000     
   4.4224856540411292E-002  0.13491368009851679        0.0000000000000000     
   4.5154224083675032E-002  0.14233410143556602        0.0000000000000000     
   4.6035387526980470E-002  0.14986443070779942        0.0000000000000000     
   4.6868346870327614E-002  0.15750466791521694        0.0000000000000000     
   4.7653102113716435E-002  0.16525481305781858        0.0000000000000000     
   3.8439452296408883E-002  0.13465018577273336        0.0000000000000000     
   3.9250257215422538E-002  0.14208741898910798        0.0000000000000000     
   4.0018340538193635E-002  0.14963473744093056        0.0000000000000000     
   4.0743702264722188E-002  0.15729214112820111        0.0000000000000000     
   4.1426342395008198E-002  0.16505963005091956        0.0000000000000000     
   3.2746413181083713E-002  0.13442292371577544        0.0000000000000000     
   3.3439150818515777E-002  0.14187495847815904        0.0000000000000000     
   3.4094824097247740E-002  0.14943725205577843        0.0000000000000000     
   3.4713433017279575E-002  0.15710980444863371        0.0000000000000000     
   3.5294977578611317E-002  0.16489261565672478        0.0000000000000000     
   2.7145739194435779E-002  0.13423189392764304        0.0000000000000000     
   2.7720904892954774E-002  0.14169671990271909        0.0000000000000000     
   2.8264838204142766E-002  0.14927197455234298        0.0000000000000000     
   2.8777539127999779E-002  0.15695765787651472        0.0000000000000000     
   2.9259007664525785E-002  0.16475376987523427        0.0000000000000000     
   2.1637430336465077E-002  0.13407709640833609        0.0000000000000000     
   2.2095519438739504E-002  0.14155270326278824        0.0000000000000000     
   2.2528382858878735E-002  0.14913890493062421        0.0000000000000000     
   2.2936020596882770E-002  0.15683570141184414        0.0000000000000000     
   2.3318432652751610E-002  0.16464309270644792        0.0000000000000000     
   4.7653102113716435E-002  0.16525481305781858        0.0000000000000000     
   4.8385167415856939E-002  0.17310437774833415        0.0000000000000000     
   4.9060056935459104E-002  0.18104287359949342        0.0000000000000000     
   4.9677770672522929E-002  0.18907030061129645        0.0000000000000000     
   5.0238308627048416E-002  0.19718665878374320        0.0000000000000000     
   4.1426342395008198E-002  0.16505963005091956        0.0000000000000000     
   4.2061784779999022E-002  0.17292671687381617        0.0000000000000000     
   4.2645553270642067E-002  0.18088291426162104        0.0000000000000000     
   4.3177647866937299E-002  0.18892822221433422        0.0000000000000000     
   4.3658068568884753E-002  0.19706264073195565        0.0000000000000000     
   3.5294977578611317E-002  0.16489261565672478        0.0000000000000000     
   3.5835254891325302E-002  0.17277510448526309        0.0000000000000000     
   3.6330062065503925E-002  0.18074668973945993        0.0000000000000000     
   3.6779399101147178E-002  0.18880737141931522        0.0000000000000000     
   3.7183265998255062E-002  0.19695714952482904        0.0000000000000000     
   2.9259007664525785E-002  0.16475376987523427        0.0000000000000000     
   2.9705577749835767E-002  0.17264954058267493        0.0000000000000000     
   3.0113583320044688E-002  0.18063420003300995        0.0000000000000000     
   3.0483024375152556E-002  0.18870774822623945        0.0000000000000000     
   3.0813900915159363E-002  0.19687018516236335        0.0000000000000000     
   2.3318432652751610E-002  0.16464309270644792        0.0000000000000000     
   2.3672753355530415E-002  0.17255002516605164        0.0000000000000000     
   2.3996117034264356E-002  0.18054544514227130        0.0000000000000000     
   2.4288523688953432E-002  0.18862935263510694        0.0000000000000000     
   2.4549973319597650E-002  0.19680174764455854        0.0000000000000000     
   5.0238308627048416E-002  0.19718665878374320        0.0000000000000000     
   5.0740087166501704E-002  0.20538324040499562        0.0000000000000000     
   5.1181522658348945E-002  0.21365133776321577        0.0000000000000000     
   5.1562615102590130E-002  0.22199095085840359        0.0000000000000000     
   5.1883364499225260E-002  0.23040207969055912        0.0000000000000000     
   4.3658068568884753E-002  0.19706264073195565        0.0000000000000000     
   4.4086464618985452E-002  0.20527554134191273        0.0000000000000000     
   4.4462485259740503E-002  0.21355629557163289        0.0000000000000000     
   4.4786130491149864E-002  0.22190490342111599        0.0000000000000000     
   4.5057400313213578E-002  0.23032136489036209        0.0000000000000000     
   3.7183265998255062E-002  0.19695714952482904        0.0000000000000000     
   3.7542151891556831E-002  0.20518360029200786        0.0000000000000000     
   3.7856545915781734E-002  0.21347429995685815        0.0000000000000000     
   3.8126448070929762E-002  0.22182924851937991        0.0000000000000000     
   3.8351858357000931E-002  0.23024844597957317        0.0000000000000000     
   3.0813900915159363E-002  0.19687018516236335        0.0000000000000000     
   3.1107148984215825E-002  0.20510741725528098        0.0000000000000000     
   3.1363704626472637E-002  0.21340535091889168        0.0000000000000000     
   3.1583567841929810E-002  0.22176398615319542        0.0000000000000000     
   3.1766738630587335E-002  0.23018332295819230        0.0000000000000000     
   2.4549973319597650E-002  0.19680174764455854        0.0000000000000000     
   2.4781455896962429E-002  0.20504699223173201        0.0000000000000000     
   2.4983961391813213E-002  0.21334944845773338        0.0000000000000000     
   2.5157489804149998E-002  0.22170911632256254        0.0000000000000000     
   2.5302041133972785E-002  0.23012599582621956        0.0000000000000000     
   5.1883364499225260E-002  0.23040207969055912        0.0000000000000000     
   5.2151687203560518E-002  0.23887643989059862        0.0000000000000000     
   5.2375499570902082E-002  0.24740574708943835        0.0000000000000000     
   5.2554801601249986E-002  0.25599000128707838        0.0000000000000000     
   5.2689593294604195E-002  0.26462920248351862        0.0000000000000000     
   4.5057400313213578E-002  0.23032136489036209        0.0000000000000000     
   4.5284925490174759E-002  0.23879048416137022        0.0000000000000000     
   4.5477336786276565E-002  0.24729706541613941        0.0000000000000000     
   4.5634634201519017E-002  0.25584110865466964        0.0000000000000000     
   4.5756817735902094E-002  0.26442261387696087        0.0000000000000000     
   3.8351858357000931E-002  0.23024844597957317        0.0000000000000000     
   3.8541356584584970E-002  0.23871121496930853        0.0000000000000000     
   3.8703522564271599E-002  0.24719687812045660        0.0000000000000000     
   3.8838356296060819E-002  0.25570543543301744        0.0000000000000000     
   3.8945857779952645E-002  0.26423688690699093        0.0000000000000000     
   3.1766738630587335E-002  0.23018332295819230        0.0000000000000000     
   3.1920980486791151E-002  0.23863863231441343        0.0000000000000000     
   3.2054056904887170E-002  0.24710518520238989        0.0000000000000000     
   3.2165967884875413E-002  0.25558298162212179        0.0000000000000000     
   3.2256713426755852E-002  0.26407202157360898        0.0000000000000000     
   2.5302041133972785E-002  0.23012599582621956        0.0000000000000000     
   2.5423797196793309E-002  0.23857273619668498        0.0000000000000000     
   2.5528939808123305E-002  0.24702198666193936        0.0000000000000000     
   2.5617468967962770E-002  0.25547374722198263        0.0000000000000000     
   2.5689384676311714E-002  0.26392801787681486        0.0000000000000000     
   5.2689593294604195E-002  0.26462920248351862        0.0000000000000000     
   5.2810760187981719E-002  0.27327409676159070        0.0000000000000000     
   5.2949187818399565E-002  0.28187543020412631        0.0000000000000000     
   5.3104876185857734E-002  0.29043320281112528        0.0000000000000000     
   5.3277825290356219E-002  0.29894741458258778        0.0000000000000000     
   4.5756817735902094E-002  0.26442261387696087        0.0000000000000000     
   4.5868075923018961E-002  0.27299159966878417        0.0000000000000000     
   4.5992597296462809E-002  0.28149808461591075        0.0000000000000000     
   4.6130381856233617E-002  0.28994206871834055        0.0000000000000000     
   4.6281429602331392E-002  0.29832355197607352        0.0000000000000000     
   3.8945857779952645E-002  0.26423688690699093        0.0000000000000000     
   3.9044871788662242E-002  0.27274001847240209        0.0000000000000000     
   3.9154243094904805E-002  0.28116361605927565        0.0000000000000000     
   3.9273971698680327E-002  0.28950767966761159        0.0000000000000000     
   3.9404057599988815E-002  0.29777220929740994        0.0000000000000000     
   3.2256713426755852E-002  0.26407202157360898        0.0000000000000000     
   3.2341147784911553E-002  0.27251935317244441        0.0000000000000000     
   3.2434125213725552E-002  0.28087202453422089        0.0000000000000000     
   3.2535645713197871E-002  0.28913003565893841        0.0000000000000000     
   3.2645709283328481E-002  0.29729338654659698        0.0000000000000000     
   2.5689384676311714E-002  0.26392801787681486        0.0000000000000000     
   2.5756903911766889E-002  0.27232960376891113        0.0000000000000000     
   2.5832243652925059E-002  0.28062331004074648        0.0000000000000000     
   2.5915403899786235E-002  0.28880913669232106        0.0000000000000000     
   2.6006384652350400E-002  0.29688708372363470        0.0000000000000000     
   1.4002540912885711E-002   5.5782394839367741E-002   0.0000000000000000     
   1.4808169859469953E-002   6.1372440166468076E-002   0.0000000000000000     
   1.5572872219228434E-002   6.7148952703110179E-002   0.0000000000000000     
   1.6296647992161149E-002   7.3111932449294037E-002   0.0000000000000000     
   1.6979497178268105E-002   7.9261379405019650E-002   0.0000000000000000     
   1.0504330816414199E-002   5.5581429352896942E-002   0.0000000000000000     
   1.1106594789387856E-002   6.1176147617548214E-002   0.0000000000000000     
   1.1676913435255403E-002   6.6957905665697884E-002   0.0000000000000000     
   1.2215286754016844E-002   7.2926703497345910E-002   0.0000000000000000     
   1.2721714745672175E-002   7.9082541112492341E-002   0.0000000000000000     
   7.0045039627121813E-003   5.5437882564953772E-002   0.0000000000000000     
   7.4047081234539886E-003   6.1035938646262146E-002   0.0000000000000000     
   7.7827818071526476E-003   6.6821443491377766E-002   0.0000000000000000     
   8.1387250138081572E-003   7.2794397100300640E-002   0.0000000000000000     
   8.4725377434205183E-003   7.8954799473030760E-002   0.0000000000000000     
   3.5030603517796567E-003   5.5351754475538202E-002   0.0000000000000000     
   3.7025098616683522E-003   6.0951813252609829E-002   0.0000000000000000     
   3.8904773349201626E-003   6.6739566180149826E-002   0.0000000000000000     
   4.0669627715350905E-003   7.2715013258158170E-002   0.0000000000000000     
   4.2319661715131338E-003   7.8878154486634891E-002   0.0000000000000000     
  -1.6383375125300637E-011   5.5323045084650260E-002   0.0000000000000000     
   4.0309448487430011E-012   6.0923771436591313E-002   0.0000000000000000     
   1.8557950640617216E-011   6.6712273732014077E-002   0.0000000000000000     
   2.7197642765318039E-011   7.2688551970918544E-002   0.0000000000000000     
   2.9950019461016941E-011   7.8852606153304736E-002   0.0000000000000000     
   1.6979497178268105E-002   7.9261379405019650E-002   0.0000000000000000     
   1.7633827255816817E-002   8.5582779176291687E-002   0.0000000000000000     
   1.8272045703074811E-002   9.2061617369114807E-002   0.0000000000000000     
   1.8894152520042083E-002   9.8697893983488966E-002   0.0000000000000000     
   1.9500147706718637E-002  0.10549160901941421        0.0000000000000000     
   1.2721714745672175E-002   7.9082541112492341E-002   0.0000000000000000     
   1.3206585614558003E-002   8.5410687100437893E-002   0.0000000000000000     
   1.3680287565010933E-002   9.1896410050483324E-002   0.0000000000000000     
   1.4142820597030962E-002   9.8539709962628591E-002   0.0000000000000000     
   1.4594184710618092E-002  0.10534058683687374        0.0000000000000000     
   8.4725377434205183E-003   7.8954799473030760E-002   0.0000000000000000     
   8.7918671964342492E-003   8.5287764187478202E-002   0.0000000000000000     
   9.1043605732938609E-003   9.1778404821553097E-002   0.0000000000000000     
   9.4100178739993569E-003   9.8426721375255377E-002   0.0000000000000000     
   9.7088390985507374E-003  0.10523271384858508        0.0000000000000000     
   4.2319661715131338E-003   7.8878154486634891E-002   0.0000000000000000     
   4.3896720014455501E-003   8.5214010437412613E-002   0.0000000000000000     
   4.5442647279235948E-003   9.1707601682324100E-002   0.0000000000000000     
   4.6957443509472703E-003   9.8358928221369296E-002   0.0000000000000000     
   4.8441108705165742E-003  0.10516799005454820        0.0000000000000000     
   2.9950019461016941E-011   7.8852606153304736E-002   0.0000000000000000     
   2.9591908567647152E-011   8.5189425850241168E-002   0.0000000000000000     
   2.8900134238854513E-011   9.1684000632796386E-002   0.0000000000000000     
   2.7874698480413046E-011   9.8336330500970362E-002   0.0000000000000000     
   2.6515600045490251E-011  0.10514641545476316        0.0000000000000000     
   1.9500147706718637E-002  0.10549160901941421        0.0000000000000000     
   2.0082182399726183E-002  0.11243252766624739        0.0000000000000000     
   2.0632407735686441E-002  0.11951041511334545        0.0000000000000000     
   2.1150823714599407E-002  0.12672527136070838        0.0000000000000000     
   2.1637430336465077E-002  0.13407709640833609        0.0000000000000000     
   1.4594184710618092E-002  0.10534058683687374        0.0000000000000000     
   1.5028163920807573E-002  0.11228889293833098        0.0000000000000000     
   1.5438542242634660E-002  0.11937448053211257        0.0000000000000000     
   1.5825319676099344E-002  0.12659734961821847        0.0000000000000000     
   1.6188496221201634E-002  0.13395750019664873        0.0000000000000000     
   9.7088390985507374E-003  0.10523271384858508        0.0000000000000000     
   9.9964606986642762E-003  0.11218629670361699        0.0000000000000000     
   1.0268519126056242E-002  0.11927738440242597        0.0000000000000000     
   1.0525014380726639E-002  0.12650597694501195        0.0000000000000000     
   1.0765946462675464E-002  0.13387207433137499        0.0000000000000000     
   4.8441108705165742E-003  0.10516799005454820        0.0000000000000000     
   4.9870727332962878E-003  0.11212473896210547        0.0000000000000000     
   5.1223383859511917E-003  0.11921912672428570        0.0000000000000000     
   5.2499078284812843E-003  0.12645115334108883        0.0000000000000000     
   5.3697810608865689E-003  0.13382081881251492        0.0000000000000000     
   2.6515600045490251E-011  0.10514641545476316        0.0000000000000000     
   2.4703612636414740E-011  0.11210421971379635        0.0000000000000000     
   2.2319508329211868E-011  0.11919970749769167        0.0000000000000000     
   1.9363287801507992E-011  0.12643287880644904        0.0000000000000000     
   1.5834949670945342E-011  0.13380373364006851        0.0000000000000000     
   2.1637430336465077E-002  0.13407709640833609        0.0000000000000000     
   2.2095519438739504E-002  0.14155270326278824        0.0000000000000000     
   2.2528382858878735E-002  0.14913890493062421        0.0000000000000000     
   2.2936020596882770E-002  0.15683570141184414        0.0000000000000000     
   2.3318432652751610E-002  0.16464309270644792        0.0000000000000000     
   1.6188496221201634E-002  0.13395750019664873        0.0000000000000000     
   1.6530333060670636E-002  0.14144166079980658        0.0000000000000000     
   1.6853091377235473E-002  0.14903655996009535        0.0000000000000000     
   1.7156771170896132E-002  0.15674219767751502        0.0000000000000000     
   1.7441372441652621E-002  0.16455857395206558        0.0000000000000000     
   1.0765946462675464E-002  0.13387207433137499        0.0000000000000000     
   1.0992684363548819E-002  0.14136234475521439        0.0000000000000000     
   1.1206597074992806E-002  0.14896345641022959        0.0000000000000000     
   1.1407684597007422E-002  0.15667540929642043        0.0000000000000000     
   1.1595946929592666E-002  0.16449820341378701        0.0000000000000000     
   5.3697810608865689E-003  0.13382081881251492        0.0000000000000000     
   5.4825733473740507E-003  0.14131475512901173        0.0000000000000000     
   5.5888999521507398E-003  0.14891959428102683        0.0000000000000000     
   5.6887608752166363E-003  0.15663533626856033        0.0000000000000000     
   5.7821561165717393E-003  0.16446198109161220        0.0000000000000000     
   1.5834949670945342E-011  0.13380373364006851        0.0000000000000000     
   1.2146332984547259E-011  0.14129889192119841        0.0000000000000000     
   8.7092748377731732E-012  0.14890497357248714        0.0000000000000000     
   5.5237785374397108E-012  0.15662197859393470        0.0000000000000000     
   2.5898415356717663E-012  0.16444990698554113        0.0000000000000000     
   2.3318432652751610E-002  0.16464309270644792        0.0000000000000000     
   2.3672753355530415E-002  0.17255002516605164        0.0000000000000000     
   2.3996117034264356E-002  0.18054544514227130        0.0000000000000000     
   2.4288523688953432E-002  0.18862935263510694        0.0000000000000000     
   2.4549973319597650E-002  0.19680174764455854        0.0000000000000000     
   1.7441372441652621E-002  0.16455857395206558        0.0000000000000000     
   1.7704907755274106E-002  0.17247434538934781        0.0000000000000000     
   1.7945389677529743E-002  0.18047816859496252        0.0000000000000000     
   1.8162818208419543E-002  0.18857004356890969        0.0000000000000000     
   1.8357193347943494E-002  0.19674997031118929        0.0000000000000000     
   1.1595946929592666E-002  0.16449820341378701        0.0000000000000000     
   1.1770166995931700E-002  0.17242028840651802        0.0000000000000000     
   1.1929127719207681E-002  0.18043011391880226        0.0000000000000000     
   1.2072829099420614E-002  0.18852767995063968        0.0000000000000000     
   1.2201271136570489E-002  0.19671298650203028        0.0000000000000000     
   5.7821561165717393E-003  0.16446198109161220        0.0000000000000000     
   5.8685310775031998E-003  0.17238785421756228        0.0000000000000000     
   5.9473311592981668E-003  0.18040128111379056        0.0000000000000000     
   6.0185563619566448E-003  0.18850226178029694        0.0000000000000000     
   6.0822066854786284E-003  0.19669079621708149        0.0000000000000000     
   2.5898415356717663E-012  0.16444990698554113        0.0000000000000000     
  -1.1397133237167623E-014  0.17237704282248059        0.0000000000000000     
  -2.1987986518340330E-012  0.18039167017992735        0.0000000000000000     
  -3.9723619901267659E-012  0.18849378905788147        0.0000000000000000     
  -5.3320863349637371E-012  0.19668339945634292        0.0000000000000000     
   2.4549973319597650E-002  0.19680174764455854        0.0000000000000000     
   2.4781455896962429E-002  0.20504699223173201        0.0000000000000000     
   2.4983961391813213E-002  0.21334944845773338        0.0000000000000000     
   2.5157489804149998E-002  0.22170911632256254        0.0000000000000000     
   2.5302041133972785E-002  0.23012599582621956        0.0000000000000000     
   1.8357193347943494E-002  0.19674997031118929        0.0000000000000000     
   1.8529336270093195E-002  0.20500101446704133        0.0000000000000000     
   1.8680068148860231E-002  0.21330624168170581        0.0000000000000000     
   1.8809388984244599E-002  0.22166565195518265        0.0000000000000000     
   1.8917298776246302E-002  0.23007924528747190        0.0000000000000000     
   1.2201271136570489E-002  0.19671298650203028        0.0000000000000000     
   1.2315053743904654E-002  0.20496817320688918        0.0000000000000000     
   1.2414776834670450E-002  0.21327537969913146        0.0000000000000000     
   1.2500440408867870E-002  0.22163460597875714        0.0000000000000000     
   1.2572044466496924E-002  0.23004585204576625        0.0000000000000000     
   6.0822066854786284E-003  0.19669079621708149        0.0000000000000000     
   6.1386083183968092E-003  0.20494846845127551        0.0000000000000000     
   6.1880874492438696E-003  0.21325686251001039        0.0000000000000000     
   6.2306440780198133E-003  0.22161597839328612        0.0000000000000000     
   6.2662782047246384E-003  0.23002581610110265        0.0000000000000000     
  -5.3320863349637371E-012  0.19668339945634292        0.0000000000000000     
  -6.4303438875729091E-012  0.20494190020020037        0.0000000000000000     
  -7.4195074997035482E-012  0.21325069011434256        0.0000000000000000     
  -8.2995747319007662E-012  0.22160976919876946        0.0000000000000000     
  -9.0705455299544546E-012  0.23001913745348113        0.0000000000000000     
   2.5302041133972785E-002  0.23012599582621956        0.0000000000000000     
   2.5423797196793309E-002  0.23857273619668498        0.0000000000000000     
   2.5528939808123305E-002  0.24702198666193936        0.0000000000000000     
   2.5617468967962770E-002  0.25547374722198263        0.0000000000000000     
   2.5689384676311714E-002  0.26392801787681486        0.0000000000000000     
   1.8917298776246302E-002  0.23007924528747190        0.0000000000000000     
   1.9008119706810211E-002  0.23851800245379051        0.0000000000000000     
   1.9086173957881175E-002  0.24695290422935545        0.0000000000000000     
   1.9151461529459200E-002  0.25538395061416680        0.0000000000000000     
   1.9203982421544287E-002  0.26381114160822455        0.0000000000000000     
   1.2572044466496924E-002  0.23004585204576625        0.0000000000000000     
   1.2632261009060617E-002  0.23847890692339732        0.0000000000000000     
   1.2683762038061968E-002  0.24690355963488897        0.0000000000000000     
   1.2726547553500977E-002  0.25531981018024119        0.0000000000000000     
   1.2760617555377642E-002  0.26372765855945396        0.0000000000000000     
   6.2662782047246384E-003  0.23002581610110265        0.0000000000000000     
   6.2962211035445352E-003  0.23845544960550541        0.0000000000000000     
   6.3217040486656887E-003  0.24687395287853975        0.0000000000000000     
   6.3427270400881006E-003  0.25528132592020564        0.0000000000000000     
   6.3592900778117684E-003  0.26367756873050308        0.0000000000000000     
  -9.0705455299544546E-012  0.23001913745348113        0.0000000000000000     
  -9.7380389342538454E-012  0.23844763050011480        0.0000000000000000     
  -1.0307665962092094E-011  0.24686408396030785        0.0000000000000000     
  -1.0779429378184741E-011  0.25526849783406019        0.0000000000000000     
  -1.1153328694640807E-011  0.26366087212137196        0.0000000000000000     
   2.5689384676311714E-002  0.26392801787681486        0.0000000000000000     
   2.5756903911766889E-002  0.27232960376891113        0.0000000000000000     
   2.5832243652925059E-002  0.28062331004074648        0.0000000000000000     
   2.5915403899786235E-002  0.28880913669232106        0.0000000000000000     
   2.6006384652350400E-002  0.29688708372363470        0.0000000000000000     
   1.9203982421544287E-002  0.26381114160822455        0.0000000000000000     
   1.9253719560683353E-002  0.27217709874560259        0.0000000000000000     
   1.9310655873423309E-002  0.28042444356037499        0.0000000000000000     
   1.9374791359764151E-002  0.28855317605254177        0.0000000000000000     
   1.9446126019705877E-002  0.29656329622210287        0.0000000000000000     
   1.2760617555377642E-002  0.26372765855945396        0.0000000000000000     
   1.2793174123116050E-002  0.27206816658631922        0.0000000000000000     
   1.2831419336140282E-002  0.28028239607462879        0.0000000000000000     
   1.2875353194450344E-002  0.28837034702438280        0.0000000000000000     
   1.2924975698046232E-002  0.29633201943558118        0.0000000000000000     
   6.3592900778117684E-003  0.26367756873050308        0.0000000000000000     
   6.3752675990649734E-003  0.27200280729106091        0.0000000000000000     
   6.3945340410759884E-003  0.28019716758350799        0.0000000000000000     
   6.4170894038448178E-003  0.28826064960784431        0.0000000000000000     
   6.4429336873714563E-003  0.29619325336406976        0.0000000000000000     
  -1.1153328694640807E-011  0.26366087212137196        0.0000000000000000     
  -1.1469873878802717E-011  0.27198102085982784        0.0000000000000000     
  -1.1769574898012891E-011  0.28016875808701247        0.0000000000000000     
  -1.2052431318590462E-011  0.28822408380292613        0.0000000000000000     
  -1.2318444007897167E-011  0.29614699800756850        0.0000000000000000     
  -1.6383375125300637E-011   5.5323045084650260E-002   0.0000000000000000     
   4.0309448487430011E-012   6.0923771436591313E-002   0.0000000000000000     
   1.8557950640617216E-011   6.6712273732014077E-002   0.0000000000000000     
   2.7197642765318039E-011   7.2688551970918544E-002   0.0000000000000000     
   2.9950019461016941E-011   7.8852606153304736E-002   0.0000000000000000     
  -3.5030603878633960E-003   5.5351754404403770E-002   0.0000000000000000     
  -3.7025098568648522E-003   6.0951813204515044E-002   0.0000000000000000     
  -3.8904773008568926E-003   6.6739566149177879E-002   0.0000000000000000     
  -4.0669627198395165E-003   7.2715013238392273E-002   0.0000000000000000     
  -4.2319661138127233E-003   7.8878154472158235E-002   0.0000000000000000     
  -7.0045040087468877E-003   5.5437882446912570E-002   0.0000000000000000     
  -7.4047081284256619E-003   6.1035938562689490E-002   0.0000000000000000     
  -7.7827817822472695E-003   6.6821443433848590E-002   0.0000000000000000     
  -8.1387249702117165E-003   7.2794397060389870E-002   0.0000000000000000     
  -8.4725376923189943E-003   7.8954799442313331E-002   0.0000000000000000     
  -1.0504330879033848E-002   5.5581429212176674E-002   0.0000000000000000     
  -1.1106594810651484E-002   6.1176147511114685E-002   0.0000000000000000     
  -1.1676913425613186E-002   6.6957905586026253E-002   0.0000000000000000     
  -1.2215286723918955E-002   7.2926703436911350E-002   0.0000000000000000     
  -1.2721714705568796E-002   7.9082541063770037E-002   0.0000000000000000     
  -1.4002540998724278E-002   5.5782394700196074E-002   0.0000000000000000     
  -1.4808169903542317E-002   6.1372440049790596E-002   0.0000000000000000     
  -1.5572872230954637E-002   6.7148952605710813E-002   0.0000000000000000     
  -1.6296647980961244E-002   7.3111932367956739E-002   0.0000000000000000     
  -1.6979497153562131E-002   7.9261379336528340E-002   0.0000000000000000     
   2.9950019461016941E-011   7.8852606153304736E-002   0.0000000000000000     
   2.9591908567647152E-011   8.5189425850241168E-002   0.0000000000000000     
   2.8900134238854513E-011   9.1684000632796386E-002   0.0000000000000000     
   2.7874698480413046E-011   9.8336330500970362E-002   0.0000000000000000     
   2.6515600045490251E-011  0.10514641545476316        0.0000000000000000     
  -4.2319661138127233E-003   7.8878154472158235E-002   0.0000000000000000     
  -4.3896719439559693E-003   8.5214010425254685E-002   0.0000000000000000     
  -4.5442646714487092E-003   9.1707601672460573E-002   0.0000000000000000     
  -4.6957442962909405E-003   9.8358928213775856E-002   0.0000000000000000     
  -4.8441108184826675E-003  0.10516799004920059        0.0000000000000000     
  -8.4725376923189943E-003   7.8954799442313331E-002   0.0000000000000000     
  -8.7918671440273769E-003   8.5287764161744134E-002   0.0000000000000000     
  -9.1043605207951246E-003   9.1778404800807359E-002   0.0000000000000000     
  -9.4100178226222322E-003   9.8426721359503061E-002   0.0000000000000000     
  -9.7088390495087117E-003  0.10523271383783120        0.0000000000000000     
  -1.2721714705568796E-002   7.9082541063770037E-002   0.0000000000000000     
  -1.3206585570622310E-002   8.5410687059709445E-002   0.0000000000000000     
  -1.3680287519139104E-002   9.1896410017836744E-002   0.0000000000000000     
  -1.4142820551119178E-002   9.8539709938151906E-002   0.0000000000000000     
  -1.4594184666562536E-002  0.10534058682065499        0.0000000000000000     
  -1.6979497153562131E-002   7.9261379336528340E-002   0.0000000000000000     
  -1.7633827223740777E-002   8.5582779119150659E-002   0.0000000000000000     
  -1.8272045666480660E-002   9.2061617323548700E-002   0.0000000000000000     
  -1.8894152481781782E-002   9.8697893949722462E-002   0.0000000000000000     
  -1.9500147669644138E-002  0.10549160899767193        0.0000000000000000     
   2.6515600045490251E-011  0.10514641545476316        0.0000000000000000     
   2.4703612636414740E-011  0.11210421971379635        0.0000000000000000     
   2.2319508329211868E-011  0.11919970749769167        0.0000000000000000     
   1.9363287801507992E-011  0.12643287880644904        0.0000000000000000     
   1.5834949670945342E-011  0.13380373364006851        0.0000000000000000     
  -4.8441108184826675E-003  0.10516799004920059        0.0000000000000000     
  -4.9870726848591455E-003  0.11212473895887136        0.0000000000000000     
  -5.1223383422556411E-003  0.11921912672292474        0.0000000000000000     
  -5.2499077906721483E-003  0.12645115334136081        0.0000000000000000     
  -5.3697810301086705E-003  0.13382081881417951        0.0000000000000000     
  -9.7088390495087117E-003  0.10523271383783120        0.0000000000000000     
  -9.9964606531373866E-003  0.11218629669751203        0.0000000000000000     
  -1.0268519085191085E-002  0.11927738440026574        0.0000000000000000     
  -1.0525014345669810E-002  0.12650597694609236        0.0000000000000000     
  -1.0765946434573565E-002  0.13387207433499182        0.0000000000000000     
  -1.4594184666562536E-002  0.10534058682065499        0.0000000000000000     
  -1.5028163880131108E-002  0.11228889292971840        0.0000000000000000     
  -1.5438542206486825E-002  0.11937448052971461        0.0000000000000000     
  -1.5825319645629707E-002  0.12659734962064365        0.0000000000000000     
  -1.6188496197559736E-002  0.13395750020250546        0.0000000000000000     
  -1.9500147669644138E-002  0.10549160899767193        0.0000000000000000     
  -2.0082182365840303E-002  0.11243252765549047        0.0000000000000000     
  -2.0632407706142872E-002  0.11951041511127139        0.0000000000000000     
  -2.1150823690551830E-002  0.12672527136501469        0.0000000000000000     
  -2.1637430319067178E-002  0.13407709641672033        0.0000000000000000     
   1.5834949670945342E-011  0.13380373364006851        0.0000000000000000     
   1.2146332984547259E-011  0.14129889192119841        0.0000000000000000     
   8.7092748377731732E-012  0.14890497357248714        0.0000000000000000     
   5.5237785374397108E-012  0.15662197859393470        0.0000000000000000     
   2.5898415356717663E-012  0.16444990698554113        0.0000000000000000     
  -5.3697810301086705E-003  0.13382081881417951        0.0000000000000000     
  -5.4825733239377977E-003  0.14131475513176128        0.0000000000000000     
  -5.5888999355321245E-003  0.14891959428448648        0.0000000000000000     
  -5.6887608648916498E-003  0.15663533627235507        0.0000000000000000     
  -5.7821561120163720E-003  0.16446198109536717        0.0000000000000000     
  -1.0765946434573565E-002  0.13387207433499182        0.0000000000000000     
  -1.0992684342681806E-002  0.14136234476068704        0.0000000000000000     
  -1.1206597060773999E-002  0.14896345641690073        0.0000000000000000     
  -1.1407684588850145E-002  0.15667540930363297        0.0000000000000000     
  -1.1595946926910241E-002  0.16449820342088367        0.0000000000000000     
  -1.6188496197559736E-002  0.13395750020250546        0.0000000000000000     
  -1.6530333044085691E-002  0.14144166080797568        0.0000000000000000     
  -1.6853091367016348E-002  0.14903655996972998        0.0000000000000000     
  -1.7156771166351708E-002  0.15674219768776831        0.0000000000000000     
  -1.7441372442091770E-002  0.16455857396209067        0.0000000000000000     
  -2.1637430319067178E-002  0.13407709641672033        0.0000000000000000     
  -2.2095519428149451E-002  0.14155270327362723        0.0000000000000000     
  -2.2528382854259166E-002  0.14913890494297416        0.0000000000000000     
  -2.2936020597396339E-002  0.15683570142476116        0.0000000000000000     
  -2.3318432657560950E-002  0.16464309271898817        0.0000000000000000     
   2.5898415356717663E-012  0.16444990698554113        0.0000000000000000     
  -1.1397133237167623E-014  0.17237704282248059        0.0000000000000000     
  -2.1987986518340330E-012  0.18039167017992735        0.0000000000000000     
  -3.9723619901267659E-012  0.18849378905788147        0.0000000000000000     
  -5.3320863349637371E-012  0.19668339945634292        0.0000000000000000     
  -5.7821561120163720E-003  0.16446198109536717        0.0000000000000000     
  -5.8685310780498849E-003  0.17238785422107655        0.0000000000000000     
  -5.9473311641357910E-003  0.18040128111703718        0.0000000000000000     
  -6.0185563702740809E-003  0.18850226178324905        0.0000000000000000     
  -6.0822066964647606E-003  0.19669079621971217        0.0000000000000000     
  -1.1595946926910241E-002  0.16449820342088367        0.0000000000000000     
  -1.1770166998050061E-002  0.17242028841315388        0.0000000000000000     
  -1.1929127725365380E-002  0.18043011392494443        0.0000000000000000     
  -1.2072829108856192E-002  0.18852767995625544        0.0000000000000000     
  -1.2201271148522496E-002  0.19671298650708680        0.0000000000000000     
  -1.7441372442091770E-002  0.16455857396209067        0.0000000000000000     
  -1.7704907760011920E-002  0.17247434539871254        0.0000000000000000     
  -1.7945389685887558E-002  0.18047816860364915        0.0000000000000000     
  -1.8162818219718685E-002  0.18857004357690060        0.0000000000000000     
  -1.8357193361505295E-002  0.19674997031846683        0.0000000000000000     
  -2.3318432657560950E-002  0.16464309271898817        0.0000000000000000     
  -2.3672753363935470E-002  0.17255002517775250        0.0000000000000000     
  -2.3996117045702342E-002  0.18054544515315127        0.0000000000000000     
  -2.4288523702861577E-002  0.18862935264518457        0.0000000000000000     
  -2.4549973335413162E-002  0.19680174765385233        0.0000000000000000     
  -5.3320863349637371E-012  0.19668339945634292        0.0000000000000000     
  -6.4303438875729091E-012  0.20494190020020037        0.0000000000000000     
  -7.4195074997035482E-012  0.21325069011434256        0.0000000000000000     
  -8.2995747319007662E-012  0.22160976919876946        0.0000000000000000     
  -9.0705455299544546E-012  0.23001913745348113        0.0000000000000000     
  -6.0822066964647606E-003  0.19669079621971217        0.0000000000000000     
  -6.1386083315402703E-003  0.20494846845360165        0.0000000000000000     
  -6.1880874643330495E-003  0.21325686251209264        0.0000000000000000     
  -6.2306440948431000E-003  0.22161597839518518        0.0000000000000000     
  -6.2662782230704234E-003  0.23002581610287920        0.0000000000000000     
  -1.2201271148522496E-002  0.19671298650708680        0.0000000000000000     
  -1.2315053757896433E-002  0.20496817321141722        0.0000000000000000     
  -1.2414776850510125E-002  0.21327537970322533        0.0000000000000000     
  -1.2500440426363574E-002  0.22163460598251111        0.0000000000000000     
  -1.2572044485456783E-002  0.23004585204927461        0.0000000000000000     
  -1.8357193361505295E-002  0.19674997031846683        0.0000000000000000     
  -1.8529336285498837E-002  0.20500101447364713        0.0000000000000000     
  -1.8680068165950733E-002  0.21330624168774062        0.0000000000000000     
  -1.8809389002860999E-002  0.22166565196074733        0.0000000000000000     
  -1.8917298796229623E-002  0.23007924529266721        0.0000000000000000     
  -2.4549973335413162E-002  0.19680174765385233        0.0000000000000000     
  -2.4781455914347474E-002  0.20504699224029141        0.0000000000000000     
  -2.4983961410654874E-002  0.21334944846563855        0.0000000000000000     
  -2.5157489824335365E-002  0.22170911632989379        0.0000000000000000     
  -2.5302041155388946E-002  0.23012599583305710        0.0000000000000000     
  -9.0705455299544546E-012  0.23001913745348113        0.0000000000000000     
  -9.7380389342538454E-012  0.23844763050011480        0.0000000000000000     
  -1.0307665962092094E-011  0.24686408396030785        0.0000000000000000     
  -1.0779429378184741E-011  0.25526849783406019        0.0000000000000000     
  -1.1153328694640807E-011  0.26366087212137196        0.0000000000000000     
  -6.2662782230704234E-003  0.23002581610287920        0.0000000000000000     
  -6.2962211232099946E-003  0.23845544960719731        0.0000000000000000     
  -6.3217040694567963E-003  0.24687395288016190        0.0000000000000000     
  -6.3427270618108249E-003  0.25528132592177305        0.0000000000000000     
  -6.3592901002720833E-003  0.26367756873203063        0.0000000000000000     
  -1.2572044485456783E-002  0.23004585204927461        0.0000000000000000     
  -1.2632261029294231E-002  0.23847890692672474        0.0000000000000000     
  -1.2683762059380406E-002  0.24690355963807054        0.0000000000000000     
  -1.2726547575715305E-002  0.25531981018331201        0.0000000000000000     
  -1.2760617578298928E-002  0.26372765856244906        0.0000000000000000     
  -1.8917298796229623E-002  0.23007924529266721        0.0000000000000000     
  -1.9008119727990744E-002  0.23851800245869711        0.0000000000000000     
  -1.9086173980078492E-002  0.24695290423403374        0.0000000000000000     
  -1.9151461552492869E-002  0.25538395061867714        0.0000000000000000     
  -1.9203982445233862E-002  0.26381114161262736        0.0000000000000000     
  -2.5302041155388946E-002  0.23012599583305710        0.0000000000000000     
  -2.5423797219299538E-002  0.23857273620311437        0.0000000000000000     
  -2.5528939831551054E-002  0.24702198666805153        0.0000000000000000     
  -2.5617468992143507E-002  0.25547374722786853        0.0000000000000000     
  -2.5689384701076887E-002  0.26392801788256542        0.0000000000000000     
  -1.1153328694640807E-011  0.26366087212137196        0.0000000000000000     
  -1.1469873878802717E-011  0.27198102085982784        0.0000000000000000     
  -1.1769574898012891E-011  0.28016875808701247        0.0000000000000000     
  -1.2052431318590462E-011  0.28822408380292613        0.0000000000000000     
  -1.2318444007897167E-011  0.29614699800756850        0.0000000000000000     
  -6.3592901002720833E-003  0.26367756873203063        0.0000000000000000     
  -6.3752676221496777E-003  0.27200280729259135        0.0000000000000000     
  -6.3945340647527131E-003  0.28019716758511198        0.0000000000000000     
  -6.4170894280811885E-003  0.28826064960959247        0.0000000000000000     
  -6.4429337121351066E-003  0.29619325336603275        0.0000000000000000     
  -1.2760617578298928E-002  0.26372765856244906        0.0000000000000000     
  -1.2793174146635619E-002  0.27206816658932326        0.0000000000000000     
  -1.2831419360229726E-002  0.28028239607777611        0.0000000000000000     
  -1.2875353219081242E-002  0.28837034702780756        0.0000000000000000     
  -1.2924975723190169E-002  0.29633201943941767        0.0000000000000000     
  -1.9203982445233862E-002  0.26381114161262736        0.0000000000000000     
  -1.9253719584927706E-002  0.27217709875002344        0.0000000000000000     
  -1.9310655898200618E-002  0.28042444356500484        0.0000000000000000     
  -1.9374791385052589E-002  0.28855317605757153        0.0000000000000000     
  -1.9446126045483632E-002  0.29656329622772337        0.0000000000000000     
  -2.5689384701076887E-002  0.26392801788256542        0.0000000000000000     
  -2.5756903937025934E-002  0.27232960377469201        0.0000000000000000     
  -2.5832243678665379E-002  0.28062331004679825        0.0000000000000000     
  -2.5915403925995232E-002  0.28880913669888419        0.0000000000000000     
  -2.6006384679015494E-002  0.29688708373094969        0.0000000000000000     
  -1.4002540998724278E-002   5.5782394700196074E-002   0.0000000000000000     
  -1.4808169903542317E-002   6.1372440049790596E-002   0.0000000000000000     
  -1.5572872230954637E-002   6.7148952605710813E-002   0.0000000000000000     
  -1.6296647980961244E-002   7.3111932367956739E-002   0.0000000000000000     
  -1.6979497153562131E-002   7.9261379336528340E-002   0.0000000000000000     
  -1.7558093028987136E-002   5.6041487968845449E-002   0.0000000000000000     
  -1.8566761282394300E-002   6.1625480946230313E-002   0.0000000000000000     
  -1.9525697721211401E-002   6.7395191262840326E-002   0.0000000000000000     
  -2.0434902345438450E-002   7.3350618918675434E-002   0.0000000000000000     
  -2.1294375155075439E-002   7.9491763913735719E-002   0.0000000000000000     
  -2.1229945630991377E-002   5.6359418075999493E-002   0.0000000000000000     
  -2.2439696822503571E-002   6.1935934967946894E-002   0.0000000000000000     
  -2.3590429419323270E-002   6.7697228327352726E-002   0.0000000000000000     
  -2.4682143421450468E-002   7.3643298154216955E-002   0.0000000000000000     
  -2.5714838828885180E-002   7.9774144448539613E-002   0.0000000000000000     
  -2.5018098804737005E-002   5.6736185021658191E-002   0.0000000000000000     
  -2.6426976523870133E-002   6.2303802114940347E-002   0.0000000000000000     
  -2.7767067325290228E-002   6.8055063799248056E-002   0.0000000000000000     
  -2.9038371208997302E-002   7.3989970074581288E-002   0.0000000000000000     
  -3.0240888174991348E-002   8.0108520940940051E-002   0.0000000000000000     
  -2.8922552550224013E-002   5.7171788805821550E-002   0.0000000000000000     
  -3.0528600386493975E-002   6.2729082387210672E-002   0.0000000000000000     
  -3.2055611439112286E-002   6.8468697678526313E-002   0.0000000000000000     
  -3.3503585708078945E-002   7.4390634679768419E-002   0.0000000000000000     
  -3.4872523193393949E-002   8.0494893390937045E-002   0.0000000000000000     
  -1.6979497153562131E-002   7.9261379336528340E-002   0.0000000000000000     
  -1.7633827223740777E-002   8.5582779119150659E-002   0.0000000000000000     
  -1.8272045666480660E-002   9.2061617323548700E-002   0.0000000000000000     
  -1.8894152481781782E-002   9.8697893949722462E-002   0.0000000000000000     
  -1.9500147669644138E-002  0.10549160899767193        0.0000000000000000     
  -2.1294375155075439E-002   7.9491763913735719E-002   0.0000000000000000     
  -2.2118424520451482E-002   8.5804420227021727E-002   0.0000000000000000     
  -2.2921358811895685E-002   9.2274381837534059E-002   0.0000000000000000     
  -2.3703178029408065E-002   9.8901648745272797E-002   0.0000000000000000     
  -2.4463882172988598E-002  0.10568622095023784        0.0000000000000000     
  -2.5714838828885180E-002   7.9774144448539613E-002   0.0000000000000000     
  -2.6705209877823134E-002   8.6075990270276556E-002   0.0000000000000000     
  -2.7669950804460094E-002   9.2535058679383692E-002   0.0000000000000000     
  -2.8609061608796050E-002   9.9151349675860978E-002   0.0000000000000000     
  -2.9522542290831000E-002  0.10592486325970847        0.0000000000000000     
  -3.0240888174991348E-002   8.0108520940940051E-002   0.0000000000000000     
  -3.1394183295855749E-002   8.6397489248915216E-002   0.0000000000000000     
  -3.2517821644173883E-002   9.2843647849097530E-002   0.0000000000000000     
  -3.3611803219945752E-002   9.9446996741487062E-002   0.0000000000000000     
  -3.4676128023171347E-002  0.10620753592608377        0.0000000000000000     
  -3.4872523193393949E-002   8.0494893390937045E-002   0.0000000000000000     
  -3.6185344774549315E-002   8.6768917162937623E-002   0.0000000000000000     
  -3.7464971331037052E-002   9.3200149346675573E-002   0.0000000000000000     
  -3.8711402862857160E-002   9.9788589942150993E-002   0.0000000000000000     
  -3.9924639370009632E-002  0.10653423894936380        0.0000000000000000     
  -1.9500147669644138E-002  0.10549160899767193        0.0000000000000000     
  -2.0082182365840303E-002  0.11243252765549047        0.0000000000000000     
  -2.0632407706142872E-002  0.11951041511127139        0.0000000000000000     
  -2.1150823690551830E-002  0.12672527136501469        0.0000000000000000     
  -2.1637430319067178E-002  0.13407709641672033        0.0000000000000000     
  -2.4463882172988598E-002  0.10568622095023784        0.0000000000000000     
  -2.5194108191161853E-002  0.11261774415220269        0.0000000000000000     
  -2.5884493032452379E-002  0.11968586405094078        0.0000000000000000     
  -2.6535036696860182E-002  0.12689058064645212        0.0000000000000000     
  -2.7145739184385256E-002  0.13423189393873669        0.0000000000000000     
  -2.9522542290831000E-002  0.10592486325970847        0.0000000000000000     
  -3.0399533436992605E-002  0.11284508569722951        0.0000000000000000     
  -3.1229175633708525E-002  0.11990150325472756        0.0000000000000000     
  -3.2011468880978763E-002  0.12709411593220260        0.0000000000000000     
  -3.2746413178803307E-002  0.13442292372965464        0.0000000000000000     
  -3.4676128023171347E-002  0.10620753592608377        0.0000000000000000     
  -3.5698458103332560E-002  0.11311455229057091        0.0000000000000000     
  -3.6666455509911315E-002  0.12015733272263170        0.0000000000000000     
  -3.7580120242907571E-002  0.12733587722226616        0.0000000000000000     
  -3.8439452302321368E-002  0.13465018578947424        0.0000000000000000     
  -3.9924639370009632E-002  0.10653423894936380        0.0000000000000000     
  -4.1090882190181741E-002  0.11342614393222691        0.0000000000000000     
  -4.2196332661060737E-002  0.12045335245465323        0.0000000000000000     
  -4.3240990782646621E-002  0.12761586451664275        0.0000000000000000     
  -4.4224856554939407E-002  0.13491368011819546        0.0000000000000000     
  -2.1637430319067178E-002  0.13407709641672033        0.0000000000000000     
  -2.2095519428149451E-002  0.14155270327362723        0.0000000000000000     
  -2.2528382854259166E-002  0.14913890494297416        0.0000000000000000     
  -2.2936020597396339E-002  0.15683570142476116        0.0000000000000000     
  -2.3318432657560950E-002  0.16464309271898817        0.0000000000000000     
  -2.7145739184385256E-002  0.13423189393873669        0.0000000000000000     
  -2.7720904889323036E-002  0.14169671991619082        0.0000000000000000     
  -2.8264838205968975E-002  0.14927197456721089        0.0000000000000000     
  -2.8777539134323068E-002  0.15695765789179683        0.0000000000000000     
  -2.9259007674385315E-002  0.16475376988994872        0.0000000000000000     
  -3.2746413178803307E-002  0.13442292372965464        0.0000000000000000     
  -3.3439150822056417E-002  0.14187495849421572        0.0000000000000000     
  -3.4094824105612292E-002  0.14943725207301778        0.0000000000000000     
  -3.4713433029470948E-002  0.15710980446606082        0.0000000000000000     
  -3.5294977593632371E-002  0.16489261567334487        0.0000000000000000     
  -3.8439452302321368E-002  0.13465018578947424        0.0000000000000000     
  -3.9250257226349568E-002  0.14208741900770183        0.0000000000000000     
  -4.0018340553189119E-002  0.14963473746039480        0.0000000000000000     
  -4.0743702282839966E-002  0.15729214114755308        0.0000000000000000     
  -4.1426342415302138E-002  0.16505963006917670        0.0000000000000000     
  -4.4224856554939407E-002  0.13491368011819546        0.0000000000000000     
  -4.5154224102202524E-002  0.14233410145664924        0.0000000000000000     
  -4.6035387548699423E-002  0.14986443072934194        0.0000000000000000     
  -4.6868346894430125E-002  0.15750466793627355        0.0000000000000000     
  -4.7653102139394610E-002  0.16525481307744413        0.0000000000000000     
  -2.3318432657560950E-002  0.16464309271898817        0.0000000000000000     
  -2.3672753363935470E-002  0.17255002517775250        0.0000000000000000     
  -2.3996117045702342E-002  0.18054544515315127        0.0000000000000000     
  -2.4288523702861577E-002  0.18862935264518457        0.0000000000000000     
  -2.4549973335413162E-002  0.19680174765385233        0.0000000000000000     
  -2.9259007674385315E-002  0.16475376988994872        0.0000000000000000     
  -2.9705577762529366E-002  0.17264954059636803        0.0000000000000000     
  -3.0113583335128872E-002  0.18063420004575631        0.0000000000000000     
  -3.0483024392183835E-002  0.18870774823811357        0.0000000000000000     
  -3.0813900933694259E-002  0.19687018517343988        0.0000000000000000     
  -3.5294977593632371E-002  0.16489261567334487        0.0000000000000000     
  -3.5835254908502270E-002  0.17277510450065336        0.0000000000000000     
  -3.6330062084486289E-002  0.18074668975376976        0.0000000000000000     
  -3.6779399121584455E-002  0.18880737143269391        0.0000000000000000     
  -3.7183266019796754E-002  0.19695714953742594        0.0000000000000000     
  -4.1426342415302138E-002  0.16505963006917670        0.0000000000000000     
  -4.2061784801854171E-002  0.17292671689060857        0.0000000000000000     
  -4.2645553293774605E-002  0.18088291427719147        0.0000000000000000     
  -4.3177647891063431E-002  0.18892822222892555        0.0000000000000000     
  -4.3658068593720636E-002  0.19706264074581067        0.0000000000000000     
  -4.7653102139394610E-002  0.16525481307744413        0.0000000000000000     
  -4.8385167442585093E-002  0.17310437776623355        0.0000000000000000     
  -4.9060056962993807E-002  0.18104287361602164        0.0000000000000000     
  -4.9677770700620759E-002  0.18907030062680846        0.0000000000000000     
  -5.0238308655465941E-002  0.19718665879859398        0.0000000000000000     
  -2.4549973335413162E-002  0.19680174765385233        0.0000000000000000     
  -2.4781455914347474E-002  0.20504699224029141        0.0000000000000000     
  -2.4983961410654874E-002  0.21334944846563855        0.0000000000000000     
  -2.5157489824335365E-002  0.22170911632989379        0.0000000000000000     
  -2.5302041155388946E-002  0.23012599583305710        0.0000000000000000     
  -3.0813900933694259E-002  0.19687018517343988        0.0000000000000000     
  -3.1107149004000675E-002  0.20510741726561832        0.0000000000000000     
  -3.1363704647443633E-002  0.21340535092853227        0.0000000000000000     
  -3.1583567864023131E-002  0.22176398616218174        0.0000000000000000     
  -3.1766738653739149E-002  0.23018332296656668        0.0000000000000000     
  -3.7183266019796754E-002  0.19695714953742594        0.0000000000000000     
  -3.7542151914016768E-002  0.20518360030389618        0.0000000000000000     
  -3.7856545939138078E-002  0.21347429996803499        0.0000000000000000     
  -3.8126448095160706E-002  0.22182924852984240        0.0000000000000000     
  -3.8351858382084630E-002  0.23024844598931835        0.0000000000000000     
  -4.3658068593720636E-002  0.19706264074581067        0.0000000000000000     
  -4.4086464644395758E-002  0.20527554135512507        0.0000000000000000     
  -4.4462485285738249E-002  0.21355629558414674        0.0000000000000000     
  -4.4786130517748109E-002  0.22190490343287578        0.0000000000000000     
  -4.5057400340425373E-002  0.23032136490131216        0.0000000000000000     
  -5.0238308655465941E-002  0.19718665879859398        0.0000000000000000     
  -5.0740087195137611E-002  0.20538324041930481        0.0000000000000000     
  -5.1181522687244088E-002  0.21365133777686743        0.0000000000000000     
  -5.1562615131785360E-002  0.22199095087128187        0.0000000000000000     
  -5.1883364528761418E-002  0.23040207970254814        0.0000000000000000     
  -2.5302041155388946E-002  0.23012599583305710        0.0000000000000000     
  -2.5423797219299538E-002  0.23857273620311437        0.0000000000000000     
  -2.5528939831551054E-002  0.24702198666805153        0.0000000000000000     
  -2.5617468992143507E-002  0.25547374722786853        0.0000000000000000     
  -2.5689384701076887E-002  0.26392801788256542        0.0000000000000000     
  -3.1766738653739149E-002  0.23018332296656668        0.0000000000000000     
  -3.1920980510894217E-002  0.23863863232225888        0.0000000000000000     
  -3.2054056929790846E-002  0.24710518520983021        0.0000000000000000     
  -3.2165967910429041E-002  0.25558298162928061        0.0000000000000000     
  -3.2256713452808776E-002  0.26407202158061011        0.0000000000000000     
  -3.8351858382084630E-002  0.23024844598931835        0.0000000000000000     
  -3.8541356610448406E-002  0.23871121497841291        0.0000000000000000     
  -3.8703522590790608E-002  0.24719687812907609        0.0000000000000000     
  -3.8838356323111257E-002  0.25570543544130780        0.0000000000000000     
  -3.8945857807410326E-002  0.26423688691510827        0.0000000000000000     
  -4.5057400340425373E-002  0.23032136490131216        0.0000000000000000     
  -4.5284925517962107E-002  0.23879048417157647        0.0000000000000000     
  -4.5477336814550372E-002  0.24729706542578919        0.0000000000000000     
  -4.5634634230190173E-002  0.25584110866395032        0.0000000000000000     
  -4.5756817764881504E-002  0.26442261388605981        0.0000000000000000     
  -5.1883364528761418E-002  0.23040207970254814        0.0000000000000000     
  -5.2151687233435308E-002  0.23887643990174956        0.0000000000000000     
  -5.2375499601070089E-002  0.24740574709996946        0.0000000000000000     
  -5.2554801631665773E-002  0.25599000129720784        0.0000000000000000     
  -5.2689593325222349E-002  0.26462920249346478        0.0000000000000000     
  -2.5689384701076887E-002  0.26392801788256542        0.0000000000000000     
  -2.5756903937025934E-002  0.27232960377469201        0.0000000000000000     
  -2.5832243678665379E-002  0.28062331004679825        0.0000000000000000     
  -2.5915403925995232E-002  0.28880913669888419        0.0000000000000000     
  -2.6006384679015494E-002  0.29688708373094969        0.0000000000000000     
  -3.2256713452808776E-002  0.26407202158061011        0.0000000000000000     
  -3.2341147811387139E-002  0.27251935317948944        0.0000000000000000     
  -3.2434125240621163E-002  0.28087202454158944        0.0000000000000000     
  -3.2535645740510870E-002  0.28913003566691009        0.0000000000000000     
  -3.2645709311056238E-002  0.29729338655545134        0.0000000000000000     
  -3.8945857807410326E-002  0.26423688691510827        0.0000000000000000     
  -3.9044871816468152E-002  0.27274001848057638        0.0000000000000000     
  -3.9154243123065105E-002  0.28116361606781159        0.0000000000000000     
  -3.9273971727201172E-002  0.28950767967681373        0.0000000000000000     
  -3.9404057628876367E-002  0.29777220930758297        0.0000000000000000     
  -4.5756817764881504E-002  0.26442261388605981        0.0000000000000000     
  -4.5868075952269001E-002  0.27299159967795289        0.0000000000000000     
  -4.5992597325997212E-002  0.28149808462546466        0.0000000000000000     
  -4.6130381886066170E-002  0.28994206872859524        0.0000000000000000     
  -4.6281429632475869E-002  0.29832355198734456        0.0000000000000000     
  -5.2689593325222349E-002  0.26462920249346478        0.0000000000000000     
  -5.2810760218789644E-002  0.27327409677161885        0.0000000000000000     
  -5.2949187849417469E-002  0.28187543021454875        0.0000000000000000     
  -5.3104876217105836E-002  0.29043320282225454        0.0000000000000000     
  -5.3277825321854745E-002  0.29894741459473606        0.0000000000000000     
  -2.8922552550224013E-002   5.7171788805821550E-002   0.0000000000000000     
  -3.0528600386493975E-002   6.2729082387210672E-002   0.0000000000000000     
  -3.2055611439112286E-002   6.8468697678526313E-002   0.0000000000000000     
  -3.3503585708078945E-002   7.4390634679768419E-002   0.0000000000000000     
  -3.4872523193393949E-002   8.0494893390937045E-002   0.0000000000000000     
  -3.2944918732728548E-002   5.7667121089819515E-002   0.0000000000000000     
  -3.4747871282482030E-002   6.3211738647250743E-002   0.0000000000000000     
  -3.6461394313040046E-002   6.8937510712579475E-002   0.0000000000000000     
  -3.8085487824402589E-002   7.4844437285805768E-002   0.0000000000000000     
  -3.9620151816569672E-002   8.0932518366929565E-002   0.0000000000000000     
  -3.7086809217526745E-002   5.8223073534982010E-002   0.0000000000000000     
  -3.9088092083941206E-002   6.3751733757553372E-002   0.0000000000000000     
  -4.0989748499324102E-002   6.9460883648799571E-002   0.0000000000000000     
  -4.2791778463675420E-002   7.5350523208720654E-002   0.0000000000000000     
  -4.4494181976995187E-002   8.1420652437316582E-002   0.0000000000000000     
  -4.1348224004618614E-002   5.8839646141309064E-002   0.0000000000000000     
  -4.3549262790871519E-002   6.4349067718118602E-002   0.0000000000000000     
  -4.5640673997964454E-002   7.0038816487186628E-002   0.0000000000000000     
  -4.7622457625897459E-002   7.5908892448513121E-002   0.0000000000000000     
  -4.9494613674670493E-002   8.1959295602098123E-002   0.0000000000000000     
  -4.5729163094004141E-002   5.9516838908800662E-002   0.0000000000000000     
  -4.8131383403272943E-002   6.5003740528946405E-002   0.0000000000000000     
  -5.0414170808961122E-002   7.0671309227740578E-002   0.0000000000000000     
  -5.2577525311068671E-002   7.6519545005183168E-002   0.0000000000000000     
  -5.4621446909595611E-002   8.2548447861274174E-002   0.0000000000000000     
  -3.4872523193393949E-002   8.0494893390937045E-002   0.0000000000000000     
  -3.6185344774549315E-002   8.6768917162937623E-002   0.0000000000000000     
  -3.7464971331037052E-002   9.3200149346675573E-002   0.0000000000000000     
  -3.8711402862857160E-002   9.9788589942150993E-002   0.0000000000000000     
  -3.9924639370009632E-002  0.10653423894936380        0.0000000000000000     
  -3.9620151816569672E-002   8.0932518366929565E-002   0.0000000000000000     
  -4.1091834126907444E-002   8.7189803917240224E-002   0.0000000000000000     
  -4.2526982592782078E-002   9.3604343898027104E-002   0.0000000000000000     
  -4.3925597214193583E-002  0.10017613830929022        0.0000000000000000     
  -4.5287677991141945E-002  0.10690518715102951        0.0000000000000000     
  -4.4494181976995187E-002   8.1420652437316582E-002   0.0000000000000000     
  -4.6126791165933732E-002   8.7659679416719413E-002   0.0000000000000000     
  -4.7719438157141449E-002   9.4056012229061264E-002   0.0000000000000000     
  -4.9272122950618322E-002  0.10060965087434208        0.0000000000000000     
  -5.0784845546364352E-002  0.10732059535256191        0.0000000000000000     
  -4.9494613674670493E-002   8.1959295602098123E-002   0.0000000000000000     
  -5.1290215891628195E-002   8.8178543661375230E-002   0.0000000000000000     
  -5.3042338024115163E-002   9.4555154339778069E-002   0.0000000000000000     
  -5.4750980072131382E-002  0.10108912763730665        0.0000000000000000     
  -5.6416142035676867E-002  0.10778046355396097        0.0000000000000000     
  -5.4621446909595611E-002   8.2548447861274174E-002   0.0000000000000000     
  -5.6582108303990825E-002   8.8746396651207635E-002   0.0000000000000000     
  -5.8495682193703213E-002   9.5101770230177518E-002   0.0000000000000000     
  -6.0362168578732757E-002  0.10161456859818389        0.0000000000000000     
  -6.2181567459079490E-002  0.10828479175522668        0.0000000000000000     
  -3.9924639370009632E-002  0.10653423894936380        0.0000000000000000     
  -4.1090882190181741E-002  0.11342614393222691        0.0000000000000000     
  -4.2196332661060737E-002  0.12045335245465323        0.0000000000000000     
  -4.3240990782646621E-002  0.12761586451664275        0.0000000000000000     
  -4.4224856554939407E-002  0.13491368011819546        0.0000000000000000     
  -4.5287677991141945E-002  0.10690518715102951        0.0000000000000000     
  -4.6597920973015031E-002  0.11378029018334693        0.0000000000000000     
  -4.7841022209200688E-002  0.12079024716634434        0.0000000000000000     
  -4.9016981699698939E-002  0.12793505810002170        0.0000000000000000     
  -5.0125799444509754E-002  0.13521472298437909        0.0000000000000000     
  -5.0784845546364352E-002  0.10732059535256191        0.0000000000000000     
  -5.2240689727307339E-002  0.11417742060508039        0.0000000000000000     
  -5.3622739276375064E-002  0.12116870157325725        0.0000000000000000     
  -5.4930994193567534E-002  0.12829443825709244        0.0000000000000000     
  -5.6165454478884748E-002  0.13555463065658602        0.0000000000000000     
  -5.6416142035676867E-002  0.10778046355396097        0.0000000000000000     
  -5.8019188453058687E-002  0.11461753519742730        0.0000000000000000     
  -5.9541483862583865E-002  0.12158871567539198        0.0000000000000000     
  -6.0983028264252448E-002  0.12869400498785494        0.0000000000000000     
  -6.2343821658064395E-002  0.13593340313481619        0.0000000000000000     
  -6.2181567459079490E-002  0.10828479175522668        0.0000000000000000     
  -6.3933417150269040E-002  0.11510063396038765        0.0000000000000000     
  -6.5597255967827089E-002  0.12205028947274846        0.0000000000000000     
  -6.7173083911753639E-002  0.12913375829230914        0.0000000000000000     
  -6.8660900982048675E-002  0.13635104041906967        0.0000000000000000     
  -4.4224856554939407E-002  0.13491368011819546        0.0000000000000000     
  -4.5154224102202524E-002  0.14233410145664924        0.0000000000000000     
  -4.6035387548699423E-002  0.14986443072934194        0.0000000000000000     
  -4.6868346894430125E-002  0.15750466793627355        0.0000000000000000     
  -4.7653102139394610E-002  0.16525481307744413        0.0000000000000000     
  -5.0125799444509754E-002  0.13521472298437909        0.0000000000000000     
  -5.1174370479516174E-002  0.14261666774525725        0.0000000000000000     
  -5.2169589840601181E-002  0.15012831830849699        0.0000000000000000     
  -5.3111457527764805E-002  0.15774967467409820        0.0000000000000000     
  -5.3999973541007024E-002  0.16548073684206099        0.0000000000000000     
  -5.6165454478884748E-002  0.13555463065658602        0.0000000000000000     
  -5.7334015388191432E-002  0.14293677977772529        0.0000000000000000     
  -5.8444572177352321E-002  0.15042838662649755        0.0000000000000000     
  -5.9497124846367391E-002  0.15802945120290290        0.0000000000000000     
  -6.0491673395236652E-002  0.16573997350694117        0.0000000000000000     
  -6.2343821658064395E-002  0.13593340313481619        0.0000000000000000     
  -6.3633158828228314E-002  0.14329443755405330        0.0000000000000000     
  -6.4860334558952820E-002  0.15076463568334375        0.0000000000000000     
  -6.6025348850237878E-002  0.15834399752268755        0.0000000000000000     
  -6.7128201702083501E-002  0.16603252307208460        0.0000000000000000     
  -6.8660900982048675E-002  0.13635104041906967        0.0000000000000000     
  -7.0071800799626840E-002  0.14368964107424134        0.0000000000000000     
  -7.1416876985402694E-002  0.15113706547903552        0.0000000000000000     
  -7.2696129539376278E-002  0.15869331363345218        0.0000000000000000     
  -7.3909558461547564E-002  0.16635838553749130        0.0000000000000000     
  -4.7653102139394610E-002  0.16525481307744413        0.0000000000000000     
  -4.8385167442585093E-002  0.17310437776623355        0.0000000000000000     
  -4.9060056962993807E-002  0.18104287361602164        0.0000000000000000     
  -4.9677770700620759E-002  0.18907030062680846        0.0000000000000000     
  -5.0238308655465941E-002  0.19718665879859398        0.0000000000000000     
  -5.3999973541007024E-002  0.16548073684206099        0.0000000000000000     
  -5.4830696696890703E-002  0.17331104204253542        0.0000000000000000     
  -5.5599185811978737E-002  0.18123012750567141        0.0000000000000000     
  -5.6305440886271096E-002  0.18923799323146900        0.0000000000000000     
  -5.6949461919767790E-002  0.19733463921992825        0.0000000000000000     
  -6.0491673395236652E-002  0.16573997350694117        0.0000000000000000     
  -6.1423666430966729E-002  0.17354966463452132        0.0000000000000000     
  -6.2288552560564196E-002  0.18144823568155213        0.0000000000000000     
  -6.3086331784029101E-002  0.18943568664803354        0.0000000000000000     
  -6.3817004101361374E-002  0.19751201753396563        0.0000000000000000     
  -6.7128201702083501E-002  0.16603252307208460        0.0000000000000000     
  -6.8164076644813137E-002  0.17382024554219128        0.0000000000000000     
  -6.9128157208750193E-002  0.18169719814366375        0.0000000000000000     
  -7.0020443393894738E-002  0.18966338087650206        0.0000000000000000     
  -7.0840935200246688E-002  0.19771879374070619        0.0000000000000000     
  -7.3909558461547564E-002  0.16635838553749130        0.0000000000000000     
  -7.5051927338429941E-002  0.17412278476554524        0.0000000000000000     
  -7.6117999756536756E-002  0.18197701489200632        0.0000000000000000     
  -7.7107775715868021E-002  0.18992107591687454        0.0000000000000000     
  -7.8021255216423738E-002  0.19795496784014993        0.0000000000000000     
  -5.0238308655465941E-002  0.19718665879859398        0.0000000000000000     
  -5.0740087195137611E-002  0.20538324041930481        0.0000000000000000     
  -5.1181522687244088E-002  0.21365133777686743        0.0000000000000000     
  -5.1562615131785360E-002  0.22199095087128187        0.0000000000000000     
  -5.1883364528761418E-002  0.23040207970254814        0.0000000000000000     
  -5.6949461919767790E-002  0.19733463921992825        0.0000000000000000     
  -5.7528799632370557E-002  0.20551293292013822        0.0000000000000000     
  -5.8041004743981127E-002  0.21376574178118837        0.0000000000000000     
  -5.8486077254599513E-002  0.22209306580307847        0.0000000000000000     
  -5.8864017164225707E-002  0.23049490498580863        0.0000000000000000     
  -6.3817004101361374E-002  0.19751201753396563        0.0000000000000000     
  -6.4478382022222738E-002  0.20567085428132811        0.0000000000000000     
  -6.5068278056274825E-002  0.21390582283210063        0.0000000000000000     
  -6.5586692203517691E-002  0.22221692318628330        0.0000000000000000     
  -6.6033624463951265E-002  0.23060415534387607        0.0000000000000000     
  -7.0840935200246688E-002  0.19771879374070619        0.0000000000000000     
  -7.1588834364694182E-002  0.20585700450287425        0.0000000000000000     
  -7.2263342624125232E-002  0.21407158092960429        0.0000000000000000     
  -7.2864459978539853E-002  0.22236252302089635        0.0000000000000000     
  -7.3392186427938086E-002  0.23072983077675044        0.0000000000000000     
  -7.8021255216423738E-002  0.19795496784014993        0.0000000000000000     
  -7.8860156659784825E-002  0.20607138358477678        0.0000000000000000     
  -7.9626198447532270E-002  0.21426301607369935        0.0000000000000000     
  -8.0319380579666033E-002  0.22252986530691768        0.0000000000000000     
  -8.0939703056186155E-002  0.23087193128443173        0.0000000000000000     
  -5.1883364528761418E-002  0.23040207970254814        0.0000000000000000     
  -5.2151687233435308E-002  0.23887643990174956        0.0000000000000000     
  -5.2375499601070089E-002  0.24740574709996946        0.0000000000000000     
  -5.2554801631665773E-002  0.25599000129720784        0.0000000000000000     
  -5.2689593325222349E-002  0.26462920249346478        0.0000000000000000     
  -5.8864017164225707E-002  0.23049490498580863        0.0000000000000000     
  -5.9180745710547669E-002  0.23897050532686512        0.0000000000000000     
  -5.9442184131253364E-002  0.24751911282373423        0.0000000000000000     
  -5.9648332426342793E-002  0.25614072747641592        0.0000000000000000     
  -5.9799190595815961E-002  0.26483534928491026        0.0000000000000000     
  -6.6033624463951265E-002  0.23060415534387607        0.0000000000000000     
  -6.6411204902978860E-002  0.23907410360485615        0.0000000000000000     
  -6.6721563586003771E-002  0.24763335226920058        0.0000000000000000     
  -6.6964700513025957E-002  0.25628190133690959        0.0000000000000000     
  -6.7140615684045460E-002  0.26501975080798296        0.0000000000000000     
  -7.3392186427938086E-002  0.23072983077675044        0.0000000000000000     
  -7.3843064810728887E-002  0.23918723473572251        0.0000000000000000     
  -7.4213637965321266E-002  0.24774846543636866        0.0000000000000000     
  -7.4503905891715280E-002  0.25641352287868885        0.0000000000000000     
  -7.4713868589910873E-002  0.26518240706268315        0.0000000000000000     
  -8.0939703056186155E-002  0.23087193128443173        0.0000000000000000     
  -8.1476325433797736E-002  0.23930989871946434        0.0000000000000000     
  -8.1918407269205948E-002  0.24786445232523838        0.0000000000000000     
  -8.2265948562410748E-002  0.25653559210175375        0.0000000000000000     
  -8.2518949313412193E-002  0.26532331804901060        0.0000000000000000     
  -5.2689593325222349E-002  0.26462920249346478        0.0000000000000000     
  -5.2810760218789644E-002  0.27327409677161885        0.0000000000000000     
  -5.2949187849417469E-002  0.28187543021454875        0.0000000000000000     
  -5.3104876217105836E-002  0.29043320282225454        0.0000000000000000     
  -5.3277825321854745E-002  0.29894741459473606        0.0000000000000000     
  -5.9799190595815961E-002  0.26483534928491026        0.0000000000000000     
  -5.9931682943140371E-002  0.27355880600999427        0.0000000000000000     
  -6.0082733771783532E-002  0.28226692541244519        0.0000000000000000     
  -6.0252343081745485E-002  0.29095970749226296        0.0000000000000000     
  -6.0440510873026182E-002  0.29963715224944776        0.0000000000000000     
  -6.7140615684045460E-002  0.26501975080798296        0.0000000000000000     
  -6.7289602452431471E-002  0.27381702364149890        0.0000000000000000     
  -6.7451954171553100E-002  0.28264384279653543        0.0000000000000000     
  -6.7627670841410387E-002  0.29150020827309236        0.0000000000000000     
  -6.7816752462003346E-002  0.30038612007116988        0.0000000000000000     
  -7.4713868589910873E-002  0.26518240706268315        0.0000000000000000     
  -7.4884518746662868E-002  0.27404874966613274        0.0000000000000000     
  -7.5056849048726115E-002  0.28300618236681924        0.0000000000000000     
  -7.5230859496100574E-002  0.29205470516474247        0.0000000000000000     
  -7.5406550088786273E-002  0.30119431805990232        0.0000000000000000     
  -8.2518949313412193E-002  0.26532331804901060        0.0000000000000000     
  -8.2716431825834644E-002  0.27425398408389595        0.0000000000000000     
  -8.2897418403302600E-002  0.28335394412329684        0.0000000000000000     
  -8.3061909045816007E-002  0.29262319816721322        0.0000000000000000     
  -8.3209903753374934E-002  0.30206174621564519        0.0000000000000000     
  -4.5729163094004141E-002   5.9516838908800662E-002   0.0000000000000000     
  -4.8131383403272943E-002   6.5003740528946405E-002   0.0000000000000000     
  -5.0414170808961122E-002   7.0671309227740578E-002   0.0000000000000000     
  -5.2577525311068671E-002   7.6519545005183168E-002   0.0000000000000000     
  -5.4621446909595611E-002   8.2548447861274174E-002   0.0000000000000000     
  -5.0281051265807258E-002   6.0252130052806954E-002   0.0000000000000000     
  -5.2881611182303313E-002   6.5714856418096268E-002   0.0000000000000000     
  -5.5354027728454207E-002   7.1358496955351666E-002   0.0000000000000000     
  -5.7698300904259960E-002   7.7183051664573149E-002   0.0000000000000000     
  -5.9914430709720537E-002   8.3188520545760716E-002   0.0000000000000000     
  -5.5055313300151877E-002   6.1042997788678069E-002   0.0000000000000000     
  -5.7847103389120469E-002   6.6481519613627638E-002   0.0000000000000000     
  -6.0504033552583894E-002   7.2100514754910097E-002   0.0000000000000000     
  -6.3026103790542159E-002   7.7899983212525462E-002   0.0000000000000000     
  -6.5413314102995265E-002   8.3879924986473703E-002   0.0000000000000000     
  -6.0051949197037997E-002   6.1889442116414013E-002   0.0000000000000000     
  -6.3027860023724402E-002   6.7303730115540528E-002   0.0000000000000000     
  -6.5864188281350169E-002   7.2897362626415885E-002   0.0000000000000000     
  -6.8560933969915305E-002   7.8670339649040091E-002   0.0000000000000000     
  -7.1118097089419796E-002   8.4622661183413148E-002   0.0000000000000000     
  -6.5270958956465619E-002   6.2791463036014794E-002   0.0000000000000000     
  -6.8423881086115107E-002   6.8181487923834910E-002   0.0000000000000000     
  -7.1434491914753026E-002   7.3749040569869001E-002   0.0000000000000000     
  -7.4302791442379390E-002   7.9494120974117038E-002   0.0000000000000000     
  -7.7028779668994157E-002   8.5416729136579050E-002   0.0000000000000000     
  -5.4621446909595611E-002   8.2548447861274174E-002   0.0000000000000000     
  -5.6582108303990825E-002   8.8746396651207635E-002   0.0000000000000000     
  -5.8495682193703213E-002   9.5101770230177518E-002   0.0000000000000000     
  -6.0362168578732757E-002  0.10161456859818389        0.0000000000000000     
  -6.2181567459079490E-002  0.10828479175522668        0.0000000000000000     
  -5.9914430709720537E-002   8.3188520545760716E-002   0.0000000000000000     
  -6.2040950199476808E-002   8.9363275571703857E-002   0.0000000000000000     
  -6.4116392428169633E-002   9.5695688715192059E-002   0.0000000000000000     
  -6.6140757395799041E-002  0.10218575997622532        0.0000000000000000     
  -6.8114045102364962E-002  0.10883348935480368        0.0000000000000000     
  -6.5413314102995265E-002   8.3879924986473703E-002   0.0000000000000000     
  -6.7705223374541323E-002   9.0029217608351156E-002   0.0000000000000000     
  -6.9941390489778474E-002   9.6336738609754100E-002   0.0000000000000000     
  -7.2121815448706716E-002  0.10280248799068255        0.0000000000000000     
  -7.4246498251326037E-002  0.10942646575113647        0.0000000000000000     
  -7.1118097089419796E-002   8.4622661183413148E-002   0.0000000000000000     
  -7.3574927829184372E-002   9.0744222761149504E-002   0.0000000000000000     
  -7.5970676378529708E-002   9.7024919913863639E-002   0.0000000000000000     
  -7.8305342737455805E-002  0.10346475264155550        0.0000000000000000     
  -8.0578926905962703E-002  0.11006372094422515        0.0000000000000000     
  -7.7028779668994157E-002   8.5416729136579050E-002   0.0000000000000000     
  -7.9650063563405940E-002   9.1508291030098957E-002   0.0000000000000000     
  -8.2204250094423351E-002   9.7760232627520705E-002   0.0000000000000000     
  -8.4691339262046361E-002  0.10417255392884425        0.0000000000000000     
  -8.7111331066275000E-002  0.11074525493406964        0.0000000000000000     
  -6.2181567459079490E-002  0.10828479175522668        0.0000000000000000     
  -6.3933417150269040E-002  0.11510063396038765        0.0000000000000000     
  -6.5597255967827089E-002  0.12205028947274846        0.0000000000000000     
  -6.7173083911753639E-002  0.12913375829230914        0.0000000000000000     
  -6.8660900982048675E-002  0.13635104041906967        0.0000000000000000     
  -6.8114045102364962E-002  0.10883348935480368        0.0000000000000000     
  -7.0014235136861905E-002  0.11562676228745374        0.0000000000000000     
  -7.1819307088284337E-002  0.12255346421070223        0.0000000000000000     
  -7.3529260956632245E-002  0.12961359512454915        0.0000000000000000     
  -7.5144096741905642E-002  0.13680715502899449        0.0000000000000000     
  -7.4246498251326037E-002  0.10942646575113647        0.0000000000000000     
  -7.6292501730760756E-002  0.11619596557211789        0.0000000000000000     
  -7.8236888720135206E-002  0.12309828113462873        0.0000000000000000     
  -8.0079659219449387E-002  0.13013341243866899        0.0000000000000000     
  -8.1820813228703285E-002  0.13730135948423869        0.0000000000000000     
  -8.0578926905962703E-002  0.11006372094422515        0.0000000000000000     
  -8.2768216931965594E-002  0.11680824381438011        0.0000000000000000     
  -8.4850000863379710E-002  0.12368474024452795        0.0000000000000000     
  -8.6824278700205065E-002  0.13069321023466868        0.0000000000000000     
  -8.8691050442441632E-002  0.13783365378480228        0.0000000000000000     
  -8.7111331066275000E-002  0.11074525493406964        0.0000000000000000     
  -8.9441380740476431E-002  0.11746359701424035        0.0000000000000000     
  -9.1658643518017835E-002  0.12431284154039986        0.0000000000000000     
  -9.3763119398899267E-002  0.13129298851254820        0.0000000000000000     
  -9.5754808383120671E-002  0.13840403793068531        0.0000000000000000     
  -6.8660900982048675E-002  0.13635104041906967        0.0000000000000000     
  -7.0071800799626840E-002  0.14368964107424134        0.0000000000000000     
  -7.1416876985402694E-002  0.15113706547903552        0.0000000000000000     
  -7.2696129539376278E-002  0.15869331363345218        0.0000000000000000     
  -7.3909558461547564E-002  0.16635838553749130        0.0000000000000000     
  -7.5144096741905642E-002  0.13680715502899449        0.0000000000000000     
  -7.6676578580930632E-002  0.14412179855318358        0.0000000000000000     
  -7.8139470610533376E-002  0.15154518032626182        0.0000000000000000     
  -7.9532772830713860E-002  0.15907730034822923        0.0000000000000000     
  -8.0856485241472098E-002  0.16671815861908576        0.0000000000000000     
  -8.1820813228703285E-002  0.13730135948423869        0.0000000000000000     
  -8.3474129450683415E-002  0.14459031820577409        0.0000000000000000     
  -8.5053386588176308E-002  0.15198848453771158        0.0000000000000000     
  -8.6558584641181949E-002  0.15949585848005104        0.0000000000000000     
  -8.7989723609700352E-002  0.16711244003279255        0.0000000000000000     
  -8.8691050442441632E-002  0.13783365378480228        0.0000000000000000     
  -9.0464453408885190E-002  0.14509520003201293        0.0000000000000000     
  -9.2158624918331475E-002  0.15246697811338467        0.0000000000000000     
  -9.3773564970780515E-002  0.15994898802891755        0.0000000000000000     
  -9.5309273566232311E-002  0.16754122977861163        0.0000000000000000     
  -9.5754808383120671E-002  0.13840403793068531        0.0000000000000000     
  -9.7647550455535928E-002  0.14563644403190007        0.0000000000000000     
  -9.9455185600998919E-002  0.15298066105328129        0.0000000000000000     
 -0.10117771381950959       0.16043668899482894        0.0000000000000000     
 -0.10281513511106799       0.16800452785654296        0.0000000000000000     
  -7.3909558461547564E-002  0.16635838553749130        0.0000000000000000     
  -7.5051927338429941E-002  0.17412278476554524        0.0000000000000000     
  -7.6117999756536756E-002  0.18197701489200632        0.0000000000000000     
  -7.7107775715868021E-002  0.18992107591687454        0.0000000000000000     
  -7.8021255216423738E-002  0.19795496784014993        0.0000000000000000     
  -8.0856485241472098E-002  0.16671815861908576        0.0000000000000000     
  -8.2105249074816644E-002  0.17445852559291902        0.0000000000000000     
  -8.3273705562756081E-002  0.18228917172381653        0.0000000000000000     
  -8.4361854705290396E-002  0.19021009701177830        0.0000000000000000     
  -8.5369696502419587E-002  0.19822130145680433        0.0000000000000000     
  -8.7989723609700352E-002  0.16711244003279255        0.0000000000000000     
  -8.9342072416972756E-002  0.17482871131264849        0.0000000000000000     
  -9.0610899986240362E-002  0.18263515443633113        0.0000000000000000     
  -9.1796206317503237E-002  0.19053176940384062        0.0000000000000000     
  -9.2897991410761327E-002  0.19851855621517683        0.0000000000000000     
  -9.5309273566232311E-002  0.16754122977861163        0.0000000000000000     
  -9.6762397364898209E-002  0.17523334192473355        0.0000000000000000     
  -9.8129583026989611E-002  0.18301496302955017        0.0000000000000000     
  -9.9410830552506546E-002  0.19088609309306145        0.0000000000000000     
 -0.10060613994144893       0.19884673211526746        0.0000000000000000     
 -0.10281513511106799       0.16800452785654296        0.0000000000000000     
 -0.10436622391859310       0.17567241742917428        0.0000000000000000     
 -0.10582975468500384       0.18342859750347357        0.0000000000000000     
 -0.10720572741030031       0.19127306807944086        0.0000000000000000     
 -0.10849414209448244       0.19920582915707619        0.0000000000000000     
  -7.8021255216423738E-002  0.19795496784014993        0.0000000000000000     
  -7.8860156659784825E-002  0.20607138358477678        0.0000000000000000     
  -7.9626198447532270E-002  0.21426301607369935        0.0000000000000000     
  -8.0319380579666033E-002  0.22252986530691768        0.0000000000000000     
  -8.0939703056186155E-002  0.23087193128443173        0.0000000000000000     
  -8.5369696502419587E-002  0.19822130145680433        0.0000000000000000     
  -8.6301545048872316E-002  0.20631478640327180        0.0000000000000000     
  -8.7161714439377216E-002  0.21448255319555795        0.0000000000000000     
  -8.7950204673934329E-002  0.22272460183366283        0.0000000000000000     
  -8.8667015752543640E-002  0.23104093231758632        0.0000000000000000     
  -9.2897991410761327E-002  0.19851855621517683        0.0000000000000000     
  -9.3922195673334194E-002  0.20658800783459549        0.0000000000000000     
  -9.4874759512541387E-002  0.21473261722635242        0.0000000000000000     
  -9.5755682928382865E-002  0.22295238439044746        0.0000000000000000     
  -9.6564965920858711E-002  0.23124730932688070        0.0000000000000000     
 -0.10060613994144893       0.19884673211526746        0.0000000000000000     
 -0.10172210853317044       0.20689104787874790        0.0000000000000000     
 -0.10276533366702469       0.21501320816608258        0.0000000000000000     
 -0.10373581534301167       0.22321321297727156        0.0000000000000000     
 -0.10463355356113135       0.23149106231231481        0.0000000000000000     
 -0.10849414209448244       0.19920582915707619        0.0000000000000000     
 -0.10970128362838111       0.20722390653572892        0.0000000000000000     
 -0.11083343690282720       0.21532432601474860        0.0000000000000000     
 -0.11189060191782067       0.22350708759413512        0.0000000000000000     
 -0.11287277867336157       0.23177219127388859        0.0000000000000000     
  -8.0939703056186155E-002  0.23087193128443173        0.0000000000000000     
  -8.1476325433797736E-002  0.23930989871946434        0.0000000000000000     
  -8.1918407269205948E-002  0.24786445232523838        0.0000000000000000     
  -8.2265948562410748E-002  0.25653559210175375        0.0000000000000000     
  -8.2518949313412193E-002  0.26532331804901060        0.0000000000000000     
  -8.8667015752543640E-002  0.23104093231758632        0.0000000000000000     
  -8.9297517908160540E-002  0.23945708792093870        0.0000000000000000     
  -8.9827081373740417E-002  0.24799861191733016        0.0000000000000000     
  -9.0255706149283271E-002  0.25666550430676066        0.0000000000000000     
  -9.0583392234789104E-002  0.26545776508923014        0.0000000000000000     
  -9.6564965920858711E-002  0.23124730932688070        0.0000000000000000     
  -9.7293173369792374E-002  0.23964379470500280        0.0000000000000000     
  -9.7930870155007357E-002  0.24816824319416445        0.0000000000000000     
  -9.8478056276503717E-002  0.25682065479436555        0.0000000000000000     
  -9.8934731734281384E-002  0.26560102950560627        0.0000000000000000     
 -0.10463355356113135       0.23149106231231481        0.0000000000000000     
 -0.10546329181869325       0.23987001907165650        0.0000000000000000     
 -0.10622977361300681       0.24837334615574119        0.0000000000000000     
 -0.10693299894407207       0.25700104356456865        0.0000000000000000     
 -0.10757296781188901       0.26575311129813894        0.0000000000000000     
 -0.11287277867336157       0.23177219127388859        0.0000000000000000     
 -0.11380787325486316       0.24013576102089998        0.0000000000000000     
 -0.11472379174773877       0.24861392080206041        0.0000000000000000     
 -0.11562053415198836       0.25720667061736985        0.0000000000000000     
 -0.11649810046761197       0.26591401046682828        0.0000000000000000     
  -8.2518949313412193E-002  0.26532331804901060        0.0000000000000000     
  -8.2716431825834644E-002  0.27425398408389595        0.0000000000000000     
  -8.2897418403302600E-002  0.28335394412329684        0.0000000000000000     
  -8.3061909045816007E-002  0.29262319816721322        0.0000000000000000     
  -8.3209903753374934E-002  0.30206174621564519        0.0000000000000000     
  -9.0583392234789104E-002  0.26545776508923014        0.0000000000000000     
  -9.0840522827268039E-002  0.27443839864548780        0.0000000000000000     
  -9.1057481123730175E-002  0.28367040935628268        0.0000000000000000     
  -9.1234267124175553E-002  0.29315379722161494        0.0000000000000000     
  -9.1370880828604117E-002  0.30288856224148430        0.0000000000000000     
  -9.8934731734281384E-002  0.26560102950560627        0.0000000000000000     
  -9.9311972888284333E-002  0.27460766510160772        0.0000000000000000     
  -9.9620856098456528E-002  0.28393885935609148        0.0000000000000000     
  -9.9861381364797941E-002  0.29359461226905731        0.0000000000000000     
 -0.10003354868730857       0.30357492384050550        0.0000000000000000     
 -0.10757296781188901       0.26575311129813894        0.0000000000000000     
 -0.10813078200888354       0.27476178345225588        0.0000000000000000     
 -0.10858754332748162       0.28415929412272317        0.0000000000000000     
 -0.10894325176768320       0.29394564330954071        0.0000000000000000     
 -0.10919790732948835       0.30412083101270865        0.0000000000000000     
 -0.11649810046761197       0.26591401046682828        0.0000000000000000     
 -0.11729695018906564       0.27490075369743211        0.0000000000000000     
 -0.11795754281080544       0.28433171365617765        0.0000000000000000     
 -0.11847987833283136       0.29420689034306491        0.0000000000000000     
 -0.11886395675514341       0.30452628375809393        0.0000000000000000     
 </DataArray>
 <DataArray  type="Float64" Name="stress" NumberOfComponents="3" format="ascii">
   6213911240.6306896        78939647.739249945       -21367811.571471050     
   5929017056.2241478        40084705.572357893       -18361429.969258558     
   5645490538.3018684        5788651.6864097118       -14076193.326347711     
   5363331686.8638811       -23948513.918611526       -8512101.6427269764     
   5082540501.9101868       -49126791.242654800       -1669154.9184053235     
   5872736279.4245062        83294192.856480122        160093296.44514412     
   5593580896.1360521        46104669.038801193        159191240.10659698     
   5315357729.9224272        12022535.470543861        161040463.81454563     
   5038066780.7836218       -18952207.848313808        165640967.56895939     
   4761708048.7196369       -46819560.917746067        172992751.36985096     
   5514457749.1142054        82517667.242465258        341786792.77641112     
   5245248095.5317678        48255640.350384712        336468274.18610334     
   4976535209.6146917        15649505.676184177        335373460.64802992     
   4708319091.3629770       -15300736.780135393        338502352.16221035     
   4440599740.7766304       -44595087.018560410        345854948.72862828     
   5139075649.6997910        76610070.897222996        523712677.42235452     
   4884018654.4112730        46537619.507106781        513469672.26922655     
   4629022977.3786631        16669562.303339481        508922797.17411703     
   4374088618.6019564       -12994100.714071035        510072052.13701701     
   4119215578.0811610       -42453369.545127153        516917437.15793329     
   4746589981.1812601        65571403.820742369        705870950.38296318     
   4509892572.7745829        40950606.508966923        690195434.35598779     
   4272821033.2143469        15082705.352010965        681688473.39279735     
   4035375362.5005636       -12032299.650115490        680350067.49338710     
   3797555560.6332254       -40394408.497423887        686180216.65776002     
   5082540501.9101868       -49126791.242654800       -1669154.9184053235     
   4960679245.1176615       -25907887.252007723       -4504328.2737112520     
   4837923862.1923161       -5669403.7040743828       -2648246.6428253609     
   4714274353.1341381        11588659.401072979        3899089.9742305730     
   4589730717.9431458        25866302.063506603        15137681.577475764     
   4761708048.7196369       -46819560.917746067        172992751.36985096     
   4651102169.5085945       -24579830.805890560        168893005.86714745     
   4539815431.8988285       -4609628.6897838116        168985951.33605599     
   4427847835.8903322        13091045.430567026        173271587.77655292     
   4315199381.4831076        28522191.555154562        181749915.18866956     
   4440599740.7766304       -44595087.018560410        345854948.72862828     
   4339824770.5339756       -23761871.369447470        340739443.43498087     
   4238582209.6266975       -4487291.2690796852        339318065.09836000     
   4136872058.0547848        13228653.282505035        341590813.71875882     
   4034694315.8182459        29385962.285342693        347557689.29618126     
   4119215578.0811610       -42453369.545127153        516917437.15793329     
   4026847048.1938062       -23454008.942665339        511034984.42979312     
   3934224195.3759198       -5302391.4419729710        508348094.64408845     
   3841347019.6275053        12001482.956953526        508856767.80082780     
   3748215520.9485545        28457614.254088402        512561003.90000325     
   3797555560.6332254       -40394408.497423887        686180216.65776002     
   3712169002.4880791       -23656243.525547028        679779628.85157061     
   3626741389.1464953       -7054929.2084650993        676076039.97323346     
   3541272720.6084838        9409534.4538598061        675069450.02276146     
   3455762996.8740363        25737147.461385965        676759859.00014305     
   4589730717.9431458        25866302.063506603        15137681.577475764     
   4368715332.4189434        10984485.998317003        8791527.7251826581     
   4148450380.5258217       -1395884.6299123764        6120254.4243320869     
   3928935862.2637811       -11274809.821213484        7123861.6749323793     
   3710171777.6328354       -18652289.575540304        11802349.476976492     
   4315199381.4831076        28522191.555154562        181749915.18866956     
   4104563917.6578808        14442981.942943811        174328721.62614354     
   3894533980.6414351        2382195.0266516209        171031985.79146224     
   3685109570.4337850       -7660169.1936397552        171859707.68464300     
   3476290687.0349202       -15684110.717993498        176811887.30566975     
   4034694315.8182459        29385962.285342693        347557689.29618126     
   3835723279.9102840        16494710.991562843        338892398.06407982     
   3637212863.9888139        5138859.6527588367        334801141.73622561     
   3439163068.0538273       -4681591.7311017513        335283920.31263018     
   3241573892.1053371       -12966643.159966588        340340733.79328263     
   3748215520.9485545        28457614.254088402        512561003.90000325     
   3562193419.1761560        17139673.144253254        502482557.03897655     
   3376487030.5679440        6874109.2483911514        497427722.25860560     
   3191096355.1239257       -2339077.4335030317        497396499.55888700     
   3006021392.8441062       -10499886.901411176        502388888.93982184     
   3455762996.8740363        25737147.461385965        676759859.00014305     
   3283974335.4554830        16377868.400966287        665099198.55084646     
   3112356480.3788342        7587943.8135409355        658911727.35860956     
   2940909431.6440744       -632626.30091392994        658197445.42342579     
   2769633189.2512145       -8283841.9423640966        662956352.74529922     
   3710171777.6328354       -18652289.575540304        11802349.476976492     
   3549597040.0973911       -9217063.9851968288        6519122.6817012522     
   3387847188.4139414       -3698885.5548706055        5834310.3571026986     
   3224922222.5825114       -2097754.2844905853        9747912.5031757057     
   3060822142.6030731       -4413670.1741173267        18259929.119915150     
   3476290687.0349202       -15684110.717993498        176811887.30566975     
   3327018987.9692574       -6175103.3730497360        169810464.41913578     
   3176923384.2284579        587555.05476617813        166888245.47994158     
   3026003875.8125129        4603864.5654159784        168045230.48806602     
   2874260462.7214084        5873825.1588897705        173281419.44351873     
   3241573892.1053371       -12966643.159966588        340340733.79328263     
   3102121772.8713493       -3828891.6517984867        332030859.20049286     
   2962196958.4350495        3733209.1820039749        327280978.03167838     
   2821799448.7964563        9719659.3414914608        326091090.28684533     
   2680929243.9555516        14130458.826619267        328461195.96599215     
   3006021392.8441062       -10499886.901411176        502388888.93982184     
   2874905394.8036399       -2178428.8214992285        493180307.02575064     
   2743667911.0337176        5738076.8268755674        487012508.01231647     
   2612308941.5343432        13249630.043750286        483885491.89951342     
   2480828486.3055139        20356230.829097629        483799258.68735075     
   2769633189.2512145       -8283841.9423640966        662956352.74529922     
   2645369853.7661462       -1223714.8821452856        653258807.89493358     
   2521336242.0244675        6602157.9893774986        646082835.42185152     
   2397532354.0261798        15193776.672212124        641428435.32606876     
   2273958189.7712822        24551141.166324735        639295607.60757148     
   3060822142.6030731       -4413670.1741173267        18259929.119915150     
   2891436463.3534417       -8661129.2519483566        12153208.305900097     
   2722997856.4449000       -9751680.5261480808        6948450.3121531615     
   2555506321.8774433       -7685323.9967361689        2645655.1387217422     
   2388961859.6510668       -2462059.6637121439       -755177.21443387237     
   2874260462.7214084        5873825.1588897705        173281419.44351873     
   2708252449.4893074        2517861.0471229553        165999418.22770676     
   2542839849.9457684        1146609.2305747271        160207929.21290815     
   2378022664.0908079        1760069.7092912197        155906952.39912099     
   2213800891.9244423        4358242.4833037853        153096487.78637156     
   2680929243.9555516        14130458.826619267        328461195.96599215     
   2519980466.4001880        12170460.578615427        319593645.92045456     
   2359275443.8809142        11022979.117567182        312805157.45666927     
   2198814176.3977041        10688014.443404675        308095730.57463616     
   2038596663.9505627        11165566.556143284        305465365.27437061     
   2480828486.3055139        20356230.829097629        483799258.68735075     
   2326620514.0861397        20296669.342670798        472935891.38416713     
   2172304638.2503495        19877429.134853482        464740135.04346770     
   2017880858.7981105        19098510.205544591        459211989.66526115     
   1863349175.7294440        17959912.554804325        456351455.24953872     
   2273958189.7712822        24551141.166324735        639295607.60757148     
   2128172592.5471399        26896487.339257598        626026154.61882627     
   1981927433.0540593        27709959.282407165        616012861.97329438     
   1835222711.2920399        26991556.995761037        609255729.67098284     
   1688058427.2610812        24741280.479305446        605754757.71189344     
   2388961859.6510668       -2462059.6637121439       -755177.21443387237     
   2247701837.0745306        6596060.1950900555       -7058055.9188566823     
   2103021900.5948250        4254467.0433161259       -11281659.461387798     
   1954922050.2119567       -9486839.1189990044       -13425987.842028504     
   1803402285.9259279       -34627858.291839600       -13491041.060764708     
   2213800891.9244423        4358242.4833037853        153096487.78637156     
   2076579289.5373080        12511032.868148327        143035605.21606177     
   1937083965.7762046        13084752.006430030        134210846.73888284     
   1795314920.6410904        6079399.8980078697        126622212.35490455     
   1651272154.1320033       -8505023.4570016861        120269702.06410192     
   2038596663.9505627        11165566.556143284        305465365.27437061     
   1903004478.6993759        17690326.551070333        292983703.45549822     
   1766284764.6033618        20456657.063251972        280895014.66108286     
   1628437521.6625292        19464558.092693508        269199298.89112872     
   1489462749.8768802        14714029.639429986        257896556.14563230     
   1863349175.7294440        17959912.554804325        456351455.24953872     
   1726977404.5607066        22133941.243726373        442786238.79950380     
   1590624297.0763121        26370182.213804543        428770844.30520850     
   1454289853.2762771        30668635.465078235        414305271.76664740     
   1317974073.1605952        35029300.997523248        399389521.18381906     
   1688058427.2610812        24741280.479305446        605754757.71189344     
   1548498067.1213131        25841876.946178496        592443211.24806321     
   1410102563.1950612        30825327.458116651        577838335.67124522     
   1272871915.4823365        39691632.015144885        561940130.98145163     
   1136806123.9831438        52440790.617279708        544748597.17866898     
   1803402285.9259279       -34627858.291839600       -13491041.060764708     
   1772004534.1240723       -16560062.128452182       -8084799.2352451626     
   1748755626.9447062        28670549.443234086       -41442959.881720342     
   1733655564.3878059        101063976.42313457       -113565523.00024533     
   1726704346.4534276        200620218.81145179       -224452488.59077275     
   1651272154.1320033       -8505023.4570016861        120269702.06410192     
   1528225222.1914206       -13820096.971399188        135723308.17822695     
   1409410648.6380947       -5027309.1949460506        124837994.27560444     
   1294828433.4720252        17873339.872370005        87613760.356233805     
   1184478576.6932170        54881850.230546415        24050606.420145117     
   1489462749.8768802        14714029.639429986        257896556.14563230     
   1310268016.2412653       -3333500.0196005106        278828292.60722113     
   1131389154.7576704       -20328122.505228341        285846591.50735641     
   952826165.42608595       -36269837.817494810        278951452.84604520     
   774579048.24652100       -51158645.956357837        258142876.62328815     
   1317974073.1605952        35029300.997523248        399389521.18381906     
   1118132916.2736199        14899728.726966023        421230154.05177581     
   914691145.30341363       -17231890.487681150        441582831.81355458     
   707648760.24998820       -61365556.646394163        460447554.46918160     
   497005761.11334342       -117501269.74917999        477824322.01863331     
   1136806123.9831438        52440790.617279708        544748597.17866898     
   951819922.28847003        40879589.268274605        562928892.51187825     
   759316620.27534032        4261386.8577543497        592046715.19419432     
   559296217.94373333       -57413816.614358962        632102065.22563410     
   351758715.29367977       -144146021.14796123        683094942.60619855     
   1726704346.4534276        200620218.81145179       -224452488.59077275     
   1456462024.7276022        184657917.85322422       -96735592.871162355     
   1153984344.8348362        61244423.005172610        60120156.752815261     
   819271306.77509272       -169620265.73279905        246114760.28113702     
   452322910.54840529       -507936148.36057240        461248217.71380550     
   1184478576.6932170        54881850.230546415        24050606.420145117     
   977563713.71180916        11904062.158442438        155522039.69586223     
   732779044.05558491       -157306414.82971603        312802392.05076373     
   450124567.72452700       -452749580.73397577        495891663.48481113     
   129600284.71864212       -874425435.55430329        704789853.99804294     
   774579048.24652100       -51158645.956357837        258142876.62328815     
   621477544.50900555       -124006150.99244249        386795324.19593209     
   424871785.58879668       -341867839.97085577        537926756.02255070     
   184761771.48589164       -704743712.89158762        711537172.10315657     
  -98852497.799691856       -1212633769.7545788        907626572.43774748     
   497005761.11334342       -117501269.74917999        477824322.01863331     
   388203517.11919498       -223072721.59944287        597084260.62901843     
   230262569.43447354       -492439852.41826099        735493248.66820264     
   23182918.059193611       -925602662.20561123        893051286.13617337     
  -233035437.00663349       -1522561150.9614632        1069758373.0329704     
   351758715.29367977       -144146021.14796123        683094942.60619855     
   277741631.54235977       -285295649.66255724        786388848.99514627     
   148951395.59260553       -609022452.17193961        905501869.98770916     
  -34611992.555568397       -1115326428.6760597        1040434005.5838825     
  -272948532.90217483       -1804207579.1749275        1191185255.7836709     
   4746589981.1812601        65571403.820742369        705870950.38296318     
   4509892572.7745829        40950606.508966923        690195434.35598779     
   4272821033.2143469        15082705.352010965        681688473.39279735     
   4035375362.5005636       -12032299.650115490        680350067.49338710     
   3797555560.6332254       -40394408.497423887        686180216.65776002     
   4350145613.1352139        63028851.957202673        810890687.50860608     
   4132059383.4072428        37691264.724975109        796016925.35869634     
   3913917004.3203588        12166512.963016987        788456312.49488890     
   3695718475.8745499       -13545403.328680038        788208848.91717744     
   3477463798.0698180       -39444484.150108576        795274534.62556696     
   3956502541.4649353        61326689.006392002        913301803.12940359     
   3757440616.7651505        35396249.758560419        899600773.61696756     
   3558640524.5010824        10338585.296435118        893357487.61294556     
   3360102264.6727228       -13846304.379983664        894571945.11734092     
   3161825837.2800779       -37158419.270698309        903244146.13015115     
   3565660766.1704264        60464914.968312979        1013104297.2453630     
   3386036272.8483000        34065561.609712839        1000946979.1308063     
   3206991593.7565250        9598922.3522708416        996391998.74697542     
   3028526728.8950911       -12935002.804027677        999439356.09387732     
   2850641678.2639966       -33536213.859189272        1010089051.1715093     
   3177620287.2516842        60443529.842963696        1110298169.8564816     
   3017846351.6566939        33699200.278448462        1100055541.9002039     
   2858970212.0866804        9947524.1305165291        1097559845.8969715     
   2700991868.5416460       -10811498.600819349        1102811081.8467822     
   2543911321.0215836       -28577867.915576339        1115809249.7496438     
   3797555560.6332254       -40394408.497423887        686180216.65776002     
   3712169002.4880791       -23656243.525547028        679779628.85157061     
   3626741389.1464953       -7054929.2084650993        676076039.97323346     
   3541272720.6084838        9409534.4538598061        675069450.02276146     
   3455762996.8740363        25737147.461385965        676759859.00014305     
   3477463798.0698180       -39444484.150108576        795274534.62556696     
   3398726167.9595470       -23630709.257392883        790353809.00366437     
   3319950890.3329148       -7942426.0858840942        788063965.26822591     
   3241137965.1899114        7620365.3644002676        788405003.41926003     
   3162287392.5305505        23057665.093481541        791376923.45675814     
   3161825837.2800779       -37158419.270698309        903244146.13015115     
   3089548229.3721423       -22325706.206883788        899807258.31928039     
   3017236381.6279106       -7607125.9307270050        898935135.35349059     
   2944890294.0473824        6997321.5577801466        900627777.23277926     
   2872509966.6305566        21487636.258624434        904885183.95714140     
   2850641678.2639966       -33536213.859189272        1010089051.1715093     
   2784635186.7258520       -19741234.374050617        1008139976.7984215     
   2718597863.0314856       -6049028.7429910898        1008689550.2290230     
   2652529707.1808844        7540403.0339553356        1011737771.4633092     
   2586430719.1740546        21027060.956808209        1017284640.5012863     
   2543911321.0215836       -28577867.915576339        1115809249.7496438     
   2483987040.0206885       -15877293.758874297        1115351964.4410858     
   2424035334.5436330       -3268134.5226957798        1117327209.8948226     
   2364056204.5904160        9249609.7929413319        1121734986.1108563     
   2304049650.1610432        21675939.188052535        1128575293.0891919     
   3455762996.8740363        25737147.461385965        676759859.00014305     
   3283974335.4554830        16377868.400966287        665099198.55084646     
   3112356480.3788342        7587943.8135409355        658911727.35860956     
   2940909431.6440744       -632626.30091392994        658197445.42342579     
   2769633189.2512145       -8283841.9423640966        662956352.74529922     
   3162287392.5305505        23057665.093481541        791376923.45675814     
   3004882098.8386984        15179805.502053261        781116803.08778334     
   2847680116.6121602        7979650.7949978113        776105756.45098364     
   2690681445.8509393        1457200.9723393917        776343783.54636049     
   2533886086.5550342       -4387543.9659390450        781830884.37390614     
   2872509966.6305566        21487636.258624434        904885183.95714140     
   2728847710.5943098        14899097.114845276        896063526.31247568     
   2585421271.1468019        9096613.2668529749        892266826.87510848     
   2442230648.2880278        4080184.7146465778        893495085.64503109     
   2299275842.0179920       -150188.54176735878        899748302.62224829     
   2586430719.1740546        21027060.956808209        1017284640.5012863     
   2455871170.7223253        15535743.239360332        1009939368.2249196     
   2325579943.9827528        10938831.229094148        1007394938.6309730     
   2195557038.9553413        7236324.9260313511        1009651351.7194330     
   2065802455.6400821        4428224.3301414251        1016708607.4903089     
   2304049650.1610432        21675939.188052535        1128575293.0891919     
   2185952479.2227426        17089743.875604391        1122744328.8251238     
   2068156135.1200192        13506304.681737661        1121490091.7185814     
   1950660617.8528728        10925621.606470704        1124812581.7695751     
   1833465927.4213049        9347694.6497932673        1132711798.9780977     
   2769633189.2512145       -8283841.9423640966        662956352.74529922     
   2645369853.7661462       -1223714.8821452856        653258807.89493358     
   2521336242.0244675        6602157.9893774986        646082835.42185152     
   2397532354.0261798        15193776.672212124        641428435.32606876     
   2273958189.7712822        24551141.166324735        639295607.60757148     
   2533886086.5550342       -4387543.9659390450        781830884.37390614     
   2416514652.2069111        2207553.5810441971        772965103.50717914     
   2299343861.3391399        9471462.7292158604        766986527.17924345     
   2182373713.9517217        17404183.478548646        763895155.39010847     
   2065604210.0446577        26005715.829070449        763690988.13977313     
   2299275842.0179920       -150188.54176735878        899748302.62224829     
   2189840972.1254039        6293278.4875572920        891680358.76560366     
   2080577665.4501352        13308622.907944798        886865251.60927248     
   1971485921.9921811        20895844.719377637        885302981.15324724     
   1862565741.7515411        29054943.921865106        886993547.39752030     
   2065802455.6400821        4428224.3301414251        1016708607.4903089     
   1965348813.5216291        11033459.837394118        1009404573.6702185     
   1865037654.3574529        18113638.525565386        1005719008.7119393     
   1764868978.1475646        25668760.394688606        1005651912.6154735     
   1664842784.8919463        33698825.444721401        1009203285.3808248     
   1833465927.4213049        9347694.6497932673        1132711798.9780977     
   1743038176.3955801        16428097.630535364        1126137748.2210109     
   1652723828.0610967        23886509.582091093        1123547798.4872479     
   1562522882.4178560        31722930.504451036        1124941949.7768056     
   1472435339.4658587        39937360.397623360        1130320202.0896878     
   2273958189.7712822        24551141.166324735        639295607.60757148     
   2128172592.5471399        26896487.339257598        626026154.61882627     
   1981927433.0540593        27709959.282407165        616012861.97329438     
   1835222711.2920399        26991556.995761037        609255729.67098284     
   1688058427.2610812        24741280.479305446        605754757.71189344     
   2065604210.0446577        26005715.829070449        763690988.13977313     
   1928460099.7650347        28342705.710648656        751906773.51017177     
   1791015020.3629723        29676465.184079885        743515624.56191957     
   1653268971.8384774        30006994.249398887        738517541.29500520     
   1515221954.1915326        29334292.906558633        736912523.70943630     
   1862565741.7515411        29054943.921865106        886993547.39752030     
   1734454276.5253668        31500924.944775939        876879596.46465743     
   1606200435.3232450        33472319.381194711        870295616.55125654     
   1477804218.1451838        34969127.231137693        867241607.65731645     
   1349265624.9911647        35991348.494579136        867717569.78284299     
   1664842784.8919463        33698825.444721401        1009203285.3808248     
   1546155122.8281317        36371145.041630626        1000944623.4822719     
   1427483677.9348655        39097521.873696804        996352837.94130564     
   1308828450.2121534        41877955.940945327        995427928.75791705     
   1190189439.6599884        44712447.243350625        998169895.93211293     
   1472435339.4658587        39937360.397623360        1130320202.0896878     
   1363562638.6733251        42953366.001210570        1124101854.5630186     
   1254864748.1978335        46552072.661606550        1121687288.7320583     
   1146341668.0393939        50733480.378838360        1123076504.5968115     
   1037993398.1979984        55497589.152884603        1128269502.1572504     
   1688058427.2610812        24741280.479305446        605754757.71189344     
   1548498067.1213131        25841876.946178496        592443211.24806321     
   1410102563.1950612        30825327.458116651        577838335.67124522     
   1272871915.4823365        39691632.015144885        561940130.98145163     
   1136806123.9831438        52440790.617279708        544748597.17866898     
   1515221954.1915326        29334292.906558633        736912523.70943630     
   1373800757.3611240        27632096.373157740        727758482.94362414     
   1232669161.6737037        26895236.983026803        719113156.83652008     
   1091827167.1292667        27123714.736180425        710976545.38813329     
   951274773.72780132        28317529.632582963        703348648.59845459     
   1349265624.9911647        35991348.494579136        867717569.78284299     
   1211132287.9606838        33030967.908081770        861699903.79940903     
   1072413297.0026428        28118407.563052535        857992996.24639070     
   933108652.11702871        21253667.459438741        856596847.12377238     
   793218353.30385029        12436747.597290337        857511456.43155372     
   1190189439.6599884        44712447.243350625        998169895.93211293     
   1060492658.9199860        42038491.550945044        994267473.81543684     
   929334969.18186593        34494839.198140204        994477853.90085208     
   796716370.44563472        22081490.184970230        998801036.18836629     
   662636862.71129012        4798444.5114282370        1007237020.6779814     
   1037993398.1979984        55497589.152884603        1128269502.1572504     
   921881870.23901081        54654667.301675111        1125461192.9916852     
   803434178.21138275        46024531.888339251        1128567729.7999084     
   682650322.11507511        29607182.912736237        1137589112.5819151     
   559530301.95011997        5402620.3749698699        1152525341.3377204     
   1136806123.9831438        52440790.617279708        544748597.17866898     
   951819922.28847003        40879589.268274605        562928892.51187825     
   759316620.27534032        4261386.8577543497        592046715.19419432     
   559296217.94373333       -57413816.614358962        632102065.22563410     
   351758715.29367977       -144146021.14796123        683094942.60619855     
   951274773.72780132        28317529.632582963        703348648.59845459     
   791960971.06178498        11224981.805220008        721297526.30990875     
   624011672.78396046       -34652551.394831955        749333340.49698520     
   447426878.89433193       -109315069.96755707        787456091.15967774     
   262206589.39289325       -212762573.91299087        835665778.29799521     
   793218353.30385029        12436747.597290337        857511456.43155372     
   657146690.02792573       -10916224.599990249        873924122.01235199     
   511321135.84685457       -66782166.481109500        899573133.19527161     
   355741690.76062667       -155161078.04607964        934458489.98032403     
   190408354.76924604       -276052959.29488528        978580192.36749530     
   662636862.71129012        4798444.5114282370        1007237020.6779814     
   547377079.18690252       -25544029.947341293        1020808679.6192175     
   421245009.46401864       -92127458.401092678        1042766093.2890794     
   284240653.54262197       -194951840.84988207        1073109261.6875696     
   136364011.42273259       -334017177.29366302        1111838184.8146913     
   559530301.95011997        5402620.3749698699        1152525341.3377204     
   462652138.53870237       -32658434.236855447        1161951199.1304886     
   353783293.63543880       -110688427.15483403        1178912220.7783937     
   232923767.24032927       -228687358.37896293        1203408406.2814214     
   100073559.35337478       -386655227.90924734        1235439755.6395924     
   351758715.29367977       -144146021.14796123        683094942.60619855     
   277741631.54235977       -285295649.66255724        786388848.99514627     
   148951395.59260553       -609022452.17193961        905501869.98770916     
  -34611992.555568397       -1115326428.6760597        1040434005.5838825     
  -272948532.90217483       -1804207579.1749275        1191185255.7836709     
   262206589.39289325       -212762573.91299087        835665778.29799521     
   223534761.84798193       -352421595.47853094        885026190.52708924     
   140635096.15196463       -639506744.21441627        945412160.55386817     
   13507592.304842472       -1074018020.1206625        1016823688.3783526     
  -157847749.69337648       -1655955423.1972058        1099260774.0005116     
   190408354.76924604       -276052959.29488528        978580192.36749530     
   173385906.84238520       -418330136.88788700        986309976.82528412     
   122680934.81175327       -672882394.82679915        1000271762.2748448     
   38293438.677344441       -1039709733.1116413        1020465548.7161609     
  -79776581.560833931       -1518812151.7423613        1046891336.1492548     
   136364011.42273259       -334017177.29366302        1111838184.8146913     
   127295066.52557573       -483021273.89060527        1090240207.8897240     
   95088911.571972549       -709149404.00904202        1070080675.1505947     
   39745546.561914563       -1012401567.6489980        1051359586.5973119     
  -38735028.504582107       -1392777764.8104036        1034076942.2298635     
   100073559.35337478       -386655227.90924734        1235439755.6395924     
   85262240.897564381       -546495006.48666394        1196816883.7204239     
   57859026.432629675       -748307771.76114511        1154838899.1811581     
   17863915.958570957       -992093523.73273683        1109505802.0218201     
  -34723090.524597108       -1277852262.4013262        1060817592.2423964     
   3177620287.2516842        60443529.842963696        1110298169.8564816     
   3017846351.6566939        33699200.278448462        1100055541.9002039     
   2858970212.0866804        9947524.1305165291        1097559845.8969715     
   2700991868.5416460       -10811498.600819349        1102811081.8467822     
   2543911321.0215836       -28577867.915576339        1115809249.7496438     
   2788041745.7819238        56536685.332562685        1203316719.6032069     
   2648992738.2779708        33276310.455835104        1192606260.3792698     
   2510720626.5755992        12605588.251039505        1189287132.0366797     
   2373225410.6748090       -5475481.2818163633        1193359334.5754228     
   2236507090.5755992       -20966898.142736554        1204822867.9955075     
   2394843392.0341840        51543897.138767958        1295354439.1958103     
   2275503309.5592489        31462676.031221747        1284035098.4435959     
   2156819222.6624990        13568106.850960612        1279751487.5010118     
   2038791131.3439345       -2139810.4020193815        1282503606.3680606     
   1921419035.6035526       -15661075.727718353        1292291455.0447397     
   1998025226.0084715        45465165.261580706        1386411328.6342976     
   1897378065.5005317        28258297.004612446        1374342056.0931723     
   1797266000.3473804        12835079.930271029        1368952912.2899697     
   1697689030.5490184       -804485.96143925190        1370243897.2246938     
   1598647156.1054463       -12660400.670515060        1378215010.8973396     
   1597587247.7047787        38300489.701000690        1476487387.9186680     
   1514617006.1018140        23663173.375999868        1463527133.3280029     
   1432060959.6302431        10406507.488978982        1456891406.4035556     
   1349919108.2900646       -1469507.9600695372        1456580207.1453235     
   1268191452.0812800       -11964872.971136332        1462593535.5533121     
   2543911321.0215836       -28577867.915576339        1115809249.7496438     
   2483987040.0206885       -15877293.758874297        1115351964.4410858     
   2424035334.5436330       -3268134.5226957798        1117327209.8948226     
   2364056204.5904160        9249609.7929413319        1121734986.1108563     
   2304049650.1610432        21675939.188052535        1128575293.0891919     
   2236507090.5755992       -20966898.142736554        1204822867.9955075     
   2182739774.1776204       -10387917.574931741        1201843195.3572152     
   2128976944.1659913        206017.61404836178        1201656717.0947671     
   2075218600.5407081        10814907.424174786        1204263433.2081697     
   2021464743.3017812        21438751.855484724        1209663343.6974127     
   1921419035.6035526       -15661075.727718353        1292291455.0447397     
   1874839151.2757771       -6894548.5086188316        1286826624.4163048     
   1828295664.1968613        1993302.8733454943        1284515651.7772648     
   1781788574.3667965        11002478.418150425        1285358537.1276226     
   1735317881.7855954        20132978.125829697        1289355280.4673793     
   1598647156.1054463       -12660400.670515060        1378215010.8973396     
   1560285171.3151615       -5397186.5599375963        1370302251.6183538     
   1521991494.6362417        2093721.2551944256        1365904013.9423177     
   1483766126.0686870        9812322.7748733759        1365020297.8692260     
   1445609065.6124980        17758617.999106169        1367651103.3990805     
   1268191452.0812800       -11964872.971136332        1462593535.5533121     
   1239077834.2957695       -5895831.7288941145        1452270076.9633698     
   1210064435.4841347        507272.75959783792        1445821803.5899260     
   1181151255.6463678        7244440.4943194985        1443248715.4329786     
   1152338294.7824819        14315671.475307107        1444550812.4925280     
   2304049650.1610432        21675939.188052535        1128575293.0891919     
   2185952479.2227426        17089743.875604391        1122744328.8251238     
   2068156135.1200192        13506304.681737661        1121490091.7185814     
   1950660617.8528728        10925621.606470704        1124812581.7695751     
   1833465927.4213049        9347694.6497932673        1132711798.9780977     
   2021464743.3017812        21438751.855484724        1209663343.6974127     
   1915790780.4698358        16921326.454059243        1203119271.4764891     
   1810398987.4132059        13344466.970357180        1201538916.0465362     
   1705289364.1318908        10708173.404370785        1204922277.4075503     
   1600461910.6258931        9012445.7561042905        1213269355.5595250     
   1735317881.7855954        20132978.125829697        1289355280.4673793     
   1643172811.7269664        16016028.035535932        1282076333.7192988     
   1551291254.3833897        12777453.662082255        1280148093.3956230     
   1459673209.7548647        10417255.005470991        1283570559.4963439     
   1368318677.8413920        8935432.0656936765        1292343732.0214686     
   1445609065.6124980        17758617.999106169        1367651103.3990805     
   1368098572.9941373        14373848.620019376        1359615515.5535398     
   1290832936.0305657        11805264.756898463        1357317623.7658343     
   1213812154.7217834        10052866.409744620        1360757428.0359638     
   1137036229.0677884        9116653.5785464644        1369934928.3639255     
   1152338294.7824819        14315671.475307107        1444550812.4925280     
   1090568064.2713442        11994788.207515299        1435736816.9792140     
   1029024032.3547376        10427900.254821718        1433047507.1571722     
   967706199.03265500        9615007.6172096133        1436482883.0264010     
   906614564.30509841        9556110.2946866155        1446042944.5868979     
   1833465927.4213049        9347694.6497932673        1132711798.9780977     
   1743038176.3955801        16428097.630535364        1126137748.2210109     
   1652723828.0610967        23886509.582091093        1123547798.4872479     
   1562522882.4178560        31722930.504451036        1124941949.7768056     
   1472435339.4658587        39937360.397623360        1130320202.0896878     
   1600461910.6258931        9012445.7561042905        1213269355.5595250     
   1520329165.2529016        15321510.465117097        1207192025.7370889     
   1440307467.6325502        22000734.349596798        1205227831.1484418     
   1360396817.7648354        29050117.409528613        1207376771.7935874     
   1280597215.6497538        36469659.644909322        1213638847.6725349     
   1368318677.8413920        8935432.0656936765        1292343732.0214686     
   1298849607.2939141        14583759.254826188        1286760375.7053044     
   1229489229.5604601        20594395.824035585        1285419188.8334053     
   1160237544.6410415        26967341.773360610        1288320171.4057713     
   1091094552.5356522        33702597.102783144        1295463323.4224048     
   1137036229.0677884        9116653.5785464644        1369934928.3639255     
   1078599502.5185997        14214843.999617159        1364842798.1256561     
   1020269113.8448323        19667494.005428314        1364121871.5421283     
   962045063.04648972        25474603.595985353        1367772148.6133413     
   903927350.12355936        31636172.771259636        1375793629.3392887     
   906614564.30509841        9556110.2946866155        1446042944.5868979     
   859578850.92697549        14214764.699538499        1441439292.9981604     
   812647120.48565459        19220028.893732786        1441335879.2746270     
   765819372.98116243        24571902.877354950        1445732703.4163015     
   719095608.41348350        30270386.650354475        1454629765.4231920     
   1472435339.4658587        39937360.397623360        1130320202.0896878     
   1363562638.6733251        42953366.001210570        1124101854.5630186     
   1254864748.1978335        46552072.661606550        1121687288.7320583     
   1146341668.0393939        50733480.378838360        1123076504.5968115     
   1037993398.1979984        55497589.152884603        1128269502.1572504     
   1280597215.6497538        36469659.644909322        1213638847.6725349     
   1181990924.0044558        38494944.653142929        1208629545.6627078     
   1083436936.0121903        40694575.171481729        1207942327.5924418     
   984935251.67294908        43068551.199905515        1211577193.4617341     
   886485870.98674452        45616872.738446176        1219534143.2705834     
   1091094552.5356522        33702597.102783144        1295463323.4224048     
   1004235533.5914619        35181420.581846476        1291520142.4880679     
   917306311.63628125        36426234.024270594        1292417347.7371371     
   830306886.67011464        37437037.430075824        1298154939.1696184     
   743237258.69296098        38213830.799258858        1308732916.7855184     
   903927350.12355936        31636172.771259636        1375793629.3392887     
   830296467.43434191        33012793.787301213        1372773645.0390835     
   756472875.07011497        33747049.219988972        1375112349.1661427     
   682456573.03088331        33838939.069327086        1382809741.7204652     
   608247561.31664622        33288463.335303843        1395865822.7020481     
   719095608.41348350        30270386.650354475        1454629765.4231920     
   660173725.53309894        31989064.269535691        1452390053.3157690     
   600936626.31368518        32657020.758619875        1456027331.8794558     
   541384310.75525415        32274256.117645174        1465541601.1142690     
   481516778.85780221        30840770.346603349        1480932861.0201933     
   1037993398.1979984        55497589.152884603        1128269502.1572504     
   921881870.23901081        54654667.301675111        1125461192.9916852     
   803434178.21138275        46024531.888339251        1128567729.7999084     
   682650322.11507511        29607182.912736237        1137589112.5819151     
   559530301.95011997        5402620.3749698699        1152525341.3377204     
   886485870.98674452        45616872.738446176        1219534143.2705834     
   785432605.14400184        43975273.074931979        1216881070.0550139     
   682079504.44707501        34667557.230803013        1220080739.6809866     
   576426568.89595842        17693725.206039429        1229133152.1485081     
   468473798.49065453       -6946222.9993431568        1244038307.4575841     
   743237258.69296098        38213830.799258858        1308732916.7855184     
   657064817.44575655        35720322.067189604        1306277463.6034987     
   568628870.55884254        25681794.536087722        1309612650.1307817     
   477929418.03221601        8098248.2059477568        1318738476.3673635     
   384966459.86587870       -17030316.923229292        1333654942.3132553     
   608247561.31664622        33288463.335303843        1395865822.7020481     
   536778507.14428687        29889814.278484076        1393650373.6371367     
   463082276.54669023        19067243.804210603        1397163461.1492834     
   387158869.52385348        820751.91246697307        1406405085.2384892     
   309008286.07578373       -24849661.396717846        1421375245.9047518     
   481516778.85780221        30840770.346603349        1480932861.0201933     
   424573674.23959112        26483749.708824053        1478999800.1559350     
   365439722.41060418        14823905.035125062        1482733172.7364941     
   304114923.37087154       -4138763.6743900776        1492132978.7618747     
   240599277.12036943       -30404256.419808820        1507199218.2320633     
   559530301.95011997        5402620.3749698699        1152525341.3377204     
   462652138.53870237       -32658434.236855447        1161951199.1304886     
   353783293.63543880       -110688427.15483403        1178912220.7783937     
   232923767.24032927       -228687358.37896293        1203408406.2814214     
   100073559.35337478       -386655227.90924734        1235439755.6395924     
   468473798.49065453       -6946222.9993431568        1244038307.4575841     
   390718941.54826301       -41400241.974035442        1242598119.4345031     
   302819889.91619557       -109668243.24764460        1247500610.4623566     
   204776643.59445307       -211750226.82016784        1258745780.5411491     
   96589202.583032697       -347646192.69162017        1276333629.6708689     
   384966459.86587870       -17030316.923229292        1333654942.3132553     
   322927809.95194471       -48899430.092967495        1323502943.0768654     
   252591452.15050662       -108427569.55438137        1318501138.0872059     
   173957386.46156240       -195614735.30748346        1318649527.3442824     
   87025612.885111630       -310460927.35227662        1323948110.8481009     
   309008286.07578373       -24849661.396717846        1421375245.9047518     
   259278743.74974254       -55155998.593673810        1404665670.0575714     
   203097980.33836785       -106966406.07506353        1391913803.6529374     
   140465995.84166020       -180280883.84089941        1383119646.6908441     
   71382790.259623244       -275099431.89117163        1378283199.1712792     
   240599277.12036943       -30404256.419808820        1507199218.2320633     
   199771742.94165879       -60169947.476131305        1486086300.3766365     
   154339474.47978437       -105284752.80966908        1467738607.1595547     
   104302471.73474613       -165748672.42041969        1452156138.5808141     
   49660734.706544653       -241561706.30838373        1439338894.6404107     
   100073559.35337478       -386655227.90924734        1235439755.6395924     
   85262240.897564381       -546495006.48666394        1196816883.7204239     
   57859026.432629675       -748307771.76114511        1154838899.1811581     
   17863915.958570957       -992093523.73273683        1109505802.0218201     
  -34723090.524597108       -1277852262.4013262        1060817592.2423964     
   96589202.583032697       -347646192.69162017        1276333629.6708689     
   79707506.430741221       -488802905.69183737        1221999633.0943177     
   51440903.482507885       -667909308.01185536        1165116674.2381232     
   11789393.738342166       -884965399.65166044        1105684753.1022894     
  -39247022.801758051       -1139971180.6112387        1043703869.6868098     
   87025612.885111630       -310460927.35227662        1323948110.8481009     
   70376825.723316163       -432243588.76920813        1255311143.6962130     
   43550120.978765547       -587952642.12865269        1184931364.6051297     
   6545498.6514659822       -777588087.43059158        1112808773.5748420     
  -40637041.258584976       -1001149924.6750380        1038943370.6053693     
   71382790.259623244       -275099431.89117163        1378283199.1712792     
   57270198.775287703       -376817055.71877146        1296751415.5261116     
   34186678.921404004       -508437774.11152852        1214282970.2821903     
   2132230.6979601383       -669961587.06949818        1130877863.4395158     
  -38893145.895073950       -861388494.59274220        1046536094.9980882     
   49660734.706544653       -241561706.30838373        1439338894.6404107     
   40387625.586671069       -322523306.54047793        1346320448.5840108     
   23350577.310424119       -429364703.96048337        1253171491.2692952     
  -1450410.1222047806       -562085898.56843436        1159892022.6962764     
  -34015336.711225003       -720686890.36434519        1066482042.8649315     
   1597587247.7047787        38300489.701000690        1476487387.9186680     
   1514617006.1018140        23663173.375999868        1463527133.3280029     
   1432060959.6302431        10406507.488978982        1456891406.4035556     
   1349919108.2900646       -1469507.9600695372        1456580207.1453235     
   1268191452.0812800       -11964872.971136332        1462593535.5533121     
   1195378908.9011631        27881889.232935488        1478532847.6174660     
   1130513050.8442292        16112455.855574369        1466959228.3513720     
   1065957838.5328524        5378508.2967450619        1462325711.1588614     
   1001713271.9670388       -4319953.4435425401        1464632296.0399313     
   937779351.14678466       -12982929.365299165        1473878982.9945776     
   795044925.17184031        18025595.287161320        1479652775.6953666     
   750042234.68197060        9651680.0637460351        1469344984.1370449     
   705246640.55182874        1968086.0394212604        1466592869.0596642     
   660658142.78141546       -5025186.7858065665        1471396430.4632285     
   616276741.37072921       -11328138.411944896        1483755668.3477395     
   396585296.51680428        8731607.8636716157        1479847172.1523793     
   373204557.61504042        4280846.0005174130        1470684400.6850128     
   349927365.68717182        175240.71701072156        1469692880.1059608     
   326753720.73319799       -3585207.9868462980        1476872610.4152153     
   303683622.75312012       -7000500.1110493541        1492223591.6127760     
   22.936057723406901       -73.037531288523397        1479116036.9884930     
   19.643438524137839       -46.334114384089020        1470977477.9952872     
   13.938881733825422       -27.670492225356721        1471625744.2977560     
   5.8223886334962192       -17.046656725846280        1481060835.8958955     
  -4.7060455349484487       -14.462624092831328        1499282752.7897050     
   1268191452.0812800       -11964872.971136332        1462593535.5533121     
   1239077834.2957695       -5895831.7288941145        1452270076.9633698     
   1210064435.4841347        507272.75959783792        1445821803.5899260     
   1181151255.6463678        7244440.4943194985        1443248715.4329786     
   1152338294.7824819        14315671.475307107        1444550812.4925280     
   937779351.14678466       -12982929.365299165        1473878982.9945776     
   917874274.49112654       -7852106.9136032462        1466550970.5631013     
   898044362.06182981       -2470737.0407002568        1462647778.1205201     
   878289613.85889554        3161180.2534090877        1462169405.6668408     
   858610029.88232136        9043644.9687209725        1465115853.2020581     
   616276741.37072921       -11328138.411944896        1483755668.3477395     
   604293448.05179429       -7521562.0887149572        1479393871.5359526     
   592360264.21170568       -3547954.1693312228        1478006529.4854715     
   580477189.85046422        592685.34621083736        1479593642.1962912     
   568644224.96807170        4900356.4579147995        1484155209.6684160     
   303683622.75312012       -7000500.1110493541        1492223591.6127760     
   298335354.97777188       -4904197.2542391717        1490798779.8819237     
   293012141.93375671       -2724378.6263161600        1491898057.6847754     
   287713983.62107790       -461044.22727383673        1495521425.0213327     
   282440880.03973198        1885805.9428799152        1501668881.8915966     
  -4.7060455349484487       -14.462624092831328        1499282752.7897050     
  -4.7309385346978647       -12.410163098629168        1500765695.6010160     
  -4.7720152463270509       -10.411647116803525        1504322362.7184343     
  -4.8292690588239058       -8.4670548045367688        1509952754.1419637     
  -4.9026985767844886       -6.5763822043718321        1517656869.8716009     
   1152338294.7824819        14315671.475307107        1444550812.4925280     
   1090568064.2713442        11994788.207515299        1435736816.9792140     
   1029024032.3547376        10427900.254821718        1433047507.1571722     
   967706199.03265500        9615007.6172096133        1436482883.0264010     
   906614564.30509841        9556110.2946866155        1446042944.5868979     
   858610029.88232136        9043644.9687209725        1465115853.2020581     
   812822762.08609104        7465104.5006292462        1457786582.4653203     
   767205143.22559023        6452060.4849680364        1456455902.8642337     
   721757173.30081165        6004512.9217160344        1461123814.3987973     
   676478852.31175721        6122461.8108779788        1471790317.0690122     
   568644224.96807170        4900356.4579147995        1484155209.6684160     
   538479649.72783852        3956077.7418524623        1478244689.1063154     
   508428173.76453102        3388796.6155432165        1478206665.1242459     
   478489797.07814395        3198513.0789682865        1484041137.7222085     
   448664519.66868466        3385227.1321533322        1495748106.9002030     
   282440880.03973198        1885805.9428799152        1501668881.8915966     
   267538727.19658345        1467707.9311686605        1497111136.9022019     
   252693123.97156063        1238108.6465438306        1498299793.9372156     
   237904070.36465859        1197008.0889886618        1505234852.9966431     
   223171566.37587905        1344406.2585071027        1517916314.0804884     
  -4.9026985767844886       -6.5763822043718321        1517656869.8716009     
  -5.5076706016412054       -4.9314081664351654        1514385925.8529730     
  -6.1533218538837886       -3.4220308592286592        1516735289.3031409     
  -6.8396529053990971       -2.0482525359865433        1524704960.2220993     
  -7.5666578314392581      -0.81005518227272133        1538294938.6098585     
   906614564.30509841        9556110.2946866155        1446042944.5868979     
   859578850.92697549        14214764.699538499        1441439292.9981604     
   812647120.48565459        19220028.893732786        1441335879.2746270     
   765819372.98116243        24571902.877354950        1445732703.4163015     
   719095608.41348350        30270386.650354475        1454629765.4231920     
   676478852.31175721        6122461.8108779788        1471790317.0690122     
   640866043.52882862        9515645.7878117263        1468144500.2791202     
   605331221.91517949        13168786.995679826        1469077326.9498446     
   569874387.47081053        17081885.434483141        1474588797.0811820     
   534495540.19572651        21254941.104236156        1484678910.6731312     
   448664519.66868466        3385227.1321533322        1495748106.9002030     
   424698631.46782070        5580145.4772416502        1493029796.5137115     
   400784734.66870111        7948368.4948125482        1494968535.1832366     
   376922829.27133042        10489896.184879482        1501564322.9087775     
   353112915.27571088        13204728.547446892        1512817159.6903355     
   223171566.37587905        1344406.2585071027        1517916314.0804884     
   211076614.74394321        2408263.7677965239        1516095181.7019372     
   199007658.74622437        3558773.3911424205        1519009503.9748061     
   186964698.38271916        4795935.1285331696        1526659280.8990927     
   174947733.65342978        6119748.9799779654        1539044512.4748027     
  -7.5666578314392581      -0.81005518227272133        1538294938.6098585     
  -6.6427932751536733       0.65951035841296335        1537340655.8437889     
  -5.8522447876751977        1.6846903908537305        1541200233.3245482     
  -5.1950254766506667        2.2654391412252890        1549873671.0521288     
  -4.6711156005456669        2.4018231085317439        1563360969.0265324     
   719095608.41348350        30270386.650354475        1454629765.4231920     
   660173725.53309894        31989064.269535691        1452390053.3157690     
   600936626.31368518        32657020.758619875        1456027331.8794558     
   541384310.75525415        32274256.117645174        1465541601.1142690     
   481516778.85780221        30840770.346603349        1480932861.0201933     
   534495540.19572651        21254941.104236156        1484678910.6731312     
   490650944.72127599        22647994.264125824        1483203058.4485750     
   446569936.98959440        23253006.566586688        1487523273.0480683     
   402252517.00068873        23069978.011627123        1497639554.4716146     
   357698684.75455421        22098908.599243596        1513551902.7192175     
   353112915.27571088        13204728.547446892        1512817159.6903355     
   324114396.21558815        14202793.950574741        1512197105.4440675     
   294958268.98003089        14675498.768919125        1517292194.1747925     
   265644533.56904373        14622843.002498716        1528102425.8825073     
   236173189.98262081        14044826.651288204        1544627800.5672112     
   174947733.65342978        6119748.9799779654        1539044512.4748027     
   160564080.01602986        6653463.3288600370        1539372194.3022521     
   146101622.28498790        6924497.3656039834        1545334095.2596309     
   131560360.46031347        6932851.0902379602        1556930215.3469412     
   116940294.54199399        6678524.5027231164        1574160554.5641730     
  -4.6711156005456669        2.4018231085317439        1563360969.0265324     
  -3.8774004153938759        2.3989770792586862        1564728325.0231278     
  -3.0955308371550307        2.3566477752773132        1571648976.3025899     
  -2.3255041665231508        2.2748414187166643        1584122922.8649151     
  -1.5673224622909336        2.1535511469344168        1602150164.7101109     
   481516778.85780221        30840770.346603349        1480932861.0201933     
   424573674.23959112        26483749.708824053        1478999800.1559350     
   365439722.41060418        14823905.035125062        1482733172.7364941     
   304114923.37087154       -4138763.6743900776        1492132978.7618747     
   240599277.12036943       -30404256.419808820        1507199218.2320633     
   357698684.75455421        22098908.599243596        1513551902.7192175     
   315670252.44541639        19034811.884504795        1510105557.2155275     
   271998684.73407209        10493597.162412509        1512167236.0609934     
   226683981.62053278       -3524735.5669977516        1519736939.2556159     
   179726143.10478896       -23020186.303755082        1532814666.7993903     
   236173189.98262081        14044826.651288204        1544627800.5672112     
   208606832.56637847        12137874.634723268        1540307167.5340834     
   179945051.55649659        6579510.6393611506        1541336149.7544465     
   150187846.95298240       -2630265.3347753659        1547714747.2283068     
   119335218.75582966       -15491453.287708335        1559442959.9556563     
   116940294.54199399        6678524.5027231164        1574160554.5641730     
   103383414.60247515        5792937.9594804309        1569604631.1115959     
   89278822.877877921        3081645.4659764171        1570239913.8168521     
   74626519.368219316       -1455352.9777335487        1576066402.6799362     
   59426504.073491342       -7818057.3716719486        1587084097.7008586     
  -1.5673224622909336        2.1535511469344168        1602150164.7101109     
  -1.4462864971576850        1.8587934305311697        1597997947.9480720     
  -1.3017603936185949        1.6423340938125559        1598878528.2482047     
  -1.1337394393259350        1.5041916201618979        1604791905.6105108     
 -0.94223283022041815        1.4443353564434875        1615738080.0349913     
   240599277.12036943       -30404256.419808820        1507199218.2320633     
   199771742.94165879       -60169947.476131305        1486086300.3766365     
   154339474.47978437       -105284752.80966908        1467738607.1595547     
   104302471.73474613       -165748672.42041969        1452156138.5808141     
   49660734.706544653       -241561706.30838373        1439338894.6404107     
   179726143.10478896       -23020186.303755082        1532814666.7993903     
   148458619.40948102       -45538516.533305965        1507245324.6095726     
   113737545.00277202       -79568682.467536628        1484592144.1163099     
   75562919.884673655       -125110684.10639445        1464855125.3196068     
   33934744.055175520       -182164521.44991669        1448034268.2194610     
   119335218.75582966       -15491453.287708335        1559442959.9556563     
   98058954.281691790       -30633048.069174044        1530760240.9318299     
   74480322.667924702       -53449199.982732996        1505144620.6627827     
   48599323.914526694       -83939909.028397828        1482596099.1485171     
   20415958.021507241       -122105175.20613274        1463114676.3890307     
   59426504.073491342       -7818057.3716719486        1587084097.7008586     
   48572747.558293499       -15453542.083713185        1556631049.3434215     
   36567807.475235678       -26926305.355289392        1529396036.7989864     
   23411683.824315682       -42236347.186403953        1505379060.0675502     
   9104376.6055372879       -61383667.577049270        1484580119.1491141     
 -0.94223283022041815        1.4443353564434875        1615738080.0349913     
 -0.76071960086499202        1.4230499105101870        1584857749.8443425     
 -0.57529741044264415        1.4147943347999601        1557346392.5249157     
 -0.38597527189029102        1.4195392800791402        1533204008.0767021     
 -0.19273493057935503        1.4373435134414827        1512430596.4997082     
   49660734.706544653       -241561706.30838373        1439338894.6404107     
   40387625.586671069       -322523306.54047793        1346320448.5840108     
   23350577.310424119       -429364703.96048337        1253171491.2692952     
  -1450410.1222047806       -562085898.56843436        1159892022.6962764     
  -34015336.711225003       -720686890.36434519        1066482042.8649315     
   33934744.055175520       -182164521.44991669        1448034268.2194610     
   29794071.667457029       -242041473.78799662        1347534337.2921674     
   19830444.918321759       -321328273.99746853        1246247257.9031484     
   4043863.8077585995       -420024922.07836127        1144173030.0524096     
  -17565671.664212972       -538131418.03062928        1041311653.7399377     
   20415958.021507241       -122105175.20613274        1463114676.3890307     
   19531616.070478633       -161460311.53885457        1357397742.8516290     
   14765304.552995071       -213755346.42642766        1250237023.6490939     
   6117023.4690501839       -278990279.86886966        1141632518.7814152     
  -6413227.1813528240       -357165111.86617219        1031584228.2486131     
   9104376.6055372879       -61383667.577049270        1484580119.1491141     
   9600258.7957380004       -80779819.793042868        1375910665.2623961     
   8155156.2144515291       -106645921.24732849        1265140788.5071268     
   4769068.8616524413       -138981971.93998829        1152270488.8833153     
  -558003.26263879985       -177787971.87095907        1037299766.3909479     
 -0.19273493057935503        1.4373435134414827        1512430596.4997082     
 -0.15676425359288576        1.4494403388143828        1403073104.5244532     
  -9.7328418218629142E-002   1.5397564404814115        1290958552.4772480     
  -1.4429208743589217E-002   1.7082837891510518        1176086940.3580756     
   9.1934884613545265E-002   1.9550253357595022        1058458268.1669558     
   22.936057723406901       -73.037531288523397        1479116036.9884930     
   19.643438524137839       -46.334114384089020        1470977477.9952872     
   13.938881733825422       -27.670492225356721        1471625744.2977560     
   5.8223886334962192       -17.046656725846280        1481060835.8958955     
  -4.7060455349484487       -14.462624092831328        1499282752.7897050     
  -396585235.34097737       -8731702.8304722905        1479847186.4519899     
  -373204510.06316489       -4280911.9646946937        1470684410.7018464     
  -349927334.42564362       -175286.56655444205        1469692886.0573575     
  -326753708.42841381        3585173.3639477491        1476872612.5185230     
  -303683632.07147306        7000467.8268195093        1492223590.0853441     
  -795044848.75552559       -18025639.164665520        1479652794.4619884     
  -750042178.30733228       -9651719.1565433145        1469344996.8551624     
  -705246604.72778213       -1968122.0438993573        1466592876.1639721     
  -660658128.01687682        5025152.1732639968        1471396432.3884180     
  -616276748.17461514        11328103.494947076        1483755665.5285022     
  -1195378817.3075867       -27881882.040111840        1478532861.0184836     
  -1130512985.0890636       -16112467.909660816        1466959236.4552300     
  -1065957796.9675338       -5378534.1025288105        1462325714.6175926     
  -1001713252.9430050        4319919.3812741041        1464632295.5055766     
  -937779353.01547086        12982892.541758060        1473878979.1191792     
  -1597587140.9971645       -38300431.456816435        1476487386.1214824     
  -1514616930.4083583       -23663158.224047244        1463527129.5020530     
  -1432060911.1449015       -10406522.742443085        1456891401.4182255     
  -1349919083.2067943        1469474.9879915118        1456580201.8700004     
  -1268191446.5940380        11964834.967262328        1462593530.8573761     
  -4.7060455349484487       -14.462624092831328        1499282752.7897050     
  -4.7309385346978647       -12.410163098629168        1500765695.6010160     
  -4.7720152463270509       -10.411647116803525        1504322362.7184343     
  -4.8292690588239058       -8.4670548045367688        1509952754.1419637     
  -4.9026985767844886       -6.5763822043718321        1517656869.8716009     
  -303683632.07147306        7000467.8268195093        1492223590.0853441     
  -298335364.41504782        4904169.7183260322        1490798779.0829718     
  -293012151.48836601        2724355.8440229893        1491898057.4126465     
  -287713993.29141742        461026.20394146442        1495521425.0743701     
  -282440889.82420993       -1885819.2019435018        1501668882.0681438     
  -616276748.17461514        11328103.494947076        1483755665.5285022     
  -604293455.61990535        7521532.3905873895        1479393870.2132945     
  -592360272.50849497        3547929.8085625172        1478006529.2560737     
  -580477198.84037948       -592704.25110977888        1479593642.6568394     
  -568644234.61556435       -4900369.7884527743        1484155210.4155915     
  -937779353.01547086        12982892.541758060        1473878979.1191792     
  -917874278.34550571        7852075.6066325307        1466550968.9919839     
  -898044367.83240366        2470711.4819683433        1462647778.2487149     
  -878289621.47615528       -3161199.8322101235        1462169406.8893678     
  -858610039.27676439       -9043658.3359131813        1465115854.9139471     
  -1268191446.5940380        11964834.967262328        1462593530.8573761     
  -1239077832.5918562        5895799.3664459586        1452270075.4190397     
  -1210064437.4600916       -507299.13576042652        1445821804.3905683     
  -1181151261.1987395       -7244460.5393406749        1443248717.7719595     
  -1152338303.8078117       -14315684.844337821        1444550815.5632141     
  -4.9026985767844886       -6.5763822043718321        1517656869.8716009     
  -5.5076706016412054       -4.9314081664351654        1514385925.8529730     
  -6.1533218538837886       -3.4220308592286592        1516735289.3031409     
  -6.8396529053990971       -2.0482525359865433        1524704960.2220993     
  -7.5666578314392581      -0.81005518227272133        1538294938.6098585     
  -282440889.82420993       -1885819.2019435018        1501668882.0681438     
  -267538737.92521292       -1467717.0105289519        1497111136.9414768     
  -252693135.86719334       -1238114.2890393436        1498299793.8383527     
  -237904083.65014890       -1197011.0374661386        1505234852.7587709     
  -223171581.27407953       -1344407.2558096945        1517916313.7027299     
  -568644234.61556435       -4900369.7884527743        1484155210.4155915     
  -538479660.05618322       -3956086.0036797822        1478244689.4138770     
  -508428185.13807648       -3388801.0231571496        1478206664.9904482     
  -478489809.86123782       -3198514.8468607068        1484041137.1453071     
  -448664534.22567528       -3385227.4748180807        1495748105.8784552     
  -858610039.27676439       -9043658.3359131813        1465115854.9139471     
  -812822771.90058136       -7465111.9108614922        1457786583.2701709     
  -767205153.96596622       -6452063.6243690550        1456455902.7594283     
  -721757185.47291946       -6004513.4764382541        1461123813.3817163     
  -676478866.42144203       -6122461.4670702517        1471790315.1370420     
  -1152338303.8078117       -14315684.844337821        1444550815.5632141     
  -1090568073.4584050       -11994794.732065856        1435736818.5103610     
  -1029024042.3508673       -10427902.092691839        1433047507.1452868     
  -967706210.48519003       -9615006.9261851311        1436482881.4679954     
  -906614577.86138690       -9556109.2325925827        1446042941.4784806     
  -7.5666578314392581      -0.81005518227272133        1538294938.6098585     
  -6.6427932751536733       0.65951035841296335        1537340655.8437889     
  -5.8522447876751977        1.6846903908537305        1541200233.3245482     
  -5.1950254766506667        2.2654391412252890        1549873671.0521288     
  -4.6711156005456669        2.4018231085317439        1563360969.0265324     
  -223171581.27407953       -1344407.2558096945        1517916313.7027299     
  -211076627.94921920       -2408262.4756743386        1516095181.0998683     
  -199007670.46656984       -3558770.5029115006        1519009503.1792784     
  -186964708.82613167       -4795931.3375186995        1526659279.9409621     
  -174947743.02790532       -6119744.9794969857        1539044511.3849182     
  -448664534.22567528       -3385227.4748180807        1495748105.8784552     
  -424698644.39853519       -5580144.1537277400        1493029795.1117589     
  -400784746.12249637       -7948366.0029734373        1494968533.4627824     
  -376922839.39756691       -10489893.022585154        1501564320.9315274     
  -353112924.22373784       -13204725.212529942        1512817157.5179951     
  -676478866.42144203       -6122461.4670702517        1471790315.1370420     
  -640866055.99074221       -9515644.3746476173        1468144497.8794677     
  -605331232.82003486       -13168784.815529138        1469077324.1750598     
  -569874396.90932846       -17081882.789751232        1474588794.0238273     
  -534495548.25861514       -21254938.297279656        1484678907.4257610     
  -906614577.86138690       -9556109.2325925827        1446042941.4784806     
  -859578862.72584116       -14214763.138438374        1441439289.4029860     
  -812647130.55917954       -19220026.940560877        1441335875.3161120     
  -765819381.36141491       -24571900.639009893        1445732699.2178557     
  -719095615.13253343       -30270384.233734965        1454629761.1082180     
  -4.6711156005456669        2.4018231085317439        1563360969.0265324     
  -3.8774004153938759        2.3989770792586862        1564728325.0231278     
  -3.0955308371550307        2.3566477752773132        1571648976.3025899     
  -2.3255041665231508        2.2748414187166643        1584122922.8649151     
  -1.5673224622909336        2.1535511469344168        1602150164.7101109     
  -174947743.02790532       -6119744.9794969857        1539044511.3849182     
  -160564087.82498404       -6653459.3011412621        1539372193.3408122     
  -146101628.53880402       -6924493.3452576026        1545334094.4021854     
  -131560365.16935821       -6932847.1118210256        1556930214.5690327     
  -116940297.71665512       -6678520.6008594632        1574160553.8413544     
  -353112924.22373784       -13204725.212529942        1512817157.5179951     
  -324114403.68986458       -14202790.576445341        1512197103.5441470     
  -294958274.97762793       -14675495.345815718        1517292192.4983809     
  -265644538.08702502       -14622839.520630822        1528102424.3807061     
  -236173193.01805350       -14044823.100886472        1544627799.1911190     
  -534495548.25861514       -21254938.297279656        1484678907.4257610     
  -490650951.47204447       -22647991.426937550        1483203055.6331234     
  -446569942.41200769       -23253003.645043492        1487523270.5911801     
  -402252521.07849675       -23069974.951567024        1497639552.2999408     
  -357698687.47151732       -22098905.346531406        1513551900.7593942     
  -719095615.13253343       -30270384.233734965        1454629761.1082180     
  -660173731.17152584       -31989061.852626890        1452390049.6077504     
  -600936630.84194732       -32657018.242952526        1456027328.6805878     
  -541384314.14378929       -32274253.404677749        1465541598.3267322     
  -481516781.07705194       -30840767.337804288        1480932858.5461853     
  -1.5673224622909336        2.1535511469344168        1602150164.7101109     
  -1.4462864971576850        1.8587934305311697        1597997947.9480720     
  -1.3017603936185949        1.6423340938125559        1598878528.2482047     
  -1.1337394393259350        1.5041916201618979        1604791905.6105108     
 -0.94223283022041815        1.4443353564434875        1615738080.0349913     
  -116940297.71665512       -6678520.6008594632        1574160553.8413544     
  -103383417.49791497       -5792934.4811912216        1569604630.4914663     
  -89278825.464257240       -3081642.3117977120        1570239913.2896936     
  -74626521.615690455        1455355.9072935209        1576066402.2360401     
  -59426505.952215388        7818060.1760772578        1587084097.3304942     
  -236173193.01805350       -14044823.100886472        1544627799.1911190     
  -208606835.31319922       -12137871.350255959        1540307166.3433712     
  -179945054.00201100       -6579507.5785140917        1541336148.7296784     
  -150187849.08449304        2630268.2143264264        1547714746.3500471     
  -119335220.56064132        15491456.028279498        1559442959.2044764     
  -357698687.47151732       -22098905.346531406        1513551900.7593942     
  -315670254.89213973       -19034808.748409241        1510105555.5037718     
  -271998686.91501850       -10493594.157809496        1512167234.5681572     
  -226683983.54014125        3524738.4253123999        1519736937.9525416     
  -179726144.76750976        23020189.000945643        1532814665.6569202     
  -481516781.07705194       -30840767.337804288        1480932858.5461853     
  -424573676.23475003       -26483746.675690114        1478999797.9726868     
  -365439724.20327598       -14823902.049666584        1482733170.8051288     
  -304114924.98262829        4138766.5402667224        1492132977.0435159     
  -240599278.57281524        30404259.094087332        1507199216.6878421     
 -0.94223283022041815        1.4443353564434875        1615738080.0349913     
 -0.76071960086499202        1.4230499105101870        1584857749.8443425     
 -0.57529741044264415        1.4147943347999601        1557346392.5249157     
 -0.38597527189029102        1.4195392800791402        1533204008.0767021     
 -0.19273493057935503        1.4373435134414827        1512430596.4997082     
  -59426505.952215388        7818060.1760772578        1587084097.3304942     
  -48572749.084900081        15453544.820061009        1556631049.0067003     
  -36567808.638622582        26926308.060582630        1529396036.4933963     
  -23411684.613375008        42236349.897671133        1505379059.7905762     
  -9104377.0091837272        61383670.331238687        1484580118.8982539     
  -119335220.56064132        15491456.028279498        1559442959.2044764     
  -98058955.752462313        30633050.714050919        1530760240.2517624     
  -74480323.790267482        53449202.579875007        1505144620.0488129     
  -48599324.674054705        83939911.625759065        1482596098.5956244     
  -20415958.403826073        122105177.85169575        1463114675.8921936     
  -179726144.76750976        23020189.000945643        1532814665.6569202     
  -148458620.76340207        45538519.105037570        1507245323.5795240     
  -113737546.03023845        79568684.972656250        1484592143.1911621     
  -75562920.567987978        125110686.60389420        1464855124.4918313     
  -33934744.376674883        182164523.99867427        1448034267.4815295     
  -240599278.57281524        30404259.094087332        1507199216.6878421     
  -199771744.11772874        60169949.992994800        1486086298.9899919     
  -154339475.35852024        105284755.23897088        1467738605.9204421     
  -104302472.29518159        165748674.83205128        1452156137.4792018     
  -49660734.927717179        241561708.77221471        1439338893.6662540     
 -0.19273493057935503        1.4373435134414827        1512430596.4997082     
 -0.15676425359288576        1.4494403388143828        1403073104.5244532     
  -9.7328418218629142E-002   1.5397564404814115        1290958552.4772480     
  -1.4429208743589217E-002   1.7082837891510518        1176086940.3580756     
   9.1934884613545265E-002   1.9550253357595022        1058458268.1669558     
  -9104377.0091837272        61383670.331238687        1484580118.8982539     
  -9600259.1282468773        80779822.577188328        1375910665.0765450     
  -8155156.4333361462        106645924.20305124        1265140788.3843434     
  -4769068.9244239181        138981975.20891899        1152270488.8216419     
   558003.39847418666        177787975.59473690        1037299766.3884442     
  -20415958.403826073        122105177.85169575        1463114675.8921936     
  -19531616.388046674        161460314.21839455        1357397742.4796414     
  -14765304.767746046        213755349.26683372        1250237023.3980567     
  -6117023.5429284573        278990282.99699497        1141632518.6474392     
   6413227.2864054739        357165115.40887934        1031584228.2277989     
  -33934744.376674883        182164523.99867427        1448034267.4815295     
  -29794071.936142251        242041476.37313530        1347534336.7337456     
  -19830445.100568935        321328276.73106819        1246247257.5184050     
  -4043863.8699418604        420024925.07251483        1144173029.8354990     
   17565671.755726874        538131421.39742553        1041311653.6850278     
  -49660734.927717179        241561708.77221471        1439338893.6662540     
  -40387625.772542641        322523309.04137802        1346320447.8388686     
  -23350577.431786120        429364706.59581596        1253171490.7453823     
   1450410.0945428014        562085901.43549526        1159892022.3857882     
   34015336.806440592        720686893.56040287        1066482042.7600923     
  -1597587140.9971645       -38300431.456816435        1476487386.1214824     
  -1514616930.4083583       -23663158.224047244        1463527129.5020530     
  -1432060911.1449015       -10406522.742443085        1456891401.4182255     
  -1349919083.2067943        1469474.9879915118        1456580201.8700004     
  -1268191446.5940380        11964834.967262328        1462593530.8573761     
  -1998025116.8316758       -45465094.278223753        1386411316.9024570     
  -1897377986.9299800       -28258274.648943901        1374342046.1662543     
  -1797265948.0104554       -12835091.626903534        1368952904.8897846     
  -1697689000.0731082        804454.78788888454        1370243893.0730481     
  -1598647143.1179309        12660364.595443428        1378215010.7160456     
  -2394843282.8550949       -51543814.156301737        1295354415.0227177     
  -2275503231.0001340       -31462647.338400245        1284035080.5701163     
  -2156819169.7841687       -13568115.983810186        1279751476.5013795     
  -2038791099.2071991        2139779.9074546099        1282503602.8165064     
  -1921419019.2692225        15661040.335411429        1292291459.5155005     
  -2788041639.0674200       -56536591.091051698        1203316680.4822767     
  -2648992662.6188221       -33276276.292413712        1192606232.7136495     
  -2510720576.4660373       -12605595.813169360        1189287116.2530169     
  -2373225380.6090698        5475450.3466907740        1193359331.1003804     
  -2236507075.0479217        20966862.187150717        1204822877.2557430     
  -3177620185.4686618       -60443425.082478046        1110298113.2811232     
  -3017846281.7860446       -33699161.510997176        1100055502.5968409     
  -2858970168.0560608       -9947531.1149666309        1097559824.1446903     
  -2700991844.2787218        10811466.105583787        1102811077.9246647     
  -2543911310.4540200        28577830.150676727        1115809263.9367721     
  -1268191446.5940380        11964834.967262328        1462593530.8573761     
  -1239077832.5918562        5895799.3664459586        1452270075.4190397     
  -1210064437.4600916       -507299.13576042652        1445821804.3905683     
  -1181151261.1987395       -7244460.5393406749        1443248717.7719595     
  -1152338303.8078117       -14315684.844337821        1444550815.5632141     
  -1598647143.1179309        12660364.595443428        1378215010.7160456     
  -1560285163.7617333        5397155.9523543715        1370302253.4336026     
  -1521991492.4371870       -2093746.1295709014        1365904017.3310626     
  -1483766129.1442804       -9812341.6502964497        1365020302.4084270     
  -1445609073.8830249       -17758630.609859765        1367651108.6656969     
  -1921419019.2692225        15661040.335411429        1292291459.5155005     
  -1874839140.9303284        6894518.7386388779        1286826629.7008495     
  -1828295659.7843094       -1993326.8343857527        1284515657.8361447     
  -1781788575.8311625       -11002496.383654475        1285358543.9213831     
  -1735317889.0708935       -20132989.909175038        1289355287.9565654     
  -2236507075.0479217        20966862.187150717        1204822877.2557430     
  -2182739764.0976396        10387887.725311279        1201843204.2207847     
  -2128976939.5014594       -206041.25020754337        1201656725.9058101     
  -2075218601.2593865       -10814924.739411712        1204263442.3108196     
  -2021464749.3714156       -21438762.742296338        1209663353.4358165     
  -2543911310.4540200        28577830.150676727        1115809263.9367721     
  -2483987033.2636642        15877262.912369370        1115351976.9934034     
  -2424035331.5886397        3268110.6229557991        1117327221.5400608     
  -2364056205.4289494       -9249626.7175756693        1121734997.5767455     
  -2304049654.7845893       -21675949.109199882        1128575305.1034532     
  -1152338303.8078117       -14315684.844337821        1444550815.5632141     
  -1090568073.4584050       -11994794.732065856        1435736818.5103610     
  -1029024042.3508673       -10427902.092691839        1433047507.1452868     
  -967706210.48519003       -9615006.9261851311        1436482881.4679954     
  -906614577.86138690       -9556109.2325925827        1446042941.4784806     
  -1445609073.8830249       -17758630.609859765        1367651108.6656969     
  -1368098581.3894396       -14373854.347363770        1359615518.6033139     
  -1290832945.2252915       -11805265.849657536        1357317624.6216969     
  -1213812165.3905857       -10052865.116755366        1360757426.7208495     
  -1137036241.8853183       -9116652.1486609578        1369934924.9007666     
  -1735317889.0708935       -20132989.909175038        1289355287.9565654     
  -1643172819.0245919       -16016032.873882949        1282076338.2824841     
  -1551291262.3953032       -12777453.895305753        1280148095.0821550     
  -1459673219.1830266       -10417252.973432481        1283570558.3555818     
  -1368318689.3877647       -8935430.1082754135        1292343728.1027610     
  -2021464749.3714156       -21438762.742296338        1209663353.4358165     
  -1915790786.3638635       -16921330.311646581        1203119277.5478663     
  -1810398993.8608980       -13344466.229627252        1201538918.5266554     
  -1705289371.8625193       -10708170.496228456        1204922276.3721874     
  -1600461920.3687267       -9012443.1114488244        1213269351.0844595     
  -2304049654.7845893       -21675949.109199882        1128575305.1034532     
  -2185952483.4072523       -17089746.660642147        1122744336.3994637     
  -2068156139.6220772       -13506302.852623582        1121490094.9552040     
  -1950660623.4290624       -10925617.685135245        1124812580.7706697     
  -1833465934.8282070       -9347691.1581842899        1132711793.8458660     
  -906614577.86138690       -9556109.2325925827        1446042941.4784806     
  -859578862.72584116       -14214763.138438374        1441439289.4029860     
  -812647130.55917954       -19220026.940560877        1441335875.3161120     
  -765819381.36141491       -24571900.639009893        1445732699.2178557     
  -719095615.13253343       -30270384.233734965        1454629761.1082180     
  -1137036241.8853183       -9116652.1486609578        1369934924.9007666     
  -1078599513.3965852       -14214842.254036188        1364842794.3017483     
  -1020269122.7994177       -19667491.997963428        1364121867.4164538     
  -962045070.09381831       -25474601.380450666        1367772144.2448819     
  -903927355.27978432       -31636170.401490122        1375793624.7870362     
  -1368318689.3877647       -8935430.1082754135        1292343728.1027610     
  -1298849616.9026902       -14583757.220247328        1286760371.5704238     
  -1229489237.2318571       -20594393.713025928        1285419184.4769168     
  -1160237550.3752689       -26967339.586622059        1288320166.8222420     
  -1091094556.3329217       -33702594.841017902        1295463318.6063905     
  -1600461920.3687267       -9012443.1114488244        1213269351.0844595     
  -1520329173.2441523       -15321508.037069738        1207192021.2090185     
  -1440307473.8564935       -22000732.085741043        1205227826.4975071     
  -1360396822.2057564       -29050115.257482946        1207376766.9499397     
  -1280597218.2919407       -36469657.552303493        1213638842.5662978     
  -1833465934.8282070       -9347691.1581842899        1132711793.8458660     
  -1743038182.4209688       -16428094.704485178        1126137743.2175262     
  -1652723832.6733339       -23886507.116125762        1123547793.4782257     
  -1562522885.5852919       -31722928.393080294        1124941944.6279657     
  -1472435341.1568494       -39937358.535362601        1130320196.6667488     
  -719095615.13253343       -30270384.233734965        1454629761.1082180     
  -660173731.17152584       -31989061.852626890        1452390049.6077504     
  -600936630.84194732       -32657018.242952526        1456027328.6805878     
  -541384314.14378929       -32274253.404677749        1465541598.3267322     
  -481516781.07705194       -30840767.337804288        1480932858.5461853     
  -903927355.27978432       -31636170.401490122        1375793624.7870362     
  -830296471.77841365       -33012791.548663408        1372773641.0735273     
  -756472878.56064034       -33747046.974487901        1375112345.7089067     
  -682456575.62646389       -33838936.678973079        1382809738.6931612     
  -608247562.97588217       -33288460.662106156        1395865820.0262976     
  -1091094556.3329217       -33702594.841017902        1295463318.6063905     
  -1004235536.7895467       -35181418.565966904        1291520138.2523141     
  -917306314.18194401       -36426232.076813132        1292417344.0226936     
  -830306888.51011264       -37437035.373567253        1298154935.9175255     
  -743237259.77405047       -38213828.456222743        1308732913.9368119     
  -1280597218.2919407       -36469657.552303493        1213638842.5662978     
  -1181990926.2049246       -38494942.904530466        1208629541.1441143     
  -1083436937.7058573       -40694573.549917936        1207942323.6219573     
  -984935252.79473364       -43068549.488446474        1211577189.9998295     
  -886485871.47155011       -45616870.720118731        1219534140.2777274     
  -1472435341.1568494       -39937358.535362601        1130320196.6667488     
  -1363562640.0245605       -42953364.564404666        1124101849.7489183     
  -1254864749.1323838       -46552071.393813312        1121687284.5066934     
  -1146341668.4803236       -50733479.023621321        1123076500.9400668     
  -1037993398.0683920       -55497587.453844070        1128269499.0490420     
  -481516781.07705194       -30840767.337804288        1480932858.5461853     
  -424573676.23475003       -26483746.675690114        1478999797.9726868     
  -365439724.20327598       -14823902.049666584        1482733170.8051288     
  -304114924.98262829        4138766.5402667224        1492132977.0435159     
  -240599278.57281524        30404259.094087332        1507199216.6878421     
  -608247562.97588217       -33288460.662106156        1395865820.0262976     
  -536778508.66068584       -29889811.537619293        1393650371.2331619     
  -463082277.94656658       -19067241.083395049        1397163458.9834607     
  -387158870.83351260       -820749.29939152300        1406405083.2771838     
  -309008287.32154030        24849663.814351335        1421375244.1143389     
  -743237259.77405047       -38213828.456222743        1308732913.9368119     
  -657064818.45027518       -35720319.608647883        1306277461.0020878     
  -568628871.51782489       -25681792.065487176        1309612647.7482848     
  -477929418.97669566       -8098245.8267261088        1318738474.1753929     
  -384966460.82688153        17030319.107640490        1333654940.2834220     
  -886485871.47155011       -45616870.720118731        1219534140.2777274     
  -785432605.60352707       -43975270.888780236        1216881067.2794588     
  -682079504.91706753       -34667554.995977908        1220080737.0996008     
  -576426569.41217554       -17693723.041742980        1229133149.7381485     
  -468473799.08885193        6946224.9739392102        1244038305.1950915     
  -1037993398.0683920       -55497587.453844070        1128269499.0490420     
  -921881870.12043369       -54654665.377998978        1125461190.0652826     
  -803434178.14429212       -46024529.874879897        1128567727.0374157     
  -682650322.13996053       -29607180.944460660        1137589109.9654415     
  -559530302.10744178       -5402618.5867479146        1152525338.8493545     
  -240599278.57281524        30404259.094087332        1507199216.6878421     
  -199771744.11772874        60169949.992994800        1486086298.9899919     
  -154339475.35852024        105284755.23897088        1467738605.9204421     
  -104302472.29518159        165748674.83205128        1452156137.4792018     
  -49660734.927717179        241561708.77221471        1439338893.6662540     
  -309008287.32154030        24849663.814351335        1421375244.1143389     
  -259278744.75127298        55156000.861204669        1404665668.4731035     
  -203097981.07510898        106966408.26104704        1391913802.2580221     
  -140465996.29306638        180280886.01381969        1383119645.4690964     
  -71382790.405125946        275099434.11958170        1378283198.1063285     
  -384966460.82688153        17030319.107640490        1333654940.2834220     
  -322927810.71899694        48899432.129193947        1323502941.3008618     
  -252591452.70345843        108427571.50958830        1318501136.5423055     
  -173957386.78026703        195614737.24882001        1318649526.0077538     
  -87025612.949427202        310460929.34689099        1323948109.6972139     
  -468473799.08885193        6946224.9739392102        1244038305.1950915     
  -390718942.02091181        41400243.796919227        1242598117.4732594     
  -302819890.24356151        109668244.98460351        1247500608.7732923     
  -204776643.75679523        211750228.53700870        1258745779.0951767     
  -96589202.560612381        347646194.45413011        1276333628.4389222     
  -559530302.10744178       -5402618.5867479146        1152525338.8493545     
  -462652138.65702385        32658435.864372075        1161951196.9903133     
  -353783293.69541848        110688428.68610583        1178912218.9509773     
  -232923767.22264528        228687359.87840587        1203408404.7313542     
  -100073559.23869067        386655229.44130796        1235439754.3314388     
  -49660734.927717179        241561708.77221471        1439338893.6662540     
  -40387625.772542641        322523309.04137802        1346320447.8388686     
  -23350577.431786120        429364706.59581596        1253171490.7453823     
   1450410.0945428014        562085901.43549526        1159892022.3857882     
   34015336.806440592        720686893.56040287        1066482042.7600923     
  -71382790.405125946        275099434.11958170        1378283198.1063285     
  -57270198.906798020        376817057.97698206        1296751414.7213998     
  -34186679.018619388        508437776.46720845        1214282969.7308016     
  -2132230.7405908704        669961589.59027207        1130877863.1345158     
   38893145.927286416        861388497.34616458        1046536094.9325554     
  -87025612.949427202        310460929.34689099        1323948109.6972139     
  -70376825.792450935        432243590.78715688        1255311142.8264081     
  -43550121.041347533        587952644.20784664        1184931364.0103376     
  -6545498.6961246431        777588089.60894239        1112808773.2490230     
   40637041.243225694        1001149926.9904408        1038943370.5424376     
  -96589202.560612381        347646194.45413011        1276333628.4389222     
  -79707506.429497093        488802907.47191870        1221999632.1538818     
  -51440903.499977291        667909309.81771374        1165116673.5840113     
  -11789393.772061884        884965401.49149835        1105684752.7293134     
   39247022.754242778        1139971182.4932475        1043703869.5897765     
  -100073559.23869067        386655229.44130796        1235439754.3314388     
  -85262240.817933559        546495008.03127682        1196816882.7038269     
  -57859026.394510716        748307773.29679823        1154838898.4518082     
  -17863915.968413055        992093525.23790383        1109505801.5753694     
   34723090.460357666        1277852263.8545833        1060817592.0745306     
  -3177620185.4686618       -60443425.082478046        1110298113.2811232     
  -3017846281.7860446       -33699161.510997176        1100055502.5968409     
  -2858970168.0560608       -9947531.1149666309        1097559824.1446903     
  -2700991844.2787218        10811466.105583787        1102811077.9246647     
  -2543911310.4540200        28577830.150676727        1115809263.9367721     
  -3565660694.4572811       -60464868.343135595        1013104223.8752719     
  -3386036222.4619145       -34065551.209590435        1000946926.2693206     
  -3206991561.3242126       -9598936.9349136353        996391967.38826227     
  -3028526711.0441742        12934974.480882645        999439347.23209369     
  -2850641671.6217918        33536183.037814856        1010089065.8008168     
  -3956502507.3374510       -61326702.771257639        913301724.76718843     
  -3757440591.3357329       -35396269.367569685        899600715.85037351     
  -3558640507.0966973       -10338608.506159782        893357452.15121245     
  -3360102254.6203451        13846279.812973022        894571933.66970754     
  -3161825833.9066792        37158395.589818239        903244160.40585709     
  -4350145624.1091728       -63028928.366846085        810890615.95686948     
  -4132059388.4074912       -37691315.984933376        796016871.33999777     
  -3913917005.3735189       -12166545.828708172        788456278.43354452     
  -3695718475.0072503        13545382.101828098        788208837.23750782     
  -3477463797.3086853        39444467.806684494        795274547.75189233     
  -4746590044.7724495       -65571545.129900932        705870897.44430983     
  -4509892613.6772013       -40950691.061682701        690195392.73819137     
  -4272821056.1546731       -15082748.902552366        681688446.23525321     
  -4035375372.2048736        12032281.347484827        680350057.93549609     
  -3797555561.8278069        40394399.688419342        686180227.83892119     
  -2543911310.4540200        28577830.150676727        1115809263.9367721     
  -2483987033.2636642        15877262.912369370        1115351976.9934034     
  -2424035331.5886397        3268110.6229557991        1117327221.5400608     
  -2364056205.4289494       -9249626.7175756693        1121734997.5767455     
  -2304049654.7845893       -21675949.109199882        1128575305.1034532     
  -2850641671.6217918        33536183.037814856        1010089065.8008168     
  -2784635182.4997258        19741208.880623698        1008139990.0479232     
  -2718597861.1732082        6049008.7382737398        1008689562.8106773     
  -2652529707.6422338       -7540417.3892154694        1011737784.0890789     
  -2586430721.9068069       -21027069.501864314        1017284653.8831261     
  -3161825833.9066792        37158395.589818239        903244160.40585709     
  -3089548227.0654197        22325686.249981403        899807271.51652515     
  -3017236380.2999148        7607109.9909528494        898935148.16846061     
  -2944890293.6101704       -6997333.1872644424        900627790.36166549     
  -2872509966.9961762       -21487643.284666061        904885198.09613717     
  -3477463797.3086853        39444467.806684494        795274547.75189233     
  -3398726166.9607368        23630695.020455837        790353821.39920640     
  -3319950888.9687605        7942414.3809888363        788063977.61341023     
  -3241137963.3327537       -7620374.1117060184        788405016.39450455     
  -3162287390.0527143       -23057670.457622409        791376937.74248707     
  -3797555561.8278069        40394399.688419342        686180227.83892119     
  -3712169002.1856861        23656235.192036867        679779639.69596970     
  -3626741387.1797447        7054921.9083833694        676076051.14552867     
  -3541272716.8099833       -9409540.1625344753        675069462.18759608     
  -3455762991.0764036       -25737151.020720959        676759872.82217503     
  -2304049654.7845893       -21675949.109199882        1128575305.1034532     
  -2185952483.4072523       -17089746.660642147        1122744336.3994637     
  -2068156139.6220772       -13506302.852623582        1121490094.9552040     
  -1950660623.4290624       -10925617.685135245        1124812580.7706697     
  -1833465934.8282070       -9347691.1581842899        1132711793.8458660     
  -2586430721.9068069       -21027069.501864314        1017284653.8831261     
  -2455871173.1369190       -15535746.001733303        1009939376.5621747     
  -2325579946.6577954       -10938830.137479901        1007394942.0407863     
  -2195557042.4694347       -7236321.9091036320        1009651350.3189611     
  -2065802460.5718410       -4428221.3166055679        1016708601.3966926     
  -2872509966.9961762       -21487643.284666061        904885198.09613717     
  -2728847710.7199330       -14899099.698832154        896063535.00985467     
  -2585421271.4330535       -9096612.7442018986        892266830.26297319     
  -2442230649.1355391       -4080182.4207948446        893495083.85548246     
  -2299275843.8273859        150191.27140974998        899748295.78739285     
  -3162287390.0527143       -23057670.457622409        791376937.74248707     
  -3004882096.1562986       -15179807.751934886        781116811.74250865     
  -2847680113.9478464       -7979650.6727827787        776105759.62176037     
  -2690681443.4273653       -1457199.2202045918        776343781.38024247     
  -2533886084.5948477        4387546.6058419943        781830877.01795232     
  -3455762991.0764036       -25737151.020720959        676759872.82217503     
  -3283974329.4460130       -16377870.161040306        665099206.76013350     
  -3112356474.2021794       -7587943.9232237339        658911730.11715102     
  -2940909425.3449235        632627.69267189503        658197442.89323306     
  -2769633182.8742247        8283844.6867092848        662956345.08838058     
  -1833465934.8282070       -9347691.1581842899        1132711793.8458660     
  -1743038182.4209688       -16428094.704485178        1126137743.2175262     
  -1652723832.6733339       -23886507.116125762        1123547793.4782257     
  -1562522885.5852919       -31722928.393080294        1124941944.6279657     
  -1472435341.1568494       -39937358.535362601        1130320196.6667488     
  -2065802460.5718410       -4428221.3166055679        1016708601.3966926     
  -1965348817.3383198       -11033456.968486190        1009404567.9245299     
  -1865037657.0745802       -18113635.852973580        1005719003.1463635     
  -1764868979.7806244       -25668757.970070004        1005651907.0622059     
  -1664842785.4564481       -33698823.319762290        1009203279.6720479     
  -2299275843.8273859        150191.27140974998        899748295.78739285     
  -2189840973.1819696       -6293275.5103670359        891680352.44284761     
  -2080577665.8165250       -13308619.892036676        886865245.59727347     
  -1971485921.7310376       -20895841.873570204        885302975.25066185     
  -1862565740.9255242       -29054941.455018520        886993541.40301991     
  -2533886084.5948477        4387546.6058419943        781830877.01795232     
  -2416514649.9519296       -2207550.3301391602        772965096.77248621     
  -2299343858.8991623       -9471459.2332948446        766986520.83094883     
  -2182373711.4365468       -17404180.103616118        763895149.19334376     
  -2065604207.5640795       -26005712.941105127        763690981.85966694     
  -2769633182.8742247        8283844.6867092848        662956345.08838058     
  -2645369847.6481934        1223718.5721974373        653258800.91343868     
  -2521336236.3225026       -6602153.8767845631        646082828.84739649     
  -2397532348.8971314       -15193772.660168052        641428428.89024317     
  -2273958185.3721118       -24551137.778048158        639295601.04198492     
  -1472435341.1568494       -39937358.535362601        1130320196.6667488     
  -1363562640.0245605       -42953364.564404666        1124101849.7489183     
  -1254864749.1323838       -46552071.393813312        1121687284.5066934     
  -1146341668.4803236       -50733479.023621321        1123076500.9400668     
  -1037993398.0683920       -55497587.453844070        1128269499.0490420     
  -1664842785.4564481       -33698823.319762290        1009203279.6720479     
  -1546155123.1494000       -36371143.388523102        1000944618.5460005     
  -1427483677.9476786       -39097520.475034654        996352833.73411047     
  -1308828449.8512807       -41877954.579293311        995427925.23636568     
  -1190189438.8602057       -44712445.701297402        998169893.05276811     
  -1862565740.9255242       -29054941.455018520        886993541.40301991     
  -1734454275.6192889       -31500923.016162992        876879591.39268446     
  -1606200434.2835915       -33472317.812428176        870295612.33504605     
  -1477804216.9184227       -34969125.843800724        867241604.23010576     
  -1349265623.5237939       -35991347.110289872        867717567.07786644     
  -2065604207.5640795       -26005712.941105127        763690981.85966694     
  -1928460097.4342396       -28342703.447334528        751906768.28895867     
  -1791015018.1401334       -29676463.406017065        743515620.30950165     
  -1653268969.6817701       -30006992.817166507        738517537.92129123     
  -1515221952.0591528       -29334291.680813491        736912521.12433457     
  -2273958185.3721118       -24551137.778048158        639295601.04198492     
  -2128172588.5942252       -26896484.681993365        626026149.23483312     
  -1981927429.5172966       -27709957.255793929        616012857.65747750     
  -1835222708.1413057       -26991555.499395847        609255726.30992079     
  -1688058424.4662793       -24741279.412867367        605754755.19216537     
  -1037993398.0683920       -55497587.453844070        1128269499.0490420     
  -921881870.12043369       -54654665.377998978        1125461190.0652826     
  -803434178.14429212       -46024529.874879897        1128567727.0374157     
  -682650322.13996053       -29607180.944460660        1137589109.9654415     
  -559530302.10744178       -5402618.5867479146        1152525338.8493545     
  -1190189438.8602057       -44712445.701297402        998169893.05276811     
  -1060492658.2220955       -42038489.924291551        994267471.07999885     
  -929334968.60729456       -34494837.558310986        994477851.28964365     
  -796716370.01580834       -22081488.603387237        998801033.68171442     
  -662636862.44763279       -4798443.0594891906        1007237018.2561882     
  -1349265623.5237939       -35991347.110289872        867717567.07786644     
  -1211132286.6911705       -33030966.580806494        861699901.22267020     
  -1072413295.9333568       -28118406.300694883        857992993.77641833     
  -933108651.25034583       -21253666.269927800        856596844.73910999     
  -793218352.64214826       -12436746.488531172        857511454.11074865     
  -1515221952.0591528       -29334291.680813491        736912521.12433457     
  -1373800755.5276523       -27632095.347554207        727758480.49329412     
  -1232669160.1224558       -26895236.101959109        719113154.49772859     
  -1091827165.8435731       -27123713.944085121        710976543.13763583     
  -951274772.69099021       -28317528.873876095        703348646.41301119     
  -1688058424.4662793       -24741279.412867367        605754755.19216537     
  -1548498064.7315469       -25841876.224512398        592443208.89187622     
  -1410102561.1746125       -30825326.962168932        577838333.45358324     
  -1272871913.7954781       -39691631.625822783        561940128.87729049     
  -1136806122.5941558       -52440790.215504766        544748595.16299415     
  -559530302.10744178       -5402618.5867479146        1152525338.8493545     
  -462652138.65702385        32658435.864372075        1161951196.9903133     
  -353783293.69541848        110688428.68610583        1178912218.9509773     
  -232923767.22264528        228687359.87840587        1203408404.7313542     
  -100073559.23869067        386655229.44130796        1235439754.3314388     
  -662636862.44763279       -4798443.0594891906        1007237018.2561882     
  -547377078.95810258        25544031.294836670        1020808677.5564382     
  -421245009.25796676        92127459.684514374        1042766091.5509349     
  -284240653.34725702        194951842.10943338        1073109260.2396773     
  -136364011.22595215        334017178.56968033        1111838183.6226752     
  -793218352.64214826       -12436746.488531172        857511454.11074865     
  -657146689.47195220        10916225.661513269        873924120.05292451     
  -511321135.39175642        66782167.511543870        899573131.56388748     
  -355741690.40156150        155161079.06157309        934458488.64364672     
  -190408354.50137019        276052960.31158906        978580191.29218686     
  -951274772.69099021       -28317528.873876095        703348646.41301119     
  -791960970.19858396       -11224981.035663128        721297524.47976708     
  -624011672.09677625        34652552.167220950        749333338.98985028     
  -447426878.38556343        109315070.73478681        787456089.94326246     
  -262206589.06494409        212762574.66704613        835665777.34000981     
  -1136806122.5941558       -52440790.215504766        544748595.16299415     
  -951819921.13800609       -40879588.796676576        562928890.83696413     
  -759316619.37303996       -4261386.3484884501        592046713.82881093     
  -559296217.29925382        57413817.129114032        632102064.13852739     
  -351758714.91665614        144146021.63608837        683094941.76611161     
  -100073559.23869067        386655229.44130796        1235439754.3314388     
  -85262240.817933559        546495008.03127682        1196816882.7038269     
  -57859026.394510716        748307773.29679823        1154838898.4518082     
  -17863915.968413055        992093525.23790383        1109505801.5753694     
   34723090.460357666        1277852263.8545833        1060817592.0745306     
  -136364011.22595215        334017178.56968033        1111838183.6226752     
  -127295066.37740266        483021275.17159635        1090240206.9759412     
  -95088911.482167065        709149405.26246166        1070080674.5107090     
  -39745546.540264606        1012401568.8422245        1051359586.2269635     
   38735028.448327124        1392777765.9109402        1034076942.1247125     
  -190408354.50137019        276052960.31158906        978580191.29218686     
  -173385906.63671976        418330137.90198815        986309976.01102448     
  -122680934.68139163        672882395.79464054        1000271761.7172443     
  -38293438.635383010        1039709733.9895616        1020465548.4108623     
   79776581.501308084        1518812152.4867737        1046891336.0918905     
  -262206589.06494409        212762574.66704613        835665777.34000981     
  -223534761.59590596        352421596.22239923        885026189.80906320     
  -140635095.99218303        639506744.89336312        945412160.07142115     
  -13507592.253780127        1074018020.6799433        1016823688.1270672     
   157847749.61931378        1655955423.5821214        1099260773.9760180     
  -351758714.91665614        144146021.63608837        683094941.76611161     
  -277741631.25494355        285295650.13286829        786388848.37007189     
  -148951395.41453883        609022452.55859971        905501869.57323313     
   34611992.604550064        1115326428.9132895        1040434005.3755850     
   272948532.80233818        1804207579.1969881        1191185255.7771530     
  -4746590044.7724495       -65571545.129900932        705870897.44430983     
  -4509892613.6772013       -40950691.061682701        690195392.73819137     
  -4272821056.1546731       -15082748.902552366        681688446.23525321     
  -4035375372.2048736        12032281.347484827        680350057.93549609     
  -3797555561.8278069        40394399.688419342        686180227.83892119     
  -5139075733.8451538       -76610195.471238852        523712622.44854796     
  -4884018711.8163557       -46537692.250928164        513469630.78049868     
  -4629023012.3665361       -16669597.627213955        508922770.28458941     
  -4374088635.4957037        12994088.399888992        510072040.96082294     
  -4119215581.2038417        42453365.830401897        516917442.80919194     
  -5514457829.6547527       -82517767.833644152        341786733.17003322     
  -5245248151.0668068       -48255695.773555994        336468230.69942433     
  -4976535244.0641041       -15649528.997590303        335373432.36991847     
  -4708319108.6466274        15300732.494270325        338502338.18150806     
  -4440599744.8143845        44595088.702025414        345854948.13420123     
  -5872736332.2012434       -83294262.217114210        160093229.60876626     
  -5593580931.4285631       -46104701.629582405        159191192.49497256     
  -5315357751.2473688       -12022543.013670683        161040432.49123594     
  -5038066791.6576557        18952213.630629301        165640949.59756547     
  -4761708052.6594343        46819568.303298473        172992743.81394267     
  -6213911241.4846354       -78939678.621661425       -21367888.235254064     
  -5929017052.9016113       -40084709.819002390       -18361483.832858037     
  -5645490533.9163370       -5788639.6754622459       -14076229.351449843     
  -5363331684.5287952        23948531.808936119       -8512124.7910208348     
  -5082540504.7389860        49126804.634224176       -1669170.1515751774     
  -3797555561.8278069        40394399.688419342        686180227.83892119     
  -3712169002.1856861        23656235.192036867        679779639.69596970     
  -3626741387.1797447        7054921.9083833694        676076051.14552867     
  -3541272716.8099833       -9409540.1625344753        675069462.18759608     
  -3455762991.0764036       -25737151.020720959        676759872.82217503     
  -4119215581.2038417        42453365.830401897        516917442.80919194     
  -4026847048.4107728        23454004.334561110        511034990.35600817     
  -3934224192.4739251        5302386.6513371468        508348101.58014071     
  -3841347013.3932881       -12001487.219269276        508856776.48159897     
  -3748215511.1688647       -28457617.277246475        512561015.06037843     
  -4440599744.8143845        44595088.702025414        345854948.13420123     
  -4339824770.0566273        23761870.850847960        340739443.78073955     
  -4238582204.3751101        4487289.4121994972        339318067.18940866     
  -4136872047.7698574       -13228655.613983393        341590818.36021638     
  -4034694300.2408366       -29385964.227630138        347557697.29315299     
  -4761708052.6594343        46819568.303298473        172992743.81394267     
  -4651102167.1232300        24579834.740937233        168892999.97016704     
  -4539815422.8833179        4609630.1909337044        168985947.97333860     
  -4427847819.9396820       -13091045.346653938        173271587.82344961     
  -4315199358.2923336       -28522191.871863365        181749919.52051038     
  -5082540504.7389860        49126804.634224176       -1669170.1515751774     
  -4960679239.6106033        25907896.004751921       -4504341.0757040512     
  -4837923847.9985266        5669408.9875943661       -2648256.0680836909     
  -4714274329.9027767       -11588656.417335749        3899084.8712979932     
  -4589730685.3233433       -25866300.209960699        15137681.742438680     
  -3455762991.0764036       -25737151.020720959        676759872.82217503     
  -3283974329.4460130       -16377870.161040306        665099206.76013350     
  -3112356474.2021794       -7587943.9232237339        658911730.11715102     
  -2940909425.3449235        632627.69267189503        658197442.89323306     
  -2769633182.8742247        8283844.6867092848        662956345.08838058     
  -3748215511.1688647       -28457617.277246475        512561015.06037843     
  -3562193409.1256022       -17139675.476650953        502482563.22714144     
  -3376487020.1736383       -6874110.6470479965        497427723.61376184     
  -3191096344.3129745        2339077.2115632296        497396496.22023422     
  -3006021381.5436082        10499888.099161029        502388881.04656881     
  -4034694300.2408366       -29385964.227630138        347557697.29315299     
  -3835723264.0681610       -16494713.371150017        338892401.86653817     
  -3637212847.6915169       -5138861.8347892761        334801141.46057463     
  -3439163051.1109023        4681590.3814780712        335283916.07524985     
  -3241573874.3263311        12966643.277609348        340340725.71057731     
  -4315199358.2923336       -28522191.871863365        181749919.52051038     
  -4104563894.2736893       -14442983.844541311        174328722.67832801     
  -3894533956.7558146       -2382197.4864439964        171031983.65757921     
  -3685109545.7387071        7660167.2024297714        171859702.45827094     
  -3476290661.2223644        15684110.222075224        176811879.08040082     
  -4589730685.3233433       -25866300.209960699        15137681.742438680     
  -4368715299.7421913       -10984486.896831274        8791525.6624903325     
  -4148450347.3665428        1395882.3979420662        6120250.2047855798     
  -3928935828.1963882        11274807.674419641        7123855.3693004018     
  -3710171742.2317386        18652288.932525873        11802341.156050490     
  -2769633182.8742247        8283844.6867092848        662956345.08838058     
  -2645369847.6481934        1223718.5721974373        653258800.91343868     
  -2521336236.3225026       -6602153.8767845631        646082828.84739649     
  -2397532348.8971314       -15193772.660168052        641428428.89024317     
  -2273958185.3721118       -24551137.778048158        639295601.04198492     
  -3006021381.5436082        10499888.099161029        502388881.04656881     
  -2874905384.6167111        2178430.8864057064        493180300.13936114     
  -2743667902.0804510       -5738074.2951656580        487012501.76198399     
  -2612308933.9348397       -13249627.445553184        483885485.91443872     
  -2480828480.1798763       -20356228.564777732        483799252.59672660     
  -3241573874.3263311        12966643.277609348        340340725.71057731     
  -3102121757.3530211        3828892.4702627659        332030852.49907297     
  -2962196945.2606616       -3733207.9402381182        327280972.23833549     
  -2821799438.0492601       -9719657.9539382458        326091084.92837632     
  -2680929235.7188234       -14130457.570855260        328461190.56918222     
  -3476290661.2223644        15684110.222075224        176811879.08040082     
  -3327018965.8571100        6175103.3238296509        169810457.99256864     
  -3176923365.8631258       -587554.81200039387        166888240.27645326     
  -3026003861.2403917       -4603864.1853334904        168045225.93204281     
  -2874260451.9889493       -5873824.7962832451        173281414.95933774     
  -3710171742.2317386        18652288.932525873        11802341.156050490     
  -3549597010.1290016        9217063.4470090866        6519116.6198707270     
  -3387847163.8878303        3698885.0896103382        5834305.8763266914     
  -3224922203.5082426        2097753.8602535725        9747908.9254507311     
  -3060822128.9902492        4413669.7589366436        18259925.767202172     
  -2273958185.3721118       -24551137.778048158        639295601.04198492     
  -2128172588.5942252       -26896484.681993365        626026149.23483312     
  -1981927429.5172966       -27709957.255793929        616012857.65747750     
  -1835222708.1413057       -26991555.499395847        609255726.30992079     
  -1688058424.4662793       -24741279.412867367        605754755.19216537     
  -2480828480.1798763       -20356228.564777732        483799252.59672660     
  -2326620508.6449323       -20296667.374375820        472935886.59248227     
  -2172304633.5046597       -19877427.499555826        464740131.38055813     
  -2017880854.7590606       -19098508.940305829        459211986.96095961     
  -1863349172.4081292       -17959911.696632624        456351453.33367926     
  -2680929235.7188234       -14130457.570855260        328461190.56918222     
  -2519980459.2481718       -12170459.232506037        319593641.89182973     
  -2359275437.8659148       -11022977.855491281        312805154.56933111     
  -2198814171.5720534       -10688013.439787030        308095728.60167557     
  -2038596660.3665850       -11165565.985389709        305465363.98887521     
  -2874260451.9889493       -5873824.7962832451        173281414.95933774     
  -2708252440.4039392       -2517860.2563937902        165999415.13287547     
  -2542839842.6010580       -1146608.3235900402        160207927.22378710     
  -2378022658.5802932       -1760068.9978489876        155906951.23207211     
  -2213800888.3416314       -4358242.2791124582        153096487.15773514     
  -3060822128.9902492        4413669.7589366436        18259925.767202172     
  -2891436452.1122565        8661129.5539200306        12153206.315620361     
  -2722997847.7100945        9751681.0961332321        6948449.3439398315     
  -2555506315.7837815        7685324.3855284452        2645654.8521514558     
  -2388961856.3332844        2462059.4221831560       -755177.15973147599     
  -1688058424.4662793       -24741279.412867367        605754755.19216537     
  -1548498064.7315469       -25841876.224512398        592443208.89187622     
  -1410102561.1746125       -30825326.962168932        577838333.45358324     
  -1272871913.7954781       -39691631.625822783        561940128.87729049     
  -1136806122.5941558       -52440790.215504766        544748595.16299415     
  -1863349172.4081292       -17959911.696632624        456351453.33367926     
  -1726977401.6830196       -22133940.678923249        442786236.99850857     
  -1590624294.6104150       -26370181.836214900        428770842.60254598     
  -1454289851.1902957       -30668635.168476224        414305270.14579374     
  -1317974071.4226933       -35029300.675782919        399389519.62824512     
  -2038596660.3665850       -11165565.985389709        305465363.98887521     
  -1903004475.5733545       -17690326.214982629        292983702.23167139     
  -1766284761.9073107       -20456656.868541241        280895013.49088013     
  -1628437519.3684886       -19464557.946161985        269199297.76651484     
  -1489462747.9568572       -14714029.447762370        257896555.05856404     
  -2213800888.3416314       -4358242.2791124582        153096487.15773514     
  -2076579286.4025364       -12511032.832687974        143035604.59134692     
  -1937083963.0653381       -13084752.059264302        134210846.11859970     
  -1795314918.3300405       -6079399.9588422775        126622211.73946725     
  -1651272152.1966457        8505023.4685807228        120269701.45396818     
  -2388961856.3332844        2462059.4221831560       -755177.15973147599     
  -2247701834.1705923       -6596060.5320819616       -7058055.9224486807     
  -2103021898.0844646       -4254467.4082738161       -11281659.514328143     
  -1954922048.0749688        9486838.7934620380       -13425987.935359137     
  -1803402284.1420567        34627858.073230505       -13491041.185554629     
  -1136806122.5941558       -52440790.215504766        544748595.16299415     
  -951819921.13800609       -40879588.796676576        562928890.83696413     
  -759316619.37303996       -4261386.3484884501        592046713.82881093     
  -559296217.29925382        57413817.129114032        632102064.13852739     
  -351758714.91665614        144146021.63608837        683094941.76611161     
  -1317974071.4226933       -35029300.675782919        399389519.62824512     
  -1118132914.8503461       -14899728.338191688        421230152.76892507     
  -914691144.20562530        17231890.907317936        441582830.77679116     
  -707648759.48853946        61365557.060724884        460447553.65182859     
  -497005760.69906354        117501270.12206510        477824321.39404833     
  -1489462747.9568572       -14714029.447762370        257896555.05856404     
  -1310268014.6988690        3333500.2794483900        278828291.72344732     
  -1131389153.6049540        20328122.793094575        285846590.80481005     
  -952826164.67511022        36269838.093170226        278951452.30265391     
  -774579047.90933979        51158646.179654539        258142876.21698111     
  -1651272152.1966457        8505023.4685807228        120269701.45396818     
  -1528225220.6835914        13820097.056190252        135723307.70052686     
  -1409410647.5710142        5027309.3088585138        124837993.91286993     
  -1294828432.8589756       -17873339.773589611        87613760.090999573     
  -1184478576.5474477       -54881850.191078901        24050606.234916359     
  -1803402284.1420567        34627858.073230505       -13491041.185554629     
  -1772004532.8044584        16560061.992148757       -8084799.2998383651     
  -1748755626.1038179       -28670549.545427322       -41442959.899030857     
  -1733655564.0401361       -101063976.53954297       -113565522.98313883     
  -1726704346.6134081       -200620218.99018139       -224452488.55213442     
  -351758714.91665614        144146021.63608837        683094941.76611161     
  -277741631.25494355        285295650.13286829        786388848.37007189     
  -148951395.41453883        609022452.55859971        905501869.57323313     
   34611992.604550064        1115326428.9132895        1040434005.3755850     
   272948532.80233818        1804207579.1969881        1191185255.7771530     
  -497005760.69906354        117501270.12206510        477824321.39404833     
  -388203516.79388529        223072721.96520123        597084260.16106260     
  -230262569.21575552        492439852.71815395        735493248.35932064     
  -23182917.964658022        925602662.38098216        893051285.98881328     
   233035436.95937151        1522561150.9536393        1069758373.0495162     
  -774579047.90933979        51158646.179654539        258142876.21698111     
  -621477544.24058664        124006151.22517976        386795323.89036816     
  -424871785.40463126        341867840.16141212        537926755.82702374     
  -184761771.40145698        704743712.98837459        711537172.02693975     
   98852497.768946171        1212633769.7060664        907626572.49012864     
  -1184478576.5474477       -54881850.191078901        24050606.234916359     
  -977563713.59505522       -11904062.087165236        155522039.55798471     
  -732779043.98118758        157306414.88833198        312802391.97635466     
  -450124567.70581901        452749580.73548293        495891663.49002224     
  -129600284.76898617        874425435.45421469        704789854.09897888     
  -1726704346.6134081       -200620218.99018139       -224452488.55213442     
  -1456462024.8572700       -184657917.97183406       -96735592.836089119     
  -1153984344.9453959       -61244423.101000369        60120156.807309486     
  -819271306.87776768        169620265.62233609        246114760.37801641     
  -452322910.65438938        507936148.19816172        461248217.87606037     
 </DataArray>
 <DataArray  type="Float64" Name="VM" NumberOfComponents="1" format="ascii">
   6174930781.8077879     
   5909162255.3384838     
   5642651111.4789648     
   5375366174.1143913     
   5107281924.8235512     
   5838124192.9817486     
   5577491213.7041769     
   5316678507.7259865     
   5055716502.4368610     
   4794661215.2127066     
   5505585153.0748272     
   5253710696.5896091     
   5002568675.9776878     
   4752293662.7475977     
   4503086791.0919113     
   5181224526.2977352     
   4941605678.1053343     
   4704038164.4851246     
   4468800502.7291975     
   4236298473.7832570     
   4870106455.2846746     
   4645991212.5199871     
   4425706598.2149801     
   4209701008.5145588     
   3998623491.1703730     
   5107281924.8235512     
   4973689915.6520071     
   4840763227.1784754     
   4708495562.5498056     
   4576927486.4130735     
   4794661215.2127066     
   4672606703.5403223     
   4551542708.0377331     
   4431490923.5472555     
   4312514274.6452703     
   4503086791.0919113     
   4391591525.6740084     
   4281358345.7117543     
   4172434903.9743137     
   4064904356.0758820     
   4236298473.7832570     
   4134484636.8919082     
   4034137118.0867786     
   3935326508.7431560     
   3838153267.3942652     
   3998623491.1703730     
   3905749009.6301198     
   3814462703.3187637     
   3724853766.3177423     
   3637035953.8699646     
   4576927486.4130735     
   4363260030.6565094     
   4149162040.5625911     
   3934604730.3358445     
   3719589172.5001750     
   4312514274.6452703     
   4108472090.7986512     
   3904597147.2400928     
   3700935971.4101682     
   3497592427.7416739     
   4064904356.0758820     
   3872250015.2995729     
   3680615181.3158398     
   3490159194.7944841     
   3301135745.3134556     
   3838153267.3942652     
   3658678320.5853724     
   3481350972.9502630     
   3306474780.4514027     
   3134489038.6951451     
   3637035953.8699646     
   3472469150.7260847     
   3311449538.3591065     
   3154438272.2586193     
   3002068154.7148976     
   3719589172.5001750     
   3554232471.4709544     
   3389713207.6855645     
   3226015793.8366704     
   3063194640.1701527     
   3497592427.7416739     
   3343074175.9439301     
   3189754062.0749516     
   3037681177.8809152     
   2886971450.6623421     
   3301135745.3134556     
   3156863208.4201918     
   3014117577.7120304     
   2873016858.4828701     
   2733744463.6304564     
   3134489038.6951451     
   3000171494.6163273     
   2867672698.0571179     
   2737180472.5837440     
   2608947911.5925503     
   3002068154.7148976     
   2877752864.5504980     
   2755504103.4812870     
   2635575076.0004826     
   2518284527.3233252     
   3063194640.1701527     
   2895853249.5827646     
   2727913317.8184500     
   2559361740.3355055     
   2390194198.4106522     
   2886971450.6623421     
   2722220800.5590863     
   2557365815.6957498     
   2392431887.5435085     
   2227465085.2446165     
   2733744463.6304564     
   2574140758.3429050     
   2415333741.2896166     
   2257468935.7551546     
   2100753724.1573620     
   2608947911.5925503     
   2457103456.5460587     
   2307395263.3667951     
   2160161186.0177302     
   2015861372.4709649     
   2518284527.3233252     
   2376621104.9111953     
   2238816786.0757742     
   2105424674.0717590     
   1977170993.4308598     
   2390194198.4106522     
   2244444369.6025124     
   2100988768.4193954     
   1959820661.4255648     
   1821113087.3231552     
   2227465085.2446165     
   2085122411.9970884     
   1944519707.2906277     
   1805651610.9203234     
   1668595389.7048562     
   2100753724.1573620     
   1961018249.3843658     
   1822293634.5624897     
   1684605473.6376252     
   1548008943.0962098     
   2015861372.4709649     
   1879599694.2506294     
   1743665478.0061736     
   1608180658.9478183     
   1473312922.5763791     
   1977170993.4308598     
   1847015117.8705473     
   1716847108.1596372     
   1587005389.9172220     
   1457983638.6291466     
   1821113087.3231552     
   1780397399.9438958     
   1736082663.7234101     
   1696837293.9740245     
   1681214241.9551158     
   1668595389.7048562     
   1553076300.3586349     
   1428391671.7377684     
   1294907615.5267744     
   1158762458.5263710     
   1548008943.0962098     
   1398004583.4473495     
   1244418937.1091974     
   1084985618.4663990     
   917676173.05183923     
   1473312922.5763791     
   1328942388.2490041     
   1199043318.2540171     
   1088114704.7801018     
   1002081998.1985998     
   1457983638.6291466     
   1348847327.1194956     
   1274716472.9046640     
   1243735903.9691877     
   1262961990.8192201     
   1681214241.9551158     
   1383656841.8381164     
   1129424163.8377767     
   1010276670.5706941     
   1153514654.5449872     
   1158762458.5263710     
   1008313867.9714351     
   985148359.00709152     
   1161513514.5061913     
   1544321234.8641376     
   917676173.05183923     
   963073605.95917499     
   1144873459.5292127     
   1476436843.1307485     
   1957482716.0920792     
   1002081998.1985998     
   1164727379.1735365     
   1425397937.8936837     
   1808689499.5143745     
   2334702593.5130978     
   1262961990.8192201     
   1446718620.2883894     
   1715695345.7273419     
   2110463485.2116165     
   2663452086.9293199     
   4870106455.2846746     
   4645991212.5199871     
   4425706598.2149801     
   4209701008.5145588     
   3998623491.1703730     
   4541606095.7639809     
   4338262517.6138926     
   4139597285.8377910     
   3946187792.8895936     
   3758837833.1810632     
   4232894361.2246947     
   4051476055.9783893     
   3875758088.7340875     
   3706451246.5269718     
   3544511501.7576542     
   3947294805.5102134     
   3789028825.6174583     
   3637649598.8403645     
   3493988057.1043601     
   3359125192.4189496     
   3688786196.2373490     
   3554883938.3992577     
   3429181068.0741658     
   3312590010.6970472     
   3206258241.4643497     
   3998623491.1703730     
   3905749009.6301198     
   3814462703.3187637     
   3724853766.3177423     
   3637035953.8699646     
   3758837833.1810632     
   3675076831.2150078     
   3593277042.0568070     
   3513556897.5216665     
   3436060324.0034323     
   3544511501.7576542     
   3470409536.5284076     
   3398673105.9077778     
   3329446296.5354156     
   3262898001.1681457     
   3359125192.4189496     
   3295238020.8129249     
   3234133521.4344335     
   3175973790.3074656     
   3120942980.1562476     
   3206258241.4643497     
   3153079876.7432551     
   3103085615.8498793     
   3056443821.4235334     
   3013340135.6564169     
   3637035953.8699646     
   3472469150.7260847     
   3311449538.3591065     
   3154438272.2586193     
   3002068154.7148976     
   3436060324.0034323     
   3288519987.5928388     
   3145416135.2764902     
   3007320553.8510957     
   2874977231.5744228     
   3262898001.1681457     
   3132884289.7913613     
   3008220003.7997684     
   2889557550.8024311     
   2777706926.4673743     
   3120942980.1562476     
   3008874102.5568690     
   2903021924.5648828     
   2804072550.3566952     
   2712839976.0838513     
   3013340135.6564169     
   2919415595.0290055     
   2832444024.1740437     
   2753088096.6249056     
   2682098817.2329507     
   3002068154.7148976     
   2877752864.5504980     
   2755504103.4812870     
   2635575076.0004826     
   2518284527.3233252     
   2874977231.5744228     
   2761636925.0444508     
   2651433338.8232336     
   2544736317.5187802     
   2441997401.6787882     
   2777706926.4673743     
   2677114752.1347070     
   2580868234.0192046     
   2489433995.6230993     
   2403362487.9135284     
   2712839976.0838513     
   2626352200.0838852     
   2545451455.3646007     
   2470653092.6864700     
   2402541919.8241887     
   2682098817.2329507     
   2610435950.0538368     
   2545519157.2805014     
   2487850371.0415468     
   2437975988.1108842     
   2518284527.3233252     
   2376621104.9111953     
   2238816786.0757742     
   2105424674.0717590     
   1977170993.4308598     
   2441997401.6787882     
   2315425506.5585308     
   2194062659.2599258     
   2078656671.2226269     
   1970134591.6919138     
   2403362487.9135284     
   2293783013.2191229     
   2190771636.0225639     
   2095178904.4031813     
   2007997150.7345254     
   2402541919.8241887     
   2311136843.5564938     
   2227461363.4552212     
   2152348693.6739898     
   2086711107.4898777     
   2437975988.1108842     
   2365035601.0952849     
   2300648429.8800058     
   2245532834.0783496     
   2200427311.7834001     
   1977170993.4308598     
   1847015117.8705473     
   1716847108.1596372     
   1587005389.9172220     
   1457983638.6291466     
   1970134591.6919138     
   1854461724.3934343     
   1743104954.8707609     
   1636970004.1345644     
   1537168107.4226799     
   2007997150.7345254     
   1911938221.9803774     
   1824599220.4027655     
   1747165123.7211888     
   1680911260.5944984     
   2086711107.4898777     
   2011848361.8740268     
   1949295956.0441718     
   1900121683.4991167     
   1865344541.4049954     
   2200427311.7834001     
   2145333740.7533298     
   2105146649.6507142     
   2080625786.1052940     
   2072444065.4875264     
   1457983638.6291466     
   1348847327.1194956     
   1274716472.9046640     
   1243735903.9691877     
   1262961990.8192201     
   1537168107.4226799     
   1476227894.5994148     
   1448004257.3114355     
   1456472582.4965847     
   1504931837.7556159     
   1680911260.5944984     
   1652381496.5506124     
   1651590675.9373937     
   1680911176.5405474     
   1742951791.1841187     
   1865344541.4049954     
   1854833540.2256894     
   1867304590.7446265     
   1904967892.2723410     
   1970853365.4624004     
   2072444065.4875264     
   2068964677.4521275     
   2084724522.8062258     
   2122355645.7832448     
   2185668116.8226619     
   1262961990.8192201     
   1446718620.2883894     
   1715695345.7273419     
   2110463485.2116165     
   2663452086.9293199     
   1504931837.7556159     
   1613307572.0042107     
   1788881398.6950669     
   2066396815.6865945     
   2476052944.9759126     
   1742951791.1841187     
   1787740875.3561790     
   1884675559.7351835     
   2060661686.4079583     
   2340925761.9283552     
   1970853365.4624004     
   1968977131.1226835     
   2003642926.5893943     
   2093524787.8365841     
   2257282965.3185773     
   2185668116.8226619     
   2156300950.7498980     
   2146524445.8309295     
   2166864261.7425447     
   2228394715.8859019     
   3688786196.2373490     
   3554883938.3992577     
   3429181068.0741658     
   3312590010.6970472     
   3206258241.4643497     
   3458707839.2321110     
   3346199368.3013368     
   3242751841.0170417     
   3149213058.2633576     
   3066608977.8631749     
   3263176589.4098430     
   3170733383.6932220     
   3088054550.7458010     
   3015871844.6822100     
   2955036291.3234844     
   3109620628.6969700     
   3035403374.0717916     
   2971423562.9934411     
   2918256238.2835140     
   2876543477.4716172     
   3005429850.7304697     
   2946950794.6511879     
   2898896659.8607368     
   2861668250.3039918     
   2835694979.6604509     
   3206258241.4643497     
   3153079876.7432551     
   3103085615.8498793     
   3056443821.4235334     
   3013340135.6564169     
   3066608977.8631749     
   3020002673.8646307     
   2977253912.8700690     
   2938529760.7630143     
   2904014094.7889032     
   2955036291.3234844     
   2914749359.9536014     
   2879056449.7694263     
   2848109407.1051435     
   2822075032.4016995     
   2876543477.4716172     
   2841852367.3787189     
   2812535723.0411167     
   2788716594.9914451     
   2770530191.4630322     
   2835694979.6604509     
   2805337620.3256636     
   2781158827.8686624     
   2763243484.4659591     
   2751685508.4173288     
   3013340135.6564169     
   2919415595.0290055     
   2832444024.1740437     
   2753088096.6249056     
   2682098817.2329507     
   2904014094.7889032     
   2824997498.9019961     
   2754024520.4532285     
   2691724174.1980634     
   2638788180.7390375     
   2822075032.4016995     
   2757737383.6140103     
   2702440321.3026824     
   2656728957.5800762     
   2621184139.3864865     
   2770530191.4630322     
   2719907814.9027433     
   2679194618.5013323     
   2648815027.4227533     
   2629207800.4663153     
   2751685508.4173288     
   2713009780.2412524     
   2684984937.3145981     
   2667900382.9278016     
   2662047740.2652750     
   2682098817.2329507     
   2610435950.0538368     
   2545519157.2805014     
   2487850371.0415468     
   2437975988.1108842     
   2638788180.7390375     
   2580751739.5509629     
   2530020590.1488662     
   2487022261.8679338     
   2452205961.5675244     
   2621184139.3864865     
   2575953740.2438588     
   2538435498.4818826     
   2508963225.5705466     
   2487875827.7930923     
   2629207800.4663153     
   2595502728.9030828     
   2569777262.6366868     
   2552268381.9898295     
   2543209199.3187571     
   2662047740.2652750     
   2638200306.1911135     
   2622497474.0619378     
   2615089788.2046051     
   2616121318.2128358     
   2437975988.1108842     
   2365035601.0952849     
   2300648429.8800058     
   2245532834.0783496     
   2200427311.7834001     
   2452205961.5675244     
   2394877839.4605470     
   2347078106.3475709     
   2309391803.6844859     
   2282386900.8528061     
   2487875827.7930923     
   2445090824.8914938     
   2412548761.7266998     
   2390678892.3023658     
   2379875105.7902546     
   2543209199.3187571     
   2513283530.3378587     
   2494125751.6787333     
   2486018259.5606976     
   2489206655.9364233     
   2616121318.2128358     
   2596929900.7277231     
   2588940571.6450853     
   2592316025.7627206     
   2607191137.9089069     
   2200427311.7834001     
   2145333740.7533298     
   2105146649.6507142     
   2080625786.1052940     
   2072444065.4875264     
   2282386900.8528061     
   2242029706.4371943     
   2215531379.5286794     
   2203335299.2817302     
   2205825016.7739229     
   2379875105.7902546     
   2351302189.1263990     
   2335519389.2002583     
   2332772004.7933564     
   2343278008.0908499     
   2489206655.9364233     
   2469770120.6102600     
   2462148708.6448631     
   2466475358.4530592     
   2482882427.1046686     
   2607191137.9089069     
   2594617720.8826575     
   2593037153.5584755     
   2602526494.5252075     
   2623180535.7987280     
   2072444065.4875264     
   2068964677.4521275     
   2084724522.8062258     
   2122355645.7832448     
   2185668116.8226619     
   2205825016.7739229     
   2191506648.2469387     
   2192192978.2674913     
   2209854283.2366214     
   2247409357.5866766     
   2343278008.0908499     
   2318931786.7438383     
   2306140197.4289494     
   2306309747.8390265     
   2321528224.6496472     
   2482882427.1046686     
   2450270467.3324943     
   2426249651.8459930     
   2411765970.8464227     
   2408195651.6389551     
   2623180535.7987280     
   2584745036.4859200     
   2552239213.4782891     
   2526244639.1220970     
   2507569289.0152588     
   2185668116.8226619     
   2156300950.7498980     
   2146524445.8309295     
   2166864261.7425447     
   2228394715.8859019     
   2247409357.5866766     
   2182680035.5963602     
   2134384562.8872960     
   2112191343.9968586     
   2127037246.8064237     
   2321528224.6496472     
   2224775393.5648174     
   2141349422.1151159     
   2079616762.4540024     
   2049750899.9823794     
   2408195651.6389551     
   2282880649.0568399     
   2168065703.3047318     
   2070491683.9416203     
   1998928238.1874981     
   2507569289.0152588     
   2357204837.2884822     
   2215003740.8032355     
   2085947247.3975830     
   1976912763.1475222     
   3005429850.7304697     
   2946950794.6511879     
   2898896659.8607368     
   2861668250.3039918     
   2835694979.6604509     
   2820382395.6540008     
   2777771077.8018956     
   2746953082.1168766     
   2728226307.2811508     
   2721898521.3464065     
   2680710205.6991730     
   2651856215.6115117     
   2636033505.4840732     
   2633407817.1514668     
   2644144335.5011573     
   2593016827.9202709     
   2574187280.5769167     
   2569509555.5272937     
   2579032851.6640806     
   2602804723.5746040     
   2561904126.3539977     
   2547807728.6773682     
   2548930558.8500786     
   2565272616.8721223     
   2596833902.7434978     
   2835694979.6604509     
   2805337620.3256636     
   2781158827.8686624     
   2763243484.4659591     
   2751685508.4173288     
   2721898521.3464065     
   2702235617.7933240     
   2688256717.7940397     
   2680008268.5867338     
   2677540176.4612212     
   2644144335.5011573     
   2633551035.6471753     
   2628024893.5788202     
   2627584844.8663721     
   2632250703.8351374     
   2602804723.5746040     
   2599602688.2778535     
   2600757823.6250792     
   2606274198.1414113     
   2616155972.1882510     
   2596833902.7434978     
   2599402435.0374079     
   2605562763.1903858     
   2615314887.2024388     
   2628658807.0735607     
   2751685508.4173288     
   2713009780.2412524     
   2684984937.3145981     
   2667900382.9278016     
   2662047740.2652750     
   2677540176.4612212     
   2651432428.6201901     
   2635808547.2681890     
   2630833342.1414309     
   2636668279.9470286     
   2632250703.8351374     
   2616002255.1554627     
   2609994744.5538607     
   2614300395.1105490     
   2628988337.2798886     
   2616155972.1882510     
   2606762690.5252705     
   2607345259.8017631     
   2617921101.6482687     
   2638506610.1625333     
   2628658807.0735607     
   2622993365.8445835     
   2627062582.7057199     
   2640866457.6569605     
   2664404990.6983223     
   2662047740.2652750     
   2638200306.1911135     
   2622497474.0619378     
   2615089788.2046051     
   2616121318.2128358     
   2636668279.9470286     
   2621268090.0844307     
   2614037567.6197405     
   2615062225.0222631     
   2624422029.1667643     
   2628988337.2798886     
   2620199249.1564326     
   2619598969.1001720     
   2627225384.9444652     
   2643113242.2880244     
   2638506610.1625333     
   2634328113.3530254     
   2638385511.9077053     
   2650688176.4433050     
   2671244571.1240826     
   2664404990.6983223     
   2662752124.4627023     
   2669437108.7551260     
   2684459943.5755801     
   2707820628.9240680     
   2616121318.2128358     
   2596929900.7277231     
   2588940571.6450853     
   2592316025.7627206     
   2607191137.9089069     
   2624422029.1667643     
   2613391084.2413073     
   2612997853.2021279     
   2623324619.6287503     
   2644437567.2287760     
   2643113242.2880244     
   2638345843.2026272     
   2643749968.9837885     
   2659358463.8795404     
   2685197040.8453350     
   2671244571.1240826     
   2670909403.7275271     
   2680401900.8938107     
   2699729466.2356553     
   2728897763.0523286     
   2707820628.9240680     
   2710188958.9822049     
   2722175878.6197004     
   2743781387.8365464     
   2775005486.6327572     
   2607191137.9089069     
   2594617720.8826575     
   2593037153.5584755     
   2602526494.5252075     
   2623180535.7987280     
   2644437567.2287760     
   2633487742.5705357     
   2632715025.3875179     
   2642157857.8863759     
   2661866103.5177350     
   2685197040.8453350     
   2675587899.1509509     
   2675516948.3257418     
   2684999284.5286927     
   2704055582.1937494     
   2728897763.0523286     
   2720496074.0385466     
   2721151454.7897134     
   2730867217.6328731     
   2749648164.9022942     
   2775005486.6327572     
   2767813636.2368670     
   2769338846.0568409     
   2779581116.0926828     
   2798540446.3443942     
   2623180535.7987280     
   2584745036.4859200     
   2552239213.4782891     
   2526244639.1220970     
   2507569289.0152588     
   2661866103.5177350     
   2616532000.4027777     
   2576889375.6021867     
   2543269113.0244708     
   2516133325.5521483     
   2704055582.1937494     
   2653910046.0381045     
   2609361231.4961114     
   2570556516.6072640     
   2537702316.6794419     
   2749648164.9022942     
   2696785014.8105636     
   2649566677.5046864     
   2608029751.2564812     
   2572225513.9983411     
   2798540446.3443942     
   2745054145.4996867     
   2697403076.8372579     
   2655587240.3570914     
   2619606636.0591984     
   2507569289.0152588     
   2357204837.2884822     
   2215003740.8032355     
   2085947247.3975830     
   1976912763.1475222     
   2516133325.5521483     
   2348239666.9209151     
   2183898777.9536409     
   2026211138.9685221     
   1879742327.2180574     
   2537702316.6794419     
   2357369380.0378923     
   2176773615.0190439     
   1997386794.8258348     
   1821487174.1320233     
   2572225513.9983411     
   2384697785.4182396     
   2194095079.4056950     
   2000795688.1678419     
   1805403579.2878592     
   2619606636.0591984     
   2430193903.7697511     
   2236005803.3561664     
   2037042334.8184149     
   1833303498.1565311     
   2561904126.3539977     
   2547807728.6773682     
   2548930558.8500786     
   2565272616.8721223     
   2596833902.7434978     
   2593016836.2068996     
   2574187286.2188253     
   2569509558.3642879     
   2579032851.4684844     
   2602804720.0770445     
   2680710208.1564341     
   2651856215.5237589     
   2636033502.9813318     
   2633407812.2525973     
   2644144328.1368184     
   2820382379.8149910     
   2777771061.6872940     
   2746953066.5953655     
   2728226293.1133094     
   2721898509.1801505     
   3005429806.7775202     
   2946950754.1235328     
   2898896624.7666450     
   2861668222.6159887     
   2835694961.2701650     
   2596833902.7434978     
   2599402435.0374079     
   2605562763.1903858     
   2615314887.2024388     
   2628658807.0735607     
   2602804720.0770445     
   2599602686.3632822     
   2600757822.9309950     
   2606274198.3030925     
   2616155972.8389049     
   2644144328.1368184     
   2633551031.6734748     
   2628024892.2891240     
   2627584845.5454454     
   2632250705.7590737     
   2721898509.1801505     
   2702235611.1421056     
   2688256715.6410780     
   2680008269.8944573     
   2677540180.1699667     
   2835694961.2701650     
   2805337609.9578362     
   2781158824.2436423     
   2763243486.2654338     
   2751685514.2797289     
   2628658807.0735607     
   2622993365.8445835     
   2627062582.7057199     
   2640866457.6569605     
   2664404990.6983223     
   2616155972.8389049     
   2606762691.2302189     
   2607345260.5106368     
   2617921102.3096189     
   2638506610.7252302     
   2632250705.7590737     
   2616002256.9572196     
   2609994746.1111345     
   2614300396.3003116     
   2628988337.9820685     
   2677540180.1699667     
   2651432431.8276730     
   2635808549.7583027     
   2630833343.6974635     
   2636668280.3587337     
   2751685514.2797289     
   2713009785.0622878     
   2684984940.7621408     
   2667900384.6667991     
   2662047739.9693174     
   2664404990.6983223     
   2662752124.4627023     
   2669437108.7551260     
   2684459943.5755801     
   2707820628.9240680     
   2638506610.7252302     
   2634328113.4161534     
   2638385511.5148330     
   2650688175.6418152     
   2671244569.9653239     
   2628988337.9820685     
   2620199248.9464374     
   2619598968.0727062     
   2627225383.2010260     
   2643113239.9371181     
   2636668280.3587337     
   2621268089.2441478     
   2614037565.6806993     
   2615062222.1472025     
   2624422025.5280485     
   2662047739.9693174     
   2638200304.3566332     
   2622497470.9080153     
   2615089783.9628363     
   2616121313.1272969     
   2707820628.9240680     
   2710188958.9822049     
   2722175878.6197004     
   2743781387.8365464     
   2775005486.6327572     
   2671244569.9653239     
   2670909402.6359038     
   2680401899.8427639     
   2699729465.1999483     
   2728897762.0076685     
   2643113239.9371181     
   2638345841.0229130     
   2643749966.9218740     
   2659358461.8843155     
   2685197038.8671975     
   2624422025.5280485     
   2613391080.9275832     
   2612997850.1324015     
   2623324616.7244129     
   2644437564.4126058     
   2616121313.1272969     
   2596929896.1824193     
   2588940567.5306864     
   2592316021.9710855     
   2607191134.3320556     
   2775005486.6327572     
   2767813636.2368670     
   2769338846.0568409     
   2779581116.0926828     
   2798540446.3443942     
   2728897762.0076685     
   2720496073.1308179     
   2721151454.0086870     
   2730867216.9679203     
   2749648164.3425293     
   2685197038.8671975     
   2675587897.4155798     
   2675516946.8115411     
   2684999283.2135549     
   2704055581.0551147     
   2644437564.4126058     
   2633487740.0755806     
   2632715023.1793838     
   2642157855.9302397     
   2661866101.7779236     
   2607191134.3320556     
   2594617717.6826358     
   2593037150.6861587     
   2602526491.9312186     
   2623180533.4322176     
   2798540446.3443942     
   2745054145.4996867     
   2697403076.8372579     
   2655587240.3570914     
   2619606636.0591984     
   2749648164.3425293     
   2696785014.2996731     
   2649566677.0436325     
   2608029750.8464155     
   2572225513.6408281     
   2704055581.0551147     
   2653910045.0035501     
   2609361230.5674477     
   2570556515.7867327     
   2537702315.9702969     
   2661866101.7779236     
   2616531998.8290272     
   2576889374.1970544     
   2543269111.7912107     
   2516133324.4957981     
   2623180533.4322176     
   2584745034.3546247     
   2552239211.5854568     
   2526244637.4719224     
   2507569287.6145468     
   2619606636.0591984     
   2430193903.7697511     
   2236005803.3561664     
   2037042334.8184149     
   1833303498.1565311     
   2572225513.6408281     
   2384697785.2034307     
   2194095079.3485918     
   2000795688.2945843     
   1805403579.6430228     
   2537702315.9702969     
   2357369379.6034427     
   2176773614.8870492     
   1997386795.0432124     
   1821487174.7751625     
   2516133324.4957981     
   2348239666.2596817     
   2183898777.7246585     
   2026211139.2312953     
   1879742328.0626724     
   2507569287.6145468     
   2357204836.3912253     
   2215003740.4517770     
   2085947247.6549199     
   1976912764.0997648     
   3005429806.7775202     
   2946950754.1235328     
   2898896624.7666450     
   2861668222.6159887     
   2835694961.2701650     
   3109620565.4205732     
   3035403318.6195226     
   2971423517.7357173     
   2918256205.6257396     
   2876543459.7814159     
   3263176510.4979444     
   3170733316.0011039     
   3088054497.1050081     
   3015871808.0856967     
   2955036274.8308177     
   3458707749.6940703     
   3346199292.3848238     
   3242751782.0525928     
   3149213019.9193635     
   3066608964.0430069     
   3688786101.7114444     
   3554883859.0159163     
   3429181007.6512227     
   3312589973.6030540     
   3206258232.5261817     
   2835694961.2701650     
   2805337609.9578362     
   2781158824.2436423     
   2763243486.2654338     
   2751685514.2797289     
   2876543459.7814159     
   2841852357.3897972     
   2812535720.0773306     
   2788716598.3329577     
   2770530200.3422112     
   2955036274.8308177     
   2914749350.6412911     
   2879056447.4870658     
   2848109411.6663055     
   2822075043.5817509     
   3066608964.0430069     
   3020002666.2542005     
   2977253911.7542081     
   2938529766.4101601     
   2904014107.4523425     
   3206258232.5261817     
   3153079872.4179082     
   3103085616.7592235     
   3056443828.2009130     
   3013340148.9524288     
   2751685514.2797289     
   2713009785.0622878     
   2684984940.7621408     
   2667900384.6667991     
   2662047739.9693174     
   2770530200.3422112     
   2719907822.2667298     
   2679194623.9534292     
   2648815030.5559907     
   2629207800.8780522     
   2822075043.5817509     
   2757737392.8919954     
   2702440328.2137470     
   2656728961.6384764     
   2621184140.1022987     
   2904014107.4523425     
   2824997509.3535948     
   2754024528.1620846     
   2691724178.5994964     
   2638788181.2518682     
   3013340148.9524288     
   2919415605.8623862     
   2832444031.9541864     
   2753088100.7140598     
   2682098816.9622297     
   2662047739.9693174     
   2638200304.3566332     
   2622497470.9080153     
   2615089783.9628363     
   2616121313.1272969     
   2629207800.8780522     
   2595502727.7145476     
   2569777259.9706411     
   2552268377.9832735     
   2543209194.1231523     
   2621184140.1022987     
   2575953739.3665614     
   2538435496.0423565     
   2508963221.6128106     
   2487875822.3747969     
   2638788181.2518682     
   2580751738.5814300     
   2530020587.6430116     
   2487022257.7802696     
   2452205955.8614745     
   2682098816.9622297     
   2610435948.5411353     
   2545519154.3981495     
   2487850366.6622910     
   2437975982.1074576     
   2616121313.1272969     
   2596929896.1824193     
   2588940567.5306864     
   2592316021.9710855     
   2607191134.3320556     
   2543209194.1231523     
   2513283525.5867801     
   2494125747.3056092     
   2486018255.4994516     
   2489206652.1202035     
   2487875822.3747969     
   2445090819.8548622     
   2412548757.0466800     
   2390678887.9542022     
   2379875101.7477913     
   2452205955.8614745     
   2394877834.0910759     
   2347078101.3305302     
   2309391799.0368390     
   2282386896.5904198     
   2437975982.1074576     
   2365035595.3857427     
   2300648424.5201273     
   2245532829.1271305     
   2200427307.3005795     
   2607191134.3320556     
   2594617717.6826358     
   2593037150.6861587     
   2602526491.9312186     
   2623180533.4322176     
   2489206652.1202035     
   2469770117.1257663     
   2462148705.4504938     
   2466475355.5075731     
   2482882424.3657122     
   2379875101.7477913     
   2351302185.3699660     
   2335519385.6941962     
   2332772001.5032554     
   2343278004.9817472     
   2282386896.5904198     
   2242029702.4143491     
   2215531375.7140713     
   2203335295.6465688     
   2205825013.2898178     
   2200427307.3005795     
   2145333736.4625440     
   2105146645.5231316     
   2080625782.1164701     
   2072444061.6150494     
   2623180533.4322176     
   2584745034.3546247     
   2552239211.5854568     
   2526244637.4719224     
   2507569287.6145468     
   2482882424.3657122     
   2450270464.8957763     
   2426249649.7110271     
   2411765969.0133157     
   2408195650.1106567     
   2343278004.9817472     
   2318931784.0025616     
   2306140195.0516973     
   2306309745.8219438     
   2321528222.9914627     
   2205825013.2898178     
   2191506645.1964936     
   2192192975.6441998     
   2209854281.0325947     
   2247409355.7955756     
   2072444061.6150494     
   2068964674.0813472     
   2084724519.9290171     
   2122355643.3874631     
   2185668114.8950844     
   2507569287.6145468     
   2357204836.3912253     
   2215003740.4517770     
   2085947247.6549199     
   1976912764.0997648     
   2408195650.1106567     
   2282880648.1007552     
   2168065702.9622121     
   2070491684.2657590     
   1998928239.2379878     
   2321528222.9914627     
   2224775392.5253568     
   2141349421.7296121     
   2079616762.7573857     
   2049750900.9980817     
   2247409355.7955756     
   2182680034.4477777     
   2134384562.4061174     
   2112191344.1943662     
   2127037247.6667283     
   2185668114.8950844     
   2156300949.4659319     
   2146524445.2021244     
   2166864261.7544284     
   2228394716.4856186     
   3688786101.7114444     
   3554883859.0159163     
   3429181007.6512227     
   3312589973.6030540     
   3206258232.5261817     
   3947294705.1311522     
   3789028743.4768248     
   3637649538.1323633     
   3493988021.6139884     
   3359125186.5605221     
   4232894272.6162291     
   4051475985.1040111     
   3875758037.6618671     
   3706451217.8788676     
   3544511498.8340402     
   4541606032.3392944     
   4338262468.6530828     
   4139597251.9289365     
   3946187775.0645456     
   3758837833.0729933     
   4870106426.8562155     
   4645991193.2036228     
   4425706586.8999462     
   4209701004.3721189     
   3998623493.7951050     
   3206258232.5261817     
   3153079872.4179082     
   3103085616.7592235     
   3056443828.2009130     
   3013340148.9524288     
   3359125186.5605221     
   3295238018.4652658     
   3234133523.1975088     
   3175973796.7978454     
   3120942992.0141521     
   3544511498.8340402     
   3470409535.7210078     
   3398673107.7847648     
   3329446301.6847119     
   3262898010.2056971     
   3758837833.0729933     
   3675076831.6106329     
   3593277043.4842610     
   3513556900.5294623     
   3436060329.1696200     
   3998623493.7951050     
   3905749010.9933553     
   3814462703.9036102     
   3724853766.6260500     
   3637035954.4318094     
   3013340148.9524288     
   2919415605.8623862     
   2832444031.9541864     
   2753088100.7140598     
   2682098816.9622297     
   3120942992.0141521     
   3008874111.8036637     
   2903021930.6856971     
   2804072552.7641935     
   2712839974.1265531     
   3262898010.2056971     
   3132884296.2502427     
   3008220007.2829909     
   2889557550.8242087     
   2777706922.4532695     
   3436060329.1696200     
   3288519990.2976899     
   3145416135.2698555     
   3007320550.7887049     
   2874977225.0114717     
   3637035954.4318094     
   3472469148.9501276     
   3311449534.1562738     
   3154438265.4504576     
   3002068145.0236468     
   2682098816.9622297     
   2610435948.5411353     
   2545519154.3981495     
   2487850366.6622910     
   2437975982.1074576     
   2712839974.1265531     
   2626352197.3685021     
   2545451451.7088842     
   2470653087.9041495     
   2402541913.7238164     
   2777706922.4532695     
   2677114747.8905125     
   2580868229.3159976     
   2489433990.2230477     
   2403362481.5673766     
   2874977225.0114717     
   2761636918.8368998     
   2651433332.7058215     
   2544736311.2139006     
   2441997394.8924475     
   3002068145.0236468     
   2877752855.8684220     
   2755504095.5178752     
   2635575068.4522572     
   2518284519.8688993     
   2437975982.1074576     
   2365035595.3857427     
   2300648424.5201273     
   2245532829.1271305     
   2200427307.3005795     
   2402541913.7238164     
   2311136837.8822041     
   2227461358.2412524     
   2152348688.9595795     
   2086711103.3170335     
   2403362481.5673766     
   2293783007.4260664     
   2190771630.7946458     
   2095178899.7584560     
   2007997146.6952424     
   2441997394.8924475     
   2315425500.4597797     
   2194062653.8389912     
   2078656666.4758382     
   1970134587.6200838     
   2518284519.8688993     
   2376621098.2989507     
   2238816780.2761669     
   2105424669.0607395     
   1977170989.1881781     
   2200427307.3005795     
   2145333736.4625440     
   2105146645.5231316     
   2080625782.1164701     
   2072444061.6150494     
   2086711103.3170335     
   2011848357.8525681     
   1949295952.1407027     
   1900121679.6817131     
   1865344537.6427150     
   2007997146.6952424     
   1911938218.1006510     
   1824599216.6496394     
   1747165120.0593183     
   1680911256.9862440     
   1970134587.6200838     
   1854461720.5286517     
   1743104951.1890860     
   1636970000.6063752     
   1537168104.0114629     
   1977170989.1881781     
   1847015113.9088628     
   1716847104.4738872     
   1587005386.4965723     
   1457983635.4539411     
   2072444061.6150494     
   2068964674.0813472     
   2084724519.9290171     
   2122355643.3874631     
   2185668114.8950844     
   1865344537.6427150     
   1854833536.9682238     
   1867304587.9892282     
   1904967890.0091770     
   1970853363.6751180     
   1680911256.9862440     
   1652381493.4368114     
   1651590673.3227689     
   1680911174.4199071     
   1742951789.5390086     
   1537168104.0114629     
   1476227891.6575141     
   1448004254.8521874     
   1456472580.5236287     
   1504931836.2517264     
   1457983635.4539411     
   1348847324.3801696     
   1274716470.6161988     
   1243735902.1465027     
   1262961989.4532576     
   2185668114.8950844     
   2156300949.4659319     
   2146524445.2021244     
   2166864261.7544284     
   2228394716.4856186     
   1970853363.6751180     
   1968977129.9326758     
   2003642926.0173786     
   2093524787.8613315     
   2257282965.8600612     
   1742951789.5390086     
   1787740874.2509460     
   1884675559.1926517     
   2060661686.3941429     
   2340925762.3389711     
   1504931836.2517264     
   1613307570.9740994     
   1788881398.1584394     
   2066396815.5945528     
   2476052945.2084928     
   1262961989.4532576     
   1446718619.3234534     
   1715695345.1780651     
   2110463485.0148368     
   2663452086.9579716     
   4870106426.8562155     
   4645991193.2036228     
   4425706586.8999462     
   4209701004.3721189     
   3998623493.7951050     
   5181224532.5280657     
   4941605686.3751926     
   4704038172.8705368     
   4468800509.4000788     
   4236298477.0607409     
   5505585173.1715231     
   5253710716.2670908     
   5002568692.9795618     
   4752293674.7747335     
   4503086795.8033905     
   5838124206.3001842     
   5577491228.8028803     
   5316678522.4216328     
   5055716514.4296608     
   4794661222.0663195     
   6174930768.3136492     
   5909162250.4165125     
   5642651113.3592558     
   5375366180.8941422     
   5107281934.4593477     
   3998623493.7951050     
   3905749010.9933553     
   3814462703.9036102     
   3724853766.6260500     
   3637035954.4318094     
   4236298477.0607409     
   4134484637.0311279     
   4034137115.5345292     
   3935326503.9674563     
   3838153260.8974419     
   4503086795.8033905     
   4391591525.0224276     
   4281358340.0859518     
   4172434893.7849078     
   4064904341.7719364     
   4794661222.0663195     
   4672606702.4993839     
   4551542699.4165030     
   4431490907.6804533     
   4312514251.9080820     
   5107281934.4593477     
   4973689914.5903101     
   4840763215.6465664     
   4708495540.7921991     
   4576927454.7147236     
   3637035954.4318094     
   3472469148.9501276     
   3311449534.1562738     
   3154438265.4504576     
   3002068145.0236468     
   3838153260.8974419     
   3658678312.2485371     
   3481350962.7846994     
   3306474768.3999057     
   3134489024.6218762     
   4064904341.7719364     
   3872249999.4705486     
   3680615164.0717745     
   3490159176.1997952     
   3301135725.3786044     
   4312514251.9080820     
   4108472066.6685343     
   3904597121.9176826     
   3700935945.0715809     
   3497592400.5323563     
   4576927454.7147236     
   4363259997.5200090     
   4149162006.2682042     
   3934604695.1564717     
   3719589136.6968222     
   3002068145.0236468     
   2877752855.8684220     
   2755504095.5178752     
   2635575068.4522572     
   2518284519.8688993     
   3134489024.6218762     
   3000171482.4458418     
   2867672687.5215659     
   2737180463.4024143     
   2608947903.4622130     
   3301135725.3786044     
   3156863191.4501615     
   3014117563.4942203     
   2873016846.7975788     
   2733744454.2381172     
   3497592400.5323563     
   3343074152.9136653     
   3189754043.0892935     
   3037681162.8084683     
   2886971439.3603754     
   3719589136.6968222     
   3554232441.1992974     
   3389713182.9034266     
   3226015774.5179114     
   3063194626.2900796     
   2518284519.8688993     
   2376621098.2989507     
   2238816780.2761669     
   2105424669.0607395     
   1977170989.1881781     
   2608947903.4622130     
   2457103449.5650349     
   2307395257.4618058     
   2160161181.1176753     
   2015861368.5035613     
   2733744454.2381172     
   2574140750.5102777     
   2415333734.9167786     
   2257468930.7425299     
   2100753720.4020889     
   2886971439.3603754     
   2722220791.3509803     
   2557365808.4710846     
   2392431882.1931067     
   2227465081.6587381     
   3063194626.2900796     
   2895853238.4685149     
   2727913309.3628893     
   2559361734.4362564     
   2390194194.9718685     
   1977170989.1881781     
   1847015113.9088628     
   1716847104.4738872     
   1587005386.4965723     
   1457983635.4539411     
   2015861368.5035613     
   1879599690.6035650     
   1743665474.6858037     
   1608180655.9570832     
   1473312919.9135649     
   2100753720.4020889     
   1961018245.9764304     
   1822293631.5154748     
   1684605470.9633167     
   1548008940.8050022     
   2227465081.6587381     
   2085122408.7734473     
   1944519704.4448516     
   1805651608.4668820     
   1668595387.6585150     
   2390194194.9718685     
   2244444366.5309105     
   2100988765.7280841     
   1959820659.1267266     
   1821113085.4300480     
   1457983635.4539411     
   1348847324.3801696     
   1274716470.6161988     
   1243735902.1465027     
   1262961989.4532576     
   1473312919.9135649     
   1328942385.9988132     
   1199043316.4293153     
   1088114703.3839068     
   1002081997.2115679     
   1548008940.8050022     
   1398004581.5935035     
   1244418935.7031980     
   1084985617.5054889     
   917676172.52164114     
   1668595387.6585150     
   1553076298.7854571     
   1428391670.6444840     
   1294907614.9121797     
   1158762458.3875875     
   1821113085.4300480     
   1780397398.5561473     
   1736082662.8347847     
   1696837293.5731962     
   1681214242.0239494     
   1262961989.4532576     
   1446718619.3234534     
   1715695345.1780651     
   2110463485.0148368     
   2663452086.9579716     
   1002081997.2115679     
   1164727378.4452868     
   1425397937.4702575     
   1808689499.3615642     
   2334702593.5418229     
   917676172.52164114     
   963073605.50557530     
   1144873459.2500219     
   1476436843.0420928     
   1957482716.1440847     
   1158762458.3875875     
   1008313867.8288428     
   985148358.90609407     
   1161513514.5028493     
   1544321234.9599371     
   1681214242.0239494     
   1383656841.9120021     
   1129424163.9126856     
   1010276670.6700437     
   1153514654.7011616     
 </DataArray>
 <DataArray  type="Float64" Name="strain" NumberOfComponents="3" format="ascii">
  0.10317048910514859       -2.9753895407499287E-002  -9.2593850143041223E-004
   9.8616527409207344E-002  -2.8977006854914777E-002  -7.9566196533453759E-004
   9.4062565713265767E-002  -2.8130975163402516E-002  -6.0996837747506749E-004
   8.9508604017324411E-002  -2.7215800332962933E-002  -3.6885773785150233E-004
   8.4954642321383056E-002  -2.6231482363595182E-002  -7.2330046464230691E-005
   9.7462467026126043E-002  -2.7975444849514530E-002   6.9373761792895783E-003
   9.2995824923740200E-002  -2.7199493330033575E-002   6.8982870712858690E-003
   8.8529182821354413E-002  -2.6376413058436410E-002   6.9784200986303113E-003
   8.4062540718968598E-002  -2.5506204034723340E-002   7.1777752613215728E-003
   7.9595898616582672E-002  -2.4588866258893949E-002   7.4963525593602087E-003
   9.1495040815691098E-002  -2.6196994291529940E-002   1.4810761020311147E-002
   8.7179523390444214E-002  -2.5421979805152428E-002   1.4580291881397811E-002
   8.2864005965197274E-002  -2.4621850953470387E-002   1.4532849961414629E-002
   7.8548488539950292E-002  -2.3796607736483809E-002   1.4668435260362447E-002
   7.4232971114703311E-002  -2.2946250154192493E-002   1.4987047778240559E-002
   8.5268210473843739E-002  -2.4418543733545239E-002   2.2694216021635363E-002
   8.1167622809319023E-002  -2.3644466280271254E-002   2.2250352464999817E-002
   7.7067035144794349E-002  -2.2867288848504322E-002   2.2053321210878406E-002
   7.2966447480269633E-002  -2.2087011438244302E-002   2.2103122259270736E-002
   6.8865859815744987E-002  -2.1303634049491260E-002   2.2399755610177111E-002
   7.8781976000583953E-002  -2.2640093175560594E-002   3.0587741183261741E-002
   7.4960123180364879E-002  -2.1866952755390134E-002   2.9908468822092804E-002
   7.1138270360145722E-002  -2.1112726743538215E-002   2.9539833847021219E-002
   6.7316417539926635E-002  -2.0377415140004743E-002   2.9481836258046776E-002
   6.3494564719707547E-002  -1.9661017944789860E-002   2.9734476055169601E-002
   8.4954642321383056E-002  -2.6231482363595182E-002  -7.2330046464230691E-005
   8.2807526854887736E-002  -2.5235194346455103E-002  -1.9518755852748759E-004
   8.0660411388392306E-002  -2.4284109372696150E-002  -1.1475735452243230E-004
   7.8513295921896931E-002  -2.3378227442319474E-002   1.6896056554999150E-004
   7.6366180455401556E-002  -2.2517548555323952E-002   6.5596620169061648E-004
   7.9595898616582672E-002  -2.4588866258893949E-002   7.4963525593602087E-003
   7.7641268645839367E-002  -2.3665174694307817E-002   7.3186969209097230E-003
   7.5686638675096063E-002  -2.2775904304323871E-002   7.3227245578957600E-003
   7.3732008704352703E-002  -2.1921055088942213E-002   7.5084354703172929E-003
   7.1777378733609343E-002  -2.1100627048162957E-002   7.8758296581756815E-003
   7.4232971114703311E-002  -2.2946250154192493E-002   1.4987047778240559E-002
   7.2449222199080163E-002  -2.2095155042160669E-002   1.4765375882182505E-002
   7.0665473283457014E-002  -2.1267699235951482E-002   1.4703782820928935E-002
   6.8881724367833880E-002  -2.0463882735565507E-002   1.4802268594479549E-002
   6.7097975452210717E-002  -1.9683705541002183E-002   1.5060833202834523E-002
   6.8865859815744987E-002  -2.1303634049491260E-002   2.2399755610177111E-002
   6.7231387514610094E-002  -2.0525135390013452E-002   2.2144849325291035E-002
   6.5596915213475188E-002  -1.9759494167579147E-002   2.2028417434577167E-002
   6.3962442912340323E-002  -1.9006710382188301E-002   2.2050459938035873E-002
   6.2327970611205465E-002  -1.8266784033841299E-002   2.2210976835666807E-002
   6.3494564719707547E-002  -1.9661017944789860E-002   2.9734476055169601E-002
   6.1987764592429051E-002  -1.8955115737866179E-002   2.9457117250234727E-002
   6.0480964465150583E-002  -1.8251289099206897E-002   2.9296628398840119E-002
   5.8974164337872101E-002  -1.7549538028811422E-002   2.9253009500986332E-002
   5.7467364210593674E-002  -1.6849862526680415E-002   2.9326260556672867E-002
   7.6366180455401556E-002  -2.2517548555323952E-002   6.5596620169061648E-004
   7.2756999776990794E-002  -2.1660501895456097E-002   3.8096620142458182E-004
   6.9147819098579921E-002  -2.0765516646460980E-002   2.6521102505439043E-004
   6.5538638420169076E-002  -1.9832592808339128E-002   3.0870067258040312E-004
   6.1929457741758287E-002  -1.8861730381089847E-002   5.1143514400231460E-004
   7.1777378733609343E-002  -2.1100627048162957E-002   7.8758296581756815E-003
   6.8337183717916639E-002  -2.0282103222573677E-002   7.5542446037995536E-003
   6.4896988702223990E-002  -1.9432966652762979E-002   7.4113860509633644E-003
   6.1456793686531286E-002  -1.8553217338729590E-002   7.4472539996678633E-003
   5.8016598670838637E-002  -1.7642855280474490E-002   7.6618484499123563E-003
   6.7097975452210717E-002  -1.9683705541002183E-002   1.5060833202834523E-002
   6.3846247776880249E-002  -1.8903704549692035E-002   1.4685337249443459E-002
   6.0594520101549768E-002  -1.8100416659064755E-002   1.4508049475236443E-002
   5.7342792426219293E-002  -1.7273841869120829E-002   1.4528969880213974E-002
   5.4091064750888790E-002  -1.6423980179859465E-002   1.4748098464375581E-002
   6.2327970611205465E-002  -1.8266784033841299E-002   2.2210976835666807E-002
   5.9284191953881335E-002  -1.7525305876809893E-002   2.1774244138355651E-002
   5.6240413296557115E-002  -1.6767866665366532E-002   2.1555201297872910E-002
   5.3196634639232944E-002  -1.5994466399511346E-002   2.1553848314218436E-002
   5.0152855981908828E-002  -1.5205105079244052E-002   2.1770185187392280E-002
   5.7467364210593674E-002  -1.6849862526680415E-002   2.9326260556672867E-002
   5.4651016248919881E-002  -1.6146907203927974E-002   2.8820965270536680E-002
   5.1834668287246199E-002  -1.5435316671668489E-002   2.8552841518873079E-002
   4.9018320325572476E-002  -1.4715090929902270E-002   2.8521889301681785E-002
   4.6201972363898725E-002  -1.3986229978628806E-002   2.8728108618962966E-002
   6.1929457741758287E-002  -1.8861730381089847E-002   5.1143514400231460E-004
   5.9206035988215833E-002  -1.7901602933573568E-002   2.8249531620705426E-004
   5.6482614234673378E-002  -1.7000884034650887E-002   2.5282011547445027E-004
   5.3759192481130980E-002  -1.6159573684320735E-002   4.2240954180428059E-004
   5.1035770727588470E-002  -1.5377671882583988E-002   7.9126359519632317E-004
   5.8016598670838637E-002  -1.7642855280474490E-002   7.6618484499123563E-003
   5.5481191983019540E-002  -1.6738013329397117E-002   7.3584534581625505E-003
   5.2945785295200470E-002  -1.5874824336896187E-002   7.2318239707974685E-003
   5.0410378607381470E-002  -1.5053288302972298E-002   7.2819599878161945E-003
   4.7874971919562359E-002  -1.4273405227625546E-002   7.5088615092191446E-003
   5.4091064750888790E-002  -1.6423980179859465E-002   1.4748098464375581E-002
   5.1721174006114812E-002  -1.5574423725220055E-002   1.4388003898688023E-002
   4.9351283261340806E-002  -1.4748764639141848E-002   1.4182175714706063E-002
   4.6981392516566814E-002  -1.3947002921624090E-002   1.4130613912429965E-002
   4.4611501771792766E-002  -1.3169138572667438E-002   1.4233318491859659E-002
   5.0152855981908828E-002  -1.5205105079244052E-002   2.1770185187392280E-002
   4.7925982057501496E-002  -1.4410834121043187E-002   2.1371146637782529E-002
   4.5699108133094246E-002  -1.3622704941387329E-002   2.1103875347200381E-002
   4.3472234208686969E-002  -1.2840717540275878E-002   2.0968371315645582E-002
   4.1245360284279740E-002  -1.2064871917709274E-002   2.0964634543118532E-002
   4.6201972363898725E-002  -1.3986229978628806E-002   2.8728108618962966E-002
   4.4095616137179827E-002  -1.3247244516866485E-002   2.8307881675447122E-002
   4.1989259910460902E-002  -1.2496645243632712E-002   2.7996922868280233E-002
   3.9882903683741935E-002  -1.1734432158927364E-002   2.7795232197462980E-002
   3.7776547457023080E-002  -1.0960605262751000E-002   2.7702809662994765E-002
   5.1035770727588470E-002  -1.5377671882583988E-002   7.9126359519632317E-004
   4.8233913368817105E-002  -1.4601534470966349E-002   5.2663902658900419E-004
   4.5432056010045740E-002  -1.3777517290993635E-002   3.0109951352663700E-004
   4.2630198651274404E-002  -1.2905620342666152E-002   1.1464505601127550E-004
   3.9828341292503011E-002  -1.1985843625983872E-002  -3.2724345958801138E-005
   4.7874971919562359E-002  -1.4273405227625546E-002   7.5088615092191446E-003
   4.5124951519586176E-002  -1.3499297896661155E-002   7.1933081232006257E-003
   4.2374931119609938E-002  -1.2695089095885931E-002   6.9423435992260196E-003
   3.9624910719633671E-002  -1.1860778825299186E-002   6.7559679372952430E-003
   3.6874890319657516E-002  -1.0996367084900482E-002   6.6341811374094339E-003
   4.4611501771792766E-002  -1.3169138572667438E-002   1.4233318491859659E-002
   4.1938822137110060E-002  -1.2397061322357350E-002   1.3849057989886365E-002
   3.9266142502427395E-002  -1.1612660900778449E-002   1.3554890156455668E-002
   3.6593462867744710E-002  -1.0815937307931775E-002   1.3350814991567567E-002
   3.3920783233061996E-002  -1.0006890543817093E-002   1.3236832495222728E-002
   4.1245360284279740E-002  -1.2064871917709274E-002   2.0964634543118532E-002
   3.8675525221388972E-002  -1.1294824748052851E-002   2.0493888626647243E-002
   3.6105690158498224E-002  -1.0530232705670856E-002   2.0138739185216935E-002
   3.3535855095607449E-002  -9.7710957905648085E-003   1.9899186218827983E-002
   3.0966020032716715E-002  -9.0174140027338145E-003   1.9775229727480012E-002
   3.7776547457023080E-002  -1.0960605262751000E-002   2.7702809662994765E-002
   3.5335060772422711E-002  -1.0192588173748074E-002   2.7127800033482474E-002
   3.2893574087822286E-002  -9.4478045105635122E-003   2.6693890685509425E-002
   3.0452087403221861E-002  -8.7262542731975160E-003   2.6401081619075922E-002
   2.8010600718621492E-002  -8.0279374616503141E-003   2.6249372834182050E-002
   3.9828341292503011E-002  -1.1985843625983872E-002  -3.2724345958801138E-005
   3.7428716983600063E-002  -1.1128574848787820E-002  -3.0584908981712289E-004
   3.5029092674697171E-002  -1.0444201718918855E-002  -4.8887190999347130E-004
   3.2629468365794279E-002  -9.9327242363764362E-003  -5.8179280648790188E-004
   3.0229844056891331E-002  -9.5941424011602994E-003  -5.8461177929980401E-004
   3.6874890319657516E-002  -1.0996367084900482E-002   6.6341811374094339E-003
   3.4547099661281055E-002  -1.0174379233217401E-002   6.1982095593626774E-003
   3.2219309002904595E-002  -9.4673406287738571E-003   5.8158033586849234E-003
   2.9891518344528134E-002  -8.8752512715719878E-003   5.4869625353791973E-003
   2.7563727686151729E-002  -8.3981111616100446E-003   5.2116870894444167E-003
   3.3920783233061996E-002  -1.0006890543817093E-002   1.3236832495222728E-002
   3.1628289678900912E-002  -9.2201836176457053E-003   1.2695960483071589E-002
   2.9335796124739771E-002  -8.4904795386292753E-003   1.2172117301980256E-002
   2.7043302570578687E-002  -7.8177783067677545E-003   1.1665302951948911E-002
   2.4750809016417519E-002  -7.2020799220605669E-003   1.1175517432977400E-002
   3.0966020032716715E-002  -9.0174140027338145E-003   1.9775229727480012E-002
   2.8672287036459812E-002  -8.2659880020747589E-003   1.9187403681311832E-002
   2.6378554040202846E-002  -7.5136184484848184E-003   1.8580069919892368E-002
   2.4084821043945891E-002  -6.7603053419634136E-003   1.7953228443221388E-002
   2.1791088047688971E-002  -6.0060486825109227E-003   1.7306879251298826E-002
   2.8010600718621492E-002  -8.0279374616503141E-003   2.6249372834182050E-002
   2.5679091733957660E-002  -7.3117923865035905E-003   2.5672539154082741E-002
   2.3347582749293772E-002  -6.5367573583400285E-003   2.5039661212420627E-002
   2.1016073764629883E-002  -5.7028323771592671E-003   2.4350739009196237E-002
   1.8684564779965995E-002  -4.8100174429610565E-003   2.3605772544408987E-002
   3.0229844056891331E-002  -9.5941424011602994E-003  -5.8461177929980401E-004
   2.9616209212710132E-002  -9.1360237060945648E-003  -3.5034130019395704E-004
   2.9002574368528933E-002  -8.2659356440029641E-003  -1.7958615948745482E-003
   2.8388939524347762E-002  -6.9838782148867878E-003  -4.9211726633439645E-003
   2.7775304680166535E-002  -5.2898514187429413E-003  -9.7262745056001521E-003
   2.7563727686151729E-002  -8.3981111616100446E-003   5.2116870894444167E-003
   2.5539520854714004E-002  -7.8714610604804225E-003   5.8813433543898341E-003
   2.3515314023276307E-002  -7.1308417297729076E-003   5.4096464186095261E-003
   2.1491107191838568E-002  -6.1762531694872919E-003   3.7965962821034649E-003
   1.9466900360400885E-002  -5.0076953796236445E-003   1.0421929448729550E-003
   2.4750809016417519E-002  -7.2020799220605669E-003   1.1175517432977400E-002
   2.1854467770785757E-002  -6.6068984148663357E-003   1.2082559346312916E-002
   1.8958126525153982E-002  -5.9957478155421573E-003   1.2386685631985445E-002
   1.6061785279522241E-002  -5.3686281240886771E-003   1.2087896289995292E-002
   1.3165444033890472E-002  -4.7255393405052359E-003   1.1186191320342487E-002
   2.1791088047688971E-002  -6.0060486825109227E-003   1.7306879251298826E-002
   1.8561049960925502E-002  -5.3423357692519990E-003   1.8253306675576952E-002
   1.5331011874161967E-002  -4.8606539013117539E-003   1.9135256045254033E-002
   1.2100973787398441E-002  -4.5610030786898438E-003   1.9952727360331202E-002
   8.8709357006349562E-003  -4.4433833013863833E-003   2.0705720620807444E-002
   1.8684564779965995E-002  -4.8100174429610565E-003   2.3605772544408987E-002
   1.5659267425133128E-002  -4.0777731236377734E-003   2.4393585342181390E-002
   1.2633970070300232E-002  -3.7255599870807954E-003   2.5655357658415090E-002
   9.6086727154673507E-003  -3.7533780332913158E-003   2.7391089493110810E-002
   6.5833753606344692E-003  -4.1612272622677526E-003   2.9600780846268604E-002
   2.7775304680166535E-002  -5.2898514187429413E-003  -9.7262745056001521E-003
   2.3351077489527250E-002  -4.2046781594176075E-003  -4.1918756910837018E-003
   1.8926850298888076E-002  -4.7491813407546379E-003   2.6052067926219946E-003
   1.4502623108248874E-002  -6.9233609627554482E-003   1.0664972945515938E-002
   1.0078395917609617E-002  -1.0727217025418234E-002   1.9987422767598240E-002
   1.9466900360400885E-002  -5.0076953796236445E-003   1.0421929448729550E-003
   1.6233208251071274E-002  -4.6894175325850052E-003   6.7392883868206965E-003
   1.2999516141741663E-002  -6.2856688007731920E-003   1.3554770322199761E-002
   9.7658240324119960E-003  -9.7964491841888990E-003   2.1488638751008482E-002
   6.5321319230822183E-003  -1.5221758682831599E-002   3.0540893673248526E-002
   1.3165444033890472E-002  -4.7255393405052359E-003   1.1186191320342487E-002
   1.0977989830112306E-002  -5.1741569057524028E-003   1.6761130715157058E-002
   8.7905356263342227E-003  -7.8221562607915796E-003   2.3310159427643862E-002
   6.6030814225561327E-003  -1.2669537405622586E-002   3.0833277457803454E-002
   4.4156272187780288E-003  -1.9716300340244519E-002   3.9330484805635724E-002
   8.8709357006349562E-003  -4.4433833013863833E-003   2.0705720620807444E-002
   7.5854222266504637E-003  -5.6588962789200226E-003   2.5873651293924133E-002
   6.2999087526658636E-003  -9.3586437208100504E-003   3.1871374108955450E-002
   5.0143952786812825E-003  -1.5542625627056154E-002   3.8698889065900847E-002
   3.7288818046967570E-003  -2.4210841997657884E-002   4.6356196164762054E-002
   6.5833753606344692E-003  -4.1612272622677526E-003   2.9600780846268604E-002
   6.0555054406854492E-003  -6.1436356520877533E-003   3.4076850123123004E-002
   5.5276355207364569E-003  -1.0895131180828688E-002   3.9238414366134067E-002
   4.9997656007874924E-003  -1.8415713848489820E-002   4.5085473575301571E-002
   4.4718956808383892E-003  -2.8705383655071248E-002   5.1618027750625739E-002
   7.8781976000583953E-002  -2.2640093175560594E-002   3.0587741183261741E-002
   7.4960123180364879E-002  -2.1866952755390134E-002   2.9908468822092804E-002
   7.1138270360145722E-002  -2.1112726743538215E-002   2.9539833847021219E-002
   6.7316417539926635E-002  -2.0377415140004743E-002   2.9481836258046776E-002
   6.3494564719707547E-002  -1.9661017944789860E-002   2.9734476055169601E-002
   7.2187282625800875E-002  -2.0700247199722688E-002   3.5138596458706262E-002
   6.8679200066495832E-002  -2.0032109171619961E-002   3.4494066765543507E-002
   6.5171117507190901E-002  -1.9366809805551513E-002   3.4166440208111853E-002
   6.1663034947885900E-002  -1.8704349101517418E-002   3.4155716786411022E-002
   5.8154952388580844E-002  -1.8044727059517568E-002   3.4461896500441236E-002
   6.5635075579383625E-002  -1.8760401223884809E-002   3.9576411468940823E-002
   6.2447029030626378E-002  -1.8197265587849745E-002   3.8982700190068595E-002
   5.9258982481869206E-002  -1.7620892867564832E-002   3.8712157796560974E-002
   5.6070935933111965E-002  -1.7031283063030006E-002   3.8764784288418105E-002
   5.2882889384354786E-002  -1.6428436174245359E-002   3.9140579665639885E-002
   5.9125354861332205E-002  -1.6820555248046917E-002   4.3901186213965729E-002
   5.6263610072756431E-002  -1.6362422004079620E-002   4.3374369095668275E-002
   5.3401865284180734E-002  -1.5874975929578112E-002   4.3176986612368934E-002
   5.0540120495604988E-002  -1.5358217024542584E-002   4.3309038764068018E-002
   4.7678375707029222E-002  -1.4812145288973136E-002   4.3770525550765403E-002
   5.2658120471646586E-002  -1.4880709272209025E-002   4.8112920693780870E-002
   5.0128943192885994E-002  -1.4527578420309328E-002   4.7669073482342172E-002
   4.7599765914125430E-002  -1.4129058991591462E-002   4.7560926655535435E-002
   4.5070588635364867E-002  -1.3685150986055220E-002   4.7788480213360560E-002
   4.2541411356604275E-002  -1.3195854403700857E-002   4.8351734155817894E-002
   6.3494564719707547E-002  -1.9661017944789860E-002   2.9734476055169601E-002
   6.1987764592429051E-002  -1.8955115737866179E-002   2.9457117250234727E-002
   6.0480964465150583E-002  -1.8251289099206897E-002   2.9296628398840119E-002
   5.8974164337872101E-002  -1.7549538028811422E-002   2.9253009500986332E-002
   5.7467364210593674E-002  -1.6849862526680415E-002   2.9326260556672867E-002
   5.8154952388580844E-002  -1.8044727059517568E-002   3.4461896500441236E-002
   5.6763589678946083E-002  -1.7387475994087617E-002   3.4248665056825459E-002
   5.5372226969311336E-002  -1.6732128219762644E-002   3.4149438494956455E-002
   5.3980864259676520E-002  -1.6078683736542886E-002   3.4164216814834600E-002
   5.2589501550041773E-002  -1.5427142544428063E-002   3.4293000016459518E-002
   5.2882889384354786E-002  -1.6428436174245359E-002   3.9140579665639885E-002
   5.1604099020570129E-002  -1.5819836250308777E-002   3.8991647860502153E-002
   5.0325308656785479E-002  -1.5212967340318337E-002   3.8953855865317924E-002
   4.9046518293000801E-002  -1.4607829444273909E-002   3.9027203680087101E-002
   4.7767727929216158E-002  -1.4004422562175711E-002   3.9211691304809462E-002
   4.7678375707029222E-002  -1.4812145288973136E-002   4.3770525550765403E-002
   4.6509292617301121E-002  -1.4252196506530104E-002   4.3686065661264935E-002
   4.5340209527573047E-002  -1.3693806460873946E-002   4.3709880509924331E-002
   4.4171126437844960E-002  -1.3136975152005166E-002   4.3841970096743399E-002
   4.3002043348116872E-002  -1.2581702579923471E-002   4.4082334421722408E-002
   4.2541411356604275E-002  -1.3195854403700857E-002   4.8351734155817894E-002
   4.1479170469139182E-002  -1.2684556762751348E-002   4.8331918459113721E-002
   4.0416929581674033E-002  -1.2174645581429763E-002   4.8417512428775650E-002
   3.9354688694208897E-002  -1.1666120859736392E-002   4.8608516064803778E-002
   3.8292447806743790E-002  -1.1158982597671008E-002   4.8904929367198313E-002
   5.7467364210593674E-002  -1.6849862526680415E-002   2.9326260556672867E-002
   5.4651016248919881E-002  -1.6146907203927974E-002   2.8820965270536680E-002
   5.1834668287246199E-002  -1.5435316671668489E-002   2.8552841518873079E-002
   4.9018320325572476E-002  -1.4715090929902270E-002   2.8521889301681785E-002
   4.6201972363898725E-002  -1.3986229978628806E-002   2.8728108618962966E-002
   5.2589501550041773E-002  -1.5427142544428063E-002   3.4293000016459518E-002
   5.0005469286468041E-002  -1.4771413735825939E-002   3.3848394800470610E-002
   4.7421437022894350E-002  -1.4105406403144172E-002   3.3631249446209294E-002
   4.4837404759320625E-002  -1.3429120546382373E-002   3.3641563953675624E-002
   4.2253372495746927E-002  -1.2742556165540819E-002   3.3879338322869268E-002
   4.7767727929216158E-002  -1.4004422562175711E-002   3.9211691304809462E-002
   4.5406299690997604E-002  -1.3395920267724126E-002   3.8829419473540613E-002
   4.3044871452779097E-002  -1.2775496134619792E-002   3.8664895831254702E-002
   4.0683443214560563E-002  -1.2143150162862696E-002   3.8718120377951346E-002
   3.8322014976342036E-002  -1.1498882352452749E-002   3.8989093113630760E-002
   4.3002043348116872E-002  -1.2581702579923471E-002   4.4082334421722408E-002
   4.0853507462508619E-002  -1.2020426799622286E-002   4.3764039289746516E-002
   3.8704971576900407E-002  -1.1445585866095526E-002   4.3653780674008831E-002
   3.6556435691292202E-002  -1.0857179779342852E-002   4.3751558574508763E-002
   3.4407899805683997E-002  -1.0255208539364721E-002   4.4057372991246721E-002
   3.8292447806743790E-002  -1.1158982597671008E-002   4.8904929367198313E-002
   3.6347092601001024E-002  -1.0644933331520307E-002   4.8652254249088700E-002
   3.4401737395258300E-002  -1.0115675597571136E-002   4.8597903974471862E-002
   3.2456382189515527E-002  -9.5712093958231874E-003   4.8741878543348258E-002
   3.0511026983772782E-002  -9.0115347262766377E-003   4.9084177955717567E-002
   4.6201972363898725E-002  -1.3986229978628806E-002   2.8728108618962966E-002
   4.4095616137179827E-002  -1.3247244516866485E-002   2.8307881675447122E-002
   4.1989259910460902E-002  -1.2496645243632712E-002   2.7996922868280233E-002
   3.9882903683741935E-002  -1.1734432158927364E-002   2.7795232197462980E-002
   3.7776547457023080E-002  -1.0960605262751000E-002   2.7702809662994765E-002
   4.2253372495746927E-002  -1.2742556165540819E-002   3.3879338322869268E-002
   4.0264206435543293E-002  -1.2045780701350484E-002   3.3495154485311096E-002
   3.8275040375339589E-002  -1.1338861594542102E-002   3.3236082844433884E-002
   3.6285874315135948E-002  -1.0621798845116128E-002   3.3102123400238034E-002
   3.4296708254932279E-002  -9.8945924530721152E-003   3.3093276152723505E-002
   3.8322014976342036E-002  -1.1498882352452749E-002   3.8989093113630760E-002
   3.6465883142985614E-002  -1.0844316885834399E-002   3.8639482213176160E-002
   3.4609751309629198E-002  -1.0181077945451596E-002   3.8430827569735142E-002
   3.2753619476272797E-002  -9.5091655313046131E-003   3.8363129183307379E-002
   3.0897487642916360E-002  -8.8285796433932862E-003   3.8436387053892546E-002
   3.4407899805683997E-002  -1.0255208539364721E-002   4.4057372991246721E-002
   3.2700646259506846E-002  -9.6428530703182441E-003   4.3740864859042800E-002
   3.0993392713329723E-002  -9.0232942963611763E-003   4.3581157044184041E-002
   2.9286139167152635E-002  -8.3965322174930149E-003   4.3578249546670521E-002
   2.7578885620975498E-002  -7.7625668337143738E-003   4.3732142366502406E-002
   3.0511026983772782E-002  -9.0115347262766377E-003   4.9084177955717567E-002
   2.8968495785106990E-002  -8.4413892548023117E-003   4.8799302422910473E-002
   2.7425964586441157E-002  -7.8655106472706321E-003   4.8687071267780740E-002
   2.5883433387775344E-002  -7.2838989036817618E-003   4.8747484490328244E-002
   2.4340902189109531E-002  -6.6965540240355725E-003   4.8980542090553136E-002
   3.7776547457023080E-002  -1.0960605262751000E-002   2.7702809662994765E-002
   3.5335060772422711E-002  -1.0192588173748074E-002   2.7127800033482474E-002
   3.2893574087822286E-002  -9.4478045105635122E-003   2.6693890685509425E-002
   3.0452087403221861E-002  -8.7262542731975160E-003   2.6401081619075922E-002
   2.8010600718621492E-002  -8.0279374616503141E-003   2.6249372834182050E-002
   3.4296708254932279E-002  -9.8945924530721152E-003   3.3093276152723505E-002
   3.1999288134197335E-002  -9.1699220703143625E-003   3.2582626852107444E-002
   2.9701868013462474E-002  -8.4604673487468640E-003   3.2219010397683184E-002
   2.7404447892727626E-002  -7.7662282883690717E-003   3.2002426789450228E-002
   2.5107027771992751E-002  -7.0872048891816863E-003   3.1932876027408907E-002
   3.0897487642916360E-002  -8.8285796433932862E-003   3.8436387053892546E-002
   2.8750066650698902E-002  -8.1472559668805677E-003   3.7998115846801822E-002
   2.6602645658481444E-002  -7.4731301869296468E-003   3.7712810050554449E-002
   2.4455224666264042E-002  -6.8062023035402909E-003   3.7580469665150378E-002
   2.2307803674046514E-002  -6.1464723167128366E-003   3.7601094690589865E-002
   2.7578885620975498E-002  -7.7625668337143738E-003   4.3732142366502406E-002
   2.5587396321927375E-002  -7.1245898634468147E-003   4.3374267017565117E-002
   2.3595907022879274E-002  -6.4857930251127141E-003   4.3175289644123246E-002
   2.1604417723831162E-002  -5.8461763187116784E-003   4.3135210246176406E-002
   1.9612928424783051E-002  -5.2057397442440978E-003   4.3254028823724894E-002
   2.4340902189109531E-002  -6.6965540240355725E-003   4.8980542090553136E-002
   2.2511277147882702E-002  -6.1019237600131171E-003   4.8711080364397474E-002
   2.0681652106655860E-002  -5.4984558632957259E-003   4.8606449178389188E-002
   1.8852027065429038E-002  -4.8861503338829965E-003   4.8666648532528500E-002
   1.7022402024202216E-002  -4.2650071717752480E-003   4.8891678426814189E-002
   2.8010600718621492E-002  -8.0279374616503141E-003   2.6249372834182050E-002
   2.5679091733957660E-002  -7.3117923865035905E-003   2.5672539154082741E-002
   2.3347582749293772E-002  -6.5367573583400285E-003   2.5039661212420627E-002
   2.1016073764629883E-002  -5.7028323771592671E-003   2.4350739009196237E-002
   1.8684564779965995E-002  -4.8100174429610565E-003   2.3605772544408987E-002
   2.5107027771992751E-002  -7.0872048891816863E-003   3.1932876027408907E-002
   2.2758518807486278E-002  -6.4084688472529905E-003   3.1536200927557045E-002
   2.0410009842979929E-002  -5.7150918586514055E-003   3.1161570129582539E-002
   1.8061500878473545E-002  -5.0070739233766606E-003   3.0808983633485776E-002
   1.5712991913967106E-002  -4.2844150414292903E-003   3.0478441439266368E-002
   2.2307803674046514E-002  -6.1464723167128366E-003   3.7601094690589865E-002
   2.0020383293137656E-002  -5.5051453080020574E-003   3.7340329164641056E-002
   1.7732962912228784E-002  -4.8934263589623384E-003   3.7179696504010262E-002
   1.5445542531319953E-002  -4.3113154695944983E-003   3.7119196708696803E-002
   1.3158122150411053E-002  -3.7588126398977462E-003   3.7158829778700664E-002
   1.9612928424783051E-002  -5.2057397442440978E-003   4.3254028823724894E-002
   1.7464685190911711E-002  -4.6018217687508467E-003   4.3084923865335599E-002
   1.5316441957040398E-002  -4.0717608592736598E-003   4.3094040335703590E-002
   1.3168198723169060E-002  -3.6155570158120029E-003   4.3281378234829207E-002
   1.1019955489297694E-002  -3.2332102383659800E-003   4.3646937562712526E-002
   1.7022402024202216E-002  -4.2650071717752480E-003   4.8891678426814189E-002
   1.5091424500808470E-002  -3.6984982295004687E-003   4.8769985029639695E-002
   1.3160446977414683E-002  -3.2500953595845927E-003   4.8904601624662702E-002
   1.1229469454020903E-002  -2.9197985620297712E-003   4.9295528211882989E-002
   9.2984919306271507E-003  -2.7076078368344358E-003   4.9942764791301220E-002
   1.8684564779965995E-002  -4.8100174429610565E-003   2.3605772544408987E-002
   1.5659267425133128E-002  -4.0777731236377734E-003   2.4393585342181390E-002
   1.2633970070300232E-002  -3.7255599870807954E-003   2.5655357658415090E-002
   9.6086727154673507E-003  -3.7533780332913158E-003   2.7391089493110810E-002
   6.5833753606344692E-003  -4.1612272622677526E-003   2.9600780846268604E-002
   1.5712991913967106E-002  -4.2844150414292903E-003   3.0478441439266368E-002
   1.3143224608670317E-002  -3.7727218252219252E-003   3.1256226140096044E-002
   1.0573457303373501E-002  -3.6976008871670019E-003   3.2471111421536025E-002
   8.0036899980766504E-003  -4.0590522272642773E-003   3.4123097283586035E-002
   5.4339226927798412E-003  -4.8570758455143137E-003   3.6212183726246461E-002
   1.3158122150411053E-002  -3.7588126398977462E-003   3.7158829778700664E-002
   1.1007025956798713E-002  -3.4676705268061325E-003   3.7870045287201920E-002
   8.8559297631864570E-003  -3.6696417872527642E-003   3.8981502438461768E-002
   6.7048335695741763E-003  -4.3647264212377940E-003   4.0493201232480708E-002
   4.5537373759618610E-003  -5.5529244287609858E-003   4.2405141669258128E-002
   1.1019955489297694E-002  -3.2332102383659800E-003   4.3646937562712526E-002
   9.2506714695184157E-003  -3.1626192283902010E-003   4.4235042783499427E-002
   7.4813874497391079E-003  -3.6416826873383046E-003   4.5186530709193443E-002
   5.7121034299597766E-003  -4.6704006152111441E-003   4.6501401339794683E-002
   3.9428194101805251E-003  -6.2487730120080465E-003   4.8179654675303288E-002
   9.2984919306271507E-003  -2.7076078368344358E-003   4.9942764791301220E-002
   7.8741611468293171E-003  -2.8575679299744361E-003   5.0351218628987837E-002
   6.4498303630314835E-003  -3.6137235874244278E-003   5.1086196233730397E-002
   5.0254995792336360E-003  -4.9760748091843623E-003   5.2147697605528259E-002
   3.6011687954358163E-003  -6.9446215952543300E-003   5.3535722744382341E-002
   6.5833753606344692E-003  -4.1612272622677526E-003   2.9600780846268604E-002
   6.0555054406854492E-003  -6.1436356520877533E-003   3.4076850123123004E-002
   5.5276355207364569E-003  -1.0895131180828688E-002   3.9238414366134067E-002
   4.9997656007874924E-003  -1.8415713848489820E-002   4.5085473575301571E-002
   4.4718956808383892E-003  -2.8705383655071248E-002   5.1618027750625739E-002
   5.4339226927798412E-003  -4.8570758455143137E-003   3.6212183726246461E-002
   5.4876873415256877E-003  -6.9913670672154260E-003   3.8351134922840535E-002
   5.5414519902714926E-003  -1.1361621217666762E-002   4.0967860290667624E-002
   5.5952166390173530E-003  -1.7967838296868585E-002   4.4062359829728615E-002
   5.6489812877630885E-003  -2.6810018304819883E-002   4.7634633540022175E-002
   4.5537373759618610E-003  -5.5529244287609858E-003   4.2405141669258128E-002
   4.9814157984791885E-003  -7.8390984823433763E-003   4.2740098995762310E-002
   5.4090942209965506E-003  -1.1828111254505419E-002   4.3345109698576606E-002
   5.8367726435139475E-003  -1.7519962745247412E-002   4.4220173777700308E-002
   6.2644510660312402E-003  -2.4914652954568517E-002   4.5365291233134375E-002
   3.9428194101805251E-003  -6.2487730120080465E-003   4.8179654675303288E-002
   4.5366908115459549E-003  -8.6868298974712987E-003   4.7243742341888037E-002
   5.1305622129114194E-003  -1.2294601291343896E-002   4.6370162589859105E-002
   5.7244336142768994E-003  -1.7072087193626208E-002   4.5558915419216847E-002
   6.3183050156423171E-003  -2.3019287604317151E-002   4.4810000829960756E-002
   3.6011687954358163E-003  -6.9446215952543300E-003   5.3535722744382341E-002
   4.1535123807260599E-003  -9.5345613125988882E-003   5.1862064961218368E-002
   4.7058559660162202E-003  -1.2761091328182234E-002   5.0043018964516850E-002
   5.2581995513065333E-003  -1.6624211642005136E-002   4.8078584754278869E-002
   5.8105431365966798E-003  -2.1123922254065786E-002   4.5968762330503843E-002
   5.2658120471646586E-002  -1.4880709272209025E-002   4.8112920693780870E-002
   5.0128943192885994E-002  -1.4527578420309328E-002   4.7669073482342172E-002
   4.7599765914125430E-002  -1.4129058991591462E-002   4.7560926655535435E-002
   4.5070588635364867E-002  -1.3685150986055220E-002   4.7788480213360560E-002
   4.2541411356604275E-002  -1.3195854403700857E-002   4.8351734155817894E-002
   4.6184679003035911E-002  -1.2997930640033573E-002   5.2143724516138967E-002
   4.3983497419020343E-002  -1.2690358517125938E-002   5.1679604616435032E-002
   4.1782315835004788E-002  -1.2343509995360671E-002   5.1535775721589461E-002
   3.9581134250989233E-002  -1.1957385074737651E-002   5.1712237831601657E-002
   3.7379952666973665E-002  -1.1531983755256936E-002   5.2208990946471995E-002
   3.9656337048209228E-002  -1.1115152007858120E-002   5.6132025698485119E-002
   3.7767741779164705E-002  -1.0853138613942548E-002   5.5641520932555824E-002
   3.5879146510120183E-002  -1.0557960999129819E-002   5.5455897791710514E-002
   3.3990551241075674E-002  -1.0229619163419997E-002   5.5575156275949292E-002
   3.2101955972031138E-002  -9.8681131068130701E-003   5.5999296385272054E-002
   3.3073094607166627E-002  -9.2323733756826815E-003   6.0077824240819561E-002
   3.1481676273319131E-002  -9.0159187107591160E-003   5.9554822430704132E-002
   2.9890257939471653E-002  -8.7724120028990528E-003   5.9321292865898684E-002
   2.8298839605624168E-002  -8.5018532521024121E-003   5.9377235546403395E-002
   2.6707421271776680E-002  -8.2042424583691487E-003   5.9722650472218045E-002
   2.6434951679907975E-002  -7.3495947435072151E-003   6.3981120143142278E-002
   2.5125300901483572E-002  -7.1786988075757396E-003   6.3419509110880123E-002
   2.3815650123059154E-002  -6.9868630066682313E-003   6.3131960944154075E-002
   2.2505999344634757E-002  -6.7740873407848151E-003   6.3118475642964023E-002
   2.1196348566210346E-002  -6.5403718099253383E-003   6.3379053207310188E-002
   4.2541411356604275E-002  -1.3195854403700857E-002   4.8351734155817894E-002
   4.1479170469139182E-002  -1.2684556762751348E-002   4.8331918459113721E-002
   4.0416929581674033E-002  -1.2174645581429763E-002   4.8417512428775650E-002
   3.9354688694208897E-002  -1.1666120859736392E-002   4.8608516064803778E-002
   3.8292447806743790E-002  -1.1158982597671008E-002   4.8904929367198313E-002
   3.7379952666973665E-002  -1.1531983755256936E-002   5.2208990946471995E-002
   3.6430935824168328E-002  -1.1086830830470296E-002   5.2079871798812655E-002
   3.5481918981362950E-002  -1.0641451093929152E-002   5.2071791074106574E-002
   3.4532902138557593E-002  -1.0195844545633961E-002   5.2184748772354024E-002
   3.3583885295752264E-002  -9.7500111855841620E-003   5.2418744893554553E-002
   3.2101955972031138E-002  -9.8681131068130701E-003   5.5999296385272054E-002
   3.1281791930472716E-002  -9.4891048981892018E-003   5.5762487058039878E-002
   3.0461627888914294E-002  -9.1082566064285483E-003   5.5662344910348140E-002
   2.9641463847355859E-002  -8.7255682315314758E-003   5.5698869942196985E-002
   2.8821299805797444E-002  -8.3410397734974828E-003   5.5872062153586435E-002
   2.6707421271776680E-002  -8.2042424583691487E-003   5.9722650472218045E-002
   2.6031738788052379E-002  -7.8913789659081010E-003   5.9379764236795335E-002
   2.5356056304328058E-002  -7.5750621189279686E-003   5.9189173937500436E-002
   2.4680373820603750E-002  -7.2552919174288790E-003   5.9150879574333126E-002
   2.4004691336879436E-002  -6.9320683614107204E-003   5.9264881147293488E-002
   2.1196348566210346E-002  -6.5403718099253383E-003   6.3379053207310188E-002
   2.0680776396907297E-002  -6.2936530336270835E-003   6.2931703335079359E-002
   2.0165204227604254E-002  -6.0418676314273750E-003   6.2652278155563457E-002
   1.9649632058301201E-002  -5.7850156033265147E-003   6.2540777668762412E-002
   1.9134059888998162E-002  -5.5230969493239579E-003   6.2597201874676212E-002
   3.8292447806743790E-002  -1.1158982597671008E-002   4.8904929367198313E-002
   3.6347092601001024E-002  -1.0644933331520307E-002   4.8652254249088700E-002
   3.4401737395258300E-002  -1.0115675597571136E-002   4.8597903974471862E-002
   3.2456382189515527E-002  -9.5712093958231874E-003   4.8741878543348258E-002
   3.0511026983772782E-002  -9.0115347262766377E-003   4.9084177955717567E-002
   3.3583885295752264E-002  -9.7500111855841620E-003   5.2418744893554553E-002
   3.1845239708893636E-002  -9.2969317947815266E-003   5.2135168430647860E-002
   3.0106594122034980E-002  -8.8295871542267423E-003   5.2066686362016570E-002
   2.8367948535176324E-002  -8.3479772639199409E-003   5.2213298687660510E-002
   2.6629302948317696E-002  -7.8521021238610600E-003   5.2575005407579423E-002
   2.8821299805797444E-002  -8.3410397734974828E-003   5.5872062153586435E-002
   2.7306133388605096E-002  -7.9489302580425664E-003   5.5556641127836287E-002
   2.5790966971412751E-002  -7.5434987108822446E-003   5.5473084047143663E-002
   2.4275800554220392E-002  -7.1247451320164742E-003   5.5621390911508237E-002
   2.2760634137028064E-002  -6.6926695214453991E-003   5.6001561720930307E-002
   2.4004691336879436E-002  -6.9320683614107204E-003   5.9264881147293488E-002
   2.2729773640135523E-002  -6.6009287213036963E-003   5.8916672340653391E-002
   2.1454855943391603E-002  -6.2574102675378544E-003   5.8817097029852820E-002
   2.0179938246647666E-002  -5.9015130001131731E-003   5.8966155214891763E-002
   1.8905020549903742E-002  -5.5332369190298353E-003   5.9363846895770109E-002
   1.9134059888998162E-002  -5.5230969493239579E-003   6.2597201874676212E-002
   1.8116160463484826E-002  -5.2529271845647985E-003   6.2215262069099275E-002
   1.7098261037971518E-002  -4.9713218241933255E-003   6.2098725310144126E-002
   1.6080361612458204E-002  -4.6782808682097818E-003   6.2247591597810709E-002
   1.5062462186944875E-002  -4.3738043166140494E-003   6.2661860932098912E-002
   3.0511026983772782E-002  -9.0115347262766377E-003   4.9084177955717567E-002
   2.8968495785106990E-002  -8.4413892548023117E-003   4.8799302422910473E-002
   2.7425964586441157E-002  -7.8655106472706321E-003   4.8687071267780740E-002
   2.5883433387775344E-002  -7.2838989036817618E-003   4.8747484490328244E-002
   2.4340902189109531E-002  -6.6965540240355725E-003   4.8980542090553136E-002
   2.6629302948317696E-002  -7.8521021238610600E-003   5.2575005407579423E-002
   2.5262211868556109E-002  -7.3462873185125566E-003   5.2311654448607192E-002
   2.3895120788794522E-002  -6.8348584323361383E-003   5.2226539349765816E-002
   2.2528029709032948E-002  -6.3178154653320343E-003   5.2319660111055460E-002
   2.1160938629271347E-002  -5.7951584175002790E-003   5.2591016732476514E-002
   2.2760634137028064E-002  -6.6926695214453991E-003   5.6001561720930307E-002
   2.1574574658624439E-002  -6.2511853822224683E-003   5.5759616280563196E-002
   2.0388515180220824E-002  -5.8042062174017070E-003   5.5701498182780897E-002
   1.9202455701817223E-002  -5.3517320269825305E-003   5.5827207427583417E-002
   1.8016396223413618E-002  -4.8937628109652076E-003   5.6136744014970874E-002
   1.8905020549903742E-002  -5.5332369190298353E-003   5.9363846895770109E-002
   1.7905584155311911E-002  -5.1560834459327132E-003   5.9143187918778435E-002
   1.6906147760720063E-002  -4.7735540024670224E-003   5.9111947766825566E-002
   1.5906711366128236E-002  -4.3856485886326927E-003   5.9270126439911461E-002
   1.4907274971536358E-002  -3.9923672044301362E-003   5.9617723938035841E-002
   1.5062462186944875E-002  -4.3738043166140494E-003   6.2661860932098912E-002
   1.4255240358618568E-002  -4.0609815096425694E-003   6.2462369363253611E-002
   1.3448018530292247E-002  -3.7429017875327264E-003   6.2457888101900505E-002
   1.2640796701965933E-002  -3.4195651502832297E-003   6.2648417148039731E-002
   1.1833574873639618E-002  -3.0909715978948427E-003   6.3033956501671651E-002
   2.4340902189109531E-002  -6.6965540240355725E-003   4.8980542090553136E-002
   2.2511277147882702E-002  -6.1019237600131171E-003   4.8711080364397474E-002
   2.0681652106655860E-002  -5.4984558632957259E-003   4.8606449178389188E-002
   1.8852027065429038E-002  -4.8861503338829965E-003   4.8666648532528500E-002
   1.7022402024202216E-002  -4.2650071717752480E-003   4.8891678426814189E-002
   2.1160938629271347E-002  -5.7951584175002790E-003   5.2591016732476514E-002
   1.9507374010141881E-002  -5.2683722091365626E-003   5.2373946978717334E-002
   1.7853809391012429E-002  -4.7389417605362555E-003   5.2344167529005808E-002
   1.6200244771882956E-002  -4.2068670716996527E-003   5.2501678383341813E-002
   1.4546680152753511E-002  -3.6721481426262859E-003   5.2846479541725278E-002
   1.8016396223413618E-002  -4.8937628109652076E-003   5.6136744014970874E-002
   1.6561351790281800E-002  -4.4348206582598693E-003   5.5965872841149608E-002
   1.5106307357150000E-002  -3.9794276577768961E-003   5.6004751735275943E-002
   1.3651262924018198E-002  -3.5275838095159759E-003   5.6253380697350128E-002
   1.2196218490886389E-002  -3.0792891134771572E-003   5.6711759727372468E-002
   1.4907274971536358E-002  -3.9923672044301362E-003   5.9617723938035841E-002
   1.3673210488302527E-002  -3.6012691073833564E-003   5.9486857951693617E-002
   1.2439146005068638E-002  -3.2199135550174257E-003   5.9588201797199515E-002
   1.1205081521834755E-002  -2.8483005473322991E-003   5.9921755474553487E-002
   9.9710170386009180E-003  -2.4864300843281673E-003   6.0487518983755414E-002
   1.1833574873639618E-002  -3.0909715978948427E-003   6.3033956501671651E-002
   1.0842950104203969E-002  -2.7677175565065659E-003   6.2936902310349985E-002
   9.8523253347683193E-003  -2.4603994522580941E-003   6.3094517714776421E-002
   8.8617005653326766E-003  -2.1690172851488512E-003   6.3506802714951655E-002
   7.8710757958970201E-003  -1.8935710551789553E-003   6.4173757310875046E-002
   1.7022402024202216E-002  -4.2650071717752480E-003   4.8891678426814189E-002
   1.5091424500808470E-002  -3.6984982295004687E-003   4.8769985029639695E-002
   1.3160446977414683E-002  -3.2500953595845927E-003   4.8904601624662702E-002
   1.1229469454020903E-002  -2.9197985620297712E-003   4.9295528211882989E-002
   9.2984919306271507E-003  -2.7076078368344358E-003   4.9942764791301220E-002
   1.4546680152753511E-002  -3.6721481426262859E-003   5.2846479541725278E-002
   1.2870667053692039E-002  -3.1942418078044765E-003   5.2731513035717270E-002
   1.1194653954630568E-002  -2.8326049017219912E-003   5.2870165386176088E-002
   9.5186408555691104E-003  -2.5872374243791352E-003   5.3262436593102022E-002
   7.8426277565076252E-003  -2.4581393757756587E-003   5.3908326656495309E-002
   1.2196218490886389E-002  -3.0792891134771572E-003   5.6711759727372468E-002
   1.0772478680426661E-002  -2.6899853861089562E-003   5.6605356756151609E-002
   9.3487388699669376E-003  -2.4151144438594174E-003   5.6749881505667205E-002
   7.9249990595071946E-003  -2.2546762867286171E-003   5.7145333975919088E-002
   6.5012592490474586E-003  -2.2086709147165484E-003   5.7791714166907732E-002
   9.9710170386009180E-003  -2.4864300843281673E-003   6.0487518983755414E-002
   8.7968593810123612E-003  -2.1857289644133665E-003   6.0391516190942587E-002
   7.6227017234237844E-003  -1.9976239859966077E-003   6.0543749983135615E-002
   6.4485440658352232E-003  -1.9221151490781511E-003   6.0944220360334533E-002
   5.2743864082466507E-003  -1.9592024536575492E-003   6.1592927322539244E-002
   7.8710757958970201E-003  -1.8935710551789553E-003   6.4173757310875046E-002
   6.9438091554490655E-003  -1.6814725427175548E-003   6.4089991340090524E-002
   6.0165425150011109E-003  -1.5801335281342699E-003   6.4251770818581411E-002
   5.0892758745531425E-003  -1.5895540114275256E-003   6.4659095746347900E-002
   4.1620092341052017E-003  -1.7097339925986610E-003   6.5311966123389409E-002
   9.2984919306271507E-003  -2.7076078368344358E-003   4.9942764791301220E-002
   7.8741611468293171E-003  -2.8575679299744361E-003   5.0351218628987837E-002
   6.4498303630314835E-003  -3.6137235874244278E-003   5.1086196233730397E-002
   5.0254995792336360E-003  -4.9760748091843623E-003   5.2147697605528259E-002
   3.6011687954358163E-003  -6.9446215952543300E-003   5.3535722744382341E-002
   7.8426277565076252E-003  -2.4581393757756587E-003   5.3908326656495309E-002
   6.7189835690078942E-003  -2.6435987406419059E-003   5.3845918508828472E-002
   5.5953393815081492E-003  -3.3419035037083877E-003   5.4058359786702120E-002
   4.4716951940083904E-003  -4.5530536649750625E-003   5.4545650490116462E-002
   3.3480510065086455E-003  -6.2770492244421661E-003   5.5307790619070984E-002
   6.5012592490474586E-003  -2.2086709147165484E-003   5.7791714166907732E-002
   5.6266273163305819E-003  -2.4296295513091815E-003   5.7351794199997502E-002
   4.7519953836136844E-003  -3.0700834199922228E-003   5.7135049317112260E-002
   3.8773634508967904E-003  -4.1300325207658702E-003   5.7141479518252235E-002
   3.0027315181799102E-003  -5.6094768536301687E-003   5.7371084803417710E-002
   5.2743864082466507E-003  -1.9592024536575492E-003   6.1592927322539244E-002
   4.5970923887974115E-003  -2.2156603619766096E-003   6.0868845702494762E-002
   3.9197983693481150E-003  -2.7982633362762313E-003   6.0316264824960622E-002
   3.2425043498988332E-003  -3.7070113765566241E-003   5.9935184689936576E-002
   2.5652103304495792E-003  -4.9419044828176439E-003   5.9725605297422095E-002
   4.1620092341052017E-003  -1.7097339925986610E-003   6.5311966123389409E-002
   3.6303787864083031E-003  -2.0016911726438158E-003   6.4397073016320916E-002
   3.0987483387114184E-003  -2.5264432525600733E-003   6.3602006310247372E-002
   2.5671178910145337E-003  -3.2839902323473918E-003   6.2926766005168611E-002
   2.0354874433176628E-003  -4.2743321120057853E-003   6.2371352101084465E-002
   3.6011687954358163E-003  -6.9446215952543300E-003   5.3535722744382341E-002
   4.1535123807260599E-003  -9.5345613125988882E-003   5.1862064961218368E-002
   4.7058559660162202E-003  -1.2761091328182234E-002   5.0043018964516850E-002
   5.2581995513065333E-003  -1.6624211642005136E-002   4.8078584754278869E-002
   5.8105431365966798E-003  -2.1123922254065786E-002   4.5968762330503843E-002
   3.3480510065086455E-003  -6.2770492244421661E-003   5.5307790619070984E-002
   3.7724729689715408E-003  -8.5452526270176632E-003   5.2953317434087099E-002
   4.1968949314344084E-003  -1.1389026317610129E-002   5.0488389216985341E-002
   4.6213168938973384E-003  -1.4808370296219384E-002   4.7913005967765876E-002
   5.0457388563602268E-003  -1.8803284562845191E-002   4.5227167686428427E-002
   3.0027315181799102E-003  -5.6094768536301687E-003   5.7371084803417710E-002
   3.3341650392346434E-003  -7.5559439414367158E-003   5.4396816226835898E-002
   3.6655985602893557E-003  -1.0016961307038039E-002   5.1347025799555621E-002
   3.9970320813440575E-003  -1.2992528950433856E-002   4.8221713521576483E-002
   4.3284656023987733E-003  -1.6482646871624373E-002   4.5020879392899338E-002
   2.5652103304495792E-003  -4.9419044828176439E-003   5.9725605297422095E-002
   2.8385885915153189E-003  -6.5666352558559626E-003   5.6192561339464833E-002
   3.1119668525810430E-003  -8.6448962964658302E-003   5.2618928712228244E-002
   3.3853451136468269E-003  -1.1176687604648105E-002   4.9004707415712355E-002
   3.6587233747124789E-003  -1.4162009180403667E-002   4.5349897449917159E-002
   2.0354874433176628E-003  -4.2743321120057853E-003   6.2371352101084465E-002
   2.2857436258135744E-003  -5.5773265702746544E-003   5.8340552771973808E-002
   2.5359998083094859E-003  -7.2728312858935107E-003   5.4304097955002795E-002
   2.7862559908054252E-003  -9.3608462588628816E-003   5.0261987650171980E-002
   3.0365121733013090E-003  -1.1841371489182961E-002   4.6214221857480364E-002
   2.6434951679907975E-002  -7.3495947435072151E-003   6.3981120143142278E-002
   2.5125300901483572E-002  -7.1786988075757396E-003   6.3419509110880123E-002
   2.3815650123059154E-002  -6.9868630066682313E-003   6.3131960944154075E-002
   2.2505999344634757E-002  -6.7740873407848151E-003   6.3118475642964023E-002
   2.1196348566210346E-002  -6.5403718099253383E-003   6.3379053207310188E-002
   1.9783572368854710E-002  -5.5121963906235583E-003   6.4069756730090188E-002
   1.8761321901459280E-002  -5.3840243232949059E-003   6.3568233228559451E-002
   1.7739071434063815E-002  -5.2401473877185106E-003   6.3367447483550665E-002
   1.6716820966668360E-002  -5.0805655838942372E-003   6.3467399495063692E-002
   1.5694570499272906E-002  -4.9052789118222417E-003   6.3868089263098365E-002
   1.3160620776428197E-002  -3.6747980377398459E-003   6.4118286946799219E-002
   1.2452445511047447E-002  -3.5893498390140860E-003   6.3671615979271942E-002
   1.1744270245666707E-002  -3.4934317687687899E-003   6.3552357659252115E-002
   1.1036094980285958E-002  -3.3870438270038536E-003   6.3760511986739904E-002
   1.0327919714905213E-002  -3.2701860137193950E-003   6.4296078961735378E-002
   6.5660969026283805E-003  -1.8373996848561613E-003   6.4126710793269773E-002
   6.1986717302480870E-003  -1.7946753547332453E-003   6.3729657363017223E-002
   5.8312465578678101E-003  -1.7467161498190137E-003   6.3686691471258300E-002
   5.4638213854875314E-003  -1.6935220701134283E-003   6.3997813117992658E-002
   5.0963962131072493E-003  -1.6350931156164233E-003   6.4663022303220297E-002
   7.4745528516606541E-010  -1.3319724767590913E-009   6.4095028269501364E-002
   5.5906121398940911E-010  -8.7045243235550629E-010   6.3742357379795778E-002
   3.7066715669054062E-010  -5.3086927909173909E-010   6.3770448919569428E-002
   1.8227309418750171E-010  -3.1322288859825242E-010   6.4179302888822135E-002
  -6.1209717849841638E-012  -2.1751350720577989E-010   6.4968919287553883E-002
   2.1196348566210346E-002  -6.5403718099253383E-003   6.3379053207310188E-002
   2.0680776396907297E-002  -6.2936530336270835E-003   6.2931703335079359E-002
   2.0165204227604254E-002  -6.0418676314273750E-003   6.2652278155563457E-002
   1.9649632058301201E-002  -5.7850156033265147E-003   6.2540777668762412E-002
   1.9134059888998162E-002  -5.5230969493239579E-003   6.2597201874676212E-002
   1.5694570499272906E-002  -4.9052789118222417E-003   6.3868089263098365E-002
   1.5337165109420126E-002  -4.7202398210156871E-003   6.3550542057734388E-002
   1.4979759719567332E-002  -4.5314007609874862E-003   6.3381403718555870E-002
   1.4622354329714548E-002  -4.3387617317376601E-003   6.3360674245563103E-002
   1.4264948939861750E-002  -4.1423227332662571E-003   6.3488353638755851E-002
   1.0327919714905213E-002  -3.2701860137193950E-003   6.4296078961735378E-002
   1.0109165277973481E-002  -3.1468266084042212E-003   6.4107067766557946E-002
   9.8904108410417507E-003  -3.0209338905473823E-003   6.4046949611037102E-002
   9.6716564041100170E-003  -2.8925078601488071E-003   6.4115724495172624E-002
   9.4529019671782885E-003  -2.7615485172084453E-003   6.4313392418964693E-002
   5.0963962131072493E-003  -1.6350931156164233E-003   6.4663022303220297E-002
   4.9967769025673937E-003  -1.5734133957928456E-003   6.4601280461550031E-002
   4.8971575920275252E-003  -1.5104670201073860E-003   6.4648915833006929E-002
   4.7975382814876670E-003  -1.4462539885599533E-003   6.4805928417591085E-002
   4.6979189709478002E-003  -1.3807743011506612E-003   6.5072318215302516E-002
  -6.1209717849841638E-012  -2.1751350720577989E-010   6.4968919287553883E-002
  -1.6798160085151892E-011  -1.8318135897033017E-010   6.5033180142710700E-002
  -2.7475351854766572E-011  -1.4966737571509015E-010   6.5187302384465490E-002
  -3.8152543624381252E-011  -1.1697123478149329E-010   6.5431286012818432E-002
  -4.8829731924548980E-011  -8.5092877188941429E-011   6.5765131027769375E-002
   1.9134059888998162E-002  -5.5230969493239579E-003   6.2597201874676212E-002
   1.8116160463484826E-002  -5.2529271845647985E-003   6.2215262069099275E-002
   1.7098261037971518E-002  -4.9713218241933255E-003   6.2098725310144126E-002
   1.6080361612458204E-002  -4.6782808682097818E-003   6.2247591597810709E-002
   1.5062462186944875E-002  -4.3738043166140494E-003   6.2661860932098912E-002
   1.4264948939861750E-002  -4.1423227332662571E-003   6.3488353638755851E-002
   1.3509720512265039E-002  -3.9396954020866348E-003   6.3170751906830552E-002
   1.2754492084668331E-002  -3.7284913747118176E-003   6.3113089124116797E-002
   1.1999263657071614E-002  -3.5087106511421245E-003   6.3315365290614545E-002
   1.1244035229474897E-002  -3.2803532313774864E-003   6.3777580406323864E-002
   9.4529019671782885E-003  -2.7615485172084453E-003   6.4313392418964693E-002
   8.9548804400880477E-003  -2.6264636196083185E-003   6.4057269861273664E-002
   8.4568589129978000E-003  -2.4856609252302680E-003   6.4055622155383990E-002
   7.9588373859075575E-003  -2.3391404340745818E-003   6.4308449301295700E-002
   7.4608158588173115E-003  -2.1869021461408678E-003   6.4815751299008795E-002
   4.6979189709478002E-003  -1.3807743011506612E-003   6.5072318215302516E-002
   4.4516402469538807E-003  -1.3132318371301063E-003   6.4874815932428748E-002
   4.2053615229599578E-003  -1.2428304757487393E-003   6.4926324403946009E-002
   3.9590827989660331E-003  -1.1695702170068153E-003   6.5226843629854536E-002
   3.7128040749721154E-003  -1.0934510609042769E-003   6.5776373610154495E-002
  -4.8829731924548980E-011  -8.5092877188941429E-011   6.5765131027769375E-002
  -6.7137469195177601E-011  -5.4651783099046725E-011   6.5623390120295499E-002
  -8.5445209935253175E-011  -2.6267238384392044E-011   6.5725195869802772E-002
  -1.0375295241005222E-010   6.0722260553092156E-014   6.6070548276290969E-002
  -1.2206068794595737E-010   2.4332369452650937E-011   6.6659447339760536E-002
   1.5062462186944875E-002  -4.3738043166140494E-003   6.2661860932098912E-002
   1.4255240358618568E-002  -4.0609815096425694E-003   6.2462369363253611E-002
   1.3448018530292247E-002  -3.7429017875327264E-003   6.2457888101900505E-002
   1.2640796701965933E-002  -3.4195651502832297E-003   6.2648417148039731E-002
   1.1833574873639618E-002  -3.0909715978948427E-003   6.3033956501671651E-002
   1.1244035229474897E-002  -3.2803532313774864E-003   6.3777580406323864E-002
   1.0633522496541419E-002  -3.0457361211806144E-003   6.3619595012095215E-002
   1.0023009763607926E-002  -2.8071763263145671E-003   6.3660017501159932E-002
   9.4124970306744271E-003  -2.5646738467793341E-003   6.3898847873517892E-002
   8.8019842977409279E-003  -2.3182286825746967E-003   6.4336086129169023E-002
   7.4608158588173115E-003  -2.1869021461408678E-003   6.4815751299008795E-002
   7.0504097970774705E-003  -2.0304907327184096E-003   6.4697957848927498E-002
   6.6400037353376226E-003  -1.8714508650966299E-003   6.4781969857940255E-002
   6.2295976735977764E-003  -1.7097825432753275E-003   6.5067787326047025E-002
   5.8191916118579476E-003  -1.5454857672544398E-003   6.5555410253247876E-002
   3.7128040749721154E-003  -1.0934510609042769E-003   6.5776373610154495E-002
   3.5059022602267377E-003  -1.0152453442564408E-003   6.5697457873750614E-002
   3.2990004454813609E-003  -9.3572540387874825E-004   6.5823745172241599E-002
   3.0920986307359870E-003  -8.5489123977137635E-004   6.6155235505627352E-002
   2.8851968159906063E-003  -7.7274285193418280E-004   6.6691928873908124E-002
  -1.2206068794595737E-010   2.4332369452650937E-011   6.6659447339760536E-002
  -1.1401077304462603E-010   4.4205805682651089E-011   6.6618095086564189E-002
  -1.0596086508218860E-010   5.7339397119271496E-011   6.6785343444063755E-002
  -9.7910953650304222E-011   6.3732446403674814E-011   6.7161192412258916E-002
  -8.9861042218419840E-011   6.3385963144924062E-011   6.7745641991149741E-002
   1.1833574873639618E-002  -3.0909715978948427E-003   6.3033956501671651E-002
   1.0842950104203969E-002  -2.7677175565065659E-003   6.2936902310349985E-002
   9.8523253347683193E-003  -2.4603994522580941E-003   6.3094517714776421E-002
   8.8617005653326766E-003  -2.1690172851488512E-003   6.3506802714951655E-002
   7.8710757958970201E-003  -1.8935710551789553E-003   6.4173757310875046E-002
   8.8019842977409279E-003  -2.3182286825746967E-003   6.4336086129169023E-002
   8.0642757740339716E-003  -2.0757881525376165E-003   6.4272132532771586E-002
   7.3265672503269735E-003  -1.8452995755048607E-003   6.4459341832082961E-002
   6.5888587266200102E-003  -1.6267629514763252E-003   6.4897714027103301E-002
   5.8511502029130191E-003  -1.4201782804520446E-003   6.5587249117832758E-002
   5.8191916118579476E-003  -1.5454857672544398E-003   6.5555410253247876E-002
   5.3308926338402618E-003  -1.3838587485683618E-003   6.5528541235909593E-002
   4.8425936558225864E-003  -1.2301996987515024E-003   6.5749328414241012E-002
   4.3542946778049024E-003  -1.0845086178035736E-003   6.6217771788241980E-002
   3.8659956997872391E-003  -9.4678550572496745E-004   6.6933871357912483E-002
   2.8851968159906063E-003  -7.7274285193418280E-004   6.6691928873908124E-002
   2.6428006836228639E-003  -6.9192934459914868E-004   6.6706128419764255E-002
   2.4004045512551119E-003  -6.1509982199820651E-004   6.6964477461250671E-002
   2.1580084188873683E-003  -5.4225428413093475E-004   6.7466975998367457E-002
   1.9156122865196176E-003  -4.7339273099791801E-004   6.8213624031114167E-002
  -8.9861042218419840E-011   6.3385963144924062E-011   6.7745641991149741E-002
  -7.6618225652858030E-011   5.9369953397947484E-011   6.7804894084335543E-002
  -6.3375419495637075E-011   5.4755117107063711E-011   6.8104788973112229E-002
  -5.0132609868969169E-011   4.9541544477893495E-011   6.8645326657479661E-002
  -3.6889796772854311E-011   4.3729131427028278E-011   6.9426507137438143E-002
   7.8710757958970201E-003  -1.8935710551789553E-003   6.4173757310875046E-002
   6.9438091554490655E-003  -1.6814725427175548E-003   6.4089991340090524E-002
   6.0165425150011109E-003  -1.5801335281342699E-003   6.4251770818581411E-002
   5.0892758745531425E-003  -1.5895540114275256E-003   6.4659095746347900E-002
   4.1620092341052017E-003  -1.7097339925986610E-003   6.5311966123389409E-002
   5.8511502029130191E-003  -1.4201782804520446E-003   6.5587249117832758E-002
   5.1659968146677490E-003  -1.2611043974853353E-003   6.5437907479339530E-002
   4.4808434264224720E-003  -1.1851001376301518E-003   6.5527246895976388E-002
   3.7956900381772019E-003  -1.1921655008859597E-003   6.5855267367743359E-002
   3.1105366499319248E-003  -1.2823004872531962E-003   6.6421968894640249E-002
   3.8659956997872391E-003  -9.4678550572496745E-004   6.6933871357912483E-002
   3.4160911695993584E-003  -8.4073625225317139E-004   6.6746643926476945E-002
   2.9661866394114708E-003  -7.9006674712646385E-004   6.6791233156026017E-002
   2.5162821092235832E-003  -7.9477699034450136E-004   6.7067639046559963E-002
   2.0663775790357025E-003  -8.5486698190762045E-004   6.7575861598078435E-002
   1.9156122865196176E-003  -4.7339273099791801E-004   6.8213624031114167E-002
   1.6940922202438504E-003  -4.2036810702103522E-004   6.8016200681502492E-002
   1.4725721539680832E-003  -3.9503335662311595E-004   6.8043729598730257E-002
   1.2510520876923229E-003  -3.9738847980332233E-004   6.8296210782797240E-002
   1.0295320214165488E-003  -4.2743347656198916E-004   6.8773644233703871E-002
  -3.6889796772854311E-011   4.3729131427028278E-011   6.9426507137438143E-002
  -3.3398742105283930E-011   3.8211322994641250E-011   6.9246577744416449E-002
  -2.9907677029372692E-011   3.3881036864968905E-011   6.9284736224088872E-002
  -2.6416615422908407E-011   3.0738557532661304E-011   6.9540982576455468E-002
  -2.2925557285891074E-011   2.8783420091826883E-011   7.0015316801516292E-002
   4.1620092341052017E-003  -1.7097339925986610E-003   6.5311966123389409E-002
   3.6303787864083031E-003  -2.0016911726438158E-003   6.4397073016320916E-002
   3.0987483387114184E-003  -2.5264432525600733E-003   6.3602006310247372E-002
   2.5671178910145337E-003  -3.2839902323473918E-003   6.2926766005168611E-002
   2.0354874433176628E-003  -4.2743321120057853E-003   6.2371352101084465E-002
   3.1105366499319248E-003  -1.2823004872531962E-003   6.6421968894640249E-002
   2.7020029061578799E-003  -1.5012683726025045E-003   6.5313964066414820E-002
   2.2934691623838835E-003  -1.8948324328061372E-003   6.4332326245040095E-002
   1.8849354186098663E-003  -2.4629926678632758E-003   6.3477055430516294E-002
   1.4764016748358422E-003  -3.2057490777744890E-003   6.2748151622843307E-002
   2.0663775790357025E-003  -8.5486698190762045E-004   6.7575861598078435E-002
   1.7874811450407334E-003  -1.0008455725613596E-003   6.6332943773712627E-002
   1.5085847110457434E-003  -1.2632216130518403E-003   6.5222933562053914E-002
   1.2296882770507674E-003  -1.6419951033792637E-003   6.4245830963102407E-002
   9.5079184305578435E-004  -2.1371660435430817E-003   6.3401635976857995E-002
   1.0295320214165488E-003  -4.2743347656198916E-004   6.8773644233703871E-002
   8.8681350305679085E-004  -5.0042277252002054E-004   6.7454012138214933E-002
   7.4409498469704162E-004  -6.3161079329766834E-004   6.6273828261289414E-002
   6.0137646633728111E-004  -8.2099753889497765E-004   6.5233092602927173E-002
   4.5865794797753448E-004  -1.0685830093118409E-003   6.4331805163128281E-002
  -2.2925557285891074E-011   2.8783420091826883E-011   7.0015316801516292E-002
  -1.9793909566967471E-011   2.7521096512828080E-011   6.8677169159921503E-002
  -1.6662261848043869E-011   2.6456392632212555E-011   6.7485010342746343E-002
  -1.3530617598567218E-011   2.5588864360770458E-011   6.6438840349990425E-002
  -1.0398966410196664E-011   2.4919399876921489E-011   6.5538659181654024E-002
   2.0354874433176628E-003  -4.2743321120057853E-003   6.2371352101084465E-002
   2.2857436258135744E-003  -5.5773265702746544E-003   5.8340552771973808E-002
   2.5359998083094859E-003  -7.2728312858935107E-003   5.4304097955002795E-002
   2.7862559908054252E-003  -9.3608462588628816E-003   5.0261987650171980E-002
   3.0365121733013090E-003  -1.1841371489182961E-002   4.6214221857480364E-002
   1.4764016748358422E-003  -3.2057490777744890E-003   6.2748151622843307E-002
   1.7067752300642669E-003  -4.1829949214705620E-003   5.8393154615993925E-002
   1.9371487852927055E-003  -5.4546234578827513E-003   5.4004047842469760E-002
   2.1675223405211164E-003  -7.0206346870114802E-003   4.9580831302271089E-002
   2.3978958957495966E-003  -8.8810286088560897E-003   4.5123504995397301E-002
   9.5079184305578435E-004  -2.1371660435430817E-003   6.3401635976857995E-002
   1.1328284922022501E-003  -2.7886632726666361E-003   5.8820568856903926E-002
   1.3148651413487228E-003  -3.6364156298721029E-003   5.4176937691460730E-002
   1.4969017904951851E-003  -4.6804231151597459E-003   4.9470742480527991E-002
   1.6789384396416474E-003  -5.9206857285294401E-003   4.4701983224106567E-002
   4.5865794797753448E-004  -1.0685830093118409E-003   6.4331805163128281E-002
   5.6390341222751442E-004  -1.3943316238627379E-003   5.9622795494703833E-002
   6.6914887647750131E-004  -1.8182078018610659E-003   5.4822767501975497E-002
   7.7439434072748212E-004  -2.3402115433080670E-003   4.9931721184943663E-002
   8.7963980497748201E-004  -2.9603428482027905E-003   4.4949656543607747E-002
  -1.0398966410196664E-011   2.4919399876921489E-011   6.5538659181654024E-002
  -9.8599392539533426E-012   2.4941160248204142E-011   6.0799834529392971E-002
  -9.3209225060508771E-012   2.6149249432450006E-011   5.5941537274014075E-002
  -8.7819057581484117E-012   2.8543542529568811E-011   5.0963767415516614E-002
  -8.2428786019050904E-012   3.2124081172923979E-011   4.5866524953901422E-002
   7.4745528516606541E-010  -1.3319724767590913E-009   6.4095028269501364E-002
   5.5906121398940911E-010  -8.7045243235550629E-010   6.3742357379795778E-002
   3.7066715669054062E-010  -5.3086927909173909E-010   6.3770448919569428E-002
   1.8227309418750171E-010  -3.1322288859825242E-010   6.4179302888822135E-002
  -6.1209717849841638E-012  -2.1751350720577989E-010   6.4968919287553883E-002
  -6.5660954081972617E-003   1.8373977961970156E-003   6.4126711412919563E-002
  -6.1986706078959418E-003   1.7946740175709130E-003   6.3729657797080008E-002
  -5.8312458075946219E-003   1.7467152293523108E-003   6.3686691729152159E-002
  -5.4638210072933029E-003   1.6935214315411985E-003   6.3997813209136001E-002
  -5.0963962069919821E-003   1.6350926241376906E-003   6.4663022237031575E-002
  -1.3160619283435432E-002   3.6747969243665357E-003   6.4118287760019502E-002
  -1.2452444376006153E-002   3.5893489055942723E-003   6.3671616530390371E-002
  -1.1744269468576873E-002   3.4934309895739216E-003   6.3552357967105455E-002
  -1.1036094561147600E-002   3.3870431763054504E-003   6.3760512070164782E-002
  -1.0327919653718322E-002   3.2701854657888607E-003   6.4296078839568435E-002
  -1.9783570878259219E-002   5.5121960525360697E-003   6.4069757310800959E-002
  -1.8761320745269424E-002   5.3840237936176386E-003   6.3568233579726630E-002
  -1.7739070612279587E-002   5.2401467497955219E-003   6.3367447633429011E-002
  -1.6716820479289785E-002   5.0805649210695922E-003   6.3467399471908326E-002
  -1.5694570346299973E-002   4.9052783074399892E-003   6.3868089095164435E-002
  -2.6434950192668658E-002   7.3495951807055482E-003   6.3981120065264241E-002
  -2.5125299715685737E-002   7.1786986816410048E-003   6.3419508945088965E-002
  -2.3815649238702809E-002   6.9868625100171222E-003   6.3131960728123104E-002
  -2.2505998761719864E-002   6.7740866658338311E-003   6.3118475414366687E-002
  -2.1196348284736946E-002   6.5403711490912286E-003   6.3379053003819630E-002
  -6.1209717849841638E-012  -2.1751350720577989E-010   6.4968919287553883E-002
  -1.6798160085151892E-011  -1.8318135897033017E-010   6.5033180142710700E-002
  -2.7475351854766572E-011  -1.4966737571509015E-010   6.5187302384465490E-002
  -3.8152543624381252E-011  -1.1697123478149329E-010   6.5431286012818432E-002
  -4.8829731924548980E-011  -8.5092877188941429E-011   6.5765131027769375E-002
  -5.0963962069919821E-003   1.6350926241376906E-003   6.4663022237031575E-002
  -4.9967769221757607E-003   1.5734129840473399E-003   6.4601280426928781E-002
  -4.8971576373595480E-003   1.5104666881755463E-003   6.4648915821214681E-002
  -4.7975383525433310E-003   1.4462537365227783E-003   6.4805928419889372E-002
  -4.6979190677271139E-003   1.3807741290886577E-003   6.5072318222952896E-002
  -1.0327919653718322E-002   3.2701854657888607E-003   6.4296078839568435E-002
  -1.0109165255618025E-002   3.1468261512759832E-003   6.4107067709242765E-002
  -9.8904108575177292E-003   3.0209335260185169E-003   6.4046949601096526E-002
  -9.6716564594174423E-003   2.8925075900167341E-003   6.4115724515129702E-002
  -9.4529020613171432E-003   2.7615483432702759E-003   6.4313392451342294E-002
  -1.5694570346299973E-002   4.9052783074399892E-003   6.3868089095164435E-002
  -1.5337165017124925E-002   4.7202393185047375E-003   6.3550541989652640E-002
  -1.4979759687949902E-002   4.5314003638614909E-003   6.3381403724110982E-002
  -1.4622354358774870E-002   4.3387614435106076E-003   6.3360674298539268E-002
  -1.4264949029599841E-002   4.1423225574519357E-003   6.3488353712937706E-002
  -2.1196348284736946E-002   6.5403711490912286E-003   6.3379053003819630E-002
  -2.0680776206696502E-002   6.2936524857333809E-003   6.2931703268158390E-002
  -2.0165204128656057E-002   6.0418672017044511E-003   6.2652278190257954E-002
  -1.9649632050615620E-002   5.7850152970046857E-003   6.2540777770118253E-002
  -1.9134059972575175E-002   5.5230967716334289E-003   6.2597202007739272E-002
  -4.8829731924548980E-011  -8.5092877188941429E-011   6.5765131027769375E-002
  -6.7137469195177601E-011  -5.4651783099046725E-011   6.5623390120295499E-002
  -8.5445209935253175E-011  -2.6267238384392044E-011   6.5725195869802772E-002
  -1.0375295241005222E-010   6.0722260553092156E-014   6.6070548276290969E-002
  -1.2206068794595737E-010   2.4332369452650937E-011   6.6659447339760536E-002
  -4.6979190677271139E-003   1.3807741290886577E-003   6.5072318222952896E-002
  -4.4516403803675705E-003   1.3132317394505821E-003   6.4874815934130664E-002
  -4.2053616930080254E-003   1.2428304411853108E-003   6.4926324399661950E-002
  -3.9590830056484847E-003   1.1695702342929756E-003   6.5226843619546740E-002
  -3.7128043182889439E-003   1.0934511187735696E-003   6.5776373593784965E-002
  -9.4529020613171432E-003   2.7615483432702759E-003   6.4313392451342294E-002
  -8.9548805709179884E-003   2.6264635335529196E-003   6.4057269874601336E-002
  -8.4568590805188214E-003   2.4856609086377629E-003   6.4055622149586086E-002
  -7.9588375901196596E-003   2.3391404685251770E-003   6.4308449276296642E-002
  -7.4608160997204978E-003   2.1869022132147420E-003   6.4815751254733059E-002
  -1.4264949029599841E-002   4.1423225574519357E-003   6.3488353712937706E-002
  -1.3509720638788716E-002   3.9396953276552155E-003   6.3170751941707404E-002
  -1.2754492247977593E-002   3.7284913760903468E-003   6.3113089119575222E-002
  -1.1999263857166468E-002   3.5087107027572933E-003   6.3315365246541036E-002
  -1.1244035466355350E-002   3.2803533076560393E-003   6.3777580322605151E-002
  -1.9134059972575175E-002   5.5230967716334289E-003   6.2597202007739272E-002
  -1.8116160583979756E-002   5.2529271217575946E-003   6.2215262135448979E-002
  -1.7098261195384330E-002   4.9713218435428058E-003   6.2098725309629094E-002
  -1.6080361806788908E-002   4.6782809369895310E-003   6.2247591530279797E-002
  -1.5062462418193485E-002   4.3738044020970590E-003   6.2661860797400826E-002
  -1.2206068794595737E-010   2.4332369452650937E-011   6.6659447339760536E-002
  -1.1401077304462603E-010   4.4205805682651089E-011   6.6618095086564189E-002
  -1.0596086508218860E-010   5.7339397119271496E-011   6.6785343444063755E-002
  -9.7910953650304222E-011   6.3732446403674814E-011   6.7161192412258916E-002
  -8.9861042218419840E-011   6.3385963144924062E-011   6.7745641991149741E-002
  -3.7128043182889439E-003   1.0934511187735696E-003   6.5776373593784965E-002
  -3.5059024867752815E-003   1.0152454318181903E-003   6.5697457847660956E-002
  -3.2990006552616070E-003   9.3572551061765763E-004   6.5823745137768730E-002
  -3.0920988237479342E-003   8.5489135517201331E-004   6.6155235464108356E-002
  -2.8851969922342700E-003   7.7274296548124344E-004   6.6691928826679792E-002
  -7.4608160997204978E-003   2.1869022132147420E-003   6.4815751254733059E-002
  -7.0504100192069485E-003   2.0304908194305471E-003   6.4697957788176219E-002
  -6.6400039386934062E-003   1.8714509638962581E-003   6.4781969783387239E-002
  -6.2295978581798561E-003   1.7097826466114154E-003   6.5067787240366187E-002
  -5.8191917776663146E-003   1.5454858675765237E-003   6.5555410159113120E-002
  -1.1244035466355350E-002   3.2803533076560393E-003   6.3777580322605151E-002
  -1.0633522711305800E-002   3.0457362070429178E-003   6.3619594908110269E-002
  -1.0023009956256270E-002   2.8071764171746887E-003   6.3660017380919254E-002
  -9.4124972012067185E-003   2.5646739380507889E-003   6.3898847741032522E-002
  -8.8019844461571881E-003   2.3182287696717485E-003   6.4336085988449643E-002
  -1.5062462418193485E-002   4.3738044020970590E-003   6.2661860797400826E-002
  -1.4255240563071828E-002   4.0609815946552330E-003   6.2462369207462731E-002
  -1.3448018707950187E-002   3.7429018704532163E-003   6.2457887930364858E-002
  -1.2640796852828531E-002   3.4195652294902422E-003   6.2648416966107082E-002
  -1.1833574997706882E-002   3.0909716717670843E-003   6.3033956314689443E-002
  -8.9861042218419840E-011   6.3385963144924062E-011   6.7745641991149741E-002
  -7.6618225652858030E-011   5.9369953397947484E-011   6.7804894084335543E-002
  -6.3375419495637075E-011   5.4755117107063711E-011   6.8104788973112229E-002
  -5.0132609868969169E-011   4.9541544477893495E-011   6.8645326657479661E-002
  -3.6889796772854311E-011   4.3729131427028278E-011   6.9426507137438143E-002
  -2.8851969922342700E-003   7.7274296548124344E-004   6.6691928826679792E-002
  -2.6428008339106947E-003   6.9192945077256596E-004   6.6706128378101859E-002
  -2.4004046755871124E-003   6.1509992027306004E-004   6.6964477424094698E-002
  -2.1580085172635318E-003   5.4225437398310733E-004   6.7466975964658088E-002
  -1.9156123589399547E-003   4.7339281190228455E-004   6.8213623999792028E-002
  -5.8191917776663146E-003   1.5454858675765237E-003   6.5555410159113120E-002
  -5.3308927752821833E-003   1.3838588421752340E-003   6.5528541153579700E-002
  -4.8425937728980538E-003   1.2301997857912111E-003   6.5749328341596511E-002
  -4.3542947705139294E-003   1.0845086984246112E-003   6.6217771723163926E-002
  -3.8659957681297930E-003   9.4678558007549318E-004   6.6933871298281822E-002
  -8.8019844461571881E-003   2.3182287696717485E-003   6.4336085988449643E-002
  -8.0642759007327203E-003   2.0757882335779299E-003   6.4272132410768679E-002
  -7.3265673553082437E-003   1.8452996513093137E-003   6.4459341725617805E-002
  -6.5888588098837776E-003   1.6267630228663666E-003   6.4897713932997439E-002
  -5.8511502644592976E-003   1.4201783482487296E-003   6.5587249032907080E-002
  -1.1833574997706882E-002   3.0909716717670843E-003   6.3033956314689443E-002
  -1.0842950210262298E-002   2.7677176249805147E-003   6.2936902149669183E-002
  -9.8523254228176926E-003   2.4603995168271942E-003   6.3094517576158804E-002
  -8.8617006353730980E-003   2.1690173473076502E-003   6.3506802594158390E-002
  -7.8710758479285103E-003   1.8935711164218549E-003   6.4173757203668025E-002
  -3.6889796772854311E-011   4.3729131427028278E-011   6.9426507137438143E-002
  -3.3398742105283930E-011   3.8211322994641250E-011   6.9246577744416449E-002
  -2.9907677029372692E-011   3.3881036864968905E-011   6.9284736224088872E-002
  -2.6416615422908407E-011   3.0738557532661304E-011   6.9540982576455468E-002
  -2.2925557285891074E-011   2.8783420091826883E-011   7.0015316801516292E-002
  -1.9156123589399547E-003   4.7339281190228455E-004   6.8213623999792028E-002
  -1.6940922858926268E-003   4.2036817946972116E-004   6.8016200654630210E-002
  -1.4725722128452988E-003   3.9503342212465764E-004   6.8043729575886724E-002
  -1.2510521397979752E-003   3.9738853986667766E-004   6.8296210763561738E-002
  -1.0295320667506429E-003   4.2743353269569795E-004   6.8773644217654750E-002
  -3.8659957681297930E-003   9.4678558007549318E-004   6.6933871298281822E-002
  -3.4160912318020407E-003   8.4073632072839688E-004   6.6746643874879413E-002
  -2.9661866954742797E-003   7.9006681036815352E-004   6.6791233111619400E-002
  -2.5162821591465162E-003   7.9477704899457227E-004   6.7067639008502045E-002
  -2.0663776228187526E-003   8.5486703660786478E-004   6.7575861565527306E-002
  -5.8511502644592976E-003   1.4201783482487296E-003   6.5587249032907080E-002
  -5.1659968711269492E-003   1.2611044619872114E-003   6.5437907405163448E-002
  -4.4808434777945938E-003   1.1851001986116008E-003   6.5527246831286814E-002
  -3.7956900844622497E-003   1.1921655581225796E-003   6.5855267311276805E-002
  -3.1105366911298908E-003   1.2823005405199761E-003   6.6421968845133211E-002
  -7.8710758479285103E-003   1.8935711164218549E-003   6.4173757203668025E-002
  -6.9438092038673835E-003   1.6814726032455818E-003   6.4089991245483091E-002
  -6.0165425598062670E-003   1.5801335868552702E-003   6.4251770734888913E-002
  -5.0892759157451384E-003   1.5895540672509201E-003   6.4659095671885686E-002
  -4.1620092716840237E-003   1.7097340444321985E-003   6.5311966056473159E-002
  -2.2925557285891074E-011   2.8783420091826883E-011   7.0015316801516292E-002
  -1.9793909566967471E-011   2.7521096512828080E-011   6.8677169159921503E-002
  -1.6662261848043869E-011   2.6456392632212555E-011   6.7485010342746343E-002
  -1.3530617598567218E-011   2.5588864360770458E-011   6.6438840349990425E-002
  -1.0398966410196664E-011   2.4919399876921489E-011   6.5538659181654024E-002
  -1.0295320667506429E-003   4.2743353269569795E-004   6.8773644217654750E-002
  -8.8681354218197311E-004   5.0042282575885055E-004   6.7454012123623674E-002
  -7.4409501761328947E-004   6.3161084420282343E-004   6.6273828248047173E-002
  -6.0137649304460583E-004   8.2099758802806067E-004   6.5233092590924968E-002
  -4.5865796847592219E-004   1.0685830572332300E-003   6.4331805152257671E-002
  -2.0663776228187526E-003   8.5486703660786478E-004   6.7575861565527306E-002
  -1.7874811827779599E-003   1.0008456239964936E-003   6.6332943744243034E-002
  -1.5085847427371664E-003   1.2632216619492542E-003   6.5222933535448557E-002
  -1.2296883026963737E-003   1.6419951504662578E-003   6.4245830939143725E-002
  -9.5079186265558009E-004   2.1371660895473932E-003   6.3401635955328384E-002
  -3.1105366911298908E-003   1.2823005405199761E-003   6.6421968845133211E-002
  -2.7020029415818891E-003   1.5012684222343031E-003   6.5313964021779372E-002
  -2.2934691920339220E-003   1.8948324796954630E-003   6.4332326204950357E-002
  -1.8849354424859373E-003   2.4629927129048435E-003   6.3477055394646029E-002
  -1.4764016929379527E-003   3.2057491218612788E-003   6.2748151590866275E-002
  -4.1620092716840237E-003   1.7097340444321985E-003   6.5311966056473159E-002
  -3.6303788185937866E-003   2.0016912204718906E-003   6.4397072956232981E-002
  -3.0987483655035251E-003   2.5264432974421158E-003   6.3602006256552490E-002
  -2.5671179124132828E-003   3.2839902753434291E-003   6.2926765957432074E-002
  -2.0354874593230265E-003   4.2743321541754975E-003   6.2371352058871010E-002
  -1.0398966410196664E-011   2.4919399876921489E-011   6.5538659181654024E-002
  -9.8599392539533426E-012   2.4941160248204142E-011   6.0799834529392971E-002
  -9.3209225060508771E-012   2.6149249432450006E-011   5.5941537274014075E-002
  -8.7819057581484117E-012   2.8543542529568811E-011   5.0963767415516614E-002
  -8.2428786019050904E-012   3.2124081172923979E-011   4.5866524953901422E-002
  -4.5865796847592219E-004   1.0685830572332300E-003   6.4331805152257671E-002
  -5.6390343169005624E-004   1.3943316719277066E-003   5.9622795486650282E-002
  -6.6914889490419203E-004   1.8182078522175349E-003   5.4822767496654878E-002
  -7.7439435811832696E-004   2.3402115981041027E-003   4.9931721182271155E-002
  -8.7963982133244800E-004   2.9603429095865774E-003   4.4949656543499250E-002
  -9.5079186265558009E-004   2.1371660895473932E-003   6.3401635955328384E-002
  -1.1328285108927506E-003   2.7886633189134757E-003   5.8820568840784460E-002
  -1.3148651591299359E-003   3.6364156782859591E-003   5.4176937680582460E-002
  -1.4969018073671160E-003   4.6804231676645588E-003   4.9470742474722371E-002
  -1.6789384556043056E-003   5.9206857870492957E-003   4.4701983223204622E-002
  -1.4764016929379527E-003   3.2057491218612788E-003   6.2748151590866275E-002
  -1.7067752474680476E-003   4.1829949658996335E-003   5.8393154591795643E-002
  -1.9371488019981566E-003   5.4546235043539809E-003   5.4004047825797548E-002
  -2.1675223565282720E-003   7.0206347372249560E-003   4.9580831292871622E-002
  -2.3978959110583465E-003   8.8810286645117920E-003   4.5123504993017871E-002
  -2.0354874593230265E-003   4.2743321541754975E-003   6.2371352058871010E-002
  -2.2857436414159341E-003   5.5773266128856802E-003   5.8340552739684304E-002
  -2.5359998235088485E-003   7.2728313304225300E-003   5.4304097932299900E-002
  -2.7862560056017630E-003   9.3608463067855405E-003   5.0261987636717492E-002
  -3.0365121876946705E-003   1.1841371541974510E-002   4.6214221852937332E-002
  -2.6434950192668658E-002   7.3495951807055482E-003   6.3981120065264241E-002
  -2.5125299715685737E-002   7.1786986816410048E-003   6.3419508945088965E-002
  -2.3815649238702809E-002   6.9868625100171222E-003   6.3131960728123104E-002
  -2.2505998761719864E-002   6.7740866658338311E-003   6.3118475414366687E-002
  -2.1196348284736946E-002   6.5403711490912286E-003   6.3379053003819630E-002
  -3.3073093142470145E-002   9.2323740128546494E-003   6.0077823732439806E-002
  -3.1481675075588279E-002   9.0159186905008348E-003   5.9554822000537688E-002
  -2.9890257008706407E-002   8.7724115462705504E-003   5.9321292545224003E-002
  -2.8298838941824580E-002   8.5018525801636886E-003   5.9377235366498748E-002
  -2.6707420874942732E-002   8.2042417921803779E-003   5.9722650464361982E-002
  -3.9656335643470070E-002   1.1115152845003778E-002   5.6132024650984436E-002
  -3.7767740613310230E-002   1.0853138699360665E-002   5.5641520158038374E-002
  -3.5879145583150425E-002   1.0557960582524006E-002   5.5455897315059774E-002
  -3.3990550552990592E-002   1.0229618494493574E-002   5.5575156122048608E-002
  -3.2101955522830766E-002   9.8681124352696381E-003   5.5999296579005028E-002
  -4.6184677695668412E-002   1.2997931677152907E-002   5.2143722820898658E-002
  -4.3983496328851637E-002   1.2690358708220550E-002   5.1679603417591480E-002
  -4.1782314962034779E-002   1.2343509618777365E-002   5.1535775037630731E-002
  -3.9581133595217949E-002   1.1957384408823529E-002   5.1712237681016487E-002
  -3.7379952228401118E-002   1.1531983078358787E-002   5.2208991347748868E-002
  -5.2658119299065304E-002   1.4880710509302009E-002   4.8112918242182001E-002
  -5.0128942222212425E-002   1.4527578717080269E-002   4.7669071779196437E-002
  -4.7599765145359518E-002   1.4129058655030863E-002   4.7560925712936575E-002
  -4.5070588068506612E-002   1.3685150323153338E-002   4.7788480043402137E-002
  -4.2541410991653719E-002   1.3195853721448048E-002   4.8351734770593457E-002
  -2.1196348284736946E-002   6.5403711490912286E-003   6.3379053003819630E-002
  -2.0680776206696502E-002   6.2936524857333809E-003   6.2931703268158390E-002
  -2.0165204128656057E-002   6.0418672017044511E-003   6.2652278190257954E-002
  -1.9649632050615620E-002   5.7850152970046857E-003   6.2540777770118253E-002
  -1.9134059972575175E-002   5.5230967716334289E-003   6.2597202007739272E-002
  -2.6707420874942732E-002   8.2042417921803779E-003   5.9722650464361982E-002
  -2.6031738509123992E-002   7.8913784180145718E-003   5.9379764315456107E-002
  -2.5356056143305262E-002   7.5750616933597525E-003   5.9189174084346041E-002
  -2.4680373777486525E-002   7.2552916182164612E-003   5.9150879771031839E-002
  -2.4004691411667785E-002   6.9320681925841288E-003   5.9264881375513528E-002
  -3.2101955522830766E-002   9.8681124352696381E-003   5.5999296579005028E-002
  -3.1281791609198667E-002   9.4891043502956240E-003   5.5762487287036810E-002
  -3.0461627695566561E-002   9.1082561850151164E-003   5.5662345172899606E-002
  -2.9641463781934434E-002   8.7255679394282384E-003   5.5698870236593270E-002
  -2.8821299868302352E-002   8.3410396135348841E-003   5.5872062478117837E-002
  -3.7379952228401118E-002   1.1531983078358787E-002   5.2208991347748868E-002
  -3.6430935506920545E-002   1.1086830282576718E-002   5.2079872182900666E-002
  -3.5481918785439950E-002   1.0641450676670505E-002   5.2071791455918441E-002
  -3.4532902063959384E-002   1.0195844260640071E-002   5.2184749166802186E-002
  -3.3583885342478782E-002   9.7500110344854729E-003   5.2418745315552046E-002
  -4.2541410991653719E-002   1.3195853721448048E-002   4.8351734770593457E-002
  -4.1479170202289584E-002   1.2684556214857812E-002   4.8331919003047480E-002
  -4.0416929412925441E-002   1.2174645168325796E-002   4.8417512933402629E-002
  -3.9354688623561285E-002   1.1666120581851822E-002   4.8608516561658974E-002
  -3.8292447834197163E-002   1.1158982455436284E-002   4.8904929887816306E-002
  -1.9134059972575175E-002   5.5230967716334289E-003   6.2597202007739272E-002
  -1.8116160583979756E-002   5.2529271217575946E-003   6.2215262135448979E-002
  -1.7098261195384330E-002   4.9713218435428058E-003   6.2098725309629094E-002
  -1.6080361806788908E-002   4.6782809369895310E-003   6.2247591530279797E-002
  -1.5062462418193485E-002   4.3738044020970590E-003   6.2661860797400826E-002
  -2.4004691411667785E-002   6.9320681925841288E-003   5.9264881375513528E-002
  -2.2729773751420507E-002   6.6009286678244683E-003   5.8916672472810266E-002
  -2.1454856091173237E-002   6.2574102952988320E-003   5.8817097066940202E-002
  -2.0179938430925984E-002   5.9015130750070047E-003   5.8966155157903481E-002
  -1.8905020770678668E-002   5.5332370069489101E-003   5.9363846745699889E-002
  -2.8821299868302352E-002   8.3410396135348841E-003   5.5872062478117837E-002
  -2.7306133486040451E-002   7.9489302138915779E-003   5.5556641325574307E-002
  -2.5790967103778525E-002   7.5434987470547540E-003   5.5473084120226716E-002
  -2.4275800721516614E-002   7.1247452130245911E-003   5.5621390862075210E-002
  -2.2760634339254703E-002   6.6926696118008999E-003   5.6001561551119641E-002
  -3.3583885342478782E-002   9.7500110344854729E-003   5.2418745315552046E-002
  -3.1845239787839492E-002   9.2969317599585419E-003   5.2135168693740873E-002
  -3.0106594233200161E-002   8.8295871988107004E-003   5.2066686469488400E-002
  -2.8367948678560847E-002   8.3479773510421219E-003   5.2213298642794788E-002
  -2.6629303123921536E-002   7.8521022166528204E-003   5.2575005213659917E-002
  -3.8292447834197163E-002   1.1158982455436284E-002   4.8904929887816306E-002
  -3.6347092656817667E-002   1.0644933306025561E-002   4.8652254577310095E-002
  -3.4401737479438171E-002   1.0115675650566661E-002   4.8597904114725504E-002
  -3.2456382302058696E-002   9.5712094890597239E-003   4.8741878500062355E-002
  -3.0511027124679194E-002   9.0115348215046298E-003   4.9084177733320855E-002
  -1.5062462418193485E-002   4.3738044020970590E-003   6.2661860797400826E-002
  -1.4255240563071828E-002   4.0609815946552330E-003   6.2462369207462731E-002
  -1.3448018707950187E-002   3.7429018704532163E-003   6.2457887930364858E-002
  -1.2640796852828531E-002   3.4195652294902422E-003   6.2648416966107082E-002
  -1.1833574997706882E-002   3.0909716717670843E-003   6.3033956314689443E-002
  -1.8905020770678668E-002   5.5332370069489101E-003   5.9363846745699889E-002
  -1.7905584345339572E-002   5.1560835294156560E-003   5.9143187753075754E-002
  -1.6906147920000478E-002   4.7735540806976978E-003   5.9111947588046332E-002
  -1.5906711494661385E-002   4.3856486607949142E-003   5.9270126250611552E-002
  -1.4907275069322289E-002   3.9923672697074197E-003   5.9617723740771567E-002
  -2.2760634339254703E-002   6.6926696118008999E-003   5.6001561551119641E-002
  -2.1574574828943600E-002   6.2511854641759956E-003   5.5759616101385037E-002
  -2.0388515318632488E-002   5.8042062909421863E-003   5.5701497993999725E-002
  -1.9202455808321372E-002   5.3517320920993105E-003   5.5827207228963824E-002
  -1.8016396298010273E-002   4.8937628676476441E-003   5.6136743806276923E-002
  -2.6629303123921536E-002   7.8521022166528204E-003   5.2575005213659917E-002
  -2.5262212013883859E-002   7.3462873989362659E-003   5.2311654252390802E-002
  -2.3895120903846184E-002   6.8348585011867823E-003   5.2226539148225309E-002
  -2.2528029793808527E-002   6.3178155234040667E-003   5.2319659901164051E-002
  -2.1160938683770829E-002   5.7951584655879795E-003   5.2591016511206234E-002
  -3.0511027124679194E-002   9.0115348215046298E-003   4.9084177733320855E-002
  -2.8968495900160388E-002   8.4413893336967583E-003   4.8799302206092798E-002
  -2.7425964675641602E-002   7.8655107114312395E-003   4.8687071050723119E-002
  -2.5883433451122800E-002   7.2838989547084551E-003   4.8747484267211844E-002
  -2.4340902226604011E-002   6.6965540635282039E-003   4.8980541855559112E-002
  -1.1833574997706882E-002   3.0909716717670843E-003   6.3033956314689443E-002
  -1.0842950210262298E-002   2.7677176249805147E-003   6.2936902149669183E-002
  -9.8523254228176926E-003   2.4603995168271942E-003   6.3094517576158804E-002
  -8.8617006353730980E-003   2.1690173473076502E-003   6.3506802594158390E-002
  -7.8710758479285103E-003   1.8935711164218549E-003   6.4173757203668025E-002
  -1.4907275069322289E-002   3.9923672697074197E-003   5.9617723740771567E-002
  -1.3673210571896910E-002   3.6012691664143448E-003   5.9486857779852853E-002
  -1.2439146074471566E-002   3.2199136098950698E-003   5.9588201647385958E-002
  -1.1205081577046199E-002   2.8483006001494351E-003   5.9921755343370325E-002
  -9.9710170796208399E-003   2.4864301371776421E-003   6.0487518867806234E-002
  -1.8016396298010273E-002   4.8937628676476441E-003   5.6136743806276923E-002
  -1.6561351853662611E-002   4.4348207078482860E-003   5.5965872657600280E-002
  -1.5106307409315001E-002   3.9794277029628344E-003   5.6004751574316725E-002
  -1.3651262964967374E-002   3.5275838529911091E-003   5.6253380556426105E-002
  -1.2196218520619728E-002   3.0792891579332071E-003   5.6711759603928519E-002
  -2.1160938683770829E-002   5.7951584655879795E-003   5.2591016511206234E-002
  -1.9507374055559426E-002   5.2683722492824492E-003   5.2373946782911622E-002
  -1.7853809427348034E-002   4.7389417960306546E-003   5.2344167356951479E-002
  -1.6200244799136662E-002   4.2068671058328941E-003   5.2501678233325952E-002
  -1.4546680170925242E-002   3.6721481786891053E-003   5.2846479412034852E-002
  -2.4340902226604011E-002   6.6965540635282039E-003   4.8980541855559112E-002
  -2.2511277177587316E-002   6.1019237907160573E-003   4.8711080155786457E-002
  -2.0681652128570663E-002   5.4984558890983637E-003   4.8606448995290041E-002
  -1.8852027079553954E-002   4.8861503586745958E-003   4.8666648374069560E-002
  -1.7022402030537315E-002   4.2650071994445593E-003   4.8891678292125151E-002
  -7.8710758479285103E-003   1.8935711164218549E-003   6.4173757203668025E-002
  -6.9438092038673835E-003   1.6814726032455818E-003   6.4089991245483091E-002
  -6.0165425598062670E-003   1.5801335868552702E-003   6.4251770734888913E-002
  -5.0892759157451384E-003   1.5895540672509201E-003   6.4659095671885686E-002
  -4.1620092716840237E-003   1.7097340444321985E-003   6.5311966056473159E-002
  -9.9710170796208399E-003   2.4864301371776421E-003   6.0487518867806234E-002
  -8.7968594199900017E-003   2.1857290176764410E-003   6.0391516086770347E-002
  -7.6227017603591341E-003   1.9976240383429156E-003   6.0543749889283294E-002
  -6.4485441007282518E-003   1.9221151991777041E-003   6.0944220275344629E-002
  -5.2743864410974284E-003   1.9592025001802238E-003   6.1592927244954687E-002
  -1.2196218520619728E-002   3.0792891579332071E-003   5.6711759603928519E-002
  -1.0772478709461348E-002   2.6899854321072447E-003   5.6605356643423810E-002
  -9.3487388983029794E-003   2.4151144898310051E-003   5.6749881402425678E-002
  -7.9249990871446303E-003   2.2546763311047102E-003   5.7145333880933694E-002
  -6.5012592759862275E-003   2.2086709559284157E-003   5.7791714078948286E-002
  -1.4546680170925242E-002   3.6721481786891053E-003   5.2846479412034852E-002
  -1.2870667072281551E-002   3.1942418465379652E-003   5.2731512915443216E-002
  -1.1194653973637902E-002   2.8326049413190391E-003   5.2870165274316039E-002
  -9.5186408749942091E-003   2.5872374630318273E-003   5.3262436488653100E-002
  -7.8426277763505615E-003   2.4581394116765798E-003   5.3908326558453970E-002
  -1.7022402030537315E-002   4.2650071994445593E-003   4.8891678292125151E-002
  -1.5091424508450565E-002   3.6984982609688521E-003   4.8769984902828911E-002
  -1.3160446986363802E-002   3.2500953928067955E-003   4.8904601504954681E-002
  -1.1229469464277039E-002   2.9197985949587918E-003   4.9295528098502461E-002
  -9.2984919421902901E-003   2.7076078674247439E-003   4.9942764683472030E-002
  -4.1620092716840237E-003   1.7097340444321985E-003   6.5311966056473159E-002
  -3.6303788185937866E-003   2.0016912204718906E-003   6.4397072956232981E-002
  -3.0987483655035251E-003   2.5264432974421158E-003   6.3602006256552490E-002
  -2.5671179124132828E-003   3.2839902753434291E-003   6.2926765957432074E-002
  -2.0354874593230265E-003   4.2743321541754975E-003   6.2371352058871010E-002
  -5.2743864410974284E-003   1.9592025001802238E-003   6.1592927244954687E-002
  -4.5970924168272399E-003   2.2156604047764428E-003   6.0868845633834490E-002
  -3.9197983925570515E-003   2.7982633763929954E-003   6.0316264764514294E-002
  -3.2425043682868717E-003   3.7070114150289935E-003   5.9935184636994182E-002
  -2.5652103440166746E-003   4.9419045206853252E-003   5.9725605251274239E-002
  -6.5012592759862275E-003   2.2086709559284157E-003   5.7791714078948286E-002
  -5.6266273392959181E-003   2.4296295890815500E-003   5.7351794123037342E-002
  -4.7519954026055819E-003   3.0700834553437639E-003   5.7135049250166575E-002
  -3.8773634659152174E-003   4.1300325547150019E-003   5.7141479460336000E-002
  -3.0027315292249085E-003   5.6094768871953193E-003   5.7371084753545937E-002
  -7.8426277763505615E-003   2.4581394116765798E-003   5.3908326558453970E-002
  -6.7189835859997934E-003   2.6435987733865463E-003   5.3845918423841246E-002
  -5.5953393956490426E-003   3.3419035342945325E-003   5.4058359713509335E-002
  -4.4716952052982969E-003   4.5530536944007882E-003   5.4545650427457654E-002
  -3.3480510149475236E-003   6.2770492537052303E-003   5.5307790565686625E-002
  -9.2984919421902901E-003   2.7076078674247439E-003   4.9942764683472030E-002
  -7.8741611569389247E-003   2.8575679576913204E-003   5.0351218536246911E-002
  -6.4498303716875038E-003   3.6137236132455230E-003   5.1086196154542352E-002
  -5.0254995864361177E-003   4.9760748340866578E-003   5.2147697538358684E-002
  -3.6011688011847176E-003   6.9446216202152522E-003   5.3535722687695686E-002
  -2.0354874593230265E-003   4.2743321541754975E-003   6.2371352058871010E-002
  -2.2857436414159341E-003   5.5773266128856802E-003   5.8340552739684304E-002
  -2.5359998235088485E-003   7.2728313304225300E-003   5.4304097932299900E-002
  -2.7862560056017630E-003   9.3608463067855405E-003   5.0261987636717492E-002
  -3.0365121876946705E-003   1.1841371541974510E-002   4.6214221852937332E-002
  -2.5652103440166746E-003   4.9419045206853252E-003   5.9725605251274239E-002
  -2.8385886049982108E-003   6.5666352941503581E-003   5.6192561304593991E-002
  -3.1119668659796984E-003   8.6448963362132369E-003   5.2618928688334732E-002
  -3.3853451269612086E-003   1.1176687646874156E-002   4.9004707402495684E-002
  -3.6587233879427153E-003   1.4162009226132977E-002   4.5349897447077403E-002
  -3.0027315292249085E-003   5.6094768871953193E-003   5.7371084753545937E-002
  -3.3341650504766333E-003   7.5559439754148694E-003   5.4396816189144354E-002
  -3.6655985717283582E-003   1.0016961342004180E-002   5.1347025773781294E-002
  -3.9970320929801229E-003   1.2992528986962997E-002   4.8221713507457666E-002
  -4.3284656142317766E-003   1.6482646910291221E-002   4.5020879390172297E-002
  -3.3480510149475236E-003   6.2770492537052303E-003   5.5307790565686625E-002
  -3.7724729778512117E-003   8.5452526566794640E-003   5.2953317393334878E-002
  -4.1968949407548573E-003   1.1389026347795116E-002   5.0488389188640487E-002
  -4.6213169036585233E-003   1.4808370327051948E-002   4.7913005951603575E-002
  -5.0457388665621911E-003   1.8803284594449576E-002   4.5227167682223651E-002
  -3.6011688011847176E-003   6.9446216202152522E-003   5.3535722687695686E-002
  -4.1535123871219437E-003   9.5345613379442806E-003   5.1862064917165829E-002
  -4.7058559730591698E-003   1.2761091353585857E-002   5.0043018932911687E-002
  -5.2581995589964028E-003   1.6624211667140461E-002   4.8078584734932678E-002
  -5.8105431449336220E-003   2.1123922278607932E-002   4.5968762323229662E-002
  -5.2658119299065304E-002   1.4880710509302009E-002   4.8112918242182001E-002
  -5.0128942222212425E-002   1.4527578717080269E-002   4.7669071779196437E-002
  -4.7599765145359518E-002   1.4129058655030863E-002   4.7560925712936575E-002
  -4.5070588068506612E-002   1.3685150323153338E-002   4.7788480043402137E-002
  -4.2541410991653719E-002   1.3195853721448048E-002   4.8351734770593457E-002
  -5.9125353899239008E-002   1.6820555666567483E-002   4.3901183034595115E-002
  -5.6263609284983959E-002   1.6362421925483067E-002   4.3374366805003894E-002
  -5.3401864670728980E-002   1.5874975524372503E-002   4.3176985253491368E-002
  -5.0540120056473986E-002   1.5358216463235583E-002   4.3309038380057396E-002
  -4.7678375442218944E-002   1.4812144742072542E-002   4.3770526184702063E-002
  -6.5635074941767887E-002   1.8760400823832957E-002   3.9576408073244834E-002
  -6.2447028508757704E-002   1.8197265133885837E-002   3.8982697686849518E-002
  -5.9258982075747486E-002   1.7620892393714158E-002   3.8712156259885874E-002
  -5.6070935642737282E-002   1.7031282603317942E-002   3.8764783792353992E-002
  -5.2882889209727085E-002   1.6428435762697036E-002   3.9140580284253809E-002
  -7.2187282426651983E-002   2.0700245981098431E-002   3.5138593358131014E-002
  -6.8679199893533521E-002   2.0032108342288565E-002   3.4494064424733240E-002
  -6.5171117360415101E-002   1.9366809263055791E-002   3.4166438732120261E-002
  -6.1663034827296646E-002   1.8704348743400052E-002   3.4155716280292008E-002
  -5.8154952294178178E-002   1.8044726783321502E-002   3.4461897069248668E-002
  -7.8781976353891336E-002   2.2640091138363905E-002   3.0587738889253424E-002
  -7.4960123439311604E-002   2.1866951550691294E-002   2.9908467018654961E-002
  -7.1138270524731789E-002   2.1112726132397494E-002   2.9539832670194305E-002
  -6.7316417610151974E-002   2.0377414883482447E-002   2.9481835843871498E-002
  -6.3494564695572214E-002   1.9661017803946024E-002   2.9734476539686583E-002
  -4.2541410991653719E-002   1.3195853721448048E-002   4.8351734770593457E-002
  -4.1479170202289584E-002   1.2684556214857812E-002   4.8331919003047480E-002
  -4.0416929412925441E-002   1.2174645168325796E-002   4.8417512933402629E-002
  -3.9354688623561285E-002   1.1666120581851822E-002   4.8608516561658974E-002
  -3.8292447834197163E-002   1.1158982455436284E-002   4.8904929887816306E-002
  -4.7678375442218944E-002   1.4812144742072542E-002   4.3770526184702063E-002
  -4.6509292419398544E-002   1.4252196060509023E-002   4.3686066235410007E-002
  -4.5340209396578166E-002   1.3693806118170601E-002   4.3709881055129352E-002
  -4.4171126373757821E-002   1.3136974915057578E-002   4.3841970643860084E-002
  -4.3002043350937463E-002   1.2581702451169630E-002   4.4082335001602135E-002
  -5.2882889209727085E-002   1.6428435762697036E-002   3.9140580284253809E-002
  -5.1604098882340237E-002   1.5819835906160123E-002   3.8991648432382758E-002
  -5.0325308554953346E-002   1.5212967068015455E-002   3.8953856420633294E-002
  -4.9046518227566512E-002   1.4607829248263109E-002   3.9027204249005507E-002
  -4.7767727900179607E-002   1.4004422446903114E-002   3.9211691917499278E-002
  -5.8154952294178178E-002   1.8044726783321502E-002   3.4461897069248668E-002
  -5.6763589591114556E-002   1.7387475751811279E-002   3.4248665593965610E-002
  -5.5372226888050956E-002   1.6732128017860285E-002   3.4149439029914443E-002
  -5.3980864184987369E-002   1.6078683581468668E-002   3.4164217377095199E-002
  -5.2589501481923789E-002   1.5427142442636529E-002   3.4293000635507775E-002
  -6.3494564695572214E-002   1.9661017803946024E-002   2.9734476539686583E-002
  -6.1987764545721621E-002   1.8955115597462380E-002   2.9457117720158688E-002
  -6.0480964395871001E-002   1.8251288967705115E-002   2.9296628882972908E-002
  -5.8974164246020380E-002   1.7549537914674340E-002   2.9253010028129162E-002
  -5.7467364096169787E-002   1.6849862438370000E-002   2.9326261155627587E-002
  -3.8292447834197163E-002   1.1158982455436284E-002   4.8904929887816306E-002
  -3.6347092656817667E-002   1.0644933306025561E-002   4.8652254577310095E-002
  -3.4401737479438171E-002   1.0115675650566661E-002   4.8597904114725504E-002
  -3.2456382302058696E-002   9.5712094890597239E-003   4.8741878500062355E-002
  -3.0511027124679194E-002   9.0115348215046298E-003   4.9084177733320855E-002
  -4.3002043350937463E-002   1.2581702451169630E-002   4.4082335001602135E-002
  -4.0853507488939983E-002   1.2020426765655706E-002   4.3764039651027570E-002
  -3.8704971626942523E-002   1.1445585897664312E-002   4.3653780821767407E-002
  -3.6556435764945064E-002   1.0857179847195447E-002   4.3751558513821648E-002
  -3.4407899902947653E-002   1.0255208614249112E-002   4.4057372727190014E-002
  -4.7767727900179607E-002   1.4004422446903114E-002   3.9211691917499278E-002
  -4.5406299680171389E-002   1.3395920225285796E-002   3.8829419850427038E-002
  -4.3044871460163212E-002   1.2775496144761901E-002   3.8664895978062171E-002
  -4.0683443240155007E-002   1.2143150205331113E-002   3.8718120300404238E-002
  -3.8322015020146816E-002   1.1498882406993760E-002   3.8989092817453691E-002
  -5.2589501481923789E-002   1.5427142442636529E-002   3.4293000635507775E-002
  -5.0005469230511974E-002   1.4771413684915913E-002   3.3848395175508708E-002
  -4.7421436979100201E-002   1.4105406391859521E-002   3.3631249583609614E-002
  -4.4837404727688400E-002   1.3429120563466752E-002   3.3641563859810507E-002
  -4.2253372476276668E-002   1.2742556199738270E-002   3.3879338004111269E-002
  -5.7467364096169787E-002   1.6849862438370000E-002   2.9326261155627587E-002
  -5.4651016139961678E-002   1.6146907144546058E-002   2.8820965626272455E-002
  -5.1834668183753541E-002   1.5435316638957169E-002   2.8552841638409876E-002
  -4.9018320227545417E-002   1.4715090921602482E-002   2.8521889192040101E-002
  -4.6201972271337294E-002   1.3986229992482946E-002   2.8728108287163157E-002
  -3.0511027124679194E-002   9.0115348215046298E-003   4.9084177733320855E-002
  -2.8968495900160388E-002   8.4413893336967583E-003   4.8799302206092798E-002
  -2.7425964675641602E-002   7.8655107114312395E-003   4.8687071050723119E-002
  -2.5883433451122800E-002   7.2838989547084551E-003   4.8747484267211844E-002
  -2.4340902226604011E-002   6.6965540635282039E-003   4.8980541855559112E-002
  -3.4407899902947653E-002   1.0255208614249112E-002   4.4057372727190014E-002
  -3.2700646337462898E-002   9.6428531372168280E-003   4.3740864610062963E-002
  -3.0993392771978136E-002   9.0232943544900079E-003   4.3581156803009086E-002
  -2.9286139206493391E-002   8.3965322660686237E-003   4.3578249306028924E-002
  -2.7578885641008660E-002   7.7625668719528695E-003   4.3732142119122075E-002
  -3.8322015020146816E-002   1.1498882406993760E-002   3.8989092817453691E-002
  -3.6465883175480995E-002   1.0844316940737064E-002   3.8639481939190062E-002
  -3.4609751330815230E-002   1.0181077997548679E-002   3.8430827309215182E-002
  -3.2753619486149445E-002   9.5091655774290178E-003   3.8363128927528682E-002
  -3.0897487641483645E-002   8.8285796803773131E-003   3.8436386794130861E-002
  -4.2253372476276668E-002   1.2742556199738270E-002   3.3879338004111269E-002
  -4.0264206414214798E-002   1.2045780744257328E-002   3.3495154193474402E-002
  -3.8275040352152900E-002   1.1338861640607566E-002   3.3236082569341116E-002
  -3.6285874290091030E-002   1.0621798888789133E-002   3.3102123131711562E-002
  -3.4296708228029132E-002   9.8945924888019787E-003   3.3093275880585568E-002
  -4.6201972271337294E-002   1.3986229992482946E-002   2.8728108287163157E-002
  -4.4095616053664216E-002   1.3247244547777592E-002   2.8307881372915678E-002
  -4.1989259835991125E-002   1.2496645283666105E-002   2.7996922583387179E-002
  -3.9882903618318012E-002   1.1734432200149521E-002   2.7795231918577204E-002
  -3.7776547400644955E-002   1.0960605297226422E-002   2.7702809378486015E-002
  -2.4340902226604011E-002   6.6965540635282039E-003   4.8980541855559112E-002
  -2.2511277177587316E-002   6.1019237907160573E-003   4.8711080155786457E-002
  -2.0681652128570663E-002   5.4984558890983637E-003   4.8606448995290041E-002
  -1.8852027079553954E-002   4.8861503586745958E-003   4.8666648374069560E-002
  -1.7022402030537315E-002   4.2650071994445593E-003   4.8891678292125151E-002
  -2.7578885641008660E-002   7.7625668719528695E-003   4.3732142119122075E-002
  -2.5587396335547387E-002   7.1245898926049489E-003   4.3374266803660022E-002
  -2.3595907030086134E-002   6.4857930484878146E-003   4.3175289461811456E-002
  -2.1604417724624878E-002   5.8461763396015151E-003   4.3135210093575849E-002
  -1.9612928419163608E-002   5.2057397659460714E-003   4.3254028698953284E-002
  -3.0897487641483645E-002   8.8285796803773131E-003   3.8436386794130861E-002
  -2.8750066645240668E-002   8.1472559944937295E-003   3.7998115627016327E-002
  -2.6602645648997718E-002   7.4731302078774875E-003   3.7712809867851999E-002
  -2.4455224652754706E-002   6.8062023205287675E-003   3.7580469516637918E-002
  -2.2307803656511783E-002   6.1464723324474724E-003   3.7601094573374211E-002
  -3.4296708228029132E-002   9.8945924888019787E-003   3.3093275880585568E-002
  -3.1999288106667322E-002   9.1699220963822881E-003   3.2582626625854878E-002
  -2.9701867985305469E-002   8.4604673672670494E-003   3.2219010213411739E-002
  -2.7404447863943669E-002   7.7662283014560754E-003   3.2002426643255956E-002
  -2.5107027742581816E-002   7.0872048989488734E-003   3.1932875915387834E-002
  -3.7776547400644955E-002   1.0960605297226422E-002   2.7702809378486015E-002
  -3.5335060719827116E-002   1.0192588198271235E-002   2.7127799800176100E-002
  -3.2893574039009305E-002   9.4478045266565835E-003   2.6693890498490691E-002
  -3.0452087358191451E-002   8.7262542823832653E-003   2.6401081473429899E-002
  -2.8010600677373654E-002   8.0279374654502744E-003   2.6249372724993836E-002
  -1.7022402030537315E-002   4.2650071994445593E-003   4.8891678292125151E-002
  -1.5091424508450565E-002   3.6984982609688521E-003   4.8769984902828911E-002
  -1.3160446986363802E-002   3.2500953928067955E-003   4.8904601504954681E-002
  -1.1229469464277039E-002   2.9197985949587918E-003   4.9295528098502461E-002
  -9.2984919421902901E-003   2.7076078674247439E-003   4.9942764683472030E-002
  -1.9612928419163608E-002   5.2057397659460714E-003   4.3254028698953284E-002
  -1.7464685187413467E-002   4.6018217923722848E-003   4.3084923746799952E-002
  -1.5316441955663354E-002   4.0717608837312902E-003   4.3094040222551228E-002
  -1.3168198723913203E-002   3.6155570400225878E-003   4.3281378126207623E-002
  -1.1019955492163100E-002   3.2332102612466773E-003   4.3646937457768153E-002
  -2.2307803656511783E-002   6.1464723324474724E-003   3.7601094573374211E-002
  -2.0020383278615477E-002   5.5051453237757453E-003   3.7340329052982374E-002
  -1.7732962900719136E-002   4.8934263746552020E-003   3.7179696396978129E-002
  -1.5445542522822792E-002   4.3113154850862659E-003   3.7119196605361435E-002
  -1.3158122144926482E-002   3.7588126550685552E-003   3.7158829678132443E-002
  -2.5107027742581816E-002   7.0872048989488734E-003   3.1932875915387834E-002
  -2.2758518782056435E-002   6.4084688551790253E-003   3.1536200821376079E-002
  -2.0410009821531135E-002   5.7150918655796273E-003   3.1161570028234907E-002
  -1.8061500861005796E-002   5.0070739301497809E-003   3.0808983535964219E-002
  -1.5712991900480457E-002   4.2844150488903499E-003   3.0478441344563817E-002
  -2.8010600677373654E-002   8.0279374654502744E-003   2.6249372724993836E-002
  -2.5679091697736550E-002   7.3117923865825274E-003   2.5672539051981302E-002
  -2.3347582718099363E-002   6.5367573565035808E-003   2.5039661116321943E-002
  -2.1016073738462190E-002   5.7028323752136775E-003   2.4350738918015924E-002
  -1.8684564758825073E-002   4.8100174427123665E-003   2.3605772457063079E-002
  -9.2984919421902901E-003   2.7076078674247439E-003   4.9942764683472030E-002
  -7.8741611569389247E-003   2.8575679576913204E-003   5.0351218536246911E-002
  -6.4498303716875038E-003   3.6137236132455230E-003   5.1086196154542352E-002
  -5.0254995864361177E-003   4.9760748340866578E-003   5.2147697538358684E-002
  -3.6011688011847176E-003   6.9446216202152522E-003   5.3535722687695686E-002
  -1.1019955492163100E-002   3.2332102612466773E-003   4.3646937457768153E-002
  -9.2506714724425593E-003   3.1626192497044570E-003   4.4235042694112325E-002
  -7.4813874527220187E-003   3.6416827076984071E-003   4.5186530633873845E-002
  -5.7121034330014503E-003   4.6704006352268415E-003   4.6501401277052684E-002
  -3.9428194132809374E-003   6.2487730322910995E-003   4.8179654623649260E-002
  -1.3158122144926482E-002   3.7588126550685552E-003   3.7158829678132443E-002
  -1.1007025952840102E-002   3.4676705417183151E-003   3.7870045202293395E-002
  -8.8559297607536600E-003   3.6696418021511801E-003   3.8981502367768456E-002
  -6.7048335686672230E-003   4.3647264363673582E-003   4.0493201174558027E-002
  -4.5537373765807826E-003   5.5529244443666692E-003   4.2405141622661430E-002
  -1.5712991900480457E-002   4.2844150488903499E-003   3.0478441344563817E-002
  -1.3143224598131418E-002   3.7727218337318680E-003   3.1256226060789906E-002
  -1.0573457295782376E-002   3.6976008966042306E-003   3.2471111356226844E-002
  -8.0036899934333248E-003   4.0590522375075974E-003   3.4123097230874706E-002
  -5.4339226910842982E-003   4.8570758564421557E-003   3.6212183684733758E-002
  -1.8684564758825073E-002   4.8100174427123665E-003   2.3605772457063079E-002
  -1.5659267408316718E-002   4.0777731257454208E-003   2.4393585269601781E-002
  -1.2633970057808225E-002   3.7255599910570592E-003   2.5655357599248474E-002
  -9.6086727072998007E-003   3.7533780386481697E-003   2.7391089446002853E-002
  -6.5833753567913766E-003   4.1612272685180862E-003   2.9600780809864835E-002
  -3.6011688011847176E-003   6.9446216202152522E-003   5.3535722687695686E-002
  -4.1535123871219437E-003   9.5345613379442806E-003   5.1862064917165829E-002
  -4.7058559730591698E-003   1.2761091353585857E-002   5.0043018932911687E-002
  -5.2581995589964028E-003   1.6624211667140461E-002   4.8078584734932678E-002
  -5.8105431449336220E-003   2.1123922278607932E-002   4.5968762323229662E-002
  -3.9428194132809374E-003   6.2487730322910995E-003   4.8179654623649260E-002
  -4.5366908154813590E-003   8.6868299180802855E-003   4.7243742302290781E-002
  -5.1305622176817597E-003   1.2294601311785197E-002   4.6370162562130723E-002
  -5.7244336198821986E-003   1.7072087213405064E-002   4.5558915403168421E-002
  -6.3183050220825820E-003   2.3019287622940698E-002   4.4810000825404206E-002
  -4.5537373765807826E-003   5.5529244443666692E-003   4.2405141622661430E-002
  -4.9814158001219369E-003   7.8390984982167344E-003   4.2740098960477729E-002
  -5.4090942236630635E-003   1.1828111269984301E-002   4.3345109674413920E-002
  -5.8367726472041918E-003   1.7519962759669609E-002   4.4220173764470704E-002
  -6.2644510707453999E-003   2.4914652967273021E-002   4.5365291230648586E-002
  -5.4339226910842982E-003   4.8570758564421557E-003   3.6212183684733758E-002
  -5.4876873410437624E-003   6.9913670783528503E-003   3.8351134891726070E-002
  -5.5414519910031998E-003   1.1361621228183634E-002   4.0967860269761583E-002
  -5.5952166409627187E-003   1.7967838305934625E-002   4.4062359818839582E-002
  -5.6489812909220442E-003   2.6810018311605455E-002   4.7634633538960774E-002
  -6.5833753567913766E-003   4.1612272685180862E-003   2.9600780809864835E-002
  -6.0555054382467333E-003   6.1436356584891882E-003   3.4076850096036448E-002
  -5.5276355197019789E-003   1.0895131186382689E-002   3.9238414348173434E-002
  -4.9997656011572800E-003   1.8415713852198742E-002   4.5085473566275347E-002
  -4.4718956826126366E-003   2.8705383655938110E-002   5.1618027750343298E-002
  -7.8781976353891336E-002   2.2640091138363905E-002   3.0587738889253424E-002
  -7.4960123439311604E-002   2.1866951550691294E-002   2.9908467018654961E-002
  -7.1138270524731789E-002   2.1112726132397494E-002   2.9539832670194305E-002
  -6.7316417610151974E-002   2.0377414883482447E-002   2.9481835843871498E-002
  -6.3494564695572214E-002   1.9661017803946024E-002   2.9734476539686583E-002
  -8.5268211253396370E-002   2.4418542078038452E-002   2.2694213639437077E-002
  -8.1167623402351285E-002   2.3644465354899641E-002   2.2250350667154944E-002
  -7.7067035551306187E-002   2.2867288434712446E-002   2.2053320045665542E-002
  -7.2966447700261172E-002   2.2087011317476667E-002   2.2103121774968995E-002
  -6.8865859849216032E-002   2.1303634003192573E-002   2.2399755855064984E-002
  -9.1495041655077658E-002   2.6196993017713027E-002   1.4810758437368107E-002
  -8.7179524038912326E-002   2.5421979159108099E-002   1.4580289996975054E-002
  -8.2864006422747119E-002   2.4621850737027350E-002   1.4532848736029801E-002
  -7.8548488806581801E-002   2.3796607751470973E-002   1.4668434654532016E-002
  -7.4232971190416538E-002   2.2946250202439011E-002   1.4987047752482052E-002
  -9.7462467558935145E-002   2.7975443957387644E-002   6.9373732830465377E-003
  -9.2995825348994809E-002   2.7199492963316446E-002   6.8982850081154776E-003
  -8.8529183139054460E-002   2.6376413039342333E-002   6.9784187412868914E-003
  -8.4062540929114068E-002   2.5506204185465429E-002   7.1777744825611703E-003
  -7.9595898719173719E-002   2.4588866401685477E-002   7.4963522319375156E-003
 -0.10317048896496894        2.9753894897062150E-002  -9.2594182352767618E-004
  -9.8616527332598514E-002   2.8977006767524682E-002  -7.9566429942384831E-004
  -9.4062565700228307E-002   2.8130975341657316E-002  -6.0996993856282655E-004
  -8.9508604067857933E-002   2.7215800619459579E-002  -3.6885874094423621E-004
  -8.4954642435487560E-002   2.6231482600931999E-002  -7.2330706568257686E-005
  -6.3494564695572214E-002   1.9661017803946024E-002   2.9734476539686583E-002
  -6.1987764545721621E-002   1.8955115597462380E-002   2.9457117720158688E-002
  -6.0480964395871001E-002   1.8251288967705115E-002   2.9296628882972908E-002
  -5.8974164246020380E-002   1.7549537914674340E-002   2.9253010028129162E-002
  -5.7467364096169787E-002   1.6849862438370000E-002   2.9326261155627587E-002
  -6.8865859849216032E-002   2.1303634003192573E-002   2.2399755855064984E-002
  -6.7231387495185688E-002   2.0525135314296547E-002   2.2144849582093687E-002
  -6.5596915141155440E-002   1.9759494073225248E-002   2.2028417735139430E-002
  -6.3962442787125123E-002   1.9006710279978620E-002   2.2050460314202623E-002
  -6.2327970433094848E-002   1.8266783934556885E-002   2.2210977319283065E-002
  -7.4232971190416538E-002   2.2946250202439011E-002   1.4987047752482052E-002
  -7.2449222188531365E-002   2.2095155031130603E-002   1.4765375897165381E-002
  -7.0665473186646177E-002   2.1267699178745547E-002   1.4703782911541043E-002
  -6.8881724184761045E-002   2.0463882645282899E-002   1.4802268795609377E-002
  -6.7097975182875802E-002   1.9683705430743687E-002   1.5060833549369962E-002
  -7.9595898719173719E-002   2.4588866401685477E-002   7.4963522319375156E-003
  -7.7641268625758514E-002   2.3665174747965104E-002   7.3186966653739048E-003
  -7.5686638532343309E-002   2.2775904284265486E-002   7.3227244121780062E-003
  -7.3732008438928090E-002   2.1921055010587512E-002   7.5084354723494832E-003
  -7.1777378345512913E-002   2.1100626926930613E-002   7.8758298458887835E-003
  -8.4954642435487560E-002   2.6231482600931999E-002  -7.2330706568257686E-005
  -8.2807526806867149E-002   2.5235194464798882E-002  -1.9518811328050889E-004
  -8.0660411178246738E-002   2.4284109389785868E-002  -1.1475776295029327E-004
  -7.8513295549626272E-002   2.3378227375891625E-002   1.6896034442291305E-004
  -7.6366179921005917E-002   2.2517548423117373E-002   6.5596620883900947E-004
  -5.7467364096169787E-002   1.6849862438370000E-002   2.9326261155627587E-002
  -5.4651016139961678E-002   1.6146907144546058E-002   2.8820965626272455E-002
  -5.1834668183753541E-002   1.5435316638957169E-002   2.8552841638409876E-002
  -4.9018320227545417E-002   1.4715090921602482E-002   2.8521889192040101E-002
  -4.6201972271337294E-002   1.3986229992482946E-002   2.8728108287163157E-002
  -6.2327970433094848E-002   1.8266783934556885E-002   2.2210977319283065E-002
  -5.9284191774710115E-002   1.7525305787683826E-002   2.1774244406509463E-002
  -5.6240413116325397E-002   1.6767866590084057E-002   2.1555201356596346E-002
  -5.3196634457940727E-002   1.5994466341757593E-002   2.1553848169543484E-002
  -5.0152855799555945E-002   1.5205105042704059E-002   2.1770184845351315E-002
  -6.7097975182875802E-002   1.9683705430743687E-002   1.5060833549369962E-002
  -6.3846247500946932E-002   1.8903704430821636E-002   1.4685337414216654E-002
  -6.0594519819018006E-002   1.8100416541211098E-002   1.4508049463291567E-002
  -5.7342792137089094E-002   1.7273841761912479E-002   1.4528969696594160E-002
  -5.4091064455160230E-002   1.6423980092925144E-002   1.4748098114125016E-002
  -7.1777378345512913E-002   2.1100626926930613E-002   7.8758298458887835E-003
  -6.8337183318672112E-002   2.0282103073959425E-002   7.5542446493942136E-003
  -6.4896988291831353E-002   1.9432966492338340E-002   7.4113859584950988E-003
  -6.1456793264990602E-002   1.8553217182067365E-002   7.4472537731917407E-003
  -5.8016598238149780E-002   1.7642855143146410E-002   7.6618480934840354E-003
  -7.6366179921005917E-002   2.2517548423117373E-002   6.5596620883900947E-004
  -7.2756999227885699E-002   2.1660501717097103E-002   3.8096611204124775E-004
  -6.9147818534765426E-002   2.0765516443465082E-002   2.6521084220737512E-004
  -6.5538637841645236E-002   1.9832592602222268E-002   3.0870039933635074E-004
  -6.1929457148524936E-002   1.8861730193367454E-002   5.1143478342885462E-004
  -4.6201972271337294E-002   1.3986229992482946E-002   2.8728108287163157E-002
  -4.4095616053664216E-002   1.3247244547777592E-002   2.8307881372915678E-002
  -4.1989259835991125E-002   1.2496645283666105E-002   2.7996922583387179E-002
  -3.9882903618318012E-002   1.1734432200149521E-002   2.7795231918577204E-002
  -3.7776547400644955E-002   1.0960605297226422E-002   2.7702809378486015E-002
  -5.0152855799555945E-002   1.5205105042704059E-002   2.1770184845351315E-002
  -4.7925981898043882E-002   1.4410834104523651E-002   2.1371146339372316E-002
  -4.5699107996531693E-002   1.3622704938816163E-002   2.1103875076352641E-002
  -4.3472234095019567E-002   1.2840717545581647E-002   2.0968371056292345E-002
  -4.1245360193507385E-002   1.2064871924819753E-002   2.0964634279191485E-002
  -5.4091064455160230E-002   1.6423980092925144E-002   1.4748098114125016E-002
  -5.1721173751568338E-002   1.5574423661269488E-002   1.4388003608293162E-002
  -4.9351283047976507E-002   1.4748764593966006E-002   1.4182175463661205E-002
  -4.6981392344384650E-002   1.3947002891013997E-002   1.4130613680229640E-002
  -4.4611501640792778E-002   1.3169138552413195E-002   1.4233318257997896E-002
  -5.8016598238149780E-002   1.7642855143146410E-002   7.6618480934840354E-003
  -5.5481191614237646E-002   1.6738013218016046E-002   7.3584531796779748E-003
  -5.2945784990325429E-002   1.5874824249115623E-002   7.2318237453129746E-003
  -5.0410378366413197E-002   1.5053288236446402E-002   7.2819597903885222E-003
  -4.7874971742501077E-002   1.4273405180006693E-002   7.5088613149046357E-003
  -6.1929457148524936E-002   1.8861730193367454E-002   5.1143478342885462E-004
  -5.9206035486051745E-002   1.7901602774761827E-002   2.8249505352773152E-004
  -5.6482613823578554E-002   1.7000883904265990E-002   2.5281992130748998E-004
  -5.3759192161105307E-002   1.6159573581878771E-002   4.2240938676953166E-004
  -5.1035770498632171E-002   1.5377671807600191E-002   7.9126344991209407E-004
  -3.7776547400644955E-002   1.0960605297226422E-002   2.7702809378486015E-002
  -3.5335060719827116E-002   1.0192588198271235E-002   2.7127799800176100E-002
  -3.2893574039009305E-002   9.4478045266565835E-003   2.6693890498490691E-002
  -3.0452087358191451E-002   8.7262542823832653E-003   2.6401081473429899E-002
  -2.8010600677373654E-002   8.0279374654502744E-003   2.6249372724993836E-002
  -4.1245360193507385E-002   1.2064871924819753E-002   2.0964634279191485E-002
  -3.8675525140543662E-002   1.1294824753651733E-002   2.0493888419007567E-002
  -3.6105690087579884E-002   1.0530232709197368E-002   2.0138739026490854E-002
  -3.3535855034616147E-002   9.7710957914568727E-003   1.9899186101641583E-002
  -3.0966019981652326E-002   9.0174140004301018E-003   1.9775229644459436E-002
  -4.4611501640792778E-002   1.3169138552413195E-002   1.4233318257997896E-002
  -4.1938822024640332E-002   1.2397061309032426E-002   1.3849057815312621E-002
  -3.9266142408487796E-002   1.1612660891738055E-002   1.3554890031337682E-002
  -3.6593462792335288E-002   1.0815937300530484E-002   1.3350814906072608E-002
  -3.3920783176182800E-002   1.0006890535409763E-002   1.3236832439517926E-002
  -4.7874971742501077E-002   1.4273405180006693E-002   7.5088613149046357E-003
  -4.5124951372117014E-002   1.3499297864413132E-002   7.1933079890912702E-003
  -4.2374931001733021E-002   1.2695089074278791E-002   6.9423435130307742E-003
  -3.9624910631348972E-002   1.1860778809603982E-002   6.7559678867231254E-003
  -3.6874890260964965E-002   1.0996367070389618E-002   6.6341811101685230E-003
  -5.1035770498632171E-002   1.5377671807600191E-002   7.9126344991209407E-004
  -4.8233913182973875E-002   1.4601534419793283E-002   5.2663894034354897E-004
  -4.5432055867315579E-002   1.3777517256819360E-002   3.0109947157072603E-004
  -4.2630198551657339E-002   1.2905620318677716E-002   1.1464504359322975E-004
  -3.9828341235998987E-002   1.1985843605369473E-002  -3.2724343588363958E-005
  -2.8010600677373654E-002   8.0279374654502744E-003   2.6249372724993836E-002
  -2.5679091697736550E-002   7.3117923865825274E-003   2.5672539051981302E-002
  -2.3347582718099363E-002   6.5367573565035808E-003   2.5039661116321943E-002
  -2.1016073738462190E-002   5.7028323752136775E-003   2.4350738918015924E-002
  -1.8684564758825073E-002   4.8100174427123665E-003   2.3605772457063079E-002
  -3.0966019981652326E-002   9.0174140004301018E-003   1.9775229644459436E-002
  -2.8672286991322377E-002   8.2659879970997108E-003   1.9187403603268705E-002
  -2.6378554000992510E-002   7.5136184424484942E-003   1.8580069846110325E-002
  -2.4084821010662547E-002   6.7603053364768753E-003   1.7953228372984395E-002
  -2.1791088020332638E-002   6.0060486791837508E-003   1.7306879183890622E-002
  -3.3920783176182800E-002   1.0006890535409763E-002   1.3236832439517926E-002
  -3.1628289628480993E-002   9.2201836076170607E-003   1.2695960430039094E-002
  -2.9335796080779138E-002   8.4904795283941986E-003   1.2172117251271472E-002
  -2.7043302533077334E-002   7.8177782977397435E-003   1.1665302903215644E-002
  -2.4750808985375475E-002   7.2020799156549131E-003   1.1175517385871109E-002
  -3.6874890260964965E-002   1.0996367070389618E-002   6.6341811101685230E-003
  -3.4547099609212172E-002   1.0174379218134549E-002   6.1982095322917000E-003
  -3.2219308957459315E-002   9.4673406143389524E-003   5.8158033318059868E-003
  -2.9891518305706462E-002   8.8752512590028320E-003   5.4869625087102473E-003
  -2.7563727653953669E-002   8.3981111521262419E-003   5.2116870630052881E-003
  -3.9828341235998987E-002   1.1985843605369473E-002  -3.2724343588363958E-005
  -3.7428716933516126E-002   1.1128574828651594E-002  -3.0584908997277616E-004
  -3.5029092631033043E-002   1.0444201700284428E-002  -4.8887191228755289E-004
  -3.2629468328550126E-002   9.9327242202658789E-003  -5.8179281053222925E-004
  -3.0229844026067099E-002   9.5941423885974597E-003  -5.8461178470736730E-004
  -1.8684564758825073E-002   4.8100174427123665E-003   2.3605772457063079E-002
  -1.5659267408316718E-002   4.0777731257454208E-003   2.4393585269601781E-002
  -1.2633970057808225E-002   3.7255599910570592E-003   2.5655357599248474E-002
  -9.6086727072998007E-003   3.7533780386481697E-003   2.7391089446002853E-002
  -6.5833753567913766E-003   4.1612272685180862E-003   2.9600780809864835E-002
  -2.1791088020332638E-002   6.0060486791837508E-003   1.7306879183890622E-002
  -1.8561049939148144E-002   5.3423357686152029E-003   1.8253306619986753E-002
  -1.5331011857963678E-002   4.8606539028167584E-003   1.9135256000327616E-002
  -1.2100973776779281E-002   4.5610030817881120E-003   1.9952727324912573E-002
  -8.8709356955947172E-003   4.4433833055297356E-003   2.0705720593742094E-002
  -2.4750808985375475E-002   7.2020799156549131E-003   1.1175517385871109E-002
  -2.1854467746378392E-002   6.6068984114851514E-003   1.2082559308016050E-002
  -1.8958126507381372E-002   5.9957478145763465E-003   1.2386685601541769E-002
  -1.6061785268384355E-002   5.3686281249283874E-003   1.2087896266448336E-002
  -1.3165444029387269E-002   4.7255393425409409E-003   1.1186191302735848E-002
  -2.7563727653953669E-002   8.3981111521262419E-003   5.2116870630052881E-003
  -2.5539520830007476E-002   7.8714610543544616E-003   5.8813433336894969E-003
  -2.3515314006061196E-002   7.1308417263360457E-003   5.4096464028910302E-003
  -2.1491107182114982E-002   6.1762531680683852E-003   3.7965962706099816E-003
  -1.9466900358168733E-002   5.0076953795525903E-003   1.0421929368463756E-003
  -3.0229844026067099E-002   9.5941423885974597E-003  -5.8461178470736730E-004
  -2.9616209190035048E-002   9.1360236972247710E-003  -3.5034130299299582E-004
  -2.9002574354003163E-002   8.2659356380953009E-003  -1.7958615956246704E-003
  -2.8388939517971223E-002   6.9838782112082998E-003  -4.9211726626026825E-003
  -2.7775304681939228E-002   5.2898514165640176E-003  -9.7262745039258247E-003
  -6.5833753567913766E-003   4.1612272685180862E-003   2.9600780809864835E-002
  -6.0555054382467333E-003   6.1436356584891882E-003   3.4076850096036448E-002
  -5.5276355197019789E-003   1.0895131186382689E-002   3.9238414348173434E-002
  -4.9997656011572800E-003   1.8415713852198742E-002   4.5085473566275347E-002
  -4.4718956826126366E-003   2.8705383655938110E-002   5.1618027750343298E-002
  -8.8709356955947172E-003   4.4433833055297356E-003   2.0705720593742094E-002
  -7.5854222230574281E-003   5.6588962833894474E-003   2.5873651273646048E-002
  -6.2999087505200280E-003   9.3586437247146770E-003   3.1871374095570559E-002
  -5.0143952779825446E-003   1.5542625629506326E-002   3.8698889059515240E-002
  -3.7288818054453388E-003   2.4210841997763799E-002   4.6356196165479036E-002
  -1.3165444029387269E-002   4.7255393425409409E-003   1.1186191302735848E-002
  -1.0977989826802342E-002   5.1741569082892624E-003   1.6761130701915955E-002
  -8.7905356242175825E-003   7.8221562630466923E-003   2.3310159419171028E-002
  -6.6030814216328226E-003   1.2669537406813529E-002   3.0833277454500721E-002
  -4.4156272190478962E-003   1.9716300339589710E-002   3.9330484807905575E-002
  -1.9466900358168733E-002   5.0076953795525903E-003   1.0421929368463756E-003
  -1.6233208249481761E-002   4.6894175331891885E-003   6.7392883808460036E-003
  -1.2999516140794788E-002   6.2856688013781387E-003   1.3554770318975368E-002
  -9.7658240321077325E-003   9.7964491841204780E-003   2.1488638751234298E-002
  -6.5321319234208433E-003   1.5221758681415176E-002   3.0540893677622416E-002
  -2.7775304681939228E-002   5.2898514165640176E-003  -9.7262745039258247E-003
  -2.3351077491095329E-002   4.2046781580891146E-003  -4.1918756895638620E-003
  -1.8926850300251596E-002   4.7491813397103066E-003   2.6052067949834112E-003
  -1.4502623109407808E-002   6.9233609614277741E-003   1.0664972949714045E-002
  -1.0078395918563965E-002   1.0727217023241309E-002   1.9987422774629282E-002
 </DataArray>
 </PointData>
 </Piece>
 </UnstructuredGrid>
 </VTKFile>
