 <VTKFile type="UnstructuredGrid"  version="0.1"   >
 <UnstructuredGrid>
 <Piece  NumberOfPoints="          1600 "  NumberOfCells="         1024 ">
 <Points>
 <DataArray  type="Float64" NumberOfComponents="3"  format="ascii" >
   0.0000000000000000        0.0000000000000000        0.0000000000000000     
   3.1250000000000000E-002   0.0000000000000000        0.0000000000000000     
   6.2500000000000000E-002   0.0000000000000000        0.0000000000000000     
   9.3750000000000000E-002   0.0000000000000000        0.0000000000000000     
  0.12500000000000000        0.0000000000000000        0.0000000000000000     
   0.0000000000000000        3.1250000000000000E-002   0.0000000000000000     
   3.1250000000000000E-002   3.1250000000000000E-002   0.0000000000000000     
   6.2500000000000000E-002   3.1250000000000000E-002   0.0000000000000000     
   9.3750000000000000E-002   3.1250000000000000E-002   0.0000000000000000     
  0.12500000000000000        3.1250000000000000E-002   0.0000000000000000     
   0.0000000000000000        6.2500000000000000E-002   0.0000000000000000     
   3.1250000000000000E-002   6.2500000000000000E-002   0.0000000000000000     
   6.2500000000000000E-002   6.2500000000000000E-002   0.0000000000000000     
   9.3750000000000000E-002   6.2500000000000000E-002   0.0000000000000000     
  0.12500000000000000        6.2500000000000000E-002   0.0000000000000000     
   0.0000000000000000        9.3750000000000000E-002   0.0000000000000000     
   3.1250000000000000E-002   9.3750000000000000E-002   0.0000000000000000     
   6.2500000000000000E-002   9.3750000000000000E-002   0.0000000000000000     
   9.3750000000000000E-002   9.3750000000000000E-002   0.0000000000000000     
  0.12500000000000000        9.3750000000000000E-002   0.0000000000000000     
   0.0000000000000000       0.12500000000000000        0.0000000000000000     
   3.1250000000000000E-002  0.12500000000000000        0.0000000000000000     
   6.2500000000000000E-002  0.12500000000000000        0.0000000000000000     
   9.3750000000000000E-002  0.12500000000000000        0.0000000000000000     
  0.12500000000000000       0.12500000000000000        0.0000000000000000     
  0.12500000000000000        0.0000000000000000        0.0000000000000000     
  0.15625000000000000        0.0000000000000000        0.0000000000000000     
  0.18750000000000000        0.0000000000000000        0.0000000000000000     
  0.21875000000000000        0.0000000000000000        0.0000000000000000     
  0.25000000000000000        0.0000000000000000        0.0000000000000000     
  0.12500000000000000        3.1250000000000000E-002   0.0000000000000000     
  0.15625000000000000        3.1250000000000000E-002   0.0000000000000000     
  0.18750000000000000        3.1250000000000000E-002   0.0000000000000000     
  0.21875000000000000        3.1250000000000000E-002   0.0000000000000000     
  0.25000000000000000        3.1250000000000000E-002   0.0000000000000000     
  0.12500000000000000        6.2500000000000000E-002   0.0000000000000000     
  0.15625000000000000        6.2500000000000000E-002   0.0000000000000000     
  0.18750000000000000        6.2500000000000000E-002   0.0000000000000000     
  0.21875000000000000        6.2500000000000000E-002   0.0000000000000000     
  0.25000000000000000        6.2500000000000000E-002   0.0000000000000000     
  0.12500000000000000        9.3750000000000000E-002   0.0000000000000000     
  0.15625000000000000        9.3750000000000000E-002   0.0000000000000000     
  0.18750000000000000        9.3750000000000000E-002   0.0000000000000000     
  0.21875000000000000        9.3750000000000000E-002   0.0000000000000000     
  0.25000000000000000        9.3750000000000000E-002   0.0000000000000000     
  0.12500000000000000       0.12500000000000000        0.0000000000000000     
  0.15625000000000000       0.12500000000000000        0.0000000000000000     
  0.18750000000000000       0.12500000000000000        0.0000000000000000     
  0.21875000000000000       0.12500000000000000        0.0000000000000000     
  0.25000000000000000       0.12500000000000000        0.0000000000000000     
  0.25000000000000000        0.0000000000000000        0.0000000000000000     
  0.28125000000000000        0.0000000000000000        0.0000000000000000     
  0.31250000000000000        0.0000000000000000        0.0000000000000000     
  0.34375000000000000        0.0000000000000000        0.0000000000000000     
  0.37500000000000000        0.0000000000000000        0.0000000000000000     
  0.25000000000000000        3.1250000000000000E-002   0.0000000000000000     
  0.28125000000000000        3.1250000000000000E-002   0.0000000000000000     
  0.31250000000000000        3.1250000000000000E-002   0.0000000000000000     
  0.34375000000000000        3.1250000000000000E-002   0.0000000000000000     
  0.37500000000000000        3.1250000000000000E-002   0.0000000000000000     
  0.25000000000000000        6.2500000000000000E-002   0.0000000000000000     
  0.28125000000000000        6.2500000000000000E-002   0.0000000000000000     
  0.31250000000000000        6.2500000000000000E-002   0.0000000000000000     
  0.34375000000000000        6.2500000000000000E-002   0.0000000000000000     
  0.37500000000000000        6.2500000000000000E-002   0.0000000000000000     
  0.25000000000000000        9.3750000000000000E-002   0.0000000000000000     
  0.28125000000000000        9.3750000000000000E-002   0.0000000000000000     
  0.31250000000000000        9.3750000000000000E-002   0.0000000000000000     
  0.34375000000000000        9.3750000000000000E-002   0.0000000000000000     
  0.37500000000000000        9.3750000000000000E-002   0.0000000000000000     
  0.25000000000000000       0.12500000000000000        0.0000000000000000     
  0.28125000000000000       0.12500000000000000        0.0000000000000000     
  0.31250000000000000       0.12500000000000000        0.0000000000000000     
  0.34375000000000000       0.12500000000000000        0.0000000000000000     
  0.37500000000000000       0.12500000000000000        0.0000000000000000     
  0.37500000000000000        0.0000000000000000        0.0000000000000000     
  0.40625000000000000        0.0000000000000000        0.0000000000000000     
  0.43750000000000000        0.0000000000000000        0.0000000000000000     
  0.46875000000000000        0.0000000000000000        0.0000000000000000     
  0.50000000000000000        0.0000000000000000        0.0000000000000000     
  0.37500000000000000        3.1250000000000000E-002   0.0000000000000000     
  0.40625000000000000        3.1250000000000000E-002   0.0000000000000000     
  0.43750000000000000        3.1250000000000000E-002   0.0000000000000000     
  0.46875000000000000        3.1250000000000000E-002   0.0000000000000000     
  0.50000000000000000        3.1250000000000000E-002   0.0000000000000000     
  0.37500000000000000        6.2500000000000000E-002   0.0000000000000000     
  0.40625000000000000        6.2500000000000000E-002   0.0000000000000000     
  0.43750000000000000        6.2500000000000000E-002   0.0000000000000000     
  0.46875000000000000        6.2500000000000000E-002   0.0000000000000000     
  0.50000000000000000        6.2500000000000000E-002   0.0000000000000000     
  0.37500000000000000        9.3750000000000000E-002   0.0000000000000000     
  0.40625000000000000        9.3750000000000000E-002   0.0000000000000000     
  0.43750000000000000        9.3750000000000000E-002   0.0000000000000000     
  0.46875000000000000        9.3750000000000000E-002   0.0000000000000000     
  0.50000000000000000        9.3750000000000000E-002   0.0000000000000000     
  0.37500000000000000       0.12500000000000000        0.0000000000000000     
  0.40625000000000000       0.12500000000000000        0.0000000000000000     
  0.43750000000000000       0.12500000000000000        0.0000000000000000     
  0.46875000000000000       0.12500000000000000        0.0000000000000000     
  0.50000000000000000       0.12500000000000000        0.0000000000000000     
  0.50000000000000000        0.0000000000000000        0.0000000000000000     
  0.53125000000000000        0.0000000000000000        0.0000000000000000     
  0.56250000000000000        0.0000000000000000        0.0000000000000000     
  0.59375000000000000        0.0000000000000000        0.0000000000000000     
  0.62500000000000000        0.0000000000000000        0.0000000000000000     
  0.50000000000000000        3.1250000000000000E-002   0.0000000000000000     
  0.53125000000000000        3.1250000000000000E-002   0.0000000000000000     
  0.56250000000000000        3.1250000000000000E-002   0.0000000000000000     
  0.59375000000000000        3.1250000000000000E-002   0.0000000000000000     
  0.62500000000000000        3.1250000000000000E-002   0.0000000000000000     
  0.50000000000000000        6.2500000000000000E-002   0.0000000000000000     
  0.53125000000000000        6.2500000000000000E-002   0.0000000000000000     
  0.56250000000000000        6.2500000000000000E-002   0.0000000000000000     
  0.59375000000000000        6.2500000000000000E-002   0.0000000000000000     
  0.62500000000000000        6.2500000000000000E-002   0.0000000000000000     
  0.50000000000000000        9.3750000000000000E-002   0.0000000000000000     
  0.53125000000000000        9.3750000000000000E-002   0.0000000000000000     
  0.56250000000000000        9.3750000000000000E-002   0.0000000000000000     
  0.59375000000000000        9.3750000000000000E-002   0.0000000000000000     
  0.62500000000000000        9.3750000000000000E-002   0.0000000000000000     
  0.50000000000000000       0.12500000000000000        0.0000000000000000     
  0.53125000000000000       0.12500000000000000        0.0000000000000000     
  0.56250000000000000       0.12500000000000000        0.0000000000000000     
  0.59375000000000000       0.12500000000000000        0.0000000000000000     
  0.62500000000000000       0.12500000000000000        0.0000000000000000     
  0.62500000000000000        0.0000000000000000        0.0000000000000000     
  0.65625000000000000        0.0000000000000000        0.0000000000000000     
  0.68750000000000000        0.0000000000000000        0.0000000000000000     
  0.71875000000000000        0.0000000000000000        0.0000000000000000     
  0.75000000000000000        0.0000000000000000        0.0000000000000000     
  0.62500000000000000        3.1250000000000000E-002   0.0000000000000000     
  0.65625000000000000        3.1250000000000000E-002   0.0000000000000000     
  0.68750000000000000        3.1250000000000000E-002   0.0000000000000000     
  0.71875000000000000        3.1250000000000000E-002   0.0000000000000000     
  0.75000000000000000        3.1250000000000000E-002   0.0000000000000000     
  0.62500000000000000        6.2500000000000000E-002   0.0000000000000000     
  0.65625000000000000        6.2500000000000000E-002   0.0000000000000000     
  0.68750000000000000        6.2500000000000000E-002   0.0000000000000000     
  0.71875000000000000        6.2500000000000000E-002   0.0000000000000000     
  0.75000000000000000        6.2500000000000000E-002   0.0000000000000000     
  0.62500000000000000        9.3750000000000000E-002   0.0000000000000000     
  0.65625000000000000        9.3750000000000000E-002   0.0000000000000000     
  0.68750000000000000        9.3750000000000000E-002   0.0000000000000000     
  0.71875000000000000        9.3750000000000000E-002   0.0000000000000000     
  0.75000000000000000        9.3750000000000000E-002   0.0000000000000000     
  0.62500000000000000       0.12500000000000000        0.0000000000000000     
  0.65625000000000000       0.12500000000000000        0.0000000000000000     
  0.68750000000000000       0.12500000000000000        0.0000000000000000     
  0.71875000000000000       0.12500000000000000        0.0000000000000000     
  0.75000000000000000       0.12500000000000000        0.0000000000000000     
  0.75000000000000000        0.0000000000000000        0.0000000000000000     
  0.78125000000000000        0.0000000000000000        0.0000000000000000     
  0.81250000000000000        0.0000000000000000        0.0000000000000000     
  0.84375000000000000        0.0000000000000000        0.0000000000000000     
  0.87500000000000000        0.0000000000000000        0.0000000000000000     
  0.75000000000000000        3.1250000000000000E-002   0.0000000000000000     
  0.78125000000000000        3.1250000000000000E-002   0.0000000000000000     
  0.81250000000000000        3.1250000000000000E-002   0.0000000000000000     
  0.84375000000000000        3.1250000000000000E-002   0.0000000000000000     
  0.87500000000000000        3.1250000000000000E-002   0.0000000000000000     
  0.75000000000000000        6.2500000000000000E-002   0.0000000000000000     
  0.78125000000000000        6.2500000000000000E-002   0.0000000000000000     
  0.81250000000000000        6.2500000000000000E-002   0.0000000000000000     
  0.84375000000000000        6.2500000000000000E-002   0.0000000000000000     
  0.87500000000000000        6.2500000000000000E-002   0.0000000000000000     
  0.75000000000000000        9.3750000000000000E-002   0.0000000000000000     
  0.78125000000000000        9.3750000000000000E-002   0.0000000000000000     
  0.81250000000000000        9.3750000000000000E-002   0.0000000000000000     
  0.84375000000000000        9.3750000000000000E-002   0.0000000000000000     
  0.87500000000000000        9.3750000000000000E-002   0.0000000000000000     
  0.75000000000000000       0.12500000000000000        0.0000000000000000     
  0.78125000000000000       0.12500000000000000        0.0000000000000000     
  0.81250000000000000       0.12500000000000000        0.0000000000000000     
  0.84375000000000000       0.12500000000000000        0.0000000000000000     
  0.87500000000000000       0.12500000000000000        0.0000000000000000     
  0.87500000000000000        0.0000000000000000        0.0000000000000000     
  0.90625000000000000        0.0000000000000000        0.0000000000000000     
  0.93750000000000000        0.0000000000000000        0.0000000000000000     
  0.96875000000000000        0.0000000000000000        0.0000000000000000     
   1.0000000000000000        0.0000000000000000        0.0000000000000000     
  0.87500000000000000        3.1250000000000000E-002   0.0000000000000000     
  0.90625000000000000        3.1250000000000000E-002   0.0000000000000000     
  0.93750000000000000        3.1250000000000000E-002   0.0000000000000000     
  0.96875000000000000        3.1250000000000000E-002   0.0000000000000000     
   1.0000000000000000        3.1250000000000000E-002   0.0000000000000000     
  0.87500000000000000        6.2500000000000000E-002   0.0000000000000000     
  0.90625000000000000        6.2500000000000000E-002   0.0000000000000000     
  0.93750000000000000        6.2500000000000000E-002   0.0000000000000000     
  0.96875000000000000        6.2500000000000000E-002   0.0000000000000000     
   1.0000000000000000        6.2500000000000000E-002   0.0000000000000000     
  0.87500000000000000        9.3750000000000000E-002   0.0000000000000000     
  0.90625000000000000        9.3750000000000000E-002   0.0000000000000000     
  0.93750000000000000        9.3750000000000000E-002   0.0000000000000000     
  0.96875000000000000        9.3750000000000000E-002   0.0000000000000000     
   1.0000000000000000        9.3750000000000000E-002   0.0000000000000000     
  0.87500000000000000       0.12500000000000000        0.0000000000000000     
  0.90625000000000000       0.12500000000000000        0.0000000000000000     
  0.93750000000000000       0.12500000000000000        0.0000000000000000     
  0.96875000000000000       0.12500000000000000        0.0000000000000000     
   1.0000000000000000       0.12500000000000000        0.0000000000000000     
   0.0000000000000000       0.12500000000000000        0.0000000000000000     
   3.1250000000000000E-002  0.12500000000000000        0.0000000000000000     
   6.2500000000000000E-002  0.12500000000000000        0.0000000000000000     
   9.3750000000000000E-002  0.12500000000000000        0.0000000000000000     
  0.12500000000000000       0.12500000000000000        0.0000000000000000     
   0.0000000000000000       0.15625000000000000        0.0000000000000000     
   3.1250000000000000E-002  0.15625000000000000        0.0000000000000000     
   6.2500000000000000E-002  0.15625000000000000        0.0000000000000000     
   9.3750000000000000E-002  0.15625000000000000        0.0000000000000000     
  0.12500000000000000       0.15625000000000000        0.0000000000000000     
   0.0000000000000000       0.18750000000000000        0.0000000000000000     
   3.1250000000000000E-002  0.18750000000000000        0.0000000000000000     
   6.2500000000000000E-002  0.18750000000000000        0.0000000000000000     
   9.3750000000000000E-002  0.18750000000000000        0.0000000000000000     
  0.12500000000000000       0.18750000000000000        0.0000000000000000     
   0.0000000000000000       0.21875000000000000        0.0000000000000000     
   3.1250000000000000E-002  0.21875000000000000        0.0000000000000000     
   6.2500000000000000E-002  0.21875000000000000        0.0000000000000000     
   9.3750000000000000E-002  0.21875000000000000        0.0000000000000000     
  0.12500000000000000       0.21875000000000000        0.0000000000000000     
   0.0000000000000000       0.25000000000000000        0.0000000000000000     
   3.1250000000000000E-002  0.25000000000000000        0.0000000000000000     
   6.2500000000000000E-002  0.25000000000000000        0.0000000000000000     
   9.3750000000000000E-002  0.25000000000000000        0.0000000000000000     
  0.12500000000000000       0.25000000000000000        0.0000000000000000     
  0.12500000000000000       0.12500000000000000        0.0000000000000000     
  0.15625000000000000       0.12500000000000000        0.0000000000000000     
  0.18750000000000000       0.12500000000000000        0.0000000000000000     
  0.21875000000000000       0.12500000000000000        0.0000000000000000     
  0.25000000000000000       0.12500000000000000        0.0000000000000000     
  0.12500000000000000       0.15625000000000000        0.0000000000000000     
  0.15625000000000000       0.15625000000000000        0.0000000000000000     
  0.18750000000000000       0.15625000000000000        0.0000000000000000     
  0.21875000000000000       0.15625000000000000        0.0000000000000000     
  0.25000000000000000       0.15625000000000000        0.0000000000000000     
  0.12500000000000000       0.18750000000000000        0.0000000000000000     
  0.15625000000000000       0.18750000000000000        0.0000000000000000     
  0.18750000000000000       0.18750000000000000        0.0000000000000000     
  0.21875000000000000       0.18750000000000000        0.0000000000000000     
  0.25000000000000000       0.18750000000000000        0.0000000000000000     
  0.12500000000000000       0.21875000000000000        0.0000000000000000     
  0.15625000000000000       0.21875000000000000        0.0000000000000000     
  0.18750000000000000       0.21875000000000000        0.0000000000000000     
  0.21875000000000000       0.21875000000000000        0.0000000000000000     
  0.25000000000000000       0.21875000000000000        0.0000000000000000     
  0.12500000000000000       0.25000000000000000        0.0000000000000000     
  0.15625000000000000       0.25000000000000000        0.0000000000000000     
  0.18750000000000000       0.25000000000000000        0.0000000000000000     
  0.21875000000000000       0.25000000000000000        0.0000000000000000     
  0.25000000000000000       0.25000000000000000        0.0000000000000000     
  0.25000000000000000       0.12500000000000000        0.0000000000000000     
  0.28125000000000000       0.12500000000000000        0.0000000000000000     
  0.31250000000000000       0.12500000000000000        0.0000000000000000     
  0.34375000000000000       0.12500000000000000        0.0000000000000000     
  0.37500000000000000       0.12500000000000000        0.0000000000000000     
  0.25000000000000000       0.15625000000000000        0.0000000000000000     
  0.28125000000000000       0.15625000000000000        0.0000000000000000     
  0.31250000000000000       0.15625000000000000        0.0000000000000000     
  0.34375000000000000       0.15625000000000000        0.0000000000000000     
  0.37500000000000000       0.15625000000000000        0.0000000000000000     
  0.25000000000000000       0.18750000000000000        0.0000000000000000     
  0.28125000000000000       0.18750000000000000        0.0000000000000000     
  0.31250000000000000       0.18750000000000000        0.0000000000000000     
  0.34375000000000000       0.18750000000000000        0.0000000000000000     
  0.37500000000000000       0.18750000000000000        0.0000000000000000     
  0.25000000000000000       0.21875000000000000        0.0000000000000000     
  0.28125000000000000       0.21875000000000000        0.0000000000000000     
  0.31250000000000000       0.21875000000000000        0.0000000000000000     
  0.34375000000000000       0.21875000000000000        0.0000000000000000     
  0.37500000000000000       0.21875000000000000        0.0000000000000000     
  0.25000000000000000       0.25000000000000000        0.0000000000000000     
  0.28125000000000000       0.25000000000000000        0.0000000000000000     
  0.31250000000000000       0.25000000000000000        0.0000000000000000     
  0.34375000000000000       0.25000000000000000        0.0000000000000000     
  0.37500000000000000       0.25000000000000000        0.0000000000000000     
  0.37500000000000000       0.12500000000000000        0.0000000000000000     
  0.40625000000000000       0.12500000000000000        0.0000000000000000     
  0.43750000000000000       0.12500000000000000        0.0000000000000000     
  0.46875000000000000       0.12500000000000000        0.0000000000000000     
  0.50000000000000000       0.12500000000000000        0.0000000000000000     
  0.37500000000000000       0.15625000000000000        0.0000000000000000     
  0.40625000000000000       0.15625000000000000        0.0000000000000000     
  0.43750000000000000       0.15625000000000000        0.0000000000000000     
  0.46875000000000000       0.15625000000000000        0.0000000000000000     
  0.50000000000000000       0.15625000000000000        0.0000000000000000     
  0.37500000000000000       0.18750000000000000        0.0000000000000000     
  0.40625000000000000       0.18750000000000000        0.0000000000000000     
  0.43750000000000000       0.18750000000000000        0.0000000000000000     
  0.46875000000000000       0.18750000000000000        0.0000000000000000     
  0.50000000000000000       0.18750000000000000        0.0000000000000000     
  0.37500000000000000       0.21875000000000000        0.0000000000000000     
  0.40625000000000000       0.21875000000000000        0.0000000000000000     
  0.43750000000000000       0.21875000000000000        0.0000000000000000     
  0.46875000000000000       0.21875000000000000        0.0000000000000000     
  0.50000000000000000       0.21875000000000000        0.0000000000000000     
  0.37500000000000000       0.25000000000000000        0.0000000000000000     
  0.40625000000000000       0.25000000000000000        0.0000000000000000     
  0.43750000000000000       0.25000000000000000        0.0000000000000000     
  0.46875000000000000       0.25000000000000000        0.0000000000000000     
  0.50000000000000000       0.25000000000000000        0.0000000000000000     
  0.50000000000000000       0.12500000000000000        0.0000000000000000     
  0.53125000000000000       0.12500000000000000        0.0000000000000000     
  0.56250000000000000       0.12500000000000000        0.0000000000000000     
  0.59375000000000000       0.12500000000000000        0.0000000000000000     
  0.62500000000000000       0.12500000000000000        0.0000000000000000     
  0.50000000000000000       0.15625000000000000        0.0000000000000000     
  0.53125000000000000       0.15625000000000000        0.0000000000000000     
  0.56250000000000000       0.15625000000000000        0.0000000000000000     
  0.59375000000000000       0.15625000000000000        0.0000000000000000     
  0.62500000000000000       0.15625000000000000        0.0000000000000000     
  0.50000000000000000       0.18750000000000000        0.0000000000000000     
  0.53125000000000000       0.18750000000000000        0.0000000000000000     
  0.56250000000000000       0.18750000000000000        0.0000000000000000     
  0.59375000000000000       0.18750000000000000        0.0000000000000000     
  0.62500000000000000       0.18750000000000000        0.0000000000000000     
  0.50000000000000000       0.21875000000000000        0.0000000000000000     
  0.53125000000000000       0.21875000000000000        0.0000000000000000     
  0.56250000000000000       0.21875000000000000        0.0000000000000000     
  0.59375000000000000       0.21875000000000000        0.0000000000000000     
  0.62500000000000000       0.21875000000000000        0.0000000000000000     
  0.50000000000000000       0.25000000000000000        0.0000000000000000     
  0.53125000000000000       0.25000000000000000        0.0000000000000000     
  0.56250000000000000       0.25000000000000000        0.0000000000000000     
  0.59375000000000000       0.25000000000000000        0.0000000000000000     
  0.62500000000000000       0.25000000000000000        0.0000000000000000     
  0.62500000000000000       0.12500000000000000        0.0000000000000000     
  0.65625000000000000       0.12500000000000000        0.0000000000000000     
  0.68750000000000000       0.12500000000000000        0.0000000000000000     
  0.71875000000000000       0.12500000000000000        0.0000000000000000     
  0.75000000000000000       0.12500000000000000        0.0000000000000000     
  0.62500000000000000       0.15625000000000000        0.0000000000000000     
  0.65625000000000000       0.15625000000000000        0.0000000000000000     
  0.68750000000000000       0.15625000000000000        0.0000000000000000     
  0.71875000000000000       0.15625000000000000        0.0000000000000000     
  0.75000000000000000       0.15625000000000000        0.0000000000000000     
  0.62500000000000000       0.18750000000000000        0.0000000000000000     
  0.65625000000000000       0.18750000000000000        0.0000000000000000     
  0.68750000000000000       0.18750000000000000        0.0000000000000000     
  0.71875000000000000       0.18750000000000000        0.0000000000000000     
  0.75000000000000000       0.18750000000000000        0.0000000000000000     
  0.62500000000000000       0.21875000000000000        0.0000000000000000     
  0.65625000000000000       0.21875000000000000        0.0000000000000000     
  0.68750000000000000       0.21875000000000000        0.0000000000000000     
  0.71875000000000000       0.21875000000000000        0.0000000000000000     
  0.75000000000000000       0.21875000000000000        0.0000000000000000     
  0.62500000000000000       0.25000000000000000        0.0000000000000000     
  0.65625000000000000       0.25000000000000000        0.0000000000000000     
  0.68750000000000000       0.25000000000000000        0.0000000000000000     
  0.71875000000000000       0.25000000000000000        0.0000000000000000     
  0.75000000000000000       0.25000000000000000        0.0000000000000000     
  0.75000000000000000       0.12500000000000000        0.0000000000000000     
  0.78125000000000000       0.12500000000000000        0.0000000000000000     
  0.81250000000000000       0.12500000000000000        0.0000000000000000     
  0.84375000000000000       0.12500000000000000        0.0000000000000000     
  0.87500000000000000       0.12500000000000000        0.0000000000000000     
  0.75000000000000000       0.15625000000000000        0.0000000000000000     
  0.78125000000000000       0.15625000000000000        0.0000000000000000     
  0.81250000000000000       0.15625000000000000        0.0000000000000000     
  0.84375000000000000       0.15625000000000000        0.0000000000000000     
  0.87500000000000000       0.15625000000000000        0.0000000000000000     
  0.75000000000000000       0.18750000000000000        0.0000000000000000     
  0.78125000000000000       0.18750000000000000        0.0000000000000000     
  0.81250000000000000       0.18750000000000000        0.0000000000000000     
  0.84375000000000000       0.18750000000000000        0.0000000000000000     
  0.87500000000000000       0.18750000000000000        0.0000000000000000     
  0.75000000000000000       0.21875000000000000        0.0000000000000000     
  0.78125000000000000       0.21875000000000000        0.0000000000000000     
  0.81250000000000000       0.21875000000000000        0.0000000000000000     
  0.84375000000000000       0.21875000000000000        0.0000000000000000     
  0.87500000000000000       0.21875000000000000        0.0000000000000000     
  0.75000000000000000       0.25000000000000000        0.0000000000000000     
  0.78125000000000000       0.25000000000000000        0.0000000000000000     
  0.81250000000000000       0.25000000000000000        0.0000000000000000     
  0.84375000000000000       0.25000000000000000        0.0000000000000000     
  0.87500000000000000       0.25000000000000000        0.0000000000000000     
  0.87500000000000000       0.12500000000000000        0.0000000000000000     
  0.90625000000000000       0.12500000000000000        0.0000000000000000     
  0.93750000000000000       0.12500000000000000        0.0000000000000000     
  0.96875000000000000       0.12500000000000000        0.0000000000000000     
   1.0000000000000000       0.12500000000000000        0.0000000000000000     
  0.87500000000000000       0.15625000000000000        0.0000000000000000     
  0.90625000000000000       0.15625000000000000        0.0000000000000000     
  0.93750000000000000       0.15625000000000000        0.0000000000000000     
  0.96875000000000000       0.15625000000000000        0.0000000000000000     
   1.0000000000000000       0.15625000000000000        0.0000000000000000     
  0.87500000000000000       0.18750000000000000        0.0000000000000000     
  0.90625000000000000       0.18750000000000000        0.0000000000000000     
  0.93750000000000000       0.18750000000000000        0.0000000000000000     
  0.96875000000000000       0.18750000000000000        0.0000000000000000     
   1.0000000000000000       0.18750000000000000        0.0000000000000000     
  0.87500000000000000       0.21875000000000000        0.0000000000000000     
  0.90625000000000000       0.21875000000000000        0.0000000000000000     
  0.93750000000000000       0.21875000000000000        0.0000000000000000     
  0.96875000000000000       0.21875000000000000        0.0000000000000000     
   1.0000000000000000       0.21875000000000000        0.0000000000000000     
  0.87500000000000000       0.25000000000000000        0.0000000000000000     
  0.90625000000000000       0.25000000000000000        0.0000000000000000     
  0.93750000000000000       0.25000000000000000        0.0000000000000000     
  0.96875000000000000       0.25000000000000000        0.0000000000000000     
   1.0000000000000000       0.25000000000000000        0.0000000000000000     
   0.0000000000000000       0.25000000000000000        0.0000000000000000     
   3.1250000000000000E-002  0.25000000000000000        0.0000000000000000     
   6.2500000000000000E-002  0.25000000000000000        0.0000000000000000     
   9.3750000000000000E-002  0.25000000000000000        0.0000000000000000     
  0.12500000000000000       0.25000000000000000        0.0000000000000000     
   0.0000000000000000       0.28125000000000000        0.0000000000000000     
   3.1250000000000000E-002  0.28125000000000000        0.0000000000000000     
   6.2500000000000000E-002  0.28125000000000000        0.0000000000000000     
   9.3750000000000000E-002  0.28125000000000000        0.0000000000000000     
  0.12500000000000000       0.28125000000000000        0.0000000000000000     
   0.0000000000000000       0.31250000000000000        0.0000000000000000     
   3.1250000000000000E-002  0.31250000000000000        0.0000000000000000     
   6.2500000000000000E-002  0.31250000000000000        0.0000000000000000     
   9.3750000000000000E-002  0.31250000000000000        0.0000000000000000     
  0.12500000000000000       0.31250000000000000        0.0000000000000000     
   0.0000000000000000       0.34375000000000000        0.0000000000000000     
   3.1250000000000000E-002  0.34375000000000000        0.0000000000000000     
   6.2500000000000000E-002  0.34375000000000000        0.0000000000000000     
   9.3750000000000000E-002  0.34375000000000000        0.0000000000000000     
  0.12500000000000000       0.34375000000000000        0.0000000000000000     
   0.0000000000000000       0.37500000000000000        0.0000000000000000     
   3.1250000000000000E-002  0.37500000000000000        0.0000000000000000     
   6.2500000000000000E-002  0.37500000000000000        0.0000000000000000     
   9.3750000000000000E-002  0.37500000000000000        0.0000000000000000     
  0.12500000000000000       0.37500000000000000        0.0000000000000000     
  0.12500000000000000       0.25000000000000000        0.0000000000000000     
  0.15625000000000000       0.25000000000000000        0.0000000000000000     
  0.18750000000000000       0.25000000000000000        0.0000000000000000     
  0.21875000000000000       0.25000000000000000        0.0000000000000000     
  0.25000000000000000       0.25000000000000000        0.0000000000000000     
  0.12500000000000000       0.28125000000000000        0.0000000000000000     
  0.15625000000000000       0.28125000000000000        0.0000000000000000     
  0.18750000000000000       0.28125000000000000        0.0000000000000000     
  0.21875000000000000       0.28125000000000000        0.0000000000000000     
  0.25000000000000000       0.28125000000000000        0.0000000000000000     
  0.12500000000000000       0.31250000000000000        0.0000000000000000     
  0.15625000000000000       0.31250000000000000        0.0000000000000000     
  0.18750000000000000       0.31250000000000000        0.0000000000000000     
  0.21875000000000000       0.31250000000000000        0.0000000000000000     
  0.25000000000000000       0.31250000000000000        0.0000000000000000     
  0.12500000000000000       0.34375000000000000        0.0000000000000000     
  0.15625000000000000       0.34375000000000000        0.0000000000000000     
  0.18750000000000000       0.34375000000000000        0.0000000000000000     
  0.21875000000000000       0.34375000000000000        0.0000000000000000     
  0.25000000000000000       0.34375000000000000        0.0000000000000000     
  0.12500000000000000       0.37500000000000000        0.0000000000000000     
  0.15625000000000000       0.37500000000000000        0.0000000000000000     
  0.18750000000000000       0.37500000000000000        0.0000000000000000     
  0.21875000000000000       0.37500000000000000        0.0000000000000000     
  0.25000000000000000       0.37500000000000000        0.0000000000000000     
  0.25000000000000000       0.25000000000000000        0.0000000000000000     
  0.28125000000000000       0.25000000000000000        0.0000000000000000     
  0.31250000000000000       0.25000000000000000        0.0000000000000000     
  0.34375000000000000       0.25000000000000000        0.0000000000000000     
  0.37500000000000000       0.25000000000000000        0.0000000000000000     
  0.25000000000000000       0.28125000000000000        0.0000000000000000     
  0.28125000000000000       0.28125000000000000        0.0000000000000000     
  0.31250000000000000       0.28125000000000000        0.0000000000000000     
  0.34375000000000000       0.28125000000000000        0.0000000000000000     
  0.37500000000000000       0.28125000000000000        0.0000000000000000     
  0.25000000000000000       0.31250000000000000        0.0000000000000000     
  0.28125000000000000       0.31250000000000000        0.0000000000000000     
  0.31250000000000000       0.31250000000000000        0.0000000000000000     
  0.34375000000000000       0.31250000000000000        0.0000000000000000     
  0.37500000000000000       0.31250000000000000        0.0000000000000000     
  0.25000000000000000       0.34375000000000000        0.0000000000000000     
  0.28125000000000000       0.34375000000000000        0.0000000000000000     
  0.31250000000000000       0.34375000000000000        0.0000000000000000     
  0.34375000000000000       0.34375000000000000        0.0000000000000000     
  0.37500000000000000       0.34375000000000000        0.0000000000000000     
  0.25000000000000000       0.37500000000000000        0.0000000000000000     
  0.28125000000000000       0.37500000000000000        0.0000000000000000     
  0.31250000000000000       0.37500000000000000        0.0000000000000000     
  0.34375000000000000       0.37500000000000000        0.0000000000000000     
  0.37500000000000000       0.37500000000000000        0.0000000000000000     
  0.37500000000000000       0.25000000000000000        0.0000000000000000     
  0.40625000000000000       0.25000000000000000        0.0000000000000000     
  0.43750000000000000       0.25000000000000000        0.0000000000000000     
  0.46875000000000000       0.25000000000000000        0.0000000000000000     
  0.50000000000000000       0.25000000000000000        0.0000000000000000     
  0.37500000000000000       0.28125000000000000        0.0000000000000000     
  0.40625000000000000       0.28125000000000000        0.0000000000000000     
  0.43750000000000000       0.28125000000000000        0.0000000000000000     
  0.46875000000000000       0.28125000000000000        0.0000000000000000     
  0.50000000000000000       0.28125000000000000        0.0000000000000000     
  0.37500000000000000       0.31250000000000000        0.0000000000000000     
  0.40625000000000000       0.31250000000000000        0.0000000000000000     
  0.43750000000000000       0.31250000000000000        0.0000000000000000     
  0.46875000000000000       0.31250000000000000        0.0000000000000000     
  0.50000000000000000       0.31250000000000000        0.0000000000000000     
  0.37500000000000000       0.34375000000000000        0.0000000000000000     
  0.40625000000000000       0.34375000000000000        0.0000000000000000     
  0.43750000000000000       0.34375000000000000        0.0000000000000000     
  0.46875000000000000       0.34375000000000000        0.0000000000000000     
  0.50000000000000000       0.34375000000000000        0.0000000000000000     
  0.37500000000000000       0.37500000000000000        0.0000000000000000     
  0.40625000000000000       0.37500000000000000        0.0000000000000000     
  0.43750000000000000       0.37500000000000000        0.0000000000000000     
  0.46875000000000000       0.37500000000000000        0.0000000000000000     
  0.50000000000000000       0.37500000000000000        0.0000000000000000     
  0.50000000000000000       0.25000000000000000        0.0000000000000000     
  0.53125000000000000       0.25000000000000000        0.0000000000000000     
  0.56250000000000000       0.25000000000000000        0.0000000000000000     
  0.59375000000000000       0.25000000000000000        0.0000000000000000     
  0.62500000000000000       0.25000000000000000        0.0000000000000000     
  0.50000000000000000       0.28125000000000000        0.0000000000000000     
  0.53125000000000000       0.28125000000000000        0.0000000000000000     
  0.56250000000000000       0.28125000000000000        0.0000000000000000     
  0.59375000000000000       0.28125000000000000        0.0000000000000000     
  0.62500000000000000       0.28125000000000000        0.0000000000000000     
  0.50000000000000000       0.31250000000000000        0.0000000000000000     
  0.53125000000000000       0.31250000000000000        0.0000000000000000     
  0.56250000000000000       0.31250000000000000        0.0000000000000000     
  0.59375000000000000       0.31250000000000000        0.0000000000000000     
  0.62500000000000000       0.31250000000000000        0.0000000000000000     
  0.50000000000000000       0.34375000000000000        0.0000000000000000     
  0.53125000000000000       0.34375000000000000        0.0000000000000000     
  0.56250000000000000       0.34375000000000000        0.0000000000000000     
  0.59375000000000000       0.34375000000000000        0.0000000000000000     
  0.62500000000000000       0.34375000000000000        0.0000000000000000     
  0.50000000000000000       0.37500000000000000        0.0000000000000000     
  0.53125000000000000       0.37500000000000000        0.0000000000000000     
  0.56250000000000000       0.37500000000000000        0.0000000000000000     
  0.59375000000000000       0.37500000000000000        0.0000000000000000     
  0.62500000000000000       0.37500000000000000        0.0000000000000000     
  0.62500000000000000       0.25000000000000000        0.0000000000000000     
  0.65625000000000000       0.25000000000000000        0.0000000000000000     
  0.68750000000000000       0.25000000000000000        0.0000000000000000     
  0.71875000000000000       0.25000000000000000        0.0000000000000000     
  0.75000000000000000       0.25000000000000000        0.0000000000000000     
  0.62500000000000000       0.28125000000000000        0.0000000000000000     
  0.65625000000000000       0.28125000000000000        0.0000000000000000     
  0.68750000000000000       0.28125000000000000        0.0000000000000000     
  0.71875000000000000       0.28125000000000000        0.0000000000000000     
  0.75000000000000000       0.28125000000000000        0.0000000000000000     
  0.62500000000000000       0.31250000000000000        0.0000000000000000     
  0.65625000000000000       0.31250000000000000        0.0000000000000000     
  0.68750000000000000       0.31250000000000000        0.0000000000000000     
  0.71875000000000000       0.31250000000000000        0.0000000000000000     
  0.75000000000000000       0.31250000000000000        0.0000000000000000     
  0.62500000000000000       0.34375000000000000        0.0000000000000000     
  0.65625000000000000       0.34375000000000000        0.0000000000000000     
  0.68750000000000000       0.34375000000000000        0.0000000000000000     
  0.71875000000000000       0.34375000000000000        0.0000000000000000     
  0.75000000000000000       0.34375000000000000        0.0000000000000000     
  0.62500000000000000       0.37500000000000000        0.0000000000000000     
  0.65625000000000000       0.37500000000000000        0.0000000000000000     
  0.68750000000000000       0.37500000000000000        0.0000000000000000     
  0.71875000000000000       0.37500000000000000        0.0000000000000000     
  0.75000000000000000       0.37500000000000000        0.0000000000000000     
  0.75000000000000000       0.25000000000000000        0.0000000000000000     
  0.78125000000000000       0.25000000000000000        0.0000000000000000     
  0.81250000000000000       0.25000000000000000        0.0000000000000000     
  0.84375000000000000       0.25000000000000000        0.0000000000000000     
  0.87500000000000000       0.25000000000000000        0.0000000000000000     
  0.75000000000000000       0.28125000000000000        0.0000000000000000     
  0.78125000000000000       0.28125000000000000        0.0000000000000000     
  0.81250000000000000       0.28125000000000000        0.0000000000000000     
  0.84375000000000000       0.28125000000000000        0.0000000000000000     
  0.87500000000000000       0.28125000000000000        0.0000000000000000     
  0.75000000000000000       0.31250000000000000        0.0000000000000000     
  0.78125000000000000       0.31250000000000000        0.0000000000000000     
  0.81250000000000000       0.31250000000000000        0.0000000000000000     
  0.84375000000000000       0.31250000000000000        0.0000000000000000     
  0.87500000000000000       0.31250000000000000        0.0000000000000000     
  0.75000000000000000       0.34375000000000000        0.0000000000000000     
  0.78125000000000000       0.34375000000000000        0.0000000000000000     
  0.81250000000000000       0.34375000000000000        0.0000000000000000     
  0.84375000000000000       0.34375000000000000        0.0000000000000000     
  0.87500000000000000       0.34375000000000000        0.0000000000000000     
  0.75000000000000000       0.37500000000000000        0.0000000000000000     
  0.78125000000000000       0.37500000000000000        0.0000000000000000     
  0.81250000000000000       0.37500000000000000        0.0000000000000000     
  0.84375000000000000       0.37500000000000000        0.0000000000000000     
  0.87500000000000000       0.37500000000000000        0.0000000000000000     
  0.87500000000000000       0.25000000000000000        0.0000000000000000     
  0.90625000000000000       0.25000000000000000        0.0000000000000000     
  0.93750000000000000       0.25000000000000000        0.0000000000000000     
  0.96875000000000000       0.25000000000000000        0.0000000000000000     
   1.0000000000000000       0.25000000000000000        0.0000000000000000     
  0.87500000000000000       0.28125000000000000        0.0000000000000000     
  0.90625000000000000       0.28125000000000000        0.0000000000000000     
  0.93750000000000000       0.28125000000000000        0.0000000000000000     
  0.96875000000000000       0.28125000000000000        0.0000000000000000     
   1.0000000000000000       0.28125000000000000        0.0000000000000000     
  0.87500000000000000       0.31250000000000000        0.0000000000000000     
  0.90625000000000000       0.31250000000000000        0.0000000000000000     
  0.93750000000000000       0.31250000000000000        0.0000000000000000     
  0.96875000000000000       0.31250000000000000        0.0000000000000000     
   1.0000000000000000       0.31250000000000000        0.0000000000000000     
  0.87500000000000000       0.34375000000000000        0.0000000000000000     
  0.90625000000000000       0.34375000000000000        0.0000000000000000     
  0.93750000000000000       0.34375000000000000        0.0000000000000000     
  0.96875000000000000       0.34375000000000000        0.0000000000000000     
   1.0000000000000000       0.34375000000000000        0.0000000000000000     
  0.87500000000000000       0.37500000000000000        0.0000000000000000     
  0.90625000000000000       0.37500000000000000        0.0000000000000000     
  0.93750000000000000       0.37500000000000000        0.0000000000000000     
  0.96875000000000000       0.37500000000000000        0.0000000000000000     
   1.0000000000000000       0.37500000000000000        0.0000000000000000     
   0.0000000000000000       0.37500000000000000        0.0000000000000000     
   3.1250000000000000E-002  0.37500000000000000        0.0000000000000000     
   6.2500000000000000E-002  0.37500000000000000        0.0000000000000000     
   9.3750000000000000E-002  0.37500000000000000        0.0000000000000000     
  0.12500000000000000       0.37500000000000000        0.0000000000000000     
   0.0000000000000000       0.40625000000000000        0.0000000000000000     
   3.1250000000000000E-002  0.40625000000000000        0.0000000000000000     
   6.2500000000000000E-002  0.40625000000000000        0.0000000000000000     
   9.3750000000000000E-002  0.40625000000000000        0.0000000000000000     
  0.12500000000000000       0.40625000000000000        0.0000000000000000     
   0.0000000000000000       0.43750000000000000        0.0000000000000000     
   3.1250000000000000E-002  0.43750000000000000        0.0000000000000000     
   6.2500000000000000E-002  0.43750000000000000        0.0000000000000000     
   9.3750000000000000E-002  0.43750000000000000        0.0000000000000000     
  0.12500000000000000       0.43750000000000000        0.0000000000000000     
   0.0000000000000000       0.46875000000000000        0.0000000000000000     
   3.1250000000000000E-002  0.46875000000000000        0.0000000000000000     
   6.2500000000000000E-002  0.46875000000000000        0.0000000000000000     
   9.3750000000000000E-002  0.46875000000000000        0.0000000000000000     
  0.12500000000000000       0.46875000000000000        0.0000000000000000     
   0.0000000000000000       0.50000000000000000        0.0000000000000000     
   3.1250000000000000E-002  0.50000000000000000        0.0000000000000000     
   6.2500000000000000E-002  0.50000000000000000        0.0000000000000000     
   9.3750000000000000E-002  0.50000000000000000        0.0000000000000000     
  0.12500000000000000       0.50000000000000000        0.0000000000000000     
  0.12500000000000000       0.37500000000000000        0.0000000000000000     
  0.15625000000000000       0.37500000000000000        0.0000000000000000     
  0.18750000000000000       0.37500000000000000        0.0000000000000000     
  0.21875000000000000       0.37500000000000000        0.0000000000000000     
  0.25000000000000000       0.37500000000000000        0.0000000000000000     
  0.12500000000000000       0.40625000000000000        0.0000000000000000     
  0.15625000000000000       0.40625000000000000        0.0000000000000000     
  0.18750000000000000       0.40625000000000000        0.0000000000000000     
  0.21875000000000000       0.40625000000000000        0.0000000000000000     
  0.25000000000000000       0.40625000000000000        0.0000000000000000     
  0.12500000000000000       0.43750000000000000        0.0000000000000000     
  0.15625000000000000       0.43750000000000000        0.0000000000000000     
  0.18750000000000000       0.43750000000000000        0.0000000000000000     
  0.21875000000000000       0.43750000000000000        0.0000000000000000     
  0.25000000000000000       0.43750000000000000        0.0000000000000000     
  0.12500000000000000       0.46875000000000000        0.0000000000000000     
  0.15625000000000000       0.46875000000000000        0.0000000000000000     
  0.18750000000000000       0.46875000000000000        0.0000000000000000     
  0.21875000000000000       0.46875000000000000        0.0000000000000000     
  0.25000000000000000       0.46875000000000000        0.0000000000000000     
  0.12500000000000000       0.50000000000000000        0.0000000000000000     
  0.15625000000000000       0.50000000000000000        0.0000000000000000     
  0.18750000000000000       0.50000000000000000        0.0000000000000000     
  0.21875000000000000       0.50000000000000000        0.0000000000000000     
  0.25000000000000000       0.50000000000000000        0.0000000000000000     
  0.25000000000000000       0.37500000000000000        0.0000000000000000     
  0.28125000000000000       0.37500000000000000        0.0000000000000000     
  0.31250000000000000       0.37500000000000000        0.0000000000000000     
  0.34375000000000000       0.37500000000000000        0.0000000000000000     
  0.37500000000000000       0.37500000000000000        0.0000000000000000     
  0.25000000000000000       0.40625000000000000        0.0000000000000000     
  0.28125000000000000       0.40625000000000000        0.0000000000000000     
  0.31250000000000000       0.40625000000000000        0.0000000000000000     
  0.34375000000000000       0.40625000000000000        0.0000000000000000     
  0.37500000000000000       0.40625000000000000        0.0000000000000000     
  0.25000000000000000       0.43750000000000000        0.0000000000000000     
  0.28125000000000000       0.43750000000000000        0.0000000000000000     
  0.31250000000000000       0.43750000000000000        0.0000000000000000     
  0.34375000000000000       0.43750000000000000        0.0000000000000000     
  0.37500000000000000       0.43750000000000000        0.0000000000000000     
  0.25000000000000000       0.46875000000000000        0.0000000000000000     
  0.28125000000000000       0.46875000000000000        0.0000000000000000     
  0.31250000000000000       0.46875000000000000        0.0000000000000000     
  0.34375000000000000       0.46875000000000000        0.0000000000000000     
  0.37500000000000000       0.46875000000000000        0.0000000000000000     
  0.25000000000000000       0.50000000000000000        0.0000000000000000     
  0.28125000000000000       0.50000000000000000        0.0000000000000000     
  0.31250000000000000       0.50000000000000000        0.0000000000000000     
  0.34375000000000000       0.50000000000000000        0.0000000000000000     
  0.37500000000000000       0.50000000000000000        0.0000000000000000     
  0.37500000000000000       0.37500000000000000        0.0000000000000000     
  0.40625000000000000       0.37500000000000000        0.0000000000000000     
  0.43750000000000000       0.37500000000000000        0.0000000000000000     
  0.46875000000000000       0.37500000000000000        0.0000000000000000     
  0.50000000000000000       0.37500000000000000        0.0000000000000000     
  0.37500000000000000       0.40625000000000000        0.0000000000000000     
  0.40625000000000000       0.40625000000000000        0.0000000000000000     
  0.43750000000000000       0.40625000000000000        0.0000000000000000     
  0.46875000000000000       0.40625000000000000        0.0000000000000000     
  0.50000000000000000       0.40625000000000000        0.0000000000000000     
  0.37500000000000000       0.43750000000000000        0.0000000000000000     
  0.40625000000000000       0.43750000000000000        0.0000000000000000     
  0.43750000000000000       0.43750000000000000        0.0000000000000000     
  0.46875000000000000       0.43750000000000000        0.0000000000000000     
  0.50000000000000000       0.43750000000000000        0.0000000000000000     
  0.37500000000000000       0.46875000000000000        0.0000000000000000     
  0.40625000000000000       0.46875000000000000        0.0000000000000000     
  0.43750000000000000       0.46875000000000000        0.0000000000000000     
  0.46875000000000000       0.46875000000000000        0.0000000000000000     
  0.50000000000000000       0.46875000000000000        0.0000000000000000     
  0.37500000000000000       0.50000000000000000        0.0000000000000000     
  0.40625000000000000       0.50000000000000000        0.0000000000000000     
  0.43750000000000000       0.50000000000000000        0.0000000000000000     
  0.46875000000000000       0.50000000000000000        0.0000000000000000     
  0.50000000000000000       0.50000000000000000        0.0000000000000000     
  0.50000000000000000       0.37500000000000000        0.0000000000000000     
  0.53125000000000000       0.37500000000000000        0.0000000000000000     
  0.56250000000000000       0.37500000000000000        0.0000000000000000     
  0.59375000000000000       0.37500000000000000        0.0000000000000000     
  0.62500000000000000       0.37500000000000000        0.0000000000000000     
  0.50000000000000000       0.40625000000000000        0.0000000000000000     
  0.53125000000000000       0.40625000000000000        0.0000000000000000     
  0.56250000000000000       0.40625000000000000        0.0000000000000000     
  0.59375000000000000       0.40625000000000000        0.0000000000000000     
  0.62500000000000000       0.40625000000000000        0.0000000000000000     
  0.50000000000000000       0.43750000000000000        0.0000000000000000     
  0.53125000000000000       0.43750000000000000        0.0000000000000000     
  0.56250000000000000       0.43750000000000000        0.0000000000000000     
  0.59375000000000000       0.43750000000000000        0.0000000000000000     
  0.62500000000000000       0.43750000000000000        0.0000000000000000     
  0.50000000000000000       0.46875000000000000        0.0000000000000000     
  0.53125000000000000       0.46875000000000000        0.0000000000000000     
  0.56250000000000000       0.46875000000000000        0.0000000000000000     
  0.59375000000000000       0.46875000000000000        0.0000000000000000     
  0.62500000000000000       0.46875000000000000        0.0000000000000000     
  0.50000000000000000       0.50000000000000000        0.0000000000000000     
  0.53125000000000000       0.50000000000000000        0.0000000000000000     
  0.56250000000000000       0.50000000000000000        0.0000000000000000     
  0.59375000000000000       0.50000000000000000        0.0000000000000000     
  0.62500000000000000       0.50000000000000000        0.0000000000000000     
  0.62500000000000000       0.37500000000000000        0.0000000000000000     
  0.65625000000000000       0.37500000000000000        0.0000000000000000     
  0.68750000000000000       0.37500000000000000        0.0000000000000000     
  0.71875000000000000       0.37500000000000000        0.0000000000000000     
  0.75000000000000000       0.37500000000000000        0.0000000000000000     
  0.62500000000000000       0.40625000000000000        0.0000000000000000     
  0.65625000000000000       0.40625000000000000        0.0000000000000000     
  0.68750000000000000       0.40625000000000000        0.0000000000000000     
  0.71875000000000000       0.40625000000000000        0.0000000000000000     
  0.75000000000000000       0.40625000000000000        0.0000000000000000     
  0.62500000000000000       0.43750000000000000        0.0000000000000000     
  0.65625000000000000       0.43750000000000000        0.0000000000000000     
  0.68750000000000000       0.43750000000000000        0.0000000000000000     
  0.71875000000000000       0.43750000000000000        0.0000000000000000     
  0.75000000000000000       0.43750000000000000        0.0000000000000000     
  0.62500000000000000       0.46875000000000000        0.0000000000000000     
  0.65625000000000000       0.46875000000000000        0.0000000000000000     
  0.68750000000000000       0.46875000000000000        0.0000000000000000     
  0.71875000000000000       0.46875000000000000        0.0000000000000000     
  0.75000000000000000       0.46875000000000000        0.0000000000000000     
  0.62500000000000000       0.50000000000000000        0.0000000000000000     
  0.65625000000000000       0.50000000000000000        0.0000000000000000     
  0.68750000000000000       0.50000000000000000        0.0000000000000000     
  0.71875000000000000       0.50000000000000000        0.0000000000000000     
  0.75000000000000000       0.50000000000000000        0.0000000000000000     
  0.75000000000000000       0.37500000000000000        0.0000000000000000     
  0.78125000000000000       0.37500000000000000        0.0000000000000000     
  0.81250000000000000       0.37500000000000000        0.0000000000000000     
  0.84375000000000000       0.37500000000000000        0.0000000000000000     
  0.87500000000000000       0.37500000000000000        0.0000000000000000     
  0.75000000000000000       0.40625000000000000        0.0000000000000000     
  0.78125000000000000       0.40625000000000000        0.0000000000000000     
  0.81250000000000000       0.40625000000000000        0.0000000000000000     
  0.84375000000000000       0.40625000000000000        0.0000000000000000     
  0.87500000000000000       0.40625000000000000        0.0000000000000000     
  0.75000000000000000       0.43750000000000000        0.0000000000000000     
  0.78125000000000000       0.43750000000000000        0.0000000000000000     
  0.81250000000000000       0.43750000000000000        0.0000000000000000     
  0.84375000000000000       0.43750000000000000        0.0000000000000000     
  0.87500000000000000       0.43750000000000000        0.0000000000000000     
  0.75000000000000000       0.46875000000000000        0.0000000000000000     
  0.78125000000000000       0.46875000000000000        0.0000000000000000     
  0.81250000000000000       0.46875000000000000        0.0000000000000000     
  0.84375000000000000       0.46875000000000000        0.0000000000000000     
  0.87500000000000000       0.46875000000000000        0.0000000000000000     
  0.75000000000000000       0.50000000000000000        0.0000000000000000     
  0.78125000000000000       0.50000000000000000        0.0000000000000000     
  0.81250000000000000       0.50000000000000000        0.0000000000000000     
  0.84375000000000000       0.50000000000000000        0.0000000000000000     
  0.87500000000000000       0.50000000000000000        0.0000000000000000     
  0.87500000000000000       0.37500000000000000        0.0000000000000000     
  0.90625000000000000       0.37500000000000000        0.0000000000000000     
  0.93750000000000000       0.37500000000000000        0.0000000000000000     
  0.96875000000000000       0.37500000000000000        0.0000000000000000     
   1.0000000000000000       0.37500000000000000        0.0000000000000000     
  0.87500000000000000       0.40625000000000000        0.0000000000000000     
  0.90625000000000000       0.40625000000000000        0.0000000000000000     
  0.93750000000000000       0.40625000000000000        0.0000000000000000     
  0.96875000000000000       0.40625000000000000        0.0000000000000000     
   1.0000000000000000       0.40625000000000000        0.0000000000000000     
  0.87500000000000000       0.43750000000000000        0.0000000000000000     
  0.90625000000000000       0.43750000000000000        0.0000000000000000     
  0.93750000000000000       0.43750000000000000        0.0000000000000000     
  0.96875000000000000       0.43750000000000000        0.0000000000000000     
   1.0000000000000000       0.43750000000000000        0.0000000000000000     
  0.87500000000000000       0.46875000000000000        0.0000000000000000     
  0.90625000000000000       0.46875000000000000        0.0000000000000000     
  0.93750000000000000       0.46875000000000000        0.0000000000000000     
  0.96875000000000000       0.46875000000000000        0.0000000000000000     
   1.0000000000000000       0.46875000000000000        0.0000000000000000     
  0.87500000000000000       0.50000000000000000        0.0000000000000000     
  0.90625000000000000       0.50000000000000000        0.0000000000000000     
  0.93750000000000000       0.50000000000000000        0.0000000000000000     
  0.96875000000000000       0.50000000000000000        0.0000000000000000     
   1.0000000000000000       0.50000000000000000        0.0000000000000000     
   0.0000000000000000       0.50000000000000000        0.0000000000000000     
   3.1250000000000000E-002  0.50000000000000000        0.0000000000000000     
   6.2500000000000000E-002  0.50000000000000000        0.0000000000000000     
   9.3750000000000000E-002  0.50000000000000000        0.0000000000000000     
  0.12500000000000000       0.50000000000000000        0.0000000000000000     
   0.0000000000000000       0.53125000000000000        0.0000000000000000     
   3.1250000000000000E-002  0.53125000000000000        0.0000000000000000     
   6.2500000000000000E-002  0.53125000000000000        0.0000000000000000     
   9.3750000000000000E-002  0.53125000000000000        0.0000000000000000     
  0.12500000000000000       0.53125000000000000        0.0000000000000000     
   0.0000000000000000       0.56250000000000000        0.0000000000000000     
   3.1250000000000000E-002  0.56250000000000000        0.0000000000000000     
   6.2500000000000000E-002  0.56250000000000000        0.0000000000000000     
   9.3750000000000000E-002  0.56250000000000000        0.0000000000000000     
  0.12500000000000000       0.56250000000000000        0.0000000000000000     
   0.0000000000000000       0.59375000000000000        0.0000000000000000     
   3.1250000000000000E-002  0.59375000000000000        0.0000000000000000     
   6.2500000000000000E-002  0.59375000000000000        0.0000000000000000     
   9.3750000000000000E-002  0.59375000000000000        0.0000000000000000     
  0.12500000000000000       0.59375000000000000        0.0000000000000000     
   0.0000000000000000       0.62500000000000000        0.0000000000000000     
   3.1250000000000000E-002  0.62500000000000000        0.0000000000000000     
   6.2500000000000000E-002  0.62500000000000000        0.0000000000000000     
   9.3750000000000000E-002  0.62500000000000000        0.0000000000000000     
  0.12500000000000000       0.62500000000000000        0.0000000000000000     
  0.12500000000000000       0.50000000000000000        0.0000000000000000     
  0.15625000000000000       0.50000000000000000        0.0000000000000000     
  0.18750000000000000       0.50000000000000000        0.0000000000000000     
  0.21875000000000000       0.50000000000000000        0.0000000000000000     
  0.25000000000000000       0.50000000000000000        0.0000000000000000     
  0.12500000000000000       0.53125000000000000        0.0000000000000000     
  0.15625000000000000       0.53125000000000000        0.0000000000000000     
  0.18750000000000000       0.53125000000000000        0.0000000000000000     
  0.21875000000000000       0.53125000000000000        0.0000000000000000     
  0.25000000000000000       0.53125000000000000        0.0000000000000000     
  0.12500000000000000       0.56250000000000000        0.0000000000000000     
  0.15625000000000000       0.56250000000000000        0.0000000000000000     
  0.18750000000000000       0.56250000000000000        0.0000000000000000     
  0.21875000000000000       0.56250000000000000        0.0000000000000000     
  0.25000000000000000       0.56250000000000000        0.0000000000000000     
  0.12500000000000000       0.59375000000000000        0.0000000000000000     
  0.15625000000000000       0.59375000000000000        0.0000000000000000     
  0.18750000000000000       0.59375000000000000        0.0000000000000000     
  0.21875000000000000       0.59375000000000000        0.0000000000000000     
  0.25000000000000000       0.59375000000000000        0.0000000000000000     
  0.12500000000000000       0.62500000000000000        0.0000000000000000     
  0.15625000000000000       0.62500000000000000        0.0000000000000000     
  0.18750000000000000       0.62500000000000000        0.0000000000000000     
  0.21875000000000000       0.62500000000000000        0.0000000000000000     
  0.25000000000000000       0.62500000000000000        0.0000000000000000     
  0.25000000000000000       0.50000000000000000        0.0000000000000000     
  0.28125000000000000       0.50000000000000000        0.0000000000000000     
  0.31250000000000000       0.50000000000000000        0.0000000000000000     
  0.34375000000000000       0.50000000000000000        0.0000000000000000     
  0.37500000000000000       0.50000000000000000        0.0000000000000000     
  0.25000000000000000       0.53125000000000000        0.0000000000000000     
  0.28125000000000000       0.53125000000000000        0.0000000000000000     
  0.31250000000000000       0.53125000000000000        0.0000000000000000     
  0.34375000000000000       0.53125000000000000        0.0000000000000000     
  0.37500000000000000       0.53125000000000000        0.0000000000000000     
  0.25000000000000000       0.56250000000000000        0.0000000000000000     
  0.28125000000000000       0.56250000000000000        0.0000000000000000     
  0.31250000000000000       0.56250000000000000        0.0000000000000000     
  0.34375000000000000       0.56250000000000000        0.0000000000000000     
  0.37500000000000000       0.56250000000000000        0.0000000000000000     
  0.25000000000000000       0.59375000000000000        0.0000000000000000     
  0.28125000000000000       0.59375000000000000        0.0000000000000000     
  0.31250000000000000       0.59375000000000000        0.0000000000000000     
  0.34375000000000000       0.59375000000000000        0.0000000000000000     
  0.37500000000000000       0.59375000000000000        0.0000000000000000     
  0.25000000000000000       0.62500000000000000        0.0000000000000000     
  0.28125000000000000       0.62500000000000000        0.0000000000000000     
  0.31250000000000000       0.62500000000000000        0.0000000000000000     
  0.34375000000000000       0.62500000000000000        0.0000000000000000     
  0.37500000000000000       0.62500000000000000        0.0000000000000000     
  0.37500000000000000       0.50000000000000000        0.0000000000000000     
  0.40625000000000000       0.50000000000000000        0.0000000000000000     
  0.43750000000000000       0.50000000000000000        0.0000000000000000     
  0.46875000000000000       0.50000000000000000        0.0000000000000000     
  0.50000000000000000       0.50000000000000000        0.0000000000000000     
  0.37500000000000000       0.53125000000000000        0.0000000000000000     
  0.40625000000000000       0.53125000000000000        0.0000000000000000     
  0.43750000000000000       0.53125000000000000        0.0000000000000000     
  0.46875000000000000       0.53125000000000000        0.0000000000000000     
  0.50000000000000000       0.53125000000000000        0.0000000000000000     
  0.37500000000000000       0.56250000000000000        0.0000000000000000     
  0.40625000000000000       0.56250000000000000        0.0000000000000000     
  0.43750000000000000       0.56250000000000000        0.0000000000000000     
  0.46875000000000000       0.56250000000000000        0.0000000000000000     
  0.50000000000000000       0.56250000000000000        0.0000000000000000     
  0.37500000000000000       0.59375000000000000        0.0000000000000000     
  0.40625000000000000       0.59375000000000000        0.0000000000000000     
  0.43750000000000000       0.59375000000000000        0.0000000000000000     
  0.46875000000000000       0.59375000000000000        0.0000000000000000     
  0.50000000000000000       0.59375000000000000        0.0000000000000000     
  0.37500000000000000       0.62500000000000000        0.0000000000000000     
  0.40625000000000000       0.62500000000000000        0.0000000000000000     
  0.43750000000000000       0.62500000000000000        0.0000000000000000     
  0.46875000000000000       0.62500000000000000        0.0000000000000000     
  0.50000000000000000       0.62500000000000000        0.0000000000000000     
  0.50000000000000000       0.50000000000000000        0.0000000000000000     
  0.53125000000000000       0.50000000000000000        0.0000000000000000     
  0.56250000000000000       0.50000000000000000        0.0000000000000000     
  0.59375000000000000       0.50000000000000000        0.0000000000000000     
  0.62500000000000000       0.50000000000000000        0.0000000000000000     
  0.50000000000000000       0.53125000000000000        0.0000000000000000     
  0.53125000000000000       0.53125000000000000        0.0000000000000000     
  0.56250000000000000       0.53125000000000000        0.0000000000000000     
  0.59375000000000000       0.53125000000000000        0.0000000000000000     
  0.62500000000000000       0.53125000000000000        0.0000000000000000     
  0.50000000000000000       0.56250000000000000        0.0000000000000000     
  0.53125000000000000       0.56250000000000000        0.0000000000000000     
  0.56250000000000000       0.56250000000000000        0.0000000000000000     
  0.59375000000000000       0.56250000000000000        0.0000000000000000     
  0.62500000000000000       0.56250000000000000        0.0000000000000000     
  0.50000000000000000       0.59375000000000000        0.0000000000000000     
  0.53125000000000000       0.59375000000000000        0.0000000000000000     
  0.56250000000000000       0.59375000000000000        0.0000000000000000     
  0.59375000000000000       0.59375000000000000        0.0000000000000000     
  0.62500000000000000       0.59375000000000000        0.0000000000000000     
  0.50000000000000000       0.62500000000000000        0.0000000000000000     
  0.53125000000000000       0.62500000000000000        0.0000000000000000     
  0.56250000000000000       0.62500000000000000        0.0000000000000000     
  0.59375000000000000       0.62500000000000000        0.0000000000000000     
  0.62500000000000000       0.62500000000000000        0.0000000000000000     
  0.62500000000000000       0.50000000000000000        0.0000000000000000     
  0.65625000000000000       0.50000000000000000        0.0000000000000000     
  0.68750000000000000       0.50000000000000000        0.0000000000000000     
  0.71875000000000000       0.50000000000000000        0.0000000000000000     
  0.75000000000000000       0.50000000000000000        0.0000000000000000     
  0.62500000000000000       0.53125000000000000        0.0000000000000000     
  0.65625000000000000       0.53125000000000000        0.0000000000000000     
  0.68750000000000000       0.53125000000000000        0.0000000000000000     
  0.71875000000000000       0.53125000000000000        0.0000000000000000     
  0.75000000000000000       0.53125000000000000        0.0000000000000000     
  0.62500000000000000       0.56250000000000000        0.0000000000000000     
  0.65625000000000000       0.56250000000000000        0.0000000000000000     
  0.68750000000000000       0.56250000000000000        0.0000000000000000     
  0.71875000000000000       0.56250000000000000        0.0000000000000000     
  0.75000000000000000       0.56250000000000000        0.0000000000000000     
  0.62500000000000000       0.59375000000000000        0.0000000000000000     
  0.65625000000000000       0.59375000000000000        0.0000000000000000     
  0.68750000000000000       0.59375000000000000        0.0000000000000000     
  0.71875000000000000       0.59375000000000000        0.0000000000000000     
  0.75000000000000000       0.59375000000000000        0.0000000000000000     
  0.62500000000000000       0.62500000000000000        0.0000000000000000     
  0.65625000000000000       0.62500000000000000        0.0000000000000000     
  0.68750000000000000       0.62500000000000000        0.0000000000000000     
  0.71875000000000000       0.62500000000000000        0.0000000000000000     
  0.75000000000000000       0.62500000000000000        0.0000000000000000     
  0.75000000000000000       0.50000000000000000        0.0000000000000000     
  0.78125000000000000       0.50000000000000000        0.0000000000000000     
  0.81250000000000000       0.50000000000000000        0.0000000000000000     
  0.84375000000000000       0.50000000000000000        0.0000000000000000     
  0.87500000000000000       0.50000000000000000        0.0000000000000000     
  0.75000000000000000       0.53125000000000000        0.0000000000000000     
  0.78125000000000000       0.53125000000000000        0.0000000000000000     
  0.81250000000000000       0.53125000000000000        0.0000000000000000     
  0.84375000000000000       0.53125000000000000        0.0000000000000000     
  0.87500000000000000       0.53125000000000000        0.0000000000000000     
  0.75000000000000000       0.56250000000000000        0.0000000000000000     
  0.78125000000000000       0.56250000000000000        0.0000000000000000     
  0.81250000000000000       0.56250000000000000        0.0000000000000000     
  0.84375000000000000       0.56250000000000000        0.0000000000000000     
  0.87500000000000000       0.56250000000000000        0.0000000000000000     
  0.75000000000000000       0.59375000000000000        0.0000000000000000     
  0.78125000000000000       0.59375000000000000        0.0000000000000000     
  0.81250000000000000       0.59375000000000000        0.0000000000000000     
  0.84375000000000000       0.59375000000000000        0.0000000000000000     
  0.87500000000000000       0.59375000000000000        0.0000000000000000     
  0.75000000000000000       0.62500000000000000        0.0000000000000000     
  0.78125000000000000       0.62500000000000000        0.0000000000000000     
  0.81250000000000000       0.62500000000000000        0.0000000000000000     
  0.84375000000000000       0.62500000000000000        0.0000000000000000     
  0.87500000000000000       0.62500000000000000        0.0000000000000000     
  0.87500000000000000       0.50000000000000000        0.0000000000000000     
  0.90625000000000000       0.50000000000000000        0.0000000000000000     
  0.93750000000000000       0.50000000000000000        0.0000000000000000     
  0.96875000000000000       0.50000000000000000        0.0000000000000000     
   1.0000000000000000       0.50000000000000000        0.0000000000000000     
  0.87500000000000000       0.53125000000000000        0.0000000000000000     
  0.90625000000000000       0.53125000000000000        0.0000000000000000     
  0.93750000000000000       0.53125000000000000        0.0000000000000000     
  0.96875000000000000       0.53125000000000000        0.0000000000000000     
   1.0000000000000000       0.53125000000000000        0.0000000000000000     
  0.87500000000000000       0.56250000000000000        0.0000000000000000     
  0.90625000000000000       0.56250000000000000        0.0000000000000000     
  0.93750000000000000       0.56250000000000000        0.0000000000000000     
  0.96875000000000000       0.56250000000000000        0.0000000000000000     
   1.0000000000000000       0.56250000000000000        0.0000000000000000     
  0.87500000000000000       0.59375000000000000        0.0000000000000000     
  0.90625000000000000       0.59375000000000000        0.0000000000000000     
  0.93750000000000000       0.59375000000000000        0.0000000000000000     
  0.96875000000000000       0.59375000000000000        0.0000000000000000     
   1.0000000000000000       0.59375000000000000        0.0000000000000000     
  0.87500000000000000       0.62500000000000000        0.0000000000000000     
  0.90625000000000000       0.62500000000000000        0.0000000000000000     
  0.93750000000000000       0.62500000000000000        0.0000000000000000     
  0.96875000000000000       0.62500000000000000        0.0000000000000000     
   1.0000000000000000       0.62500000000000000        0.0000000000000000     
   0.0000000000000000       0.62500000000000000        0.0000000000000000     
   3.1250000000000000E-002  0.62500000000000000        0.0000000000000000     
   6.2500000000000000E-002  0.62500000000000000        0.0000000000000000     
   9.3750000000000000E-002  0.62500000000000000        0.0000000000000000     
  0.12500000000000000       0.62500000000000000        0.0000000000000000     
   0.0000000000000000       0.65625000000000000        0.0000000000000000     
   3.1250000000000000E-002  0.65625000000000000        0.0000000000000000     
   6.2500000000000000E-002  0.65625000000000000        0.0000000000000000     
   9.3750000000000000E-002  0.65625000000000000        0.0000000000000000     
  0.12500000000000000       0.65625000000000000        0.0000000000000000     
   0.0000000000000000       0.68750000000000000        0.0000000000000000     
   3.1250000000000000E-002  0.68750000000000000        0.0000000000000000     
   6.2500000000000000E-002  0.68750000000000000        0.0000000000000000     
   9.3750000000000000E-002  0.68750000000000000        0.0000000000000000     
  0.12500000000000000       0.68750000000000000        0.0000000000000000     
   0.0000000000000000       0.71875000000000000        0.0000000000000000     
   3.1250000000000000E-002  0.71875000000000000        0.0000000000000000     
   6.2500000000000000E-002  0.71875000000000000        0.0000000000000000     
   9.3750000000000000E-002  0.71875000000000000        0.0000000000000000     
  0.12500000000000000       0.71875000000000000        0.0000000000000000     
   0.0000000000000000       0.75000000000000000        0.0000000000000000     
   3.1250000000000000E-002  0.75000000000000000        0.0000000000000000     
   6.2500000000000000E-002  0.75000000000000000        0.0000000000000000     
   9.3750000000000000E-002  0.75000000000000000        0.0000000000000000     
  0.12500000000000000       0.75000000000000000        0.0000000000000000     
  0.12500000000000000       0.62500000000000000        0.0000000000000000     
  0.15625000000000000       0.62500000000000000        0.0000000000000000     
  0.18750000000000000       0.62500000000000000        0.0000000000000000     
  0.21875000000000000       0.62500000000000000        0.0000000000000000     
  0.25000000000000000       0.62500000000000000        0.0000000000000000     
  0.12500000000000000       0.65625000000000000        0.0000000000000000     
  0.15625000000000000       0.65625000000000000        0.0000000000000000     
  0.18750000000000000       0.65625000000000000        0.0000000000000000     
  0.21875000000000000       0.65625000000000000        0.0000000000000000     
  0.25000000000000000       0.65625000000000000        0.0000000000000000     
  0.12500000000000000       0.68750000000000000        0.0000000000000000     
  0.15625000000000000       0.68750000000000000        0.0000000000000000     
  0.18750000000000000       0.68750000000000000        0.0000000000000000     
  0.21875000000000000       0.68750000000000000        0.0000000000000000     
  0.25000000000000000       0.68750000000000000        0.0000000000000000     
  0.12500000000000000       0.71875000000000000        0.0000000000000000     
  0.15625000000000000       0.71875000000000000        0.0000000000000000     
  0.18750000000000000       0.71875000000000000        0.0000000000000000     
  0.21875000000000000       0.71875000000000000        0.0000000000000000     
  0.25000000000000000       0.71875000000000000        0.0000000000000000     
  0.12500000000000000       0.75000000000000000        0.0000000000000000     
  0.15625000000000000       0.75000000000000000        0.0000000000000000     
  0.18750000000000000       0.75000000000000000        0.0000000000000000     
  0.21875000000000000       0.75000000000000000        0.0000000000000000     
  0.25000000000000000       0.75000000000000000        0.0000000000000000     
  0.25000000000000000       0.62500000000000000        0.0000000000000000     
  0.28125000000000000       0.62500000000000000        0.0000000000000000     
  0.31250000000000000       0.62500000000000000        0.0000000000000000     
  0.34375000000000000       0.62500000000000000        0.0000000000000000     
  0.37500000000000000       0.62500000000000000        0.0000000000000000     
  0.25000000000000000       0.65625000000000000        0.0000000000000000     
  0.28125000000000000       0.65625000000000000        0.0000000000000000     
  0.31250000000000000       0.65625000000000000        0.0000000000000000     
  0.34375000000000000       0.65625000000000000        0.0000000000000000     
  0.37500000000000000       0.65625000000000000        0.0000000000000000     
  0.25000000000000000       0.68750000000000000        0.0000000000000000     
  0.28125000000000000       0.68750000000000000        0.0000000000000000     
  0.31250000000000000       0.68750000000000000        0.0000000000000000     
  0.34375000000000000       0.68750000000000000        0.0000000000000000     
  0.37500000000000000       0.68750000000000000        0.0000000000000000     
  0.25000000000000000       0.71875000000000000        0.0000000000000000     
  0.28125000000000000       0.71875000000000000        0.0000000000000000     
  0.31250000000000000       0.71875000000000000        0.0000000000000000     
  0.34375000000000000       0.71875000000000000        0.0000000000000000     
  0.37500000000000000       0.71875000000000000        0.0000000000000000     
  0.25000000000000000       0.75000000000000000        0.0000000000000000     
  0.28125000000000000       0.75000000000000000        0.0000000000000000     
  0.31250000000000000       0.75000000000000000        0.0000000000000000     
  0.34375000000000000       0.75000000000000000        0.0000000000000000     
  0.37500000000000000       0.75000000000000000        0.0000000000000000     
  0.37500000000000000       0.62500000000000000        0.0000000000000000     
  0.40625000000000000       0.62500000000000000        0.0000000000000000     
  0.43750000000000000       0.62500000000000000        0.0000000000000000     
  0.46875000000000000       0.62500000000000000        0.0000000000000000     
  0.50000000000000000       0.62500000000000000        0.0000000000000000     
  0.37500000000000000       0.65625000000000000        0.0000000000000000     
  0.40625000000000000       0.65625000000000000        0.0000000000000000     
  0.43750000000000000       0.65625000000000000        0.0000000000000000     
  0.46875000000000000       0.65625000000000000        0.0000000000000000     
  0.50000000000000000       0.65625000000000000        0.0000000000000000     
  0.37500000000000000       0.68750000000000000        0.0000000000000000     
  0.40625000000000000       0.68750000000000000        0.0000000000000000     
  0.43750000000000000       0.68750000000000000        0.0000000000000000     
  0.46875000000000000       0.68750000000000000        0.0000000000000000     
  0.50000000000000000       0.68750000000000000        0.0000000000000000     
  0.37500000000000000       0.71875000000000000        0.0000000000000000     
  0.40625000000000000       0.71875000000000000        0.0000000000000000     
  0.43750000000000000       0.71875000000000000        0.0000000000000000     
  0.46875000000000000       0.71875000000000000        0.0000000000000000     
  0.50000000000000000       0.71875000000000000        0.0000000000000000     
  0.37500000000000000       0.75000000000000000        0.0000000000000000     
  0.40625000000000000       0.75000000000000000        0.0000000000000000     
  0.43750000000000000       0.75000000000000000        0.0000000000000000     
  0.46875000000000000       0.75000000000000000        0.0000000000000000     
  0.50000000000000000       0.75000000000000000        0.0000000000000000     
  0.50000000000000000       0.62500000000000000        0.0000000000000000     
  0.53125000000000000       0.62500000000000000        0.0000000000000000     
  0.56250000000000000       0.62500000000000000        0.0000000000000000     
  0.59375000000000000       0.62500000000000000        0.0000000000000000     
  0.62500000000000000       0.62500000000000000        0.0000000000000000     
  0.50000000000000000       0.65625000000000000        0.0000000000000000     
  0.53125000000000000       0.65625000000000000        0.0000000000000000     
  0.56250000000000000       0.65625000000000000        0.0000000000000000     
  0.59375000000000000       0.65625000000000000        0.0000000000000000     
  0.62500000000000000       0.65625000000000000        0.0000000000000000     
  0.50000000000000000       0.68750000000000000        0.0000000000000000     
  0.53125000000000000       0.68750000000000000        0.0000000000000000     
  0.56250000000000000       0.68750000000000000        0.0000000000000000     
  0.59375000000000000       0.68750000000000000        0.0000000000000000     
  0.62500000000000000       0.68750000000000000        0.0000000000000000     
  0.50000000000000000       0.71875000000000000        0.0000000000000000     
  0.53125000000000000       0.71875000000000000        0.0000000000000000     
  0.56250000000000000       0.71875000000000000        0.0000000000000000     
  0.59375000000000000       0.71875000000000000        0.0000000000000000     
  0.62500000000000000       0.71875000000000000        0.0000000000000000     
  0.50000000000000000       0.75000000000000000        0.0000000000000000     
  0.53125000000000000       0.75000000000000000        0.0000000000000000     
  0.56250000000000000       0.75000000000000000        0.0000000000000000     
  0.59375000000000000       0.75000000000000000        0.0000000000000000     
  0.62500000000000000       0.75000000000000000        0.0000000000000000     
  0.62500000000000000       0.62500000000000000        0.0000000000000000     
  0.65625000000000000       0.62500000000000000        0.0000000000000000     
  0.68750000000000000       0.62500000000000000        0.0000000000000000     
  0.71875000000000000       0.62500000000000000        0.0000000000000000     
  0.75000000000000000       0.62500000000000000        0.0000000000000000     
  0.62500000000000000       0.65625000000000000        0.0000000000000000     
  0.65625000000000000       0.65625000000000000        0.0000000000000000     
  0.68750000000000000       0.65625000000000000        0.0000000000000000     
  0.71875000000000000       0.65625000000000000        0.0000000000000000     
  0.75000000000000000       0.65625000000000000        0.0000000000000000     
  0.62500000000000000       0.68750000000000000        0.0000000000000000     
  0.65625000000000000       0.68750000000000000        0.0000000000000000     
  0.68750000000000000       0.68750000000000000        0.0000000000000000     
  0.71875000000000000       0.68750000000000000        0.0000000000000000     
  0.75000000000000000       0.68750000000000000        0.0000000000000000     
  0.62500000000000000       0.71875000000000000        0.0000000000000000     
  0.65625000000000000       0.71875000000000000        0.0000000000000000     
  0.68750000000000000       0.71875000000000000        0.0000000000000000     
  0.71875000000000000       0.71875000000000000        0.0000000000000000     
  0.75000000000000000       0.71875000000000000        0.0000000000000000     
  0.62500000000000000       0.75000000000000000        0.0000000000000000     
  0.65625000000000000       0.75000000000000000        0.0000000000000000     
  0.68750000000000000       0.75000000000000000        0.0000000000000000     
  0.71875000000000000       0.75000000000000000        0.0000000000000000     
  0.75000000000000000       0.75000000000000000        0.0000000000000000     
  0.75000000000000000       0.62500000000000000        0.0000000000000000     
  0.78125000000000000       0.62500000000000000        0.0000000000000000     
  0.81250000000000000       0.62500000000000000        0.0000000000000000     
  0.84375000000000000       0.62500000000000000        0.0000000000000000     
  0.87500000000000000       0.62500000000000000        0.0000000000000000     
  0.75000000000000000       0.65625000000000000        0.0000000000000000     
  0.78125000000000000       0.65625000000000000        0.0000000000000000     
  0.81250000000000000       0.65625000000000000        0.0000000000000000     
  0.84375000000000000       0.65625000000000000        0.0000000000000000     
  0.87500000000000000       0.65625000000000000        0.0000000000000000     
  0.75000000000000000       0.68750000000000000        0.0000000000000000     
  0.78125000000000000       0.68750000000000000        0.0000000000000000     
  0.81250000000000000       0.68750000000000000        0.0000000000000000     
  0.84375000000000000       0.68750000000000000        0.0000000000000000     
  0.87500000000000000       0.68750000000000000        0.0000000000000000     
  0.75000000000000000       0.71875000000000000        0.0000000000000000     
  0.78125000000000000       0.71875000000000000        0.0000000000000000     
  0.81250000000000000       0.71875000000000000        0.0000000000000000     
  0.84375000000000000       0.71875000000000000        0.0000000000000000     
  0.87500000000000000       0.71875000000000000        0.0000000000000000     
  0.75000000000000000       0.75000000000000000        0.0000000000000000     
  0.78125000000000000       0.75000000000000000        0.0000000000000000     
  0.81250000000000000       0.75000000000000000        0.0000000000000000     
  0.84375000000000000       0.75000000000000000        0.0000000000000000     
  0.87500000000000000       0.75000000000000000        0.0000000000000000     
  0.87500000000000000       0.62500000000000000        0.0000000000000000     
  0.90625000000000000       0.62500000000000000        0.0000000000000000     
  0.93750000000000000       0.62500000000000000        0.0000000000000000     
  0.96875000000000000       0.62500000000000000        0.0000000000000000     
   1.0000000000000000       0.62500000000000000        0.0000000000000000     
  0.87500000000000000       0.65625000000000000        0.0000000000000000     
  0.90625000000000000       0.65625000000000000        0.0000000000000000     
  0.93750000000000000       0.65625000000000000        0.0000000000000000     
  0.96875000000000000       0.65625000000000000        0.0000000000000000     
   1.0000000000000000       0.65625000000000000        0.0000000000000000     
  0.87500000000000000       0.68750000000000000        0.0000000000000000     
  0.90625000000000000       0.68750000000000000        0.0000000000000000     
  0.93750000000000000       0.68750000000000000        0.0000000000000000     
  0.96875000000000000       0.68750000000000000        0.0000000000000000     
   1.0000000000000000       0.68750000000000000        0.0000000000000000     
  0.87500000000000000       0.71875000000000000        0.0000000000000000     
  0.90625000000000000       0.71875000000000000        0.0000000000000000     
  0.93750000000000000       0.71875000000000000        0.0000000000000000     
  0.96875000000000000       0.71875000000000000        0.0000000000000000     
   1.0000000000000000       0.71875000000000000        0.0000000000000000     
  0.87500000000000000       0.75000000000000000        0.0000000000000000     
  0.90625000000000000       0.75000000000000000        0.0000000000000000     
  0.93750000000000000       0.75000000000000000        0.0000000000000000     
  0.96875000000000000       0.75000000000000000        0.0000000000000000     
   1.0000000000000000       0.75000000000000000        0.0000000000000000     
   0.0000000000000000       0.75000000000000000        0.0000000000000000     
   3.1250000000000000E-002  0.75000000000000000        0.0000000000000000     
   6.2500000000000000E-002  0.75000000000000000        0.0000000000000000     
   9.3750000000000000E-002  0.75000000000000000        0.0000000000000000     
  0.12500000000000000       0.75000000000000000        0.0000000000000000     
   0.0000000000000000       0.78125000000000000        0.0000000000000000     
   3.1250000000000000E-002  0.78125000000000000        0.0000000000000000     
   6.2500000000000000E-002  0.78125000000000000        0.0000000000000000     
   9.3750000000000000E-002  0.78125000000000000        0.0000000000000000     
  0.12500000000000000       0.78125000000000000        0.0000000000000000     
   0.0000000000000000       0.81250000000000000        0.0000000000000000     
   3.1250000000000000E-002  0.81250000000000000        0.0000000000000000     
   6.2500000000000000E-002  0.81250000000000000        0.0000000000000000     
   9.3750000000000000E-002  0.81250000000000000        0.0000000000000000     
  0.12500000000000000       0.81250000000000000        0.0000000000000000     
   0.0000000000000000       0.84375000000000000        0.0000000000000000     
   3.1250000000000000E-002  0.84375000000000000        0.0000000000000000     
   6.2500000000000000E-002  0.84375000000000000        0.0000000000000000     
   9.3750000000000000E-002  0.84375000000000000        0.0000000000000000     
  0.12500000000000000       0.84375000000000000        0.0000000000000000     
   0.0000000000000000       0.87500000000000000        0.0000000000000000     
   3.1250000000000000E-002  0.87500000000000000        0.0000000000000000     
   6.2500000000000000E-002  0.87500000000000000        0.0000000000000000     
   9.3750000000000000E-002  0.87500000000000000        0.0000000000000000     
  0.12500000000000000       0.87500000000000000        0.0000000000000000     
  0.12500000000000000       0.75000000000000000        0.0000000000000000     
  0.15625000000000000       0.75000000000000000        0.0000000000000000     
  0.18750000000000000       0.75000000000000000        0.0000000000000000     
  0.21875000000000000       0.75000000000000000        0.0000000000000000     
  0.25000000000000000       0.75000000000000000        0.0000000000000000     
  0.12500000000000000       0.78125000000000000        0.0000000000000000     
  0.15625000000000000       0.78125000000000000        0.0000000000000000     
  0.18750000000000000       0.78125000000000000        0.0000000000000000     
  0.21875000000000000       0.78125000000000000        0.0000000000000000     
  0.25000000000000000       0.78125000000000000        0.0000000000000000     
  0.12500000000000000       0.81250000000000000        0.0000000000000000     
  0.15625000000000000       0.81250000000000000        0.0000000000000000     
  0.18750000000000000       0.81250000000000000        0.0000000000000000     
  0.21875000000000000       0.81250000000000000        0.0000000000000000     
  0.25000000000000000       0.81250000000000000        0.0000000000000000     
  0.12500000000000000       0.84375000000000000        0.0000000000000000     
  0.15625000000000000       0.84375000000000000        0.0000000000000000     
  0.18750000000000000       0.84375000000000000        0.0000000000000000     
  0.21875000000000000       0.84375000000000000        0.0000000000000000     
  0.25000000000000000       0.84375000000000000        0.0000000000000000     
  0.12500000000000000       0.87500000000000000        0.0000000000000000     
  0.15625000000000000       0.87500000000000000        0.0000000000000000     
  0.18750000000000000       0.87500000000000000        0.0000000000000000     
  0.21875000000000000       0.87500000000000000        0.0000000000000000     
  0.25000000000000000       0.87500000000000000        0.0000000000000000     
  0.25000000000000000       0.75000000000000000        0.0000000000000000     
  0.28125000000000000       0.75000000000000000        0.0000000000000000     
  0.31250000000000000       0.75000000000000000        0.0000000000000000     
  0.34375000000000000       0.75000000000000000        0.0000000000000000     
  0.37500000000000000       0.75000000000000000        0.0000000000000000     
  0.25000000000000000       0.78125000000000000        0.0000000000000000     
  0.28125000000000000       0.78125000000000000        0.0000000000000000     
  0.31250000000000000       0.78125000000000000        0.0000000000000000     
  0.34375000000000000       0.78125000000000000        0.0000000000000000     
  0.37500000000000000       0.78125000000000000        0.0000000000000000     
  0.25000000000000000       0.81250000000000000        0.0000000000000000     
  0.28125000000000000       0.81250000000000000        0.0000000000000000     
  0.31250000000000000       0.81250000000000000        0.0000000000000000     
  0.34375000000000000       0.81250000000000000        0.0000000000000000     
  0.37500000000000000       0.81250000000000000        0.0000000000000000     
  0.25000000000000000       0.84375000000000000        0.0000000000000000     
  0.28125000000000000       0.84375000000000000        0.0000000000000000     
  0.31250000000000000       0.84375000000000000        0.0000000000000000     
  0.34375000000000000       0.84375000000000000        0.0000000000000000     
  0.37500000000000000       0.84375000000000000        0.0000000000000000     
  0.25000000000000000       0.87500000000000000        0.0000000000000000     
  0.28125000000000000       0.87500000000000000        0.0000000000000000     
  0.31250000000000000       0.87500000000000000        0.0000000000000000     
  0.34375000000000000       0.87500000000000000        0.0000000000000000     
  0.37500000000000000       0.87500000000000000        0.0000000000000000     
  0.37500000000000000       0.75000000000000000        0.0000000000000000     
  0.40625000000000000       0.75000000000000000        0.0000000000000000     
  0.43750000000000000       0.75000000000000000        0.0000000000000000     
  0.46875000000000000       0.75000000000000000        0.0000000000000000     
  0.50000000000000000       0.75000000000000000        0.0000000000000000     
  0.37500000000000000       0.78125000000000000        0.0000000000000000     
  0.40625000000000000       0.78125000000000000        0.0000000000000000     
  0.43750000000000000       0.78125000000000000        0.0000000000000000     
  0.46875000000000000       0.78125000000000000        0.0000000000000000     
  0.50000000000000000       0.78125000000000000        0.0000000000000000     
  0.37500000000000000       0.81250000000000000        0.0000000000000000     
  0.40625000000000000       0.81250000000000000        0.0000000000000000     
  0.43750000000000000       0.81250000000000000        0.0000000000000000     
  0.46875000000000000       0.81250000000000000        0.0000000000000000     
  0.50000000000000000       0.81250000000000000        0.0000000000000000     
  0.37500000000000000       0.84375000000000000        0.0000000000000000     
  0.40625000000000000       0.84375000000000000        0.0000000000000000     
  0.43750000000000000       0.84375000000000000        0.0000000000000000     
  0.46875000000000000       0.84375000000000000        0.0000000000000000     
  0.50000000000000000       0.84375000000000000        0.0000000000000000     
  0.37500000000000000       0.87500000000000000        0.0000000000000000     
  0.40625000000000000       0.87500000000000000        0.0000000000000000     
  0.43750000000000000       0.87500000000000000        0.0000000000000000     
  0.46875000000000000       0.87500000000000000        0.0000000000000000     
  0.50000000000000000       0.87500000000000000        0.0000000000000000     
  0.50000000000000000       0.75000000000000000        0.0000000000000000     
  0.53125000000000000       0.75000000000000000        0.0000000000000000     
  0.56250000000000000       0.75000000000000000        0.0000000000000000     
  0.59375000000000000       0.75000000000000000        0.0000000000000000     
  0.62500000000000000       0.75000000000000000        0.0000000000000000     
  0.50000000000000000       0.78125000000000000        0.0000000000000000     
  0.53125000000000000       0.78125000000000000        0.0000000000000000     
  0.56250000000000000       0.78125000000000000        0.0000000000000000     
  0.59375000000000000       0.78125000000000000        0.0000000000000000     
  0.62500000000000000       0.78125000000000000        0.0000000000000000     
  0.50000000000000000       0.81250000000000000        0.0000000000000000     
  0.53125000000000000       0.81250000000000000        0.0000000000000000     
  0.56250000000000000       0.81250000000000000        0.0000000000000000     
  0.59375000000000000       0.81250000000000000        0.0000000000000000     
  0.62500000000000000       0.81250000000000000        0.0000000000000000     
  0.50000000000000000       0.84375000000000000        0.0000000000000000     
  0.53125000000000000       0.84375000000000000        0.0000000000000000     
  0.56250000000000000       0.84375000000000000        0.0000000000000000     
  0.59375000000000000       0.84375000000000000        0.0000000000000000     
  0.62500000000000000       0.84375000000000000        0.0000000000000000     
  0.50000000000000000       0.87500000000000000        0.0000000000000000     
  0.53125000000000000       0.87500000000000000        0.0000000000000000     
  0.56250000000000000       0.87500000000000000        0.0000000000000000     
  0.59375000000000000       0.87500000000000000        0.0000000000000000     
  0.62500000000000000       0.87500000000000000        0.0000000000000000     
  0.62500000000000000       0.75000000000000000        0.0000000000000000     
  0.65625000000000000       0.75000000000000000        0.0000000000000000     
  0.68750000000000000       0.75000000000000000        0.0000000000000000     
  0.71875000000000000       0.75000000000000000        0.0000000000000000     
  0.75000000000000000       0.75000000000000000        0.0000000000000000     
  0.62500000000000000       0.78125000000000000        0.0000000000000000     
  0.65625000000000000       0.78125000000000000        0.0000000000000000     
  0.68750000000000000       0.78125000000000000        0.0000000000000000     
  0.71875000000000000       0.78125000000000000        0.0000000000000000     
  0.75000000000000000       0.78125000000000000        0.0000000000000000     
  0.62500000000000000       0.81250000000000000        0.0000000000000000     
  0.65625000000000000       0.81250000000000000        0.0000000000000000     
  0.68750000000000000       0.81250000000000000        0.0000000000000000     
  0.71875000000000000       0.81250000000000000        0.0000000000000000     
  0.75000000000000000       0.81250000000000000        0.0000000000000000     
  0.62500000000000000       0.84375000000000000        0.0000000000000000     
  0.65625000000000000       0.84375000000000000        0.0000000000000000     
  0.68750000000000000       0.84375000000000000        0.0000000000000000     
  0.71875000000000000       0.84375000000000000        0.0000000000000000     
  0.75000000000000000       0.84375000000000000        0.0000000000000000     
  0.62500000000000000       0.87500000000000000        0.0000000000000000     
  0.65625000000000000       0.87500000000000000        0.0000000000000000     
  0.68750000000000000       0.87500000000000000        0.0000000000000000     
  0.71875000000000000       0.87500000000000000        0.0000000000000000     
  0.75000000000000000       0.87500000000000000        0.0000000000000000     
  0.75000000000000000       0.75000000000000000        0.0000000000000000     
  0.78125000000000000       0.75000000000000000        0.0000000000000000     
  0.81250000000000000       0.75000000000000000        0.0000000000000000     
  0.84375000000000000       0.75000000000000000        0.0000000000000000     
  0.87500000000000000       0.75000000000000000        0.0000000000000000     
  0.75000000000000000       0.78125000000000000        0.0000000000000000     
  0.78125000000000000       0.78125000000000000        0.0000000000000000     
  0.81250000000000000       0.78125000000000000        0.0000000000000000     
  0.84375000000000000       0.78125000000000000        0.0000000000000000     
  0.87500000000000000       0.78125000000000000        0.0000000000000000     
  0.75000000000000000       0.81250000000000000        0.0000000000000000     
  0.78125000000000000       0.81250000000000000        0.0000000000000000     
  0.81250000000000000       0.81250000000000000        0.0000000000000000     
  0.84375000000000000       0.81250000000000000        0.0000000000000000     
  0.87500000000000000       0.81250000000000000        0.0000000000000000     
  0.75000000000000000       0.84375000000000000        0.0000000000000000     
  0.78125000000000000       0.84375000000000000        0.0000000000000000     
  0.81250000000000000       0.84375000000000000        0.0000000000000000     
  0.84375000000000000       0.84375000000000000        0.0000000000000000     
  0.87500000000000000       0.84375000000000000        0.0000000000000000     
  0.75000000000000000       0.87500000000000000        0.0000000000000000     
  0.78125000000000000       0.87500000000000000        0.0000000000000000     
  0.81250000000000000       0.87500000000000000        0.0000000000000000     
  0.84375000000000000       0.87500000000000000        0.0000000000000000     
  0.87500000000000000       0.87500000000000000        0.0000000000000000     
  0.87500000000000000       0.75000000000000000        0.0000000000000000     
  0.90625000000000000       0.75000000000000000        0.0000000000000000     
  0.93750000000000000       0.75000000000000000        0.0000000000000000     
  0.96875000000000000       0.75000000000000000        0.0000000000000000     
   1.0000000000000000       0.75000000000000000        0.0000000000000000     
  0.87500000000000000       0.78125000000000000        0.0000000000000000     
  0.90625000000000000       0.78125000000000000        0.0000000000000000     
  0.93750000000000000       0.78125000000000000        0.0000000000000000     
  0.96875000000000000       0.78125000000000000        0.0000000000000000     
   1.0000000000000000       0.78125000000000000        0.0000000000000000     
  0.87500000000000000       0.81250000000000000        0.0000000000000000     
  0.90625000000000000       0.81250000000000000        0.0000000000000000     
  0.93750000000000000       0.81250000000000000        0.0000000000000000     
  0.96875000000000000       0.81250000000000000        0.0000000000000000     
   1.0000000000000000       0.81250000000000000        0.0000000000000000     
  0.87500000000000000       0.84375000000000000        0.0000000000000000     
  0.90625000000000000       0.84375000000000000        0.0000000000000000     
  0.93750000000000000       0.84375000000000000        0.0000000000000000     
  0.96875000000000000       0.84375000000000000        0.0000000000000000     
   1.0000000000000000       0.84375000000000000        0.0000000000000000     
  0.87500000000000000       0.87500000000000000        0.0000000000000000     
  0.90625000000000000       0.87500000000000000        0.0000000000000000     
  0.93750000000000000       0.87500000000000000        0.0000000000000000     
  0.96875000000000000       0.87500000000000000        0.0000000000000000     
   1.0000000000000000       0.87500000000000000        0.0000000000000000     
   0.0000000000000000       0.87500000000000000        0.0000000000000000     
   3.1250000000000000E-002  0.87500000000000000        0.0000000000000000     
   6.2500000000000000E-002  0.87500000000000000        0.0000000000000000     
   9.3750000000000000E-002  0.87500000000000000        0.0000000000000000     
  0.12500000000000000       0.87500000000000000        0.0000000000000000     
   0.0000000000000000       0.90625000000000000        0.0000000000000000     
   3.1250000000000000E-002  0.90625000000000000        0.0000000000000000     
   6.2500000000000000E-002  0.90625000000000000        0.0000000000000000     
   9.3750000000000000E-002  0.90625000000000000        0.0000000000000000     
  0.12500000000000000       0.90625000000000000        0.0000000000000000     
   0.0000000000000000       0.93750000000000000        0.0000000000000000     
   3.1250000000000000E-002  0.93750000000000000        0.0000000000000000     
   6.2500000000000000E-002  0.93750000000000000        0.0000000000000000     
   9.3750000000000000E-002  0.93750000000000000        0.0000000000000000     
  0.12500000000000000       0.93750000000000000        0.0000000000000000     
   0.0000000000000000       0.96875000000000000        0.0000000000000000     
   3.1250000000000000E-002  0.96875000000000000        0.0000000000000000     
   6.2500000000000000E-002  0.96875000000000000        0.0000000000000000     
   9.3750000000000000E-002  0.96875000000000000        0.0000000000000000     
  0.12500000000000000       0.96875000000000000        0.0000000000000000     
   0.0000000000000000        1.0000000000000000        0.0000000000000000     
   3.1250000000000000E-002   1.0000000000000000        0.0000000000000000     
   6.2500000000000000E-002   1.0000000000000000        0.0000000000000000     
   9.3750000000000000E-002   1.0000000000000000        0.0000000000000000     
  0.12500000000000000        1.0000000000000000        0.0000000000000000     
  0.12500000000000000       0.87500000000000000        0.0000000000000000     
  0.15625000000000000       0.87500000000000000        0.0000000000000000     
  0.18750000000000000       0.87500000000000000        0.0000000000000000     
  0.21875000000000000       0.87500000000000000        0.0000000000000000     
  0.25000000000000000       0.87500000000000000        0.0000000000000000     
  0.12500000000000000       0.90625000000000000        0.0000000000000000     
  0.15625000000000000       0.90625000000000000        0.0000000000000000     
  0.18750000000000000       0.90625000000000000        0.0000000000000000     
  0.21875000000000000       0.90625000000000000        0.0000000000000000     
  0.25000000000000000       0.90625000000000000        0.0000000000000000     
  0.12500000000000000       0.93750000000000000        0.0000000000000000     
  0.15625000000000000       0.93750000000000000        0.0000000000000000     
  0.18750000000000000       0.93750000000000000        0.0000000000000000     
  0.21875000000000000       0.93750000000000000        0.0000000000000000     
  0.25000000000000000       0.93750000000000000        0.0000000000000000     
  0.12500000000000000       0.96875000000000000        0.0000000000000000     
  0.15625000000000000       0.96875000000000000        0.0000000000000000     
  0.18750000000000000       0.96875000000000000        0.0000000000000000     
  0.21875000000000000       0.96875000000000000        0.0000000000000000     
  0.25000000000000000       0.96875000000000000        0.0000000000000000     
  0.12500000000000000        1.0000000000000000        0.0000000000000000     
  0.15625000000000000        1.0000000000000000        0.0000000000000000     
  0.18750000000000000        1.0000000000000000        0.0000000000000000     
  0.21875000000000000        1.0000000000000000        0.0000000000000000     
  0.25000000000000000        1.0000000000000000        0.0000000000000000     
  0.25000000000000000       0.87500000000000000        0.0000000000000000     
  0.28125000000000000       0.87500000000000000        0.0000000000000000     
  0.31250000000000000       0.87500000000000000        0.0000000000000000     
  0.34375000000000000       0.87500000000000000        0.0000000000000000     
  0.37500000000000000       0.87500000000000000        0.0000000000000000     
  0.25000000000000000       0.90625000000000000        0.0000000000000000     
  0.28125000000000000       0.90625000000000000        0.0000000000000000     
  0.31250000000000000       0.90625000000000000        0.0000000000000000     
  0.34375000000000000       0.90625000000000000        0.0000000000000000     
  0.37500000000000000       0.90625000000000000        0.0000000000000000     
  0.25000000000000000       0.93750000000000000        0.0000000000000000     
  0.28125000000000000       0.93750000000000000        0.0000000000000000     
  0.31250000000000000       0.93750000000000000        0.0000000000000000     
  0.34375000000000000       0.93750000000000000        0.0000000000000000     
  0.37500000000000000       0.93750000000000000        0.0000000000000000     
  0.25000000000000000       0.96875000000000000        0.0000000000000000     
  0.28125000000000000       0.96875000000000000        0.0000000000000000     
  0.31250000000000000       0.96875000000000000        0.0000000000000000     
  0.34375000000000000       0.96875000000000000        0.0000000000000000     
  0.37500000000000000       0.96875000000000000        0.0000000000000000     
  0.25000000000000000        1.0000000000000000        0.0000000000000000     
  0.28125000000000000        1.0000000000000000        0.0000000000000000     
  0.31250000000000000        1.0000000000000000        0.0000000000000000     
  0.34375000000000000        1.0000000000000000        0.0000000000000000     
  0.37500000000000000        1.0000000000000000        0.0000000000000000     
  0.37500000000000000       0.87500000000000000        0.0000000000000000     
  0.40625000000000000       0.87500000000000000        0.0000000000000000     
  0.43750000000000000       0.87500000000000000        0.0000000000000000     
  0.46875000000000000       0.87500000000000000        0.0000000000000000     
  0.50000000000000000       0.87500000000000000        0.0000000000000000     
  0.37500000000000000       0.90625000000000000        0.0000000000000000     
  0.40625000000000000       0.90625000000000000        0.0000000000000000     
  0.43750000000000000       0.90625000000000000        0.0000000000000000     
  0.46875000000000000       0.90625000000000000        0.0000000000000000     
  0.50000000000000000       0.90625000000000000        0.0000000000000000     
  0.37500000000000000       0.93750000000000000        0.0000000000000000     
  0.40625000000000000       0.93750000000000000        0.0000000000000000     
  0.43750000000000000       0.93750000000000000        0.0000000000000000     
  0.46875000000000000       0.93750000000000000        0.0000000000000000     
  0.50000000000000000       0.93750000000000000        0.0000000000000000     
  0.37500000000000000       0.96875000000000000        0.0000000000000000     
  0.40625000000000000       0.96875000000000000        0.0000000000000000     
  0.43750000000000000       0.96875000000000000        0.0000000000000000     
  0.46875000000000000       0.96875000000000000        0.0000000000000000     
  0.50000000000000000       0.96875000000000000        0.0000000000000000     
  0.37500000000000000        1.0000000000000000        0.0000000000000000     
  0.40625000000000000        1.0000000000000000        0.0000000000000000     
  0.43750000000000000        1.0000000000000000        0.0000000000000000     
  0.46875000000000000        1.0000000000000000        0.0000000000000000     
  0.50000000000000000        1.0000000000000000        0.0000000000000000     
  0.50000000000000000       0.87500000000000000        0.0000000000000000     
  0.53125000000000000       0.87500000000000000        0.0000000000000000     
  0.56250000000000000       0.87500000000000000        0.0000000000000000     
  0.59375000000000000       0.87500000000000000        0.0000000000000000     
  0.62500000000000000       0.87500000000000000        0.0000000000000000     
  0.50000000000000000       0.90625000000000000        0.0000000000000000     
  0.53125000000000000       0.90625000000000000        0.0000000000000000     
  0.56250000000000000       0.90625000000000000        0.0000000000000000     
  0.59375000000000000       0.90625000000000000        0.0000000000000000     
  0.62500000000000000       0.90625000000000000        0.0000000000000000     
  0.50000000000000000       0.93750000000000000        0.0000000000000000     
  0.53125000000000000       0.93750000000000000        0.0000000000000000     
  0.56250000000000000       0.93750000000000000        0.0000000000000000     
  0.59375000000000000       0.93750000000000000        0.0000000000000000     
  0.62500000000000000       0.93750000000000000        0.0000000000000000     
  0.50000000000000000       0.96875000000000000        0.0000000000000000     
  0.53125000000000000       0.96875000000000000        0.0000000000000000     
  0.56250000000000000       0.96875000000000000        0.0000000000000000     
  0.59375000000000000       0.96875000000000000        0.0000000000000000     
  0.62500000000000000       0.96875000000000000        0.0000000000000000     
  0.50000000000000000        1.0000000000000000        0.0000000000000000     
  0.53125000000000000        1.0000000000000000        0.0000000000000000     
  0.56250000000000000        1.0000000000000000        0.0000000000000000     
  0.59375000000000000        1.0000000000000000        0.0000000000000000     
  0.62500000000000000        1.0000000000000000        0.0000000000000000     
  0.62500000000000000       0.87500000000000000        0.0000000000000000     
  0.65625000000000000       0.87500000000000000        0.0000000000000000     
  0.68750000000000000       0.87500000000000000        0.0000000000000000     
  0.71875000000000000       0.87500000000000000        0.0000000000000000     
  0.75000000000000000       0.87500000000000000        0.0000000000000000     
  0.62500000000000000       0.90625000000000000        0.0000000000000000     
  0.65625000000000000       0.90625000000000000        0.0000000000000000     
  0.68750000000000000       0.90625000000000000        0.0000000000000000     
  0.71875000000000000       0.90625000000000000        0.0000000000000000     
  0.75000000000000000       0.90625000000000000        0.0000000000000000     
  0.62500000000000000       0.93750000000000000        0.0000000000000000     
  0.65625000000000000       0.93750000000000000        0.0000000000000000     
  0.68750000000000000       0.93750000000000000        0.0000000000000000     
  0.71875000000000000       0.93750000000000000        0.0000000000000000     
  0.75000000000000000       0.93750000000000000        0.0000000000000000     
  0.62500000000000000       0.96875000000000000        0.0000000000000000     
  0.65625000000000000       0.96875000000000000        0.0000000000000000     
  0.68750000000000000       0.96875000000000000        0.0000000000000000     
  0.71875000000000000       0.96875000000000000        0.0000000000000000     
  0.75000000000000000       0.96875000000000000        0.0000000000000000     
  0.62500000000000000        1.0000000000000000        0.0000000000000000     
  0.65625000000000000        1.0000000000000000        0.0000000000000000     
  0.68750000000000000        1.0000000000000000        0.0000000000000000     
  0.71875000000000000        1.0000000000000000        0.0000000000000000     
  0.75000000000000000        1.0000000000000000        0.0000000000000000     
  0.75000000000000000       0.87500000000000000        0.0000000000000000     
  0.78125000000000000       0.87500000000000000        0.0000000000000000     
  0.81250000000000000       0.87500000000000000        0.0000000000000000     
  0.84375000000000000       0.87500000000000000        0.0000000000000000     
  0.87500000000000000       0.87500000000000000        0.0000000000000000     
  0.75000000000000000       0.90625000000000000        0.0000000000000000     
  0.78125000000000000       0.90625000000000000        0.0000000000000000     
  0.81250000000000000       0.90625000000000000        0.0000000000000000     
  0.84375000000000000       0.90625000000000000        0.0000000000000000     
  0.87500000000000000       0.90625000000000000        0.0000000000000000     
  0.75000000000000000       0.93750000000000000        0.0000000000000000     
  0.78125000000000000       0.93750000000000000        0.0000000000000000     
  0.81250000000000000       0.93750000000000000        0.0000000000000000     
  0.84375000000000000       0.93750000000000000        0.0000000000000000     
  0.87500000000000000       0.93750000000000000        0.0000000000000000     
  0.75000000000000000       0.96875000000000000        0.0000000000000000     
  0.78125000000000000       0.96875000000000000        0.0000000000000000     
  0.81250000000000000       0.96875000000000000        0.0000000000000000     
  0.84375000000000000       0.96875000000000000        0.0000000000000000     
  0.87500000000000000       0.96875000000000000        0.0000000000000000     
  0.75000000000000000        1.0000000000000000        0.0000000000000000     
  0.78125000000000000        1.0000000000000000        0.0000000000000000     
  0.81250000000000000        1.0000000000000000        0.0000000000000000     
  0.84375000000000000        1.0000000000000000        0.0000000000000000     
  0.87500000000000000        1.0000000000000000        0.0000000000000000     
  0.87500000000000000       0.87500000000000000        0.0000000000000000     
  0.90625000000000000       0.87500000000000000        0.0000000000000000     
  0.93750000000000000       0.87500000000000000        0.0000000000000000     
  0.96875000000000000       0.87500000000000000        0.0000000000000000     
   1.0000000000000000       0.87500000000000000        0.0000000000000000     
  0.87500000000000000       0.90625000000000000        0.0000000000000000     
  0.90625000000000000       0.90625000000000000        0.0000000000000000     
  0.93750000000000000       0.90625000000000000        0.0000000000000000     
  0.96875000000000000       0.90625000000000000        0.0000000000000000     
   1.0000000000000000       0.90625000000000000        0.0000000000000000     
  0.87500000000000000       0.93750000000000000        0.0000000000000000     
  0.90625000000000000       0.93750000000000000        0.0000000000000000     
  0.93750000000000000       0.93750000000000000        0.0000000000000000     
  0.96875000000000000       0.93750000000000000        0.0000000000000000     
   1.0000000000000000       0.93750000000000000        0.0000000000000000     
  0.87500000000000000       0.96875000000000000        0.0000000000000000     
  0.90625000000000000       0.96875000000000000        0.0000000000000000     
  0.93750000000000000       0.96875000000000000        0.0000000000000000     
  0.96875000000000000       0.96875000000000000        0.0000000000000000     
   1.0000000000000000       0.96875000000000000        0.0000000000000000     
  0.87500000000000000        1.0000000000000000        0.0000000000000000     
  0.90625000000000000        1.0000000000000000        0.0000000000000000     
  0.93750000000000000        1.0000000000000000        0.0000000000000000     
  0.96875000000000000        1.0000000000000000        0.0000000000000000     
   1.0000000000000000        1.0000000000000000        0.0000000000000000     
 </DataArray>
 </Points>
 <Cells>
 <DataArray  type="Int32"  Name="connectivity"  format="ascii">
           0           1           6           5
           1           2           7           6
           2           3           8           7
           3           4           9           8
           5           6          11          10
           6           7          12          11
           7           8          13          12
           8           9          14          13
          10          11          16          15
          11          12          17          16
          12          13          18          17
          13          14          19          18
          15          16          21          20
          16          17          22          21
          17          18          23          22
          18          19          24          23
          25          26          31          30
          26          27          32          31
          27          28          33          32
          28          29          34          33
          30          31          36          35
          31          32          37          36
          32          33          38          37
          33          34          39          38
          35          36          41          40
          36          37          42          41
          37          38          43          42
          38          39          44          43
          40          41          46          45
          41          42          47          46
          42          43          48          47
          43          44          49          48
          50          51          56          55
          51          52          57          56
          52          53          58          57
          53          54          59          58
          55          56          61          60
          56          57          62          61
          57          58          63          62
          58          59          64          63
          60          61          66          65
          61          62          67          66
          62          63          68          67
          63          64          69          68
          65          66          71          70
          66          67          72          71
          67          68          73          72
          68          69          74          73
          75          76          81          80
          76          77          82          81
          77          78          83          82
          78          79          84          83
          80          81          86          85
          81          82          87          86
          82          83          88          87
          83          84          89          88
          85          86          91          90
          86          87          92          91
          87          88          93          92
          88          89          94          93
          90          91          96          95
          91          92          97          96
          92          93          98          97
          93          94          99          98
         100         101         106         105
         101         102         107         106
         102         103         108         107
         103         104         109         108
         105         106         111         110
         106         107         112         111
         107         108         113         112
         108         109         114         113
         110         111         116         115
         111         112         117         116
         112         113         118         117
         113         114         119         118
         115         116         121         120
         116         117         122         121
         117         118         123         122
         118         119         124         123
         125         126         131         130
         126         127         132         131
         127         128         133         132
         128         129         134         133
         130         131         136         135
         131         132         137         136
         132         133         138         137
         133         134         139         138
         135         136         141         140
         136         137         142         141
         137         138         143         142
         138         139         144         143
         140         141         146         145
         141         142         147         146
         142         143         148         147
         143         144         149         148
         150         151         156         155
         151         152         157         156
         152         153         158         157
         153         154         159         158
         155         156         161         160
         156         157         162         161
         157         158         163         162
         158         159         164         163
         160         161         166         165
         161         162         167         166
         162         163         168         167
         163         164         169         168
         165         166         171         170
         166         167         172         171
         167         168         173         172
         168         169         174         173
         175         176         181         180
         176         177         182         181
         177         178         183         182
         178         179         184         183
         180         181         186         185
         181         182         187         186
         182         183         188         187
         183         184         189         188
         185         186         191         190
         186         187         192         191
         187         188         193         192
         188         189         194         193
         190         191         196         195
         191         192         197         196
         192         193         198         197
         193         194         199         198
         200         201         206         205
         201         202         207         206
         202         203         208         207
         203         204         209         208
         205         206         211         210
         206         207         212         211
         207         208         213         212
         208         209         214         213
         210         211         216         215
         211         212         217         216
         212         213         218         217
         213         214         219         218
         215         216         221         220
         216         217         222         221
         217         218         223         222
         218         219         224         223
         225         226         231         230
         226         227         232         231
         227         228         233         232
         228         229         234         233
         230         231         236         235
         231         232         237         236
         232         233         238         237
         233         234         239         238
         235         236         241         240
         236         237         242         241
         237         238         243         242
         238         239         244         243
         240         241         246         245
         241         242         247         246
         242         243         248         247
         243         244         249         248
         250         251         256         255
         251         252         257         256
         252         253         258         257
         253         254         259         258
         255         256         261         260
         256         257         262         261
         257         258         263         262
         258         259         264         263
         260         261         266         265
         261         262         267         266
         262         263         268         267
         263         264         269         268
         265         266         271         270
         266         267         272         271
         267         268         273         272
         268         269         274         273
         275         276         281         280
         276         277         282         281
         277         278         283         282
         278         279         284         283
         280         281         286         285
         281         282         287         286
         282         283         288         287
         283         284         289         288
         285         286         291         290
         286         287         292         291
         287         288         293         292
         288         289         294         293
         290         291         296         295
         291         292         297         296
         292         293         298         297
         293         294         299         298
         300         301         306         305
         301         302         307         306
         302         303         308         307
         303         304         309         308
         305         306         311         310
         306         307         312         311
         307         308         313         312
         308         309         314         313
         310         311         316         315
         311         312         317         316
         312         313         318         317
         313         314         319         318
         315         316         321         320
         316         317         322         321
         317         318         323         322
         318         319         324         323
         325         326         331         330
         326         327         332         331
         327         328         333         332
         328         329         334         333
         330         331         336         335
         331         332         337         336
         332         333         338         337
         333         334         339         338
         335         336         341         340
         336         337         342         341
         337         338         343         342
         338         339         344         343
         340         341         346         345
         341         342         347         346
         342         343         348         347
         343         344         349         348
         350         351         356         355
         351         352         357         356
         352         353         358         357
         353         354         359         358
         355         356         361         360
         356         357         362         361
         357         358         363         362
         358         359         364         363
         360         361         366         365
         361         362         367         366
         362         363         368         367
         363         364         369         368
         365         366         371         370
         366         367         372         371
         367         368         373         372
         368         369         374         373
         375         376         381         380
         376         377         382         381
         377         378         383         382
         378         379         384         383
         380         381         386         385
         381         382         387         386
         382         383         388         387
         383         384         389         388
         385         386         391         390
         386         387         392         391
         387         388         393         392
         388         389         394         393
         390         391         396         395
         391         392         397         396
         392         393         398         397
         393         394         399         398
         400         401         406         405
         401         402         407         406
         402         403         408         407
         403         404         409         408
         405         406         411         410
         406         407         412         411
         407         408         413         412
         408         409         414         413
         410         411         416         415
         411         412         417         416
         412         413         418         417
         413         414         419         418
         415         416         421         420
         416         417         422         421
         417         418         423         422
         418         419         424         423
         425         426         431         430
         426         427         432         431
         427         428         433         432
         428         429         434         433
         430         431         436         435
         431         432         437         436
         432         433         438         437
         433         434         439         438
         435         436         441         440
         436         437         442         441
         437         438         443         442
         438         439         444         443
         440         441         446         445
         441         442         447         446
         442         443         448         447
         443         444         449         448
         450         451         456         455
         451         452         457         456
         452         453         458         457
         453         454         459         458
         455         456         461         460
         456         457         462         461
         457         458         463         462
         458         459         464         463
         460         461         466         465
         461         462         467         466
         462         463         468         467
         463         464         469         468
         465         466         471         470
         466         467         472         471
         467         468         473         472
         468         469         474         473
         475         476         481         480
         476         477         482         481
         477         478         483         482
         478         479         484         483
         480         481         486         485
         481         482         487         486
         482         483         488         487
         483         484         489         488
         485         486         491         490
         486         487         492         491
         487         488         493         492
         488         489         494         493
         490         491         496         495
         491         492         497         496
         492         493         498         497
         493         494         499         498
         500         501         506         505
         501         502         507         506
         502         503         508         507
         503         504         509         508
         505         506         511         510
         506         507         512         511
         507         508         513         512
         508         509         514         513
         510         511         516         515
         511         512         517         516
         512         513         518         517
         513         514         519         518
         515         516         521         520
         516         517         522         521
         517         518         523         522
         518         519         524         523
         525         526         531         530
         526         527         532         531
         527         528         533         532
         528         529         534         533
         530         531         536         535
         531         532         537         536
         532         533         538         537
         533         534         539         538
         535         536         541         540
         536         537         542         541
         537         538         543         542
         538         539         544         543
         540         541         546         545
         541         542         547         546
         542         543         548         547
         543         544         549         548
         550         551         556         555
         551         552         557         556
         552         553         558         557
         553         554         559         558
         555         556         561         560
         556         557         562         561
         557         558         563         562
         558         559         564         563
         560         561         566         565
         561         562         567         566
         562         563         568         567
         563         564         569         568
         565         566         571         570
         566         567         572         571
         567         568         573         572
         568         569         574         573
         575         576         581         580
         576         577         582         581
         577         578         583         582
         578         579         584         583
         580         581         586         585
         581         582         587         586
         582         583         588         587
         583         584         589         588
         585         586         591         590
         586         587         592         591
         587         588         593         592
         588         589         594         593
         590         591         596         595
         591         592         597         596
         592         593         598         597
         593         594         599         598
         600         601         606         605
         601         602         607         606
         602         603         608         607
         603         604         609         608
         605         606         611         610
         606         607         612         611
         607         608         613         612
         608         609         614         613
         610         611         616         615
         611         612         617         616
         612         613         618         617
         613         614         619         618
         615         616         621         620
         616         617         622         621
         617         618         623         622
         618         619         624         623
         625         626         631         630
         626         627         632         631
         627         628         633         632
         628         629         634         633
         630         631         636         635
         631         632         637         636
         632         633         638         637
         633         634         639         638
         635         636         641         640
         636         637         642         641
         637         638         643         642
         638         639         644         643
         640         641         646         645
         641         642         647         646
         642         643         648         647
         643         644         649         648
         650         651         656         655
         651         652         657         656
         652         653         658         657
         653         654         659         658
         655         656         661         660
         656         657         662         661
         657         658         663         662
         658         659         664         663
         660         661         666         665
         661         662         667         666
         662         663         668         667
         663         664         669         668
         665         666         671         670
         666         667         672         671
         667         668         673         672
         668         669         674         673
         675         676         681         680
         676         677         682         681
         677         678         683         682
         678         679         684         683
         680         681         686         685
         681         682         687         686
         682         683         688         687
         683         684         689         688
         685         686         691         690
         686         687         692         691
         687         688         693         692
         688         689         694         693
         690         691         696         695
         691         692         697         696
         692         693         698         697
         693         694         699         698
         700         701         706         705
         701         702         707         706
         702         703         708         707
         703         704         709         708
         705         706         711         710
         706         707         712         711
         707         708         713         712
         708         709         714         713
         710         711         716         715
         711         712         717         716
         712         713         718         717
         713         714         719         718
         715         716         721         720
         716         717         722         721
         717         718         723         722
         718         719         724         723
         725         726         731         730
         726         727         732         731
         727         728         733         732
         728         729         734         733
         730         731         736         735
         731         732         737         736
         732         733         738         737
         733         734         739         738
         735         736         741         740
         736         737         742         741
         737         738         743         742
         738         739         744         743
         740         741         746         745
         741         742         747         746
         742         743         748         747
         743         744         749         748
         750         751         756         755
         751         752         757         756
         752         753         758         757
         753         754         759         758
         755         756         761         760
         756         757         762         761
         757         758         763         762
         758         759         764         763
         760         761         766         765
         761         762         767         766
         762         763         768         767
         763         764         769         768
         765         766         771         770
         766         767         772         771
         767         768         773         772
         768         769         774         773
         775         776         781         780
         776         777         782         781
         777         778         783         782
         778         779         784         783
         780         781         786         785
         781         782         787         786
         782         783         788         787
         783         784         789         788
         785         786         791         790
         786         787         792         791
         787         788         793         792
         788         789         794         793
         790         791         796         795
         791         792         797         796
         792         793         798         797
         793         794         799         798
         800         801         806         805
         801         802         807         806
         802         803         808         807
         803         804         809         808
         805         806         811         810
         806         807         812         811
         807         808         813         812
         808         809         814         813
         810         811         816         815
         811         812         817         816
         812         813         818         817
         813         814         819         818
         815         816         821         820
         816         817         822         821
         817         818         823         822
         818         819         824         823
         825         826         831         830
         826         827         832         831
         827         828         833         832
         828         829         834         833
         830         831         836         835
         831         832         837         836
         832         833         838         837
         833         834         839         838
         835         836         841         840
         836         837         842         841
         837         838         843         842
         838         839         844         843
         840         841         846         845
         841         842         847         846
         842         843         848         847
         843         844         849         848
         850         851         856         855
         851         852         857         856
         852         853         858         857
         853         854         859         858
         855         856         861         860
         856         857         862         861
         857         858         863         862
         858         859         864         863
         860         861         866         865
         861         862         867         866
         862         863         868         867
         863         864         869         868
         865         866         871         870
         866         867         872         871
         867         868         873         872
         868         869         874         873
         875         876         881         880
         876         877         882         881
         877         878         883         882
         878         879         884         883
         880         881         886         885
         881         882         887         886
         882         883         888         887
         883         884         889         888
         885         886         891         890
         886         887         892         891
         887         888         893         892
         888         889         894         893
         890         891         896         895
         891         892         897         896
         892         893         898         897
         893         894         899         898
         900         901         906         905
         901         902         907         906
         902         903         908         907
         903         904         909         908
         905         906         911         910
         906         907         912         911
         907         908         913         912
         908         909         914         913
         910         911         916         915
         911         912         917         916
         912         913         918         917
         913         914         919         918
         915         916         921         920
         916         917         922         921
         917         918         923         922
         918         919         924         923
         925         926         931         930
         926         927         932         931
         927         928         933         932
         928         929         934         933
         930         931         936         935
         931         932         937         936
         932         933         938         937
         933         934         939         938
         935         936         941         940
         936         937         942         941
         937         938         943         942
         938         939         944         943
         940         941         946         945
         941         942         947         946
         942         943         948         947
         943         944         949         948
         950         951         956         955
         951         952         957         956
         952         953         958         957
         953         954         959         958
         955         956         961         960
         956         957         962         961
         957         958         963         962
         958         959         964         963
         960         961         966         965
         961         962         967         966
         962         963         968         967
         963         964         969         968
         965         966         971         970
         966         967         972         971
         967         968         973         972
         968         969         974         973
         975         976         981         980
         976         977         982         981
         977         978         983         982
         978         979         984         983
         980         981         986         985
         981         982         987         986
         982         983         988         987
         983         984         989         988
         985         986         991         990
         986         987         992         991
         987         988         993         992
         988         989         994         993
         990         991         996         995
         991         992         997         996
         992         993         998         997
         993         994         999         998
        1000        1001        1006        1005
        1001        1002        1007        1006
        1002        1003        1008        1007
        1003        1004        1009        1008
        1005        1006        1011        1010
        1006        1007        1012        1011
        1007        1008        1013        1012
        1008        1009        1014        1013
        1010        1011        1016        1015
        1011        1012        1017        1016
        1012        1013        1018        1017
        1013        1014        1019        1018
        1015        1016        1021        1020
        1016        1017        1022        1021
        1017        1018        1023        1022
        1018        1019        1024        1023
        1025        1026        1031        1030
        1026        1027        1032        1031
        1027        1028        1033        1032
        1028        1029        1034        1033
        1030        1031        1036        1035
        1031        1032        1037        1036
        1032        1033        1038        1037
        1033        1034        1039        1038
        1035        1036        1041        1040
        1036        1037        1042        1041
        1037        1038        1043        1042
        1038        1039        1044        1043
        1040        1041        1046        1045
        1041        1042        1047        1046
        1042        1043        1048        1047
        1043        1044        1049        1048
        1050        1051        1056        1055
        1051        1052        1057        1056
        1052        1053        1058        1057
        1053        1054        1059        1058
        1055        1056        1061        1060
        1056        1057        1062        1061
        1057        1058        1063        1062
        1058        1059        1064        1063
        1060        1061        1066        1065
        1061        1062        1067        1066
        1062        1063        1068        1067
        1063        1064        1069        1068
        1065        1066        1071        1070
        1066        1067        1072        1071
        1067        1068        1073        1072
        1068        1069        1074        1073
        1075        1076        1081        1080
        1076        1077        1082        1081
        1077        1078        1083        1082
        1078        1079        1084        1083
        1080        1081        1086        1085
        1081        1082        1087        1086
        1082        1083        1088        1087
        1083        1084        1089        1088
        1085        1086        1091        1090
        1086        1087        1092        1091
        1087        1088        1093        1092
        1088        1089        1094        1093
        1090        1091        1096        1095
        1091        1092        1097        1096
        1092        1093        1098        1097
        1093        1094        1099        1098
        1100        1101        1106        1105
        1101        1102        1107        1106
        1102        1103        1108        1107
        1103        1104        1109        1108
        1105        1106        1111        1110
        1106        1107        1112        1111
        1107        1108        1113        1112
        1108        1109        1114        1113
        1110        1111        1116        1115
        1111        1112        1117        1116
        1112        1113        1118        1117
        1113        1114        1119        1118
        1115        1116        1121        1120
        1116        1117        1122        1121
        1117        1118        1123        1122
        1118        1119        1124        1123
        1125        1126        1131        1130
        1126        1127        1132        1131
        1127        1128        1133        1132
        1128        1129        1134        1133
        1130        1131        1136        1135
        1131        1132        1137        1136
        1132        1133        1138        1137
        1133        1134        1139        1138
        1135        1136        1141        1140
        1136        1137        1142        1141
        1137        1138        1143        1142
        1138        1139        1144        1143
        1140        1141        1146        1145
        1141        1142        1147        1146
        1142        1143        1148        1147
        1143        1144        1149        1148
        1150        1151        1156        1155
        1151        1152        1157        1156
        1152        1153        1158        1157
        1153        1154        1159        1158
        1155        1156        1161        1160
        1156        1157        1162        1161
        1157        1158        1163        1162
        1158        1159        1164        1163
        1160        1161        1166        1165
        1161        1162        1167        1166
        1162        1163        1168        1167
        1163        1164        1169        1168
        1165        1166        1171        1170
        1166        1167        1172        1171
        1167        1168        1173        1172
        1168        1169        1174        1173
        1175        1176        1181        1180
        1176        1177        1182        1181
        1177        1178        1183        1182
        1178        1179        1184        1183
        1180        1181        1186        1185
        1181        1182        1187        1186
        1182        1183        1188        1187
        1183        1184        1189        1188
        1185        1186        1191        1190
        1186        1187        1192        1191
        1187        1188        1193        1192
        1188        1189        1194        1193
        1190        1191        1196        1195
        1191        1192        1197        1196
        1192        1193        1198        1197
        1193        1194        1199        1198
        1200        1201        1206        1205
        1201        1202        1207        1206
        1202        1203        1208        1207
        1203        1204        1209        1208
        1205        1206        1211        1210
        1206        1207        1212        1211
        1207        1208        1213        1212
        1208        1209        1214        1213
        1210        1211        1216        1215
        1211        1212        1217        1216
        1212        1213        1218        1217
        1213        1214        1219        1218
        1215        1216        1221        1220
        1216        1217        1222        1221
        1217        1218        1223        1222
        1218        1219        1224        1223
        1225        1226        1231        1230
        1226        1227        1232        1231
        1227        1228        1233        1232
        1228        1229        1234        1233
        1230        1231        1236        1235
        1231        1232        1237        1236
        1232        1233        1238        1237
        1233        1234        1239        1238
        1235        1236        1241        1240
        1236        1237        1242        1241
        1237        1238        1243        1242
        1238        1239        1244        1243
        1240        1241        1246        1245
        1241        1242        1247        1246
        1242        1243        1248        1247
        1243        1244        1249        1248
        1250        1251        1256        1255
        1251        1252        1257        1256
        1252        1253        1258        1257
        1253        1254        1259        1258
        1255        1256        1261        1260
        1256        1257        1262        1261
        1257        1258        1263        1262
        1258        1259        1264        1263
        1260        1261        1266        1265
        1261        1262        1267        1266
        1262        1263        1268        1267
        1263        1264        1269        1268
        1265        1266        1271        1270
        1266        1267        1272        1271
        1267        1268        1273        1272
        1268        1269        1274        1273
        1275        1276        1281        1280
        1276        1277        1282        1281
        1277        1278        1283        1282
        1278        1279        1284        1283
        1280        1281        1286        1285
        1281        1282        1287        1286
        1282        1283        1288        1287
        1283        1284        1289        1288
        1285        1286        1291        1290
        1286        1287        1292        1291
        1287        1288        1293        1292
        1288        1289        1294        1293
        1290        1291        1296        1295
        1291        1292        1297        1296
        1292        1293        1298        1297
        1293        1294        1299        1298
        1300        1301        1306        1305
        1301        1302        1307        1306
        1302        1303        1308        1307
        1303        1304        1309        1308
        1305        1306        1311        1310
        1306        1307        1312        1311
        1307        1308        1313        1312
        1308        1309        1314        1313
        1310        1311        1316        1315
        1311        1312        1317        1316
        1312        1313        1318        1317
        1313        1314        1319        1318
        1315        1316        1321        1320
        1316        1317        1322        1321
        1317        1318        1323        1322
        1318        1319        1324        1323
        1325        1326        1331        1330
        1326        1327        1332        1331
        1327        1328        1333        1332
        1328        1329        1334        1333
        1330        1331        1336        1335
        1331        1332        1337        1336
        1332        1333        1338        1337
        1333        1334        1339        1338
        1335        1336        1341        1340
        1336        1337        1342        1341
        1337        1338        1343        1342
        1338        1339        1344        1343
        1340        1341        1346        1345
        1341        1342        1347        1346
        1342        1343        1348        1347
        1343        1344        1349        1348
        1350        1351        1356        1355
        1351        1352        1357        1356
        1352        1353        1358        1357
        1353        1354        1359        1358
        1355        1356        1361        1360
        1356        1357        1362        1361
        1357        1358        1363        1362
        1358        1359        1364        1363
        1360        1361        1366        1365
        1361        1362        1367        1366
        1362        1363        1368        1367
        1363        1364        1369        1368
        1365        1366        1371        1370
        1366        1367        1372        1371
        1367        1368        1373        1372
        1368        1369        1374        1373
        1375        1376        1381        1380
        1376        1377        1382        1381
        1377        1378        1383        1382
        1378        1379        1384        1383
        1380        1381        1386        1385
        1381        1382        1387        1386
        1382        1383        1388        1387
        1383        1384        1389        1388
        1385        1386        1391        1390
        1386        1387        1392        1391
        1387        1388        1393        1392
        1388        1389        1394        1393
        1390        1391        1396        1395
        1391        1392        1397        1396
        1392        1393        1398        1397
        1393        1394        1399        1398
        1400        1401        1406        1405
        1401        1402        1407        1406
        1402        1403        1408        1407
        1403        1404        1409        1408
        1405        1406        1411        1410
        1406        1407        1412        1411
        1407        1408        1413        1412
        1408        1409        1414        1413
        1410        1411        1416        1415
        1411        1412        1417        1416
        1412        1413        1418        1417
        1413        1414        1419        1418
        1415        1416        1421        1420
        1416        1417        1422        1421
        1417        1418        1423        1422
        1418        1419        1424        1423
        1425        1426        1431        1430
        1426        1427        1432        1431
        1427        1428        1433        1432
        1428        1429        1434        1433
        1430        1431        1436        1435
        1431        1432        1437        1436
        1432        1433        1438        1437
        1433        1434        1439        1438
        1435        1436        1441        1440
        1436        1437        1442        1441
        1437        1438        1443        1442
        1438        1439        1444        1443
        1440        1441        1446        1445
        1441        1442        1447        1446
        1442        1443        1448        1447
        1443        1444        1449        1448
        1450        1451        1456        1455
        1451        1452        1457        1456
        1452        1453        1458        1457
        1453        1454        1459        1458
        1455        1456        1461        1460
        1456        1457        1462        1461
        1457        1458        1463        1462
        1458        1459        1464        1463
        1460        1461        1466        1465
        1461        1462        1467        1466
        1462        1463        1468        1467
        1463        1464        1469        1468
        1465        1466        1471        1470
        1466        1467        1472        1471
        1467        1468        1473        1472
        1468        1469        1474        1473
        1475        1476        1481        1480
        1476        1477        1482        1481
        1477        1478        1483        1482
        1478        1479        1484        1483
        1480        1481        1486        1485
        1481        1482        1487        1486
        1482        1483        1488        1487
        1483        1484        1489        1488
        1485        1486        1491        1490
        1486        1487        1492        1491
        1487        1488        1493        1492
        1488        1489        1494        1493
        1490        1491        1496        1495
        1491        1492        1497        1496
        1492        1493        1498        1497
        1493        1494        1499        1498
        1500        1501        1506        1505
        1501        1502        1507        1506
        1502        1503        1508        1507
        1503        1504        1509        1508
        1505        1506        1511        1510
        1506        1507        1512        1511
        1507        1508        1513        1512
        1508        1509        1514        1513
        1510        1511        1516        1515
        1511        1512        1517        1516
        1512        1513        1518        1517
        1513        1514        1519        1518
        1515        1516        1521        1520
        1516        1517        1522        1521
        1517        1518        1523        1522
        1518        1519        1524        1523
        1525        1526        1531        1530
        1526        1527        1532        1531
        1527        1528        1533        1532
        1528        1529        1534        1533
        1530        1531        1536        1535
        1531        1532        1537        1536
        1532        1533        1538        1537
        1533        1534        1539        1538
        1535        1536        1541        1540
        1536        1537        1542        1541
        1537        1538        1543        1542
        1538        1539        1544        1543
        1540        1541        1546        1545
        1541        1542        1547        1546
        1542        1543        1548        1547
        1543        1544        1549        1548
        1550        1551        1556        1555
        1551        1552        1557        1556
        1552        1553        1558        1557
        1553        1554        1559        1558
        1555        1556        1561        1560
        1556        1557        1562        1561
        1557        1558        1563        1562
        1558        1559        1564        1563
        1560        1561        1566        1565
        1561        1562        1567        1566
        1562        1563        1568        1567
        1563        1564        1569        1568
        1565        1566        1571        1570
        1566        1567        1572        1571
        1567        1568        1573        1572
        1568        1569        1574        1573
        1575        1576        1581        1580
        1576        1577        1582        1581
        1577        1578        1583        1582
        1578        1579        1584        1583
        1580        1581        1586        1585
        1581        1582        1587        1586
        1582        1583        1588        1587
        1583        1584        1589        1588
        1585        1586        1591        1590
        1586        1587        1592        1591
        1587        1588        1593        1592
        1588        1589        1594        1593
        1590        1591        1596        1595
        1591        1592        1597        1596
        1592        1593        1598        1597
        1593        1594        1599        1598
 </DataArray>
 <DataArray  type="Int32"  Name="offsets"  format="ascii"> 
           4
           8
          12
          16
          20
          24
          28
          32
          36
          40
          44
          48
          52
          56
          60
          64
          68
          72
          76
          80
          84
          88
          92
          96
         100
         104
         108
         112
         116
         120
         124
         128
         132
         136
         140
         144
         148
         152
         156
         160
         164
         168
         172
         176
         180
         184
         188
         192
         196
         200
         204
         208
         212
         216
         220
         224
         228
         232
         236
         240
         244
         248
         252
         256
         260
         264
         268
         272
         276
         280
         284
         288
         292
         296
         300
         304
         308
         312
         316
         320
         324
         328
         332
         336
         340
         344
         348
         352
         356
         360
         364
         368
         372
         376
         380
         384
         388
         392
         396
         400
         404
         408
         412
         416
         420
         424
         428
         432
         436
         440
         444
         448
         452
         456
         460
         464
         468
         472
         476
         480
         484
         488
         492
         496
         500
         504
         508
         512
         516
         520
         524
         528
         532
         536
         540
         544
         548
         552
         556
         560
         564
         568
         572
         576
         580
         584
         588
         592
         596
         600
         604
         608
         612
         616
         620
         624
         628
         632
         636
         640
         644
         648
         652
         656
         660
         664
         668
         672
         676
         680
         684
         688
         692
         696
         700
         704
         708
         712
         716
         720
         724
         728
         732
         736
         740
         744
         748
         752
         756
         760
         764
         768
         772
         776
         780
         784
         788
         792
         796
         800
         804
         808
         812
         816
         820
         824
         828
         832
         836
         840
         844
         848
         852
         856
         860
         864
         868
         872
         876
         880
         884
         888
         892
         896
         900
         904
         908
         912
         916
         920
         924
         928
         932
         936
         940
         944
         948
         952
         956
         960
         964
         968
         972
         976
         980
         984
         988
         992
         996
        1000
        1004
        1008
        1012
        1016
        1020
        1024
        1028
        1032
        1036
        1040
        1044
        1048
        1052
        1056
        1060
        1064
        1068
        1072
        1076
        1080
        1084
        1088
        1092
        1096
        1100
        1104
        1108
        1112
        1116
        1120
        1124
        1128
        1132
        1136
        1140
        1144
        1148
        1152
        1156
        1160
        1164
        1168
        1172
        1176
        1180
        1184
        1188
        1192
        1196
        1200
        1204
        1208
        1212
        1216
        1220
        1224
        1228
        1232
        1236
        1240
        1244
        1248
        1252
        1256
        1260
        1264
        1268
        1272
        1276
        1280
        1284
        1288
        1292
        1296
        1300
        1304
        1308
        1312
        1316
        1320
        1324
        1328
        1332
        1336
        1340
        1344
        1348
        1352
        1356
        1360
        1364
        1368
        1372
        1376
        1380
        1384
        1388
        1392
        1396
        1400
        1404
        1408
        1412
        1416
        1420
        1424
        1428
        1432
        1436
        1440
        1444
        1448
        1452
        1456
        1460
        1464
        1468
        1472
        1476
        1480
        1484
        1488
        1492
        1496
        1500
        1504
        1508
        1512
        1516
        1520
        1524
        1528
        1532
        1536
        1540
        1544
        1548
        1552
        1556
        1560
        1564
        1568
        1572
        1576
        1580
        1584
        1588
        1592
        1596
        1600
        1604
        1608
        1612
        1616
        1620
        1624
        1628
        1632
        1636
        1640
        1644
        1648
        1652
        1656
        1660
        1664
        1668
        1672
        1676
        1680
        1684
        1688
        1692
        1696
        1700
        1704
        1708
        1712
        1716
        1720
        1724
        1728
        1732
        1736
        1740
        1744
        1748
        1752
        1756
        1760
        1764
        1768
        1772
        1776
        1780
        1784
        1788
        1792
        1796
        1800
        1804
        1808
        1812
        1816
        1820
        1824
        1828
        1832
        1836
        1840
        1844
        1848
        1852
        1856
        1860
        1864
        1868
        1872
        1876
        1880
        1884
        1888
        1892
        1896
        1900
        1904
        1908
        1912
        1916
        1920
        1924
        1928
        1932
        1936
        1940
        1944
        1948
        1952
        1956
        1960
        1964
        1968
        1972
        1976
        1980
        1984
        1988
        1992
        1996
        2000
        2004
        2008
        2012
        2016
        2020
        2024
        2028
        2032
        2036
        2040
        2044
        2048
        2052
        2056
        2060
        2064
        2068
        2072
        2076
        2080
        2084
        2088
        2092
        2096
        2100
        2104
        2108
        2112
        2116
        2120
        2124
        2128
        2132
        2136
        2140
        2144
        2148
        2152
        2156
        2160
        2164
        2168
        2172
        2176
        2180
        2184
        2188
        2192
        2196
        2200
        2204
        2208
        2212
        2216
        2220
        2224
        2228
        2232
        2236
        2240
        2244
        2248
        2252
        2256
        2260
        2264
        2268
        2272
        2276
        2280
        2284
        2288
        2292
        2296
        2300
        2304
        2308
        2312
        2316
        2320
        2324
        2328
        2332
        2336
        2340
        2344
        2348
        2352
        2356
        2360
        2364
        2368
        2372
        2376
        2380
        2384
        2388
        2392
        2396
        2400
        2404
        2408
        2412
        2416
        2420
        2424
        2428
        2432
        2436
        2440
        2444
        2448
        2452
        2456
        2460
        2464
        2468
        2472
        2476
        2480
        2484
        2488
        2492
        2496
        2500
        2504
        2508
        2512
        2516
        2520
        2524
        2528
        2532
        2536
        2540
        2544
        2548
        2552
        2556
        2560
        2564
        2568
        2572
        2576
        2580
        2584
        2588
        2592
        2596
        2600
        2604
        2608
        2612
        2616
        2620
        2624
        2628
        2632
        2636
        2640
        2644
        2648
        2652
        2656
        2660
        2664
        2668
        2672
        2676
        2680
        2684
        2688
        2692
        2696
        2700
        2704
        2708
        2712
        2716
        2720
        2724
        2728
        2732
        2736
        2740
        2744
        2748
        2752
        2756
        2760
        2764
        2768
        2772
        2776
        2780
        2784
        2788
        2792
        2796
        2800
        2804
        2808
        2812
        2816
        2820
        2824
        2828
        2832
        2836
        2840
        2844
        2848
        2852
        2856
        2860
        2864
        2868
        2872
        2876
        2880
        2884
        2888
        2892
        2896
        2900
        2904
        2908
        2912
        2916
        2920
        2924
        2928
        2932
        2936
        2940
        2944
        2948
        2952
        2956
        2960
        2964
        2968
        2972
        2976
        2980
        2984
        2988
        2992
        2996
        3000
        3004
        3008
        3012
        3016
        3020
        3024
        3028
        3032
        3036
        3040
        3044
        3048
        3052
        3056
        3060
        3064
        3068
        3072
        3076
        3080
        3084
        3088
        3092
        3096
        3100
        3104
        3108
        3112
        3116
        3120
        3124
        3128
        3132
        3136
        3140
        3144
        3148
        3152
        3156
        3160
        3164
        3168
        3172
        3176
        3180
        3184
        3188
        3192
        3196
        3200
        3204
        3208
        3212
        3216
        3220
        3224
        3228
        3232
        3236
        3240
        3244
        3248
        3252
        3256
        3260
        3264
        3268
        3272
        3276
        3280
        3284
        3288
        3292
        3296
        3300
        3304
        3308
        3312
        3316
        3320
        3324
        3328
        3332
        3336
        3340
        3344
        3348
        3352
        3356
        3360
        3364
        3368
        3372
        3376
        3380
        3384
        3388
        3392
        3396
        3400
        3404
        3408
        3412
        3416
        3420
        3424
        3428
        3432
        3436
        3440
        3444
        3448
        3452
        3456
        3460
        3464
        3468
        3472
        3476
        3480
        3484
        3488
        3492
        3496
        3500
        3504
        3508
        3512
        3516
        3520
        3524
        3528
        3532
        3536
        3540
        3544
        3548
        3552
        3556
        3560
        3564
        3568
        3572
        3576
        3580
        3584
        3588
        3592
        3596
        3600
        3604
        3608
        3612
        3616
        3620
        3624
        3628
        3632
        3636
        3640
        3644
        3648
        3652
        3656
        3660
        3664
        3668
        3672
        3676
        3680
        3684
        3688
        3692
        3696
        3700
        3704
        3708
        3712
        3716
        3720
        3724
        3728
        3732
        3736
        3740
        3744
        3748
        3752
        3756
        3760
        3764
        3768
        3772
        3776
        3780
        3784
        3788
        3792
        3796
        3800
        3804
        3808
        3812
        3816
        3820
        3824
        3828
        3832
        3836
        3840
        3844
        3848
        3852
        3856
        3860
        3864
        3868
        3872
        3876
        3880
        3884
        3888
        3892
        3896
        3900
        3904
        3908
        3912
        3916
        3920
        3924
        3928
        3932
        3936
        3940
        3944
        3948
        3952
        3956
        3960
        3964
        3968
        3972
        3976
        3980
        3984
        3988
        3992
        3996
        4000
        4004
        4008
        4012
        4016
        4020
        4024
        4028
        4032
        4036
        4040
        4044
        4048
        4052
        4056
        4060
        4064
        4068
        4072
        4076
        4080
        4084
        4088
        4092
        4096
 </DataArray>
 <DataArray  type="UInt8"  Name="types"  format="ascii">
 9
 9
 9
 9
 9
 9
 9
 9
 9
 9
 9
 9
 9
 9
 9
 9
 9
 9
 9
 9
 9
 9
 9
 9
 9
 9
 9
 9
 9
 9
 9
 9
 9
 9
 9
 9
 9
 9
 9
 9
 9
 9
 9
 9
 9
 9
 9
 9
 9
 9
 9
 9
 9
 9
 9
 9
 9
 9
 9
 9
 9
 9
 9
 9
 9
 9
 9
 9
 9
 9
 9
 9
 9
 9
 9
 9
 9
 9
 9
 9
 9
 9
 9
 9
 9
 9
 9
 9
 9
 9
 9
 9
 9
 9
 9
 9
 9
 9
 9
 9
 9
 9
 9
 9
 9
 9
 9
 9
 9
 9
 9
 9
 9
 9
 9
 9
 9
 9
 9
 9
 9
 9
 9
 9
 9
 9
 9
 9
 9
 9
 9
 9
 9
 9
 9
 9
 9
 9
 9
 9
 9
 9
 9
 9
 9
 9
 9
 9
 9
 9
 9
 9
 9
 9
 9
 9
 9
 9
 9
 9
 9
 9
 9
 9
 9
 9
 9
 9
 9
 9
 9
 9
 9
 9
 9
 9
 9
 9
 9
 9
 9
 9
 9
 9
 9
 9
 9
 9
 9
 9
 9
 9
 9
 9
 9
 9
 9
 9
 9
 9
 9
 9
 9
 9
 9
 9
 9
 9
 9
 9
 9
 9
 9
 9
 9
 9
 9
 9
 9
 9
 9
 9
 9
 9
 9
 9
 9
 9
 9
 9
 9
 9
 9
 9
 9
 9
 9
 9
 9
 9
 9
 9
 9
 9
 9
 9
 9
 9
 9
 9
 9
 9
 9
 9
 9
 9
 9
 9
 9
 9
 9
 9
 9
 9
 9
 9
 9
 9
 9
 9
 9
 9
 9
 9
 9
 9
 9
 9
 9
 9
 9
 9
 9
 9
 9
 9
 9
 9
 9
 9
 9
 9
 9
 9
 9
 9
 9
 9
 9
 9
 9
 9
 9
 9
 9
 9
 9
 9
 9
 9
 9
 9
 9
 9
 9
 9
 9
 9
 9
 9
 9
 9
 9
 9
 9
 9
 9
 9
 9
 9
 9
 9
 9
 9
 9
 9
 9
 9
 9
 9
 9
 9
 9
 9
 9
 9
 9
 9
 9
 9
 9
 9
 9
 9
 9
 9
 9
 9
 9
 9
 9
 9
 9
 9
 9
 9
 9
 9
 9
 9
 9
 9
 9
 9
 9
 9
 9
 9
 9
 9
 9
 9
 9
 9
 9
 9
 9
 9
 9
 9
 9
 9
 9
 9
 9
 9
 9
 9
 9
 9
 9
 9
 9
 9
 9
 9
 9
 9
 9
 9
 9
 9
 9
 9
 9
 9
 9
 9
 9
 9
 9
 9
 9
 9
 9
 9
 9
 9
 9
 9
 9
 9
 9
 9
 9
 9
 9
 9
 9
 9
 9
 9
 9
 9
 9
 9
 9
 9
 9
 9
 9
 9
 9
 9
 9
 9
 9
 9
 9
 9
 9
 9
 9
 9
 9
 9
 9
 9
 9
 9
 9
 9
 9
 9
 9
 9
 9
 9
 9
 9
 9
 9
 9
 9
 9
 9
 9
 9
 9
 9
 9
 9
 9
 9
 9
 9
 9
 9
 9
 9
 9
 9
 9
 9
 9
 9
 9
 9
 9
 9
 9
 9
 9
 9
 9
 9
 9
 9
 9
 9
 9
 9
 9
 9
 9
 9
 9
 9
 9
 9
 9
 9
 9
 9
 9
 9
 9
 9
 9
 9
 9
 9
 9
 9
 9
 9
 9
 9
 9
 9
 9
 9
 9
 9
 9
 9
 9
 9
 9
 9
 9
 9
 9
 9
 9
 9
 9
 9
 9
 9
 9
 9
 9
 9
 9
 9
 9
 9
 9
 9
 9
 9
 9
 9
 9
 9
 9
 9
 9
 9
 9
 9
 9
 9
 9
 9
 9
 9
 9
 9
 9
 9
 9
 9
 9
 9
 9
 9
 9
 9
 9
 9
 9
 9
 9
 9
 9
 9
 9
 9
 9
 9
 9
 9
 9
 9
 9
 9
 9
 9
 9
 9
 9
 9
 9
 9
 9
 9
 9
 9
 9
 9
 9
 9
 9
 9
 9
 9
 9
 9
 9
 9
 9
 9
 9
 9
 9
 9
 9
 9
 9
 9
 9
 9
 9
 9
 9
 9
 9
 9
 9
 9
 9
 9
 9
 9
 9
 9
 9
 9
 9
 9
 9
 9
 9
 9
 9
 9
 9
 9
 9
 9
 9
 9
 9
 9
 9
 9
 9
 9
 9
 9
 9
 9
 9
 9
 9
 9
 9
 9
 9
 9
 9
 9
 9
 9
 9
 9
 9
 9
 9
 9
 9
 9
 9
 9
 9
 9
 9
 9
 9
 9
 9
 9
 9
 9
 9
 9
 9
 9
 9
 9
 9
 9
 9
 9
 9
 9
 9
 9
 9
 9
 9
 9
 9
 9
 9
 9
 9
 9
 9
 9
 9
 9
 9
 9
 9
 9
 9
 9
 9
 9
 9
 9
 9
 9
 9
 9
 9
 9
 9
 9
 9
 9
 9
 9
 9
 9
 9
 9
 9
 9
 9
 9
 9
 9
 9
 9
 9
 9
 9
 9
 9
 9
 9
 9
 9
 9
 9
 9
 9
 9
 9
 9
 9
 9
 9
 9
 9
 9
 9
 9
 9
 9
 9
 9
 9
 9
 9
 9
 9
 9
 9
 9
 9
 9
 9
 9
 9
 9
 9
 9
 9
 9
 9
 9
 9
 9
 9
 9
 9
 9
 9
 9
 9
 9
 9
 9
 9
 9
 9
 9
 9
 9
 9
 9
 9
 9
 9
 9
 9
 9
 9
 9
 9
 9
 9
 9
 9
 9
 9
 9
 9
 9
 9
 9
 9
 9
 9
 9
 9
 9
 9
 9
 9
 9
 9
 9
 9
 9
 9
 9
 9
 9
 9
 9
 9
 9
 9
 9
 9
 9
 9
 9
 9
 9
 9
 9
 9
 9
 9
 9
 9
 9
 9
 9
 9
 9
 9
 9
 9
 9
 9
 9
 9
 9
 9
 9
 9
 9
 9
 9
 9
 9
 9
 9
 9
 9
 9
 9
 9
 9
 9
 9
 9
 9
 9
 9
 9
 9
 9
 9
 9
 9
 9
 9
 9
 9
 9
 9
 9
 9
 9
 9
 9
 9
 9
 9
 9
 9
 9
 9
 9
 9
 9
 9
 9
 9
 9
 9
 9
 9
 9
 9
 9
 9
 9
 9
 9
 9
 9
 9
 9
 9
 9
 9
 9
 9
 9
 9
 9
 9
 9
 9
 9
 9
 9
 9
 9
 9
 9
 9
 9
 9
 </DataArray>
 </Cells> 
 <PointData>
 <DataArray  type="Float64" Name="disp" NumberOfComponents="3" format="ascii">
   0.0000000000000000        0.0000000000000000        0.0000000000000000     
   6.0961996534141666E-003   3.7903356796504225E-003   0.0000000000000000     
   1.1666474376399359E-002   7.3234238132300301E-003   0.0000000000000000     
   1.6710824168955578E-002   1.0599264400738823E-002   0.0000000000000000     
   2.1229249031082822E-002   1.3617857442176799E-002   0.0000000000000000     
   0.0000000000000000        0.0000000000000000        0.0000000000000000     
   4.8914192799472400E-003   3.0218249820036193E-003   0.0000000000000000     
   9.5742122560585324E-003   6.0598087608088168E-003   0.0000000000000000     
   1.4048378928333879E-002   9.1139513364155919E-003   0.0000000000000000     
   1.8313919296773278E-002   1.2184252708823945E-002   0.0000000000000000     
   0.0000000000000000        0.0000000000000000        0.0000000000000000     
   3.9538256108552485E-003   2.4246534302463361E-003   0.0000000000000000     
   7.9111954688504231E-003   5.0619740862274916E-003   0.0000000000000000     
   1.1872109573985521E-002   7.9119619679434670E-003   0.0000000000000000     
   1.5836567926260543E-002   1.0974617075394263E-002   0.0000000000000000     
   0.0000000000000000        0.0000000000000000        0.0000000000000000     
   3.2834186461381939E-003   1.9988210243785743E-003   0.0000000000000000     
   6.6774240147750279E-003   4.3299197894860570E-003   0.0000000000000000     
   1.0182016105910503E-002   6.9932962953224501E-003   0.0000000000000000     
   1.3797194919544616E-002   9.9889505418877533E-003   0.0000000000000000     
   0.0000000000000000        0.0000000000000000        0.0000000000000000     
   2.8801983857960753E-003   1.7443277644003327E-003   0.0000000000000000     
   5.8728978938323503E-003   3.8636458705845131E-003   0.0000000000000000     
   8.9780985241088244E-003   6.3579543185525401E-003   0.0000000000000000     
   1.2195800276625497E-002   9.2272531083044153E-003   0.0000000000000000     
   2.1229249031082822E-002   1.3617857442176799E-002   0.0000000000000000     
   2.5434911592415437E-002   1.6610113768832667E-002   0.0000000000000000     
   2.9540974482587763E-002   1.9806944211995123E-002   0.0000000000000000     
   3.3547437701599798E-002   2.3208348771664170E-002   0.0000000000000000     
   3.7454301249451552E-002   2.6814327447839809E-002   0.0000000000000000     
   1.8313919296773278E-002   1.2184252708823945E-002   0.0000000000000000     
   2.2409179044715895E-002   1.5339165777515037E-002   0.0000000000000000     
   2.6372503855500874E-002   1.8647143441970021E-002   0.0000000000000000     
   3.0203893729128222E-002   2.2108185702188907E-002   0.0000000000000000     
   3.3903348665597945E-002   2.5722292558171690E-002   0.0000000000000000     
   1.5836567926260543E-002   1.0974617075394263E-002   0.0000000000000000     
   1.9732825010709953E-002   1.4208740596364929E-002   0.0000000000000000     
   2.3489135312368209E-002   1.7573133718640523E-002   0.0000000000000000     
   2.7105498831235312E-002   2.1067796442221044E-002   0.0000000000000000     
   3.0581915567311265E-002   2.4692728767106487E-002   0.0000000000000000     
   1.3797194919544616E-002   9.9889505418877533E-003   0.0000000000000000     
   1.7405849490397619E-002   1.3218838225382347E-002   0.0000000000000000     
   2.0890868853189776E-002   1.6584915042006623E-002   0.0000000000000000     
   2.4252253007921068E-002   2.0087180991760573E-002   0.0000000000000000     
   2.7490001954591507E-002   2.3725636074644202E-002   0.0000000000000000     
   1.2195800276625497E-002   9.2272531083044153E-003   0.0000000000000000     
   1.5428252483778901E-002   1.2369458664567290E-002   0.0000000000000000     
   1.8577704477965563E-002   1.5682487412068319E-002   0.0000000000000000     
   2.1644156259185487E-002   1.9166339350807502E-002   0.0000000000000000     
   2.4627607827438672E-002   2.2821014480784836E-002   0.0000000000000000     
   3.7454301249451552E-002   2.6814327447839809E-002   0.0000000000000000     
   4.1265596631539822E-002   3.0619990884655945E-002   0.0000000000000000     
   4.4985355353261418E-002   3.4620449726246498E-002   0.0000000000000000     
   4.8613577414616353E-002   3.8815703972611457E-002   0.0000000000000000     
   5.2150262815604614E-002   4.3205753623750828E-002   0.0000000000000000     
   3.3903348665597945E-002   2.5722292558171690E-002   0.0000000000000000     
   3.7493949495275160E-002   2.9518499487789562E-002   0.0000000000000000     
   4.0998777048524990E-002   3.3525841968913707E-002   0.0000000000000000     
   4.4417831325347427E-002   3.7744320001544131E-002   0.0000000000000000     
   4.7751112325742487E-002   4.2173933585680827E-002   0.0000000000000000     
   3.0581915567311265E-002   2.4692728767106487E-002   0.0000000000000000     
   3.3947840530455554E-002   2.8492911577445941E-002   0.0000000000000000     
   3.7232728730527645E-002   3.2513325757388481E-002   0.0000000000000000     
   4.0436580167527568E-002   3.6753971306934106E-002   0.0000000000000000     
   4.3559394841455296E-002   4.1214848226082818E-002   0.0000000000000000     
   2.7490001954591507E-002   2.3725636074644202E-002   0.0000000000000000     
   3.0627269737080982E-002   2.7543227153625095E-002   0.0000000000000000     
   3.3687210399269391E-002   3.1582901091670820E-002   0.0000000000000000     
   3.6669823941156740E-002   3.5844657888781391E-002   0.0000000000000000     
   3.9575110362743020E-002   4.0328497544956793E-002   0.0000000000000000     
   2.4627607827438672E-002   2.2821014480784836E-002   0.0000000000000000     
   2.7532237115151469E-002   2.6669446216327015E-002   0.0000000000000000     
   3.0362222054750230E-002   3.0734567971760728E-002   0.0000000000000000     
   3.3117562646234958E-002   3.5016379747085970E-002   0.0000000000000000     
   3.5798258889605652E-002   3.9514881542302746E-002   0.0000000000000000     
   5.2150262815604614E-002   4.3205753623750828E-002   0.0000000000000000     
   5.5595120126168796E-002   4.7797021843493624E-002   0.0000000000000000     
   5.8947857916251484E-002   5.2595931795668863E-002   0.0000000000000000     
   6.2208476185852686E-002   5.7602483480276551E-002   0.0000000000000000     
   6.5376974934972396E-002   6.2816676897316681E-002   0.0000000000000000     
   4.7751112325742487E-002   4.2173933585680827E-002   0.0000000000000000     
   5.0995166924876711E-002   4.6808782975032263E-002   0.0000000000000000     
   5.4146541997916638E-002   5.1642968423306887E-002   0.0000000000000000     
   5.7205237544862259E-002   5.6676489930504705E-002   0.0000000000000000     
   6.0171253565713595E-002   6.1909347496625716E-002   0.0000000000000000     
   4.3559394841455296E-002   4.1214848226082818E-002   0.0000000000000000     
   4.6596713303898155E-002   4.5883446962137253E-002   0.0000000000000000     
   4.9544076106443471E-002   5.0747257962400073E-002   0.0000000000000000     
   5.2401483249091219E-002   5.5806281226871257E-002   0.0000000000000000     
   5.5168934731841431E-002   6.1060516755550812E-002   0.0000000000000000     
   3.9575110362743020E-002   4.0328497544956793E-002   0.0000000000000000     
   4.2399759263233125E-002   4.5021013804808607E-002   0.0000000000000000     
   4.5140460241831985E-002   4.9908800412948408E-002   0.0000000000000000     
   4.7797213298539573E-002   5.4991857369376201E-002   0.0000000000000000     
   5.0370018433355923E-002   6.0270184674091988E-002   0.0000000000000000     
   3.5798258889605652E-002   3.9514881542302746E-002   0.0000000000000000     
   3.8404304802881623E-002   4.4221483503046305E-002   0.0000000000000000     
   4.0935694404082179E-002   4.9127595774951918E-002   0.0000000000000000     
   4.3392427693207329E-002   5.4233218358019537E-002   0.0000000000000000     
   4.5774504670257052E-002   5.9538351252249211E-002   0.0000000000000000     
   6.5376974934972396E-002   6.2816676897316681E-002   0.0000000000000000     
   6.8450788392892703E-002   6.8220977959218165E-002   0.0000000000000000     
   7.1427350788895699E-002   7.3797852578409873E-002   0.0000000000000000     
   7.4306662122981412E-002   7.9547300754891845E-002   0.0000000000000000     
   7.7088722395149800E-002   8.5469322488664054E-002   0.0000000000000000     
   6.0171253565713595E-002   6.1909347496625716E-002   0.0000000000000000     
   6.3045953589412090E-002   6.7330204940701160E-002   0.0000000000000000     
   6.5830701144899195E-002   7.2927726081762317E-002   0.0000000000000000     
   6.8525496232174951E-002   7.8701910919809132E-002   0.0000000000000000     
   7.1130338851239330E-002   8.4652759454841658E-002   0.0000000000000000     
   5.5168934731841431E-002   6.1060516755550812E-002   0.0000000000000000     
   5.7849642603518894E-002   6.6501847151572369E-002   0.0000000000000000     
   6.0446818912948432E-002   7.2122155018069511E-002   0.0000000000000000     
   6.2960463660130028E-002   7.7921440355042254E-002   0.0000000000000000     
   6.5390576845063692E-002   8.3899703162490596E-002   0.0000000000000000     
   5.0370018433355923E-002   6.0270184674091988E-002   0.0000000000000000     
   5.2861855435213143E-002   6.5735904591831734E-002   0.0000000000000000     
   5.5275704093043380E-002   7.1381139387331469E-002   0.0000000000000000     
   5.7611564406846630E-002   7.7205889060591185E-002   0.0000000000000000     
   5.9869436376622918E-002   8.3210153611610854E-002   0.0000000000000000     
   4.5774504670257052E-002   5.9538351252249211E-002   0.0000000000000000     
   4.8082592084494821E-002   6.5032377261479299E-002   0.0000000000000000     
   5.0317356685184070E-002   7.0704679189548203E-002   0.0000000000000000     
   5.2478798472324784E-002   7.6555257036455937E-002   0.0000000000000000     
   5.4566917445916990E-002   8.2584110802202473E-002   0.0000000000000000     
   7.7088722395149800E-002   8.5469322488664054E-002   0.0000000000000000     
   7.9774616353833108E-002   9.1560385536528358E-002   0.0000000000000000     
   8.2365428747463554E-002   9.7816957655286613E-002   0.0000000000000000     
   8.4861159576041151E-002  0.10423903884493879        0.0000000000000000     
   8.7261808839565899E-002  0.11082662910548494        0.0000000000000000     
   7.1130338851239330E-002   8.4652759454841658E-002   0.0000000000000000     
   7.3645144291173539E-002   9.0773039900068256E-002   0.0000000000000000     
   7.6069827841058868E-002   9.7055520468697323E-002   0.0000000000000000     
   7.8404389500895261E-002  0.10350020116072885        0.0000000000000000     
   8.0648829270682731E-002  0.11010708197616284        0.0000000000000000     
   6.5390576845063692E-002   8.3899703162490596E-002   0.0000000000000000     
   6.7736479477923425E-002   9.0047488949012766E-002   0.0000000000000000     
   6.9997492568883227E-002   9.6355343223206949E-002   0.0000000000000000     
   7.2173616117943096E-002  0.10282326598507317        0.0000000000000000     
   7.4264850125103032E-002  0.10945125723461144        0.0000000000000000     
   5.9869436376622918E-002   8.3210153611610854E-002   0.0000000000000000     
   6.2048621914082752E-002   8.9383732683361861E-002   0.0000000000000000     
   6.4148422930936658E-002   9.5716425918815518E-002   0.0000000000000000     
   6.6168839427184656E-002  0.10220823331797178        0.0000000000000000     
   6.8109871402826747E-002  0.10885915488083074        0.0000000000000000     
   5.4566917445916990E-002   8.2584110802202473E-002   0.0000000000000000     
   5.6581571599651506E-002   8.8781771103115567E-002   0.0000000000000000     
   5.8522618927219161E-002   9.5138768555522987E-002   0.0000000000000000     
   6.0390059428619969E-002  0.10165510315942472        0.0000000000000000     
   6.2183893103853916E-002  0.10833077491482075        0.0000000000000000     
   8.7261808839565899E-002  0.11082662910548494        0.0000000000000000     
   8.9570573130687073E-002  0.11755958748967195        0.0000000000000000     
   9.1790649042054001E-002  0.12441777305024680        0.0000000000000000     
   9.3922036573666629E-002  0.13140118578720950        0.0000000000000000     
   9.5964735725525024E-002  0.13850982570056003        0.0000000000000000     
   8.0648829270682731E-002  0.11010708197616284        0.0000000000000000     
   8.2804583556666672E-002  0.11685925377851694        0.0000000000000000     
   8.4873088765092447E-002  0.12373980743130883        0.0000000000000000     
   8.6854344895960056E-002  0.13074874293453848        0.0000000000000000     
   8.8748351949269499E-002  0.13788606028820585        0.0000000000000000     
   7.4264850125103032E-002  0.10945125723461144        0.0000000000000000     
   7.6271508561731774E-002  0.11622479325776175        0.0000000000000000     
   7.8193905399198099E-002  0.12312935034046413        0.0000000000000000     
   8.0032040637501994E-002  0.13016492848271854        0.0000000000000000     
   8.1785914276643473E-002  0.13733152768452503        0.0000000000000000     
   6.8109871402826747E-002  0.10885915488083074        0.0000000000000000     
   6.9971348145882378E-002  0.11565620592740639        0.0000000000000000     
   7.1753098944370916E-002  0.12258640177771273        0.0000000000000000     
   7.3455123798292471E-002  0.12964974243174979        0.0000000000000000     
   7.5077422707646960E-002  0.13684622788951753        0.0000000000000000     
   6.2183893103853916E-002  0.10833077491482075        0.0000000000000000     
   6.3904102309118443E-002  0.11515349178745082        0.0000000000000000     
   6.5550669400610939E-002  0.12211096174305462        0.0000000000000000     
   6.7123594378331430E-002  0.12920318478163215        0.0000000000000000     
   6.8622877242279917E-002  0.13643016090318344        0.0000000000000000     
   9.5964735725525024E-002  0.13850982570056003        0.0000000000000000     
   9.7953936753859133E-002  0.14580002052057994        0.0000000000000000     
   9.9924829914898983E-002  0.15332809797755076        0.0000000000000000     
  0.10187741520864459       0.16109405807147251        0.0000000000000000     
  0.10381169263509589       0.16909790080234521        0.0000000000000000     
   8.8748351949269499E-002  0.13788606028820585        0.0000000000000000     
   9.0565299166836241E-002  0.14516276004647879        0.0000000000000000     
   9.2315375790475732E-002  0.15258984276352502        0.0000000000000000     
   9.3998581820187971E-002  0.16016730843934451        0.0000000000000000     
   9.5614917255972987E-002  0.16789515707393732        0.0000000000000000     
   8.1785914276643473E-002  0.13733152768452503        0.0000000000000000     
   8.3449748976144614E-002  0.14461320680489417        0.0000000000000000     
   8.5017767395527466E-002  0.15199402470283649        0.0000000000000000     
   8.6489969534792058E-002  0.15947398137835206        0.0000000000000000     
   8.7866355393938361E-002  0.16705307683144088        0.0000000000000000     
   7.5077422707646960E-002  0.13684622788951753        0.0000000000000000     
   7.6607286181784237E-002  0.14415136079582602        0.0000000000000000     
   7.8032004730054214E-002  0.15154064379548526        0.0000000000000000     
   7.9351578352456820E-002  0.15901407688849520        0.0000000000000000     
   8.0566007048992069E-002  0.16657166007485591        0.0000000000000000     
   6.8622877242279917E-002  0.13643016090318344        0.0000000000000000     
   7.0037910783755153E-002  0.14377722201927445        0.0000000000000000     
   7.1358087794055933E-002  0.15122970004147132        0.0000000000000000     
   7.2583408273182229E-002  0.15878759496977396        0.0000000000000000     
   7.3713872221134069E-002  0.16645090680418240        0.0000000000000000     
   0.0000000000000000        0.0000000000000000        0.0000000000000000     
   2.8801983857960753E-003   1.7443277644003327E-003   0.0000000000000000     
   5.8728978938323503E-003   3.8636458705845131E-003   0.0000000000000000     
   8.9780985241088244E-003   6.3579543185525401E-003   0.0000000000000000     
   1.2195800276625497E-002   9.2272531083044153E-003   0.0000000000000000     
   0.0000000000000000        0.0000000000000000        0.0000000000000000     
   2.6103481711554086E-003   1.5884849538317432E-003   0.0000000000000000     
   5.2897118260188530E-003   3.5558152924770286E-003   0.0000000000000000     
   8.0380909645903342E-003   5.9019910159358565E-003   0.0000000000000000     
   1.0855485586869849E-002   8.6270121242082252E-003   0.0000000000000000     
   0.0000000000000000        0.0000000000000000        0.0000000000000000     
   2.3400513435427126E-003   1.4586038961929366E-003   0.0000000000000000     
   4.7199605313310066E-003   3.2990910181177756E-003   0.0000000000000000     
   7.1397275633648827E-003   5.5214613657745175E-003   0.0000000000000000     
   9.5993524396443403E-003   8.1257149391631631E-003   0.0000000000000000     
   0.0000000000000000        0.0000000000000000        0.0000000000000000     
   2.0693079029579864E-003   1.3546845914839127E-003   0.0000000000000000     
   4.1636440097688092E-003   3.0934730475067540E-003   0.0000000000000000     
   6.2830083204324693E-003   5.2163653680685250E-003   0.0000000000000000     
   8.4274008349489657E-003   7.7233615531692229E-003   0.0000000000000000     
   0.0000000000000000        0.0000000000000000        0.0000000000000000     
   1.7981178494012296E-003   1.2767270397046719E-003   0.0000000000000000     
   3.6207622613322610E-003   2.9389613806439642E-003   0.0000000000000000     
   5.4679332357930946E-003   4.9867030228178764E-003   0.0000000000000000     
   7.3396307727837274E-003   7.4199519662264081E-003   0.0000000000000000     
   1.2195800276625497E-002   9.2272531083044153E-003   0.0000000000000000     
   1.5428252483778901E-002   1.2369458664567290E-002   0.0000000000000000     
   1.8577704477965563E-002   1.5682487412068319E-002   0.0000000000000000     
   2.1644156259185487E-002   1.9166339350807502E-002   0.0000000000000000     
   2.4627607827438672E-002   2.2821014480784836E-002   0.0000000000000000     
   1.0855485586869849E-002   8.6270121242082252E-003   0.0000000000000000     
   1.3688569336728660E-002   1.1648676324263687E-002   0.0000000000000000     
   1.6484015858038024E-002   1.4884781323071784E-002   0.0000000000000000     
   1.9241825150797941E-002   1.8335327120632523E-002   0.0000000000000000     
   2.1961997215008404E-002   2.2000313716945892E-002   0.0000000000000000     
   9.5993524396443403E-003   8.1257149391631631E-003   0.0000000000000000     
   1.2075335395121779E-002   1.1044565614815469E-002   0.0000000000000000     
   1.4544176664749588E-002   1.4210727269263193E-002   0.0000000000000000     
   1.7005876248527778E-002   1.7624199902506334E-002   0.0000000000000000     
   1.9460434146456339E-002   2.1284983514544897E-002   0.0000000000000000     
   8.4274008349489657E-003   7.7233615531692229E-003   0.0000000000000000     
   1.0588550658958246E-002   1.0557126536222636E-002   0.0000000000000000     
   1.2758186898100262E-002   1.3660325250642537E-002   0.0000000000000000     
   1.4936309552375010E-002   1.7032957696428937E-002   0.0000000000000000     
   1.7122918621782487E-002   2.0675023873581836E-002   0.0000000000000000     
   7.3396307727837274E-003   7.4199519662264081E-003   0.0000000000000000     
   9.2282151282380726E-003   1.0186359088485182E-002   0.0000000000000000     
   1.1126046558090040E-002   1.3233575267209828E-002   0.0000000000000000     
   1.3033125062339628E-002   1.6561600502400336E-002   0.0000000000000000     
   1.4949450640986840E-002   2.0170434794056717E-002   0.0000000000000000     
   2.4627607827438672E-002   2.2821014480784836E-002   0.0000000000000000     
   2.7532237115151469E-002   2.6669446216327015E-002   0.0000000000000000     
   3.0362222054750230E-002   3.0734567971760728E-002   0.0000000000000000     
   3.3117562646234958E-002   3.5016379747085970E-002   0.0000000000000000     
   3.5798258889605652E-002   3.9514881542302746E-002   0.0000000000000000     
   2.1961997215008404E-002   2.2000313716945892E-002   0.0000000000000000     
   2.4627857819642229E-002   2.5877697842038354E-002   0.0000000000000000     
   2.7222732733672213E-002   2.9965436225936337E-002   0.0000000000000000     
   2.9746621957098367E-002   3.4263528868639849E-002   0.0000000000000000     
   3.2199525489920680E-002   3.8771975770148903E-002   0.0000000000000000     
   1.9460434146456339E-002   2.1284983514544897E-002   0.0000000000000000     
   2.1879247005528481E-002   2.5174111107245756E-002   0.0000000000000000     
   2.4233711472737403E-002   2.9272615682475803E-002   0.0000000000000000     
   2.6523827548083106E-002   3.3580497240235041E-002   0.0000000000000000     
   2.8749595231565582E-002   3.8097755780523462E-002   0.0000000000000000     
   1.7122918621782487E-002   2.0675023873581836E-002   0.0000000000000000     
   1.9286404672810238E-002   2.4558686011949226E-002   0.0000000000000000     
   2.1395158271945800E-002   2.8656106341379124E-002   0.0000000000000000     
   2.3449179419189167E-002   3.2967284861871518E-002   0.0000000000000000     
   2.5448468114540355E-002   3.7492221573426417E-002   0.0000000000000000     
   1.4949450640986840E-002   2.0170434794056717E-002   0.0000000000000000     
   1.6849330821487492E-002   2.4031422556148766E-002   0.0000000000000000     
   1.8707073131297398E-002   2.8115908202646291E-002   0.0000000000000000     
   2.0522677570416564E-002   3.2423891733549301E-002   0.0000000000000000     
   2.2296144138844988E-002   3.6955373148857773E-002   0.0000000000000000     
   3.5798258889605652E-002   3.9514881542302746E-002   0.0000000000000000     
   3.8404304802881623E-002   4.4221483503046305E-002   0.0000000000000000     
   4.0935694404082179E-002   4.9127595774951918E-002   0.0000000000000000     
   4.3392427693207329E-002   5.4233218358019537E-002   0.0000000000000000     
   4.5774504670257052E-002   5.9538351252249211E-002   0.0000000000000000     
   3.2199525489920680E-002   3.8771975770148903E-002   0.0000000000000000     
   3.4584597405632828E-002   4.3487936107674950E-002   0.0000000000000000     
   3.6904991777728456E-002   4.8408569058429475E-002   0.0000000000000000     
   3.9160708606207573E-002   5.3533874622412471E-002   0.0000000000000000     
   4.1351747891070170E-002   5.8863852799623931E-002   0.0000000000000000     
   2.8749595231565582E-002   3.8097755780523462E-002   0.0000000000000000     
   3.0914884554275924E-002   4.2823451669519105E-002   0.0000000000000000     
   3.3023565547305213E-002   4.7756645273399984E-002   0.0000000000000000     
   3.5075638210653431E-002   5.2897336592166153E-002   0.0000000000000000     
   3.7071102544320597E-002   5.8245525625817557E-002   0.0000000000000000     
   2.5448468114540355E-002   3.7492221573426417E-002   0.0000000000000000     
   2.7395166248810915E-002   4.2228030188578757E-002   0.0000000000000000     
   2.9291415712812432E-002   4.7171824419863485E-002   0.0000000000000000     
   3.1137216506544916E-002   5.2323604267280596E-002   0.0000000000000000     
   3.2932568630008333E-002   5.7683369730830110E-002   0.0000000000000000     
   2.2296144138844988E-002   3.6955373148857773E-002   0.0000000000000000     
   2.4025442489237804E-002   4.1701671664853925E-002   0.0000000000000000     
   2.5708542274250141E-002   4.6654106497819939E-002   0.0000000000000000     
   2.7345443493882002E-002   5.1812677647755816E-002   0.0000000000000000     
   2.8936146148133394E-002   5.7177385114661562E-002   0.0000000000000000     
   4.5774504670257052E-002   5.9538351252249211E-002   0.0000000000000000     
   4.8082592084494821E-002   6.5032377261479299E-002   0.0000000000000000     
   5.0317356685184070E-002   7.0704679189548203E-002   0.0000000000000000     
   5.2478798472324784E-002   7.6555257036455937E-002   0.0000000000000000     
   5.4566917445916990E-002   8.2584110802202473E-002   0.0000000000000000     
   4.1351747891070170E-002   5.8863852799623931E-002   0.0000000000000000     
   4.3476139101304802E-002   6.4384598159447221E-002   0.0000000000000000     
   4.5531911705900027E-002   7.0082205271265671E-002   0.0000000000000000     
   4.7519065704855840E-002   7.5956674135079283E-002   0.0000000000000000     
   4.9437601098172246E-002   8.2008004750888083E-002   0.0000000000000000     
   3.7071102544320597E-002   5.8245525625817557E-002   0.0000000000000000     
   3.9006783035583976E-002   6.3785900284667643E-002   0.0000000000000000     
   4.0879504171720836E-002   6.9503148479029817E-002   0.0000000000000000     
   4.2689265952731190E-002   7.5397270208904035E-002   0.0000000000000000     
   4.4436068378615023E-002   8.1468265474290397E-002   0.0000000000000000     
   3.2932568630008333E-002   5.7683369730830110E-002   0.0000000000000000     
   3.4674523887332324E-002   6.3236283637140567E-002   0.0000000000000000     
   3.6360134082646489E-002   6.8967508812840611E-002   0.0000000000000000     
   3.7989399215950820E-002   7.4877045257930222E-002   0.0000000000000000     
   3.9562319287245330E-002   8.0964892972409372E-002   0.0000000000000000     
   2.8936146148133394E-002   5.7177385114661562E-002   0.0000000000000000     
   3.0479361656549867E-002   6.2735748216866047E-002   0.0000000000000000     
   3.1973801438676987E-002   6.8475286272698124E-002   0.0000000000000000     
   3.3419465494514751E-002   7.4395999282157788E-002   0.0000000000000000     
   3.4816353824063159E-002   8.0497887245245064E-002   0.0000000000000000     
   5.4566917445916990E-002   8.2584110802202473E-002   0.0000000000000000     
   5.6581571599651506E-002   8.8781771103115567E-002   0.0000000000000000     
   5.8522618927219161E-002   9.5138768555522987E-002   0.0000000000000000     
   6.0390059428619969E-002  0.10165510315942472        0.0000000000000000     
   6.2183893103853916E-002  0.10833077491482075        0.0000000000000000     
   4.9437601098172246E-002   8.2008004750888083E-002   0.0000000000000000     
   5.1287955863013837E-002   8.8227694836491788E-002   0.0000000000000000     
   5.3070567976545219E-002   9.4607242109690209E-002   0.0000000000000000     
   5.4785437438766384E-002  0.10114664657048328        0.0000000000000000     
   5.6432564249677353E-002  0.10784590821887105        0.0000000000000000     
   4.4436068378615023E-002   8.1468265474290397E-002   0.0000000000000000     
   4.6120402032553881E-002   8.7707594511708467E-002   0.0000000000000000     
   4.7742757497729313E-002   9.4106717557677980E-002   0.0000000000000000     
   4.9303134774141312E-002  0.10066563461219891        0.0000000000000000     
   5.0801533861789872E-002  0.10738434567527126        0.0000000000000000     
   3.9562319287245330E-002   8.0964892972409372E-002   0.0000000000000000     
   4.1078910108271659E-002   8.7221470128765591E-002   0.0000000000000000     
   4.2539187490771457E-002   9.3637194899486326E-002   0.0000000000000000     
   4.3943151434744726E-002  0.10021206728457159        0.0000000000000000     
   4.5290801940191479E-002  0.10694608728402136        0.0000000000000000     
   3.4816353824063159E-002   8.0497887245245064E-002   0.0000000000000000     
   3.6163480090167149E-002   8.6769321687663145E-002   0.0000000000000000     
   3.7459857955671645E-002   9.3198674135115220E-002   0.0000000000000000     
   3.8705487420576654E-002   9.9785944587601302E-002   0.0000000000000000     
   3.9900368484882182E-002  0.10653113304512139        0.0000000000000000     
   6.2183893103853916E-002  0.10833077491482075        0.0000000000000000     
   6.3904102309118443E-002  0.11515349178745082        0.0000000000000000     
   6.5550669400610939E-002  0.12211096174305462        0.0000000000000000     
   6.7123594378331430E-002  0.12920318478163215        0.0000000000000000     
   6.8622877242279917E-002  0.13643016090318344        0.0000000000000000     
   5.6432564249677353E-002  0.10784590821887105        0.0000000000000000     
   5.8012251594993514E-002  0.11469291188121204        0.0000000000000000     
   5.9524802660430268E-002  0.12167554238386474        0.0000000000000000     
   6.0970217445987629E-002  0.12879379972682919        0.0000000000000000     
   6.2348495951665583E-002  0.13604768391010541        0.0000000000000000     
   5.0801533861789872E-002  0.10738434567527126        0.0000000000000000     
   5.2238276547061091E-002  0.11425072725200699        0.0000000000000000     
   5.3613684616341042E-002  0.12125265584751806        0.0000000000000000     
   5.4927758069629740E-002  0.12839013146180447        0.0000000000000000     
   5.6180496906927183E-002  0.13566315409486626        0.0000000000000000     
   4.5290801940191479E-002  0.10694608728402136        0.0000000000000000     
   4.6582177165321176E-002  0.11382693789983571        0.0000000000000000     
   4.7817315268343270E-002  0.12084230213401458        0.0000000000000000     
   4.8996216249257769E-002  0.12799217998655799        0.0000000000000000     
   5.0118880108064673E-002  0.13527657145746597        0.0000000000000000     
   3.9900368484882182E-002  0.10653113304512139        0.0000000000000000     
   4.1043953449773754E-002  0.11342154382469814        0.0000000000000000     
   4.2135694616436938E-002  0.12044448124335426        0.0000000000000000     
   4.3175591984871725E-002  0.12759994530108973        0.0000000000000000     
   4.4163645555078110E-002  0.13488793599790458        0.0000000000000000     
   6.8622877242279917E-002  0.13643016090318344        0.0000000000000000     
   7.0037910783755153E-002  0.14377722201927445        0.0000000000000000     
   7.1358087794055933E-002  0.15122970004147132        0.0000000000000000     
   7.2583408273182229E-002  0.15878759496977396        0.0000000000000000     
   7.3713872221134069E-002  0.16645090680418240        0.0000000000000000     
   6.2348495951665583E-002  0.13604768391010541        0.0000000000000000     
   6.3654595940455902E-002  0.14343618890464591        0.0000000000000000     
   6.4883475175350355E-002  0.15095830868140328        0.0000000000000000     
   6.6035133656348902E-002  0.15861404324037756        0.0000000000000000     
   6.7109571383451583E-002  0.16640339258156867        0.0000000000000000     
   5.6180496906927183E-002  0.13566315409486626        0.0000000000000000     
   5.7370314810285067E-002  0.14307365988134690        0.0000000000000000     
   5.8495625461755116E-002  0.15062358495588987        0.0000000000000000     
   5.9556428861337357E-002  0.15831292931849522        0.0000000000000000     
   6.0552725009031763E-002  0.16614169296916295        0.0000000000000000     
   5.0118880108064673E-002  0.13527657145746597        0.0000000000000000     
   5.1185067393242634E-002  0.14268963494937739        0.0000000000000000     
   5.2194538653270277E-002  0.15022552886493107        0.0000000000000000     
   5.3147293888147609E-002  0.15788425320412702        0.0000000000000000     
   5.4043333097874617E-002  0.16566580796696523        0.0000000000000000     
   4.4163645555078110E-002  0.13488793599790458        0.0000000000000000     
   4.5098853689328630E-002  0.14228411410873737        0.0000000000000000     
   4.5980214749895811E-002  0.14976414040852684        0.0000000000000000     
   4.6807728736779651E-002  0.15732801489727288        0.0000000000000000     
   4.7581395649980152E-002  0.16497573757497561        0.0000000000000000     
   0.0000000000000000        0.0000000000000000        0.0000000000000000     
   1.7981178494012296E-003   1.2767270397046719E-003   0.0000000000000000     
   3.6207622613322610E-003   2.9389613806439642E-003   0.0000000000000000     
   5.4679332357930946E-003   4.9867030228178764E-003   0.0000000000000000     
   7.3396307727837274E-003   7.4199519662264081E-003   0.0000000000000000     
   0.0000000000000000        0.0000000000000000        0.0000000000000000     
   1.5347619148422139E-003   1.2176040994503273E-003   0.0000000000000000     
   3.0986838069124150E-003   2.8210028778909435E-003   0.0000000000000000     
   4.6917656762106019E-003   4.8101963353218485E-003   0.0000000000000000     
   6.3140075227367757E-003   7.1851844717430438E-003   0.0000000000000000     
   0.0000000000000000        0.0000000000000000        0.0000000000000000     
   1.2875208312507105E-003   1.1701886293159912E-003   0.0000000000000000     
   2.6047771674003236E-003   2.7250443996092305E-003   0.0000000000000000     
   3.9517690084488405E-003   4.6645673108797183E-003   0.0000000000000000     
   5.3284963543962591E-003   6.9887573631274551E-003   0.0000000000000000     
   0.0000000000000000        0.0000000000000000        0.0000000000000000     
   1.0563945986267194E-003   1.1344806293016639E-003   0.0000000000000000     
   2.1390423427959889E-003   2.6510859457988260E-003   0.0000000000000000     
   3.2479432325078082E-003   4.5498159494914859E-003   0.0000000000000000     
   4.3830972677621786E-003   6.8306706403796439E-003   0.0000000000000000     
   0.0000000000000000        0.0000000000000000        0.0000000000000000     
   8.4138321697024062E-004   1.1104800994073457E-003   0.0000000000000000     
   1.7014793330994097E-003   2.5991275164597293E-003   0.0000000000000000     
   2.5802883483875072E-003   4.4659422511571503E-003   0.0000000000000000     
   3.4778102628345332E-003   6.7109243034996092E-003   0.0000000000000000     
   7.3396307727837274E-003   7.4199519662264081E-003   0.0000000000000000     
   9.2282151282380726E-003   1.0186359088485182E-002   0.0000000000000000     
   1.1126046558090040E-002   1.3233575267209828E-002   0.0000000000000000     
   1.3033125062339628E-002   1.6561600502400336E-002   0.0000000000000000     
   1.4949450640986840E-002   2.0170434794056717E-002   0.0000000000000000     
   6.3140075227367757E-003   7.1851844717430438E-003   0.0000000000000000     
   7.9527286348762584E-003   9.8964369176632091E-003   0.0000000000000000     
   9.5952483010143721E-003   1.2894423303591028E-002   0.0000000000000000     
   1.1241566521151118E-002   1.6179143629526500E-002   0.0000000000000000     
   1.2891683295286498E-002   1.9750597895469624E-002   0.0000000000000000     
   5.3284963543962591E-003   6.9887573631274551E-003   0.0000000000000000     
   6.7204910107878050E-003   9.6515336698168013E-003   0.0000000000000000     
   8.1132847831687019E-003   1.2606815344412117E-002   0.0000000000000000     
   9.5068776715389516E-003   1.5854602386913403E-002   0.0000000000000000     
   1.0901269675898554E-002   1.9394894797320657E-002   0.0000000000000000     
   4.3830972677621786E-003   6.8306706403796439E-003   0.0000000000000000     
   5.5315022559727142E-003   9.4516493449459584E-003   0.0000000000000000     
   6.6801560045530320E-003   1.2370751389673093E-002   0.0000000000000000     
   7.8290585135031305E-003   1.5587976774561045E-002   0.0000000000000000     
   8.9782097828230122E-003   1.9103325499609809E-002   0.0000000000000000     
   3.4778102628345332E-003   6.7109243034996092E-003   0.0000000000000000     
   4.3857623704309841E-003   9.2967839430506839E-003   0.0000000000000000     
   5.2958619651673582E-003   1.2186231439373954E-002   0.0000000000000000     
   6.2081090470436535E-003   1.5379266792469424E-002   0.0000000000000000     
   7.1225036160598712E-003   1.8875890002337085E-002   0.0000000000000000     
   1.4949450640986840E-002   2.0170434794056717E-002   0.0000000000000000     
   1.6849330821487492E-002   2.4031422556148766E-002   0.0000000000000000     
   1.8707073131297398E-002   2.8115908202646291E-002   0.0000000000000000     
   2.0522677570416564E-002   3.2423891733549301E-002   0.0000000000000000     
   2.2296144138844988E-002   3.6955373148857773E-002   0.0000000000000000     
   1.2891683295286498E-002   1.9750597895469624E-002   0.0000000000000000     
   1.4528891129673392E-002   2.3582709223297471E-002   0.0000000000000000     
   1.6136482530564693E-002   2.7649400734887111E-002   0.0000000000000000     
   1.7714457497960398E-002   3.1950672430238532E-002   0.0000000000000000     
   1.9262816031860509E-002   3.6486524309351745E-002   0.0000000000000000     
   1.0901269675898554E-002   1.9394894797320657E-002   0.0000000000000000     
   1.2285951275481096E-002   2.3202934496848456E-002   0.0000000000000000     
   1.3650412949520171E-002   2.7253963406711372E-002   0.0000000000000000     
   1.4994654698015782E-002   3.1547981526909401E-002   0.0000000000000000     
   1.6318676520967926E-002   3.6084988857442546E-002   0.0000000000000000     
   8.9782097828230122E-003   1.9103325499609809E-002   0.0000000000000000     
   1.0120511258910603E-002   2.2892098376801721E-002   0.0000000000000000     
   1.1248864388163842E-002   2.6929596218119082E-002   0.0000000000000000     
   1.2363269170582721E-002   3.1215819023561901E-002   0.0000000000000000     
   1.3463725606167246E-002   3.5750766793130176E-002   0.0000000000000000     
   7.1225036160598712E-003   1.8875890002337085E-002   0.0000000000000000     
   8.0325710799619178E-003   2.2650200863157253E-002   0.0000000000000000     
   8.9318368464956967E-003   2.6676299169110233E-002   0.0000000000000000     
   9.8203009156612123E-003   3.0954184920196019E-002   0.0000000000000000     
   1.0697963287458463E-002   3.5483858116414621E-002   0.0000000000000000     
   2.2296144138844988E-002   3.6955373148857773E-002   0.0000000000000000     
   2.4025442489237804E-002   4.1701671664853925E-002   0.0000000000000000     
   2.5708542274250141E-002   4.6654106497819939E-002   0.0000000000000000     
   2.7345443493882002E-002   5.1812677647755816E-002   0.0000000000000000     
   2.8936146148133394E-002   5.7177385114661562E-002   0.0000000000000000     
   1.9262816031860509E-002   3.6486524309351745E-002   0.0000000000000000     
   2.0775242924952607E-002   4.1241716962778605E-002   0.0000000000000000     
   2.2245422969924281E-002   4.6201010981070968E-002   0.0000000000000000     
   2.3673356166775537E-002   5.1364406364228822E-002   0.0000000000000000     
   2.5059042515506363E-002   5.6731903112252187E-002   0.0000000000000000     
   1.6318676520967926E-002   3.6084988857442546E-002   0.0000000000000000     
   1.7614097205351353E-002   4.0845506946786805E-002   0.0000000000000000     
   1.8872535538140819E-002   4.5810057343418177E-002   0.0000000000000000     
   2.0093991519336322E-002   5.0978640047336675E-002   0.0000000000000000     
   2.1278465148937862E-002   5.6351255058542271E-002   0.0000000000000000     
   1.3463725606167246E-002   3.5750766793130176E-002   0.0000000000000000     
   1.4542005330434043E-002   4.0513041616878520E-002   0.0000000000000000     
   1.5589879978899747E-002   4.5481245584861572E-002   0.0000000000000000     
   1.6607349551564354E-002   5.0655378697079312E-002   0.0000000000000000     
   1.7594414048427879E-002   5.6035440953531759E-002   0.0000000000000000     
   1.0697963287458463E-002   3.5483858116414621E-002   0.0000000000000000     
   1.1558967300200673E-002   4.0244320973053756E-002   0.0000000000000000     
   1.2397456292201068E-002   4.5214575705401154E-002   0.0000000000000000     
   1.3213430263459650E-002   5.0394622313456795E-002   0.0000000000000000     
   1.4006889213976418E-002   5.5784460797220700E-002   0.0000000000000000     
   2.8936146148133394E-002   5.7177385114661562E-002   0.0000000000000000     
   3.0479361656549867E-002   6.2735748216866047E-002   0.0000000000000000     
   3.1973801438676987E-002   6.8475286272698124E-002   0.0000000000000000     
   3.3419465494514751E-002   7.4395999282157788E-002   0.0000000000000000     
   3.4816353824063159E-002   8.0497887245245064E-002   0.0000000000000000     
   2.5059042515506363E-002   5.6731903112252187E-002   0.0000000000000000     
   2.6403023885074543E-002   6.2293545064837016E-002   0.0000000000000000     
   2.7705842144437835E-002   6.8039376061679244E-002   0.0000000000000000     
   2.8967497293596246E-002   7.3969396102778889E-002   0.0000000000000000     
   3.0187989332549767E-002   8.0083605188135926E-002   0.0000000000000000     
   2.1278465148937862E-002   5.6351255058542271E-002   0.0000000000000000     
   2.2427238114744317E-002   6.1918925222046506E-002   0.0000000000000000     
   2.3541592104554560E-002   6.7672673382860968E-002   0.0000000000000000     
   2.4621527118368597E-002   7.3612499540985615E-002   0.0000000000000000     
   2.5667043156186422E-002   7.9738403696420435E-002   0.0000000000000000     
   1.7594414048427879E-002   5.6035440953531759E-002   0.0000000000000000     
   1.8552004345559186E-002   6.1611888688494543E-002   0.0000000000000000     
   1.9481051319027162E-002   6.7375178236243283E-002   0.0000000000000000     
   2.0381554968831810E-002   7.3325309596777979E-002   0.0000000000000000     
   2.1253515294973113E-002   7.9462282770098633E-002   0.0000000000000000     
   1.4006889213976418E-002   5.5784460797220700E-002   0.0000000000000000     
   1.4777322577519153E-002   6.1372435464181078E-002   0.0000000000000000     
   1.5524219787855639E-002   6.7146890621826175E-002   0.0000000000000000     
   1.6247580844985867E-002   7.3107826270155982E-002   0.0000000000000000     
   1.6947405748909850E-002   7.9255242409170479E-002   0.0000000000000000     
   3.4816353824063159E-002   8.0497887245245064E-002   0.0000000000000000     
   3.6163480090167149E-002   8.6769321687663145E-002   0.0000000000000000     
   3.7459857955671645E-002   9.3198674135115220E-002   0.0000000000000000     
   3.8705487420576654E-002   9.9785944587601302E-002   0.0000000000000000     
   3.9900368484882182E-002  0.10653113304512139        0.0000000000000000     
   3.0187989332549767E-002   8.0083605188135926E-002   0.0000000000000000     
   3.1365315893660907E-002   8.6368279942649326E-002   0.0000000000000000     
   3.2497474609292150E-002   9.2809696991217994E-002   0.0000000000000000     
   3.3584465479443507E-002   9.9407856333841929E-002   0.0000000000000000     
   3.4626288504114963E-002  0.10616275797052116        0.0000000000000000     
   2.5667043156186422E-002   7.9738403696420435E-002   0.0000000000000000     
   2.6675621434173492E-002   8.6035475647972301E-002   0.0000000000000000     
   2.7644743168495252E-002   9.2488805194447923E-002   0.0000000000000000     
   2.8574408359151704E-002   9.9098392335847330E-002   0.0000000000000000     
   2.9464617006142849E-002  0.10586423707217055        0.0000000000000000     
   2.1253515294973113E-002   7.9462282770098633E-002   0.0000000000000000     
   2.2094396711704895E-002   8.5770908803632057E-002   0.0000000000000000     
   2.2901663633280937E-002   9.2235998744805023E-002   0.0000000000000000     
   2.3675316059701253E-002   9.8857552593617518E-002   0.0000000000000000     
   2.4415353990965817E-002  0.10563557035006955        0.0000000000000000     
   1.6947405748909850E-002   7.9255242409170479E-002   0.0000000000000000     
   1.7621641726255119E-002   8.5574579409628593E-002   0.0000000000000000     
   1.8268236003649213E-002   9.2051277642289264E-002   0.0000000000000000     
   1.8887188581092135E-002   9.8685337107152452E-002   0.0000000000000000     
   1.9478499458583882E-002  0.10547675780421817        0.0000000000000000     
   3.9900368484882182E-002  0.10653113304512139        0.0000000000000000     
   4.1043953449773754E-002  0.11342154382469814        0.0000000000000000     
   4.2135694616436938E-002  0.12044448124335426        0.0000000000000000     
   4.3175591984871725E-002  0.12759994530108973        0.0000000000000000     
   4.4163645555078110E-002  0.13488793599790458        0.0000000000000000     
   3.4626288504114963E-002  0.10616275797052116        0.0000000000000000     
   3.5621973965016936E-002  0.11306139962126641        0.0000000000000000     
   3.6570552143859819E-002  0.12009077900608837        0.0000000000000000     
   3.7472023040643607E-002  0.12725089612498708        0.0000000000000000     
   3.8326386655368305E-002  0.13454175097796250        0.0000000000000000     
   2.9464617006142849E-002  0.10586423707217055        0.0000000000000000     
   3.0314607275648799E-002  0.11277335988421250        0.0000000000000000     
   3.1123617333849662E-002  0.11981278125276811        0.0000000000000000     
   3.1891647180745449E-002  0.12698250117783738        0.0000000000000000     
   3.2618696816336147E-002  0.13428251965942034        0.0000000000000000     
   2.4415353990965817E-002  0.10563557035006955        0.0000000000000000     
   2.5121853381669335E-002  0.11255742461353645        0.0000000000000000     
   2.5794890186406478E-002  0.11961048798339349        0.0000000000000000     
   2.6434464405177233E-002  0.12679476045964067        0.0000000000000000     
   2.7040576037981625E-002  0.13411024204227801        0.0000000000000000     
   1.9478499458583882E-002  0.10547675780421817        0.0000000000000000     
   2.0043712283078559E-002  0.11241359380923824        0.0000000000000000     
   2.0584370701530255E-002  0.11948389919796450        0.0000000000000000     
   2.1100474713938978E-002  0.12668767397039693        0.0000000000000000     
   2.1592024320304729E-002  0.13402491812653558        0.0000000000000000     
   4.4163645555078110E-002  0.13488793599790458        0.0000000000000000     
   4.5098853689328630E-002  0.14228411410873737        0.0000000000000000     
   4.5980214749895811E-002  0.14976414040852684        0.0000000000000000     
   4.6807728736779651E-002  0.15732801489727288        0.0000000000000000     
   4.7581395649980152E-002  0.16497573757497561        0.0000000000000000     
   3.8326386655368305E-002  0.13454175097796250        0.0000000000000000     
   3.9130923693800154E-002  0.14192065265395351        0.0000000000000000     
   3.9882914861705365E-002  0.14934491024189886        0.0000000000000000     
   4.0582360159083952E-002  0.15681452374179855        0.0000000000000000     
   4.1229259585935901E-002  0.16432949315365261        0.0000000000000000     
   3.2618696816336147E-002  0.13428251965942034        0.0000000000000000     
   3.3300527401914352E-002  0.14166280587955235        0.0000000000000000     
   3.3932900098772624E-002  0.14907332902026874        0.0000000000000000     
   3.4515814906910976E-002  0.15651408908156958        0.0000000000000000     
   3.5049271826329408E-002  0.16398508606345483        0.0000000000000000     
   2.7040576037981625E-002  0.13411024204227801        0.0000000000000000     
   2.7607664813671207E-002  0.14151057378553386        0.0000000000000000     
   2.8130170461097580E-002  0.14894939674363655        0.0000000000000000     
   2.8608092980260732E-002  0.15642671091658600        0.0000000000000000     
   2.9041432371160671E-002  0.16394251630438228        0.0000000000000000     
   2.1592024320304729E-002  0.13402491812653558        0.0000000000000000     
   2.2052335929070736E-002  0.14146395637189807        0.0000000000000000     
   2.2474725948680226E-002  0.14897311341200214        0.0000000000000000     
   2.2859194379133214E-002  0.15655238924684781        0.0000000000000000     
   2.3205741220429683E-002  0.16420178387643500        0.0000000000000000     
   0.0000000000000000        0.0000000000000000        0.0000000000000000     
   8.4138321697024062E-004   1.1104800994073457E-003   0.0000000000000000     
   1.7014793330994097E-003   2.5991275164597293E-003   0.0000000000000000     
   2.5802883483875072E-003   4.4659422511571503E-003   0.0000000000000000     
   3.4778102628345332E-003   6.7109243034996092E-003   0.0000000000000000     
   0.0000000000000000        0.0000000000000000        0.0000000000000000     
   6.3358129877967161E-004   1.0946016539274712E-003   0.0000000000000000     
   1.2775290480978546E-003   2.5632889014944866E-003   0.0000000000000000     
   1.9318432479545487E-003   4.4060617427010458E-003   0.0000000000000000     
   2.5965238983497551E-003   6.6229201775471480E-003   0.0000000000000000     
   0.0000000000000000        0.0000000000000000        0.0000000000000000     
   4.2408345655341011E-004   1.0832599071564750E-003   0.0000000000000000     
   8.5263239757859210E-004   2.5376898908056437E-003   0.0000000000000000     
   1.2856468230755462E-003   4.3632899509475050E-003   0.0000000000000000     
   1.7231267330442724E-003   6.5600600875820626E-003   0.0000000000000000     
   0.0000000000000000        0.0000000000000000        0.0000000000000000     
   2.1288969029145601E-004   1.0764548590943572E-003   0.0000000000000000     
   4.2678938154162242E-004   2.5223304843932015E-003   0.0000000000000000     
   6.4169907375049922E-004   4.3376268758965322E-003   0.0000000000000000     
   8.5761876691808621E-004   6.5223440336043496E-003   0.0000000000000000     
   0.0000000000000000        0.0000000000000000        0.0000000000000000     
  -6.1906046695120454E-015   1.0741865097411182E-003   0.0000000000000000     
  -1.3054715728572086E-014   2.5172106822571589E-003   0.0000000000000000     
  -2.0592414492343059E-014   4.3290725175481239E-003   0.0000000000000000     
  -2.8803538330499090E-014   6.5097720156140106E-003   0.0000000000000000     
   3.4778102628345332E-003   6.7109243034996092E-003   0.0000000000000000     
   4.3857623704309841E-003   9.2967839430506839E-003   0.0000000000000000     
   5.2958619651673582E-003   1.2186231439373954E-002   0.0000000000000000     
   6.2081090470436535E-003   1.5379266792469424E-002   0.0000000000000000     
   7.1225036160598712E-003   1.8875890002337085E-002   0.0000000000000000     
   2.5965238983497551E-003   6.6229201775471480E-003   0.0000000000000000     
   3.2685656340979410E-003   9.1809724951945337E-003   0.0000000000000000     
   3.9449630900135766E-003   1.2047326984804948E-002   0.0000000000000000     
   4.6257162660966623E-003   1.5221983646378388E-002   0.0000000000000000     
   5.3108251623471972E-003   1.8704942479914853E-002   0.0000000000000000     
   1.7231267330442724E-003   6.5600600875820626E-003   0.0000000000000000     
   2.1652063269089056E-003   9.0982500324410763E-003   0.0000000000000000     
   2.6120198040935809E-003   1.1948109517256321E-002   0.0000000000000000     
   3.0635671645982982E-003   1.5109638542027791E-002   0.0000000000000000     
   3.5198484084230583E-003   1.8582837106755484E-002   0.0000000000000000     
   8.5761876691808621E-004   6.5223440336043496E-003   0.0000000000000000     
   1.0756844488638781E-003   9.0486165547903081E-003   0.0000000000000000     
   1.2970321074073702E-003   1.1888579036728068E-002   0.0000000000000000     
   1.5216617425485614E-003   1.5042231479417625E-002   0.0000000000000000     
   1.7495733542874526E-003   1.8509573882858982E-002   0.0000000000000000     
  -2.8803538330499090E-014   6.5097720156140106E-003   0.0000000000000000     
  -3.7140524488353532E-014   9.0320720622422308E-003   0.0000000000000000     
  -4.5055423964195790E-014   1.1868735543220195E-002   0.0000000000000000     
  -5.2548350260440795E-014   1.5019762458547900E-002   0.0000000000000000     
  -5.9619410103239900E-014   1.8485152808225346E-002   0.0000000000000000     
   7.1225036160598712E-003   1.8875890002337085E-002   0.0000000000000000     
   8.0325710799619178E-003   2.2650200863157253E-002   0.0000000000000000     
   8.9318368464956967E-003   2.6676299169110233E-002   0.0000000000000000     
   9.8203009156612123E-003   3.0954184920196019E-002   0.0000000000000000     
   1.0697963287458463E-002   3.5483858116414621E-002   0.0000000000000000     
   5.3108251623471972E-003   1.8704942479914853E-002   0.0000000000000000     
   5.9936426923569257E-003   2.2468701179018620E-002   0.0000000000000000     
   6.6675217697175892E-003   2.6485757437293971E-002   0.0000000000000000     
   7.3324623944291895E-003   3.0756111254740901E-002   0.0000000000000000     
   7.9884645664917257E-003   3.5279762631359408E-002   0.0000000000000000     
   3.5198484084230583E-003   1.8582837106755484E-002   0.0000000000000000     
   3.9752380498175267E-003   2.2339058547489382E-002   0.0000000000000000     
   4.4241106030313690E-003   2.6349656200279434E-002   0.0000000000000000     
   4.8664660680645868E-003   3.0614630065125662E-002   0.0000000000000000     
   5.3023044449171794E-003   3.5133980142028058E-002   0.0000000000000000     
   1.7495733542874526E-003   1.8509573882858982E-002   0.0000000000000000     
   1.9773571523437183E-003   2.2261272968569522E-002   0.0000000000000000     
   2.2016033464370356E-003   2.6267995458066629E-002   0.0000000000000000     
   2.4223119365674034E-003   3.0529741351350302E-002   0.0000000000000000     
   2.6394829227348216E-003   3.5046510648420542E-002   0.0000000000000000     
  -5.9619410103239900E-014   1.8485152808225346E-002   0.0000000000000000     
  -6.4497127257034936E-014   2.2235344442259056E-002   0.0000000000000000     
  -6.5410947058114344E-014   2.6240775210655549E-002   0.0000000000000000     
  -6.2359609121452608E-014   3.0501445113414821E-002   0.0000000000000000     
  -5.5344617777564054E-014   3.5017354150536889E-002   0.0000000000000000     
   1.0697963287458463E-002   3.5483858116414621E-002   0.0000000000000000     
   1.1558967300200673E-002   4.0244320973053756E-002   0.0000000000000000     
   1.2397456292201068E-002   4.5214575705401154E-002   0.0000000000000000     
   1.3213430263459650E-002   5.0394622313456795E-002   0.0000000000000000     
   1.4006889213976418E-002   5.5784460797220700E-002   0.0000000000000000     
   7.9884645664917257E-003   3.5279762631359408E-002   0.0000000000000000     
   8.6326485130170140E-003   4.0037078709864907E-002   0.0000000000000000     
   9.2621344611168669E-003   4.5008426632972762E-002   0.0000000000000000     
   9.8769224107912897E-003   5.0193806400683008E-002   0.0000000000000000     
   1.0477012362040279E-002   5.5593218012995618E-002   0.0000000000000000     
   5.3023044449171794E-003   3.5133980142028058E-002   0.0000000000000000     
   5.7307143672488308E-003   3.9889048521864347E-002   0.0000000000000000     
   6.1507844687192278E-003   4.4861177295512283E-002   0.0000000000000000     
   6.5625147493283686E-003   5.0050366462971854E-002   0.0000000000000000     
   6.9659052090762560E-003   5.5456616024243080E-002   0.0000000000000000     
   2.6394829227348216E-003   3.5046510648420542E-002   0.0000000000000000     
   2.8531648628961253E-003   3.9800230409052090E-002   0.0000000000000000     
   3.0634063150081488E-003   4.4772827693019691E-002   0.0000000000000000     
   3.2702072790708912E-003   4.9964302500323361E-002   0.0000000000000000     
   3.4735677550843521E-003   5.5374654830963078E-002   0.0000000000000000     
  -5.5344617777564054E-014   3.5017354150536889E-002   0.0000000000000000     
  -4.1102538039794467E-014   3.9770624371428143E-002   0.0000000000000000     
  -1.6369718081055140E-014   4.4743377825495020E-002   0.0000000000000000     
   1.8852974736915940E-014   4.9935614512737508E-002   0.0000000000000000     
   6.4565974094987766E-014   5.5347334433155614E-002   0.0000000000000000     
   1.4006889213976418E-002   5.5784460797220700E-002   0.0000000000000000     
   1.4777322577519153E-002   6.1372435464181078E-002   0.0000000000000000     
   1.5524219787855639E-002   6.7146890621826175E-002   0.0000000000000000     
   1.6247580844985867E-002   7.3107826270155982E-002   0.0000000000000000     
   1.6947405748909850E-002   7.9255242409170479E-002   0.0000000000000000     
   1.0477012362040279E-002   5.5593218012995618E-002   0.0000000000000000     
   1.1060435590832071E-002   6.1192481590687887E-002   0.0000000000000000     
   1.1625223373134900E-002   6.6977417254537083E-002   0.0000000000000000     
   1.2171375708948766E-002   7.2948025004543213E-002   0.0000000000000000     
   1.2698892598273673E-002   7.9104304840706269E-002   0.0000000000000000     
   6.9659052090762560E-003   5.5456616024243080E-002   0.0000000000000000     
   7.3585861657057871E-003   6.1063943109596681E-002   0.0000000000000000     
   7.7381879369598601E-003   6.6856364849303421E-002   0.0000000000000000     
   8.1047105228384767E-003   7.2833881243363263E-002   0.0000000000000000     
   8.4581539233416353E-003   7.8996492291776244E-002   0.0000000000000000     
   3.4735677550843521E-003   5.5374654830963078E-002   0.0000000000000000     
   3.6717743021403046E-003   6.0986820020907474E-002   0.0000000000000000     
   3.8631134793305189E-003   6.6783733406125159E-002   0.0000000000000000     
   4.0475852866549951E-003   7.2765394986616119E-002   0.0000000000000000     
   4.2251897241137341E-003   7.8931804762380417E-002   0.0000000000000000     
   6.4565974094987766E-014   5.5347334433155614E-002   0.0000000000000000     
   1.3562263291577725E-013   6.0961112324620259E-002   0.0000000000000000     
   2.4687565360059782E-013   6.6759522925002340E-002   0.0000000000000000     
   3.9832519877977535E-013   7.2742566234301850E-002   0.0000000000000000     
   5.8997078056233221E-013   7.8910242252518789E-002   0.0000000000000000     
   1.6947405748909850E-002   7.9255242409170479E-002   0.0000000000000000     
   1.7621641726255119E-002   8.5574579409628593E-002   0.0000000000000000     
   1.8268236003649213E-002   9.2051277642289264E-002   0.0000000000000000     
   1.8887188581092135E-002   9.8685337107152452E-002   0.0000000000000000     
   1.9478499458583882E-002  0.10547675780421817        0.0000000000000000     
   1.2698892598273673E-002   7.9104304840706269E-002   0.0000000000000000     
   1.3206399030710218E-002   8.5432645074387734E-002   0.0000000000000000     
   1.3692519995858993E-002   9.1919434016949103E-002   0.0000000000000000     
   1.4157255493720005E-002   9.8564671668390391E-002   0.0000000000000000     
   1.4600605524293252E-002  0.10536835802871154        0.0000000000000000     
   8.4581539233416353E-003   7.8996492291776244E-002   0.0000000000000000     
   8.7977111779562397E-003   8.5331263406335178E-002   0.0000000000000000     
   9.1225753261691914E-003   9.1825259998832925E-002   0.0000000000000000     
   9.4327463679804904E-003   9.8478482069269471E-002   0.0000000000000000     
   9.7282243033901383E-003  0.10529092961764480        0.0000000000000000     
   4.2251897241137341E-003   7.8931804762380417E-002   0.0000000000000000     
   4.3955781679931869E-003   8.5270434405470955E-002   0.0000000000000000     
   4.5584019945798049E-003   9.1768755587940731E-002   0.0000000000000000     
   4.7136612038735900E-003   9.8426768309789747E-002   0.0000000000000000     
   4.8613557958745411E-003  0.10524447257101799        0.0000000000000000     
   5.8997078056233221E-013   7.8910242252518789E-002   0.0000000000000000     
   8.2105914948893410E-013   8.5250158071795076E-002   0.0000000000000000     
   1.0908375982013330E-012   9.1749920784272548E-002   0.0000000000000000     
   1.3993051780226279E-012   9.8409530389951191E-002   0.0000000000000000     
   1.7464623497387421E-012  0.10522898688883107        0.0000000000000000     
   1.9478499458583882E-002  0.10547675780421817        0.0000000000000000     
   2.0043712283078559E-002  0.11241359380923824        0.0000000000000000     
   2.0584370701530255E-002  0.11948389919796450        0.0000000000000000     
   2.1100474713938978E-002  0.12668767397039693        0.0000000000000000     
   2.1592024320304729E-002  0.13402491812653558        0.0000000000000000     
   1.4600605524293252E-002  0.10536835802871154        0.0000000000000000     
   1.5025354239846165E-002  0.11231928755953094        0.0000000000000000     
   1.5434285792646184E-002  0.11940625472246695        0.0000000000000000     
   1.5827400182693303E-002  0.12662925951751952        0.0000000000000000     
   1.6204697409987524E-002  0.13398830194468866        0.0000000000000000     
   9.7282243033901383E-003  0.10529092961764480        0.0000000000000000     
   1.0011949511941873E-002  0.11225192595262763        0.0000000000000000     
   1.0286862373179440E-002  0.11935079438288659        0.0000000000000000     
   1.0552962887102835E-002  0.12658753490842173        0.0000000000000000     
   1.0810251053712061E-002  0.13396214752923297        0.0000000000000000     
   4.8613557958745411E-003  0.10524447257101799        0.0000000000000000     
   5.0034980993656783E-003  0.11221150898852830        0.0000000000000000     
   5.1421004431300224E-003  0.11931751817922348        0.0000000000000000     
   5.2771628271675742E-003  0.12656250014310358        0.0000000000000000     
   5.4086852514783320E-003  0.13394645488016854        0.0000000000000000     
   1.7464623497387421E-012  0.10522898688883107        0.0000000000000000     
   2.1175801997314059E-012  0.11219803666723294        0.0000000000000000     
   2.4979349101325599E-012  0.11930642611147758        0.0000000000000000     
   2.8875222254486771E-012  0.12655415522156507        0.0000000000000000     
   3.2863460217025242E-012  0.13394122399749533        0.0000000000000000     
   2.1592024320304729E-002  0.13402491812653558        0.0000000000000000     
   2.2052335929070736E-002  0.14146395637189807        0.0000000000000000     
   2.2474725948680226E-002  0.14897311341200214        0.0000000000000000     
   2.2859194379133214E-002  0.15655238924684781        0.0000000000000000     
   2.3205741220429683E-002  0.16420178387643500        0.0000000000000000     
   1.6204697409987524E-002  0.13398830194468866        0.0000000000000000     
   1.6559143409147360E-002  0.14146937255773367        0.0000000000000000     
   1.6883704114791325E-002  0.14905846191041380        0.0000000000000000     
   1.7178379526919418E-002  0.15675557000272908        0.0000000000000000     
   1.7443169645531643E-002  0.16456069683467944        0.0000000000000000     
   1.0810251053712061E-002  0.13396214752923297        0.0000000000000000     
   1.1052689914935517E-002  0.14147324126212932        0.0000000000000000     
   1.1274242512701616E-002  0.14911942512391960        0.0000000000000000     
   1.1474908847010358E-002  0.15690069911460391        0.0000000000000000     
   1.1654688917861736E-002  0.16481706323418216        0.0000000000000000     
   5.4086852514783320E-003  0.13394645488016854        0.0000000000000000     
   5.5329754464352064E-003  0.14147556248508497        0.0000000000000000     
   5.6463411424111038E-003  0.14915600305251961        0.0000000000000000     
   5.7487823394060241E-003  0.15698777658247226        0.0000000000000000     
   5.8402990374199684E-003  0.16497088307494306        0.0000000000000000     
   3.2863460217025242E-012  0.13394122399749533        0.0000000000000000     
   3.6464260430579820E-012  0.14147633622660077        0.0000000000000000     
   3.9197838768226245E-012  0.14916819569621373        0.0000000000000000     
   4.1064207427238958E-012  0.15701680240633420        0.0000000000000000     
   4.2063358005051121E-012  0.16502215635696227        0.0000000000000000     
   0.0000000000000000        0.0000000000000000        0.0000000000000000     
  -6.1906046695120454E-015   1.0741865097411182E-003   0.0000000000000000     
  -1.3054715728572086E-014   2.5172106822571589E-003   0.0000000000000000     
  -2.0592414492343059E-014   4.3290725175481239E-003   0.0000000000000000     
  -2.8803538330499090E-014   6.5097720156140106E-003   0.0000000000000000     
   0.0000000000000000        0.0000000000000000        0.0000000000000000     
  -2.1288969030368239E-004   1.0764548590968751E-003   0.0000000000000000     
  -4.2678938156744811E-004   2.5223304843977170E-003   0.0000000000000000     
  -6.4169907379129710E-004   4.3376268759025248E-003   0.0000000000000000     
  -8.5761876697522952E-004   6.5223440336112997E-003   0.0000000000000000     
   0.0000000000000000        0.0000000000000000        0.0000000000000000     
  -4.2408345656517197E-004   1.0832599071617466E-003   0.0000000000000000     
  -8.5263239760356648E-004   2.5376898908150728E-003   0.0000000000000000     
  -1.2856468231151835E-003   4.3632899509599785E-003   0.0000000000000000     
  -1.7231267331000231E-003   6.5600600875964634E-003   0.0000000000000000     
   0.0000000000000000        0.0000000000000000        0.0000000000000000     
  -6.3358129879065924E-004   1.0946016539357317E-003   0.0000000000000000     
  -1.2775290481214098E-003   2.5632889015092266E-003   0.0000000000000000     
  -1.9318432479922517E-003   4.4060617427204843E-003   0.0000000000000000     
  -2.5965238984031855E-003   6.6229201775695051E-003   0.0000000000000000     
   0.0000000000000000        0.0000000000000000        0.0000000000000000     
  -8.4138321698014437E-004   1.1104800994188313E-003   0.0000000000000000     
  -1.7014793331209782E-003   2.5991275164801795E-003   0.0000000000000000     
  -2.5802883484225018E-003   4.4659422511840437E-003   0.0000000000000000     
  -3.4778102628847153E-003   6.7109243035304239E-003   0.0000000000000000     
  -2.8803538330499090E-014   6.5097720156140106E-003   0.0000000000000000     
  -3.7140524488353532E-014   9.0320720622422308E-003   0.0000000000000000     
  -4.5055423964195790E-014   1.1868735543220195E-002   0.0000000000000000     
  -5.2548350260440795E-014   1.5019762458547900E-002   0.0000000000000000     
  -5.9619410103239900E-014   1.8485152808225346E-002   0.0000000000000000     
  -8.5761876697522952E-004   6.5223440336112997E-003   0.0000000000000000     
  -1.0756844489376893E-003   9.0486165547971793E-003   0.0000000000000000     
  -1.2970321074971215E-003   1.1888579036733302E-002   0.0000000000000000     
  -1.5216617426535258E-003   1.5042231479419672E-002   0.0000000000000000     
  -1.7495733544069035E-003   1.8509573882856286E-002   0.0000000000000000     
  -1.7231267331000231E-003   6.5600600875964634E-003   0.0000000000000000     
  -2.1652063269813064E-003   9.0982500324554849E-003   0.0000000000000000     
  -2.6120198041822548E-003   1.1948109517268005E-002   0.0000000000000000     
  -3.0635671647028660E-003   1.5109638542034015E-002   0.0000000000000000     
  -3.5198484085431445E-003   1.8582837106753517E-002   0.0000000000000000     
  -2.5965238984031855E-003   6.6229201775695051E-003   0.0000000000000000     
  -3.2685656341679913E-003   9.1809724952171528E-003   0.0000000000000000     
  -3.9449630901004533E-003   1.2047326984824292E-002   0.0000000000000000     
  -4.6257162662005705E-003   1.5221983646390921E-002   0.0000000000000000     
  -5.3108251624683417E-003   1.8704942479917042E-002   0.0000000000000000     
  -3.4778102628847153E-003   6.7109243035304239E-003   0.0000000000000000     
  -4.3857623704977450E-003   9.2967839430821795E-003   0.0000000000000000     
  -5.2958619652517186E-003   1.2186231439402171E-002   0.0000000000000000     
  -6.2081090471466363E-003   1.5379266792490397E-002   0.0000000000000000     
  -7.1225036161824979E-003   1.8875890002346858E-002   0.0000000000000000     
  -5.9619410103239900E-014   1.8485152808225346E-002   0.0000000000000000     
  -6.4497127257034936E-014   2.2235344442259056E-002   0.0000000000000000     
  -6.5410947058114344E-014   2.6240775210655549E-002   0.0000000000000000     
  -6.2359609121452608E-014   3.0501445113414821E-002   0.0000000000000000     
  -5.5344617777564054E-014   3.5017354150536889E-002   0.0000000000000000     
  -1.7495733544069035E-003   1.8509573882856286E-002   0.0000000000000000     
  -1.9773571524735307E-003   2.2261272968560342E-002   0.0000000000000000     
  -2.2016033465696869E-003   2.6267995458049052E-002   0.0000000000000000     
  -2.4223119366953731E-003   3.0529741351322408E-002   0.0000000000000000     
  -2.6394829228505862E-003   3.5046510648380408E-002   0.0000000000000000     
  -3.5198484085431445E-003   1.8582837106753517E-002   0.0000000000000000     
  -3.9752380499497907E-003   2.2339058547475765E-002   0.0000000000000000     
  -4.4241106031695102E-003   2.6349656200250000E-002   0.0000000000000000     
  -4.8664660682023030E-003   3.0614630065076226E-002   0.0000000000000000     
  -5.3023044450481701E-003   3.5133980141954436E-002   0.0000000000000000     
  -5.3108251624683417E-003   1.8704942479917042E-002   0.0000000000000000     
  -5.9936426924932775E-003   2.2468701179005315E-002   0.0000000000000000     
  -6.6675217698648802E-003   2.6485757437258388E-002   0.0000000000000000     
  -7.3324623945831531E-003   3.0756111254676283E-002   0.0000000000000000     
  -7.9884645666480937E-003   3.5279762631258968E-002   0.0000000000000000     
  -7.1225036161824979E-003   1.8875890002346858E-002   0.0000000000000000     
  -8.0325710801039899E-003   2.2650200863148985E-002   0.0000000000000000     
  -8.9318368466557961E-003   2.6676299169074231E-002   0.0000000000000000     
  -9.8203009158379217E-003   3.0954184920122568E-002   0.0000000000000000     
  -1.0697963287650360E-002   3.5483858116294023E-002   0.0000000000000000     
  -5.5344617777564054E-014   3.5017354150536889E-002   0.0000000000000000     
  -4.1102538039794467E-014   3.9770624371428143E-002   0.0000000000000000     
  -1.6369718081055140E-014   4.4743377825495020E-002   0.0000000000000000     
   1.8852974736915940E-014   4.9935614512737508E-002   0.0000000000000000     
   6.4565974094987766E-014   5.5347334433155614E-002   0.0000000000000000     
  -2.6394829228505862E-003   3.5046510648380408E-002   0.0000000000000000     
  -2.8531648629857567E-003   3.9800230408996308E-002   0.0000000000000000     
  -3.0634063150513095E-003   4.4772827692943391E-002   0.0000000000000000     
  -3.2702072790472426E-003   4.9964302500221637E-002   0.0000000000000000     
  -3.4735677549735588E-003   5.5374654830831045E-002   0.0000000000000000     
  -5.3023044450481701E-003   3.5133980141954436E-002   0.0000000000000000     
  -5.7307143673607421E-003   3.9889048521760416E-002   0.0000000000000000     
  -6.1507844687936518E-003   4.4861177295369953E-002   0.0000000000000000     
  -6.5625147493468972E-003   5.0050366462783047E-002   0.0000000000000000     
  -6.9659052090204803E-003   5.5456616023999684E-002   0.0000000000000000     
  -7.9884645666480937E-003   3.5279762631258968E-002   0.0000000000000000     
  -8.6326485131660580E-003   4.0037078709720453E-002   0.0000000000000000     
  -9.2621344612433959E-003   4.5008426632774712E-002   0.0000000000000000     
  -9.8769224108801110E-003   5.0193806400421752E-002   0.0000000000000000     
  -1.0477012362076201E-002   5.5593218012661552E-002   0.0000000000000000     
  -1.0697963287650360E-002   3.5483858116294023E-002   0.0000000000000000     
  -1.1558967300401707E-002   4.0244320972876439E-002   0.0000000000000000     
  -1.2397456292400548E-002   4.5214575705157682E-002   0.0000000000000000     
  -1.3213430263646884E-002   5.0394622313137752E-002   0.0000000000000000     
  -1.4006889214140715E-002   5.5784460796816655E-002   0.0000000000000000     
   6.4565974094987766E-014   5.5347334433155614E-002   0.0000000000000000     
   1.3562263291577725E-013   6.0961112324620259E-002   0.0000000000000000     
   2.4687565360059782E-013   6.6759522925002340E-002   0.0000000000000000     
   3.9832519877977535E-013   7.2742566234301850E-002   0.0000000000000000     
   5.8997078056233221E-013   7.8910242252518789E-002   0.0000000000000000     
  -3.4735677549735588E-003   5.5374654830831045E-002   0.0000000000000000     
  -3.6717743018925249E-003   6.0986820020748261E-002   0.0000000000000000     
  -3.8631134788664058E-003   6.6783733405949938E-002   0.0000000000000000     
  -4.0475852858952019E-003   7.2765394986436083E-002   0.0000000000000000     
  -4.2251897229789136E-003   7.8931804762206667E-002   0.0000000000000000     
  -6.9659052090204803E-003   5.5456616023999684E-002   0.0000000000000000     
  -7.3585861655284012E-003   6.1063943109304721E-002   0.0000000000000000     
  -7.7381879365846602E-003   6.6856364848983024E-002   0.0000000000000000     
  -8.1047105221892495E-003   7.2833881243034554E-002   0.0000000000000000     
  -8.4581539223421778E-003   7.8996492291459303E-002   0.0000000000000000     
  -1.0477012362076201E-002   5.5593218012661552E-002   0.0000000000000000     
  -1.1060435590772008E-002   6.1192481590289650E-002   0.0000000000000000     
  -1.1625223372907882E-002   6.6977417254101543E-002   0.0000000000000000     
  -1.2171375708483818E-002   7.2948025004097236E-002   0.0000000000000000     
  -1.2698892597499825E-002   7.9104304840276723E-002   0.0000000000000000     
  -1.4006889214140715E-002   5.5784460796816655E-002   0.0000000000000000     
  -1.4777322577623349E-002   6.1372435463703023E-002   0.0000000000000000     
  -1.5524219787836076E-002   6.7146890621305522E-002   0.0000000000000000     
  -1.6247580844778915E-002   7.3107826269624143E-002   0.0000000000000000     
  -1.6947405748451848E-002   7.9255242408658916E-002   0.0000000000000000     
   5.8997078056233221E-013   7.8910242252518789E-002   0.0000000000000000     
   8.2105914948893410E-013   8.5250158071795076E-002   0.0000000000000000     
   1.0908375982013330E-012   9.1749920784272548E-002   0.0000000000000000     
   1.3993051780226279E-012   9.8409530389951191E-002   0.0000000000000000     
   1.7464623497387421E-012  0.10522898688883107        0.0000000000000000     
  -4.2251897229789136E-003   7.8931804762206667E-002   0.0000000000000000     
  -4.3955781664055341E-003   8.5270434405320894E-002   0.0000000000000000     
  -4.5584019924630520E-003   9.1768755587837952E-002   0.0000000000000000     
  -4.7136612011514714E-003   9.8426768309757814E-002   0.0000000000000000     
  -4.8613557924707873E-003  0.10524447257108049        0.0000000000000000     
  -8.4581539223421778E-003   7.8996492291459303E-002   0.0000000000000000     
  -8.7977111765319832E-003   8.5331263406061827E-002   0.0000000000000000     
  -9.1225753242472046E-003   9.1825259998646561E-002   0.0000000000000000     
  -9.4327463654878419E-003   9.8478482069213544E-002   0.0000000000000000     
  -9.7282243002538953E-003  0.10529092961776272        0.0000000000000000     
  -1.2698892597499825E-002   7.9104304840276723E-002   0.0000000000000000     
  -1.3206399029558287E-002   8.5432645074017835E-002   0.0000000000000000     
  -1.3692519994261618E-002   9.1919434016698387E-002   0.0000000000000000     
  -1.4157255491609809E-002   9.8564671668318352E-002   0.0000000000000000     
  -1.4600605521602864E-002  0.10536835802887777        0.0000000000000000     
  -1.6947405748451848E-002   7.9255242408658916E-002   0.0000000000000000     
  -1.7621641725484451E-002   8.5574579409188944E-002   0.0000000000000000     
  -1.8268236002506294E-002   9.2051277641993390E-002   0.0000000000000000     
  -1.8887188579517371E-002   9.8685337107072280E-002   0.0000000000000000     
  -1.9478499456517688E-002  0.10547675780442559        0.0000000000000000     
   1.7464623497387421E-012  0.10522898688883107        0.0000000000000000     
   2.1175801997314059E-012  0.11219803666723294        0.0000000000000000     
   2.4979349101325599E-012  0.11930642611147758        0.0000000000000000     
   2.8875222254486771E-012  0.12655415522156507        0.0000000000000000     
   3.2863460217025242E-012  0.13394122399749533        0.0000000000000000     
  -4.8613557924707873E-003  0.10524447257108049        0.0000000000000000     
  -5.0034980952332860E-003  0.11221150898872692        0.0000000000000000     
  -5.1421004382512462E-003  0.11931751817961797        0.0000000000000000     
  -5.2771628215246705E-003  0.12656250014375367        0.0000000000000000     
  -5.4086852450535555E-003  0.13394645488113399        0.0000000000000000     
  -9.7282243002538953E-003  0.10529092961776272        0.0000000000000000     
  -1.0011949508117788E-002  0.11225192595299563        0.0000000000000000     
  -1.0286862368651941E-002  0.11935079438361369        0.0000000000000000     
  -1.0552962881856353E-002  0.12658753490961688        0.0000000000000000     
  -1.0810251047731024E-002  0.13396214753100524        0.0000000000000000     
  -1.4600605521602864E-002  0.10536835802887777        0.0000000000000000     
  -1.5025354236535926E-002  0.11231928756003906        0.0000000000000000     
  -1.5434285788704150E-002  0.11940625472346469        0.0000000000000000     
  -1.5827400178107524E-002  0.12662925951915466        0.0000000000000000     
  -1.6204697404746060E-002  0.13398830194710898        0.0000000000000000     
  -1.9478499456517688E-002  0.10547675780442559        0.0000000000000000     
  -2.0043712280487701E-002  0.11241359380985720        0.0000000000000000     
  -2.0584370698407867E-002  0.11948389919917102        0.0000000000000000     
  -2.1100474710278184E-002  0.12668767397236708        0.0000000000000000     
  -2.1592024316098666E-002  0.13402491812944534        0.0000000000000000     
   3.2863460217025242E-012  0.13394122399749533        0.0000000000000000     
   3.6464260430579820E-012  0.14147633622660077        0.0000000000000000     
   3.9197838768226245E-012  0.14916819569621373        0.0000000000000000     
   4.1064207427238958E-012  0.15701680240633420        0.0000000000000000     
   4.2063358005051121E-012  0.16502215635696227        0.0000000000000000     
  -5.4086852450535555E-003  0.13394645488113399        0.0000000000000000     
  -5.5329754393030157E-003  0.14147556248654192        0.0000000000000000     
  -5.6463411347381625E-003  0.14915600305476032        0.0000000000000000     
  -5.7487823313589950E-003  0.15698777658578919        0.0000000000000000     
  -5.8402990291655157E-003  0.16497088307962857        0.0000000000000000     
  -1.0810251047731024E-002  0.13396214753100524        0.0000000000000000     
  -1.1052689908285306E-002  0.14147324126477379        0.0000000000000000     
  -1.1274242505528553E-002  0.14911942512791757        0.0000000000000000     
  -1.1474908839460764E-002  0.15690069912043661        0.0000000000000000     
  -1.1654688910081937E-002  0.16481706324233092        0.0000000000000000     
  -1.6204697404746060E-002  0.13398830194710898        0.0000000000000000     
  -1.6559143403300454E-002  0.14146937256129641        0.0000000000000000     
  -1.6883704108451393E-002  0.14905846191568559        0.0000000000000000     
  -1.7178379520198891E-002  0.15675557001027654        0.0000000000000000     
  -1.7443169638542935E-002  0.16456069684506930        0.0000000000000000     
  -2.1592024316098666E-002  0.13402491812944534        0.0000000000000000     
  -2.2052335924348441E-002  0.14146395637610978        0.0000000000000000     
  -2.2474725943506680E-002  0.14897311341806432        0.0000000000000000     
  -2.2859194373573363E-002  0.15655238925530895        0.0000000000000000     
  -2.3205741214548502E-002  0.16420178388784373        0.0000000000000000     
   0.0000000000000000        0.0000000000000000        0.0000000000000000     
  -8.4138321698014437E-004   1.1104800994188313E-003   0.0000000000000000     
  -1.7014793331209782E-003   2.5991275164801795E-003   0.0000000000000000     
  -2.5802883484225018E-003   4.4659422511840437E-003   0.0000000000000000     
  -3.4778102628847153E-003   6.7109243035304239E-003   0.0000000000000000     
   0.0000000000000000        0.0000000000000000        0.0000000000000000     
  -1.0563945986351562E-003   1.1344806293163406E-003   0.0000000000000000     
  -2.1390423428147725E-003   2.6510859458250134E-003   0.0000000000000000     
  -3.2479432325388498E-003   4.5498159495260173E-003   0.0000000000000000     
  -4.3830972678073855E-003   6.8306706404193535E-003   0.0000000000000000     
   0.0000000000000000        0.0000000000000000        0.0000000000000000     
  -1.2875208312572242E-003   1.1701886293335553E-003   0.0000000000000000     
  -2.6047771674152938E-003   2.7250443996408120E-003   0.0000000000000000     
  -3.9517690084742091E-003   4.6645673109217698E-003   0.0000000000000000     
  -5.3284963544339703E-003   6.9887573631764299E-003   0.0000000000000000     
   0.0000000000000000        0.0000000000000000        0.0000000000000000     
  -1.5347619148463475E-003   1.2176040994704746E-003   0.0000000000000000     
  -3.0986838069225423E-003   2.8210028779275744E-003   0.0000000000000000     
  -4.6917656762285806E-003   4.8101963353712994E-003   0.0000000000000000     
  -6.3140075227644671E-003   7.1851844718016497E-003   0.0000000000000000     
   0.0000000000000000        0.0000000000000000        0.0000000000000000     
  -1.7981178494025276E-003   1.2767270397270993E-003   0.0000000000000000     
  -3.6207622613365163E-003   2.9389613806853018E-003   0.0000000000000000     
  -5.4679332358019668E-003   4.9867030228746070E-003   0.0000000000000000     
  -7.3396307727988776E-003   7.4199519662950146E-003   0.0000000000000000     
  -3.4778102628847153E-003   6.7109243035304239E-003   0.0000000000000000     
  -4.3857623704977450E-003   9.2967839430821795E-003   0.0000000000000000     
  -5.2958619652517186E-003   1.2186231439402171E-002   0.0000000000000000     
  -6.2081090471466363E-003   1.5379266792490397E-002   0.0000000000000000     
  -7.1225036161824979E-003   1.8875890002346858E-002   0.0000000000000000     
  -4.3830972678073855E-003   6.8306706404193535E-003   0.0000000000000000     
  -5.5315022560339768E-003   9.4516493449871824E-003   0.0000000000000000     
  -6.6801560046322161E-003   1.2370751389711658E-002   0.0000000000000000     
  -7.8290585136021051E-003   1.5587976774592786E-002   0.0000000000000000     
  -8.9782097829436396E-003   1.9103325499630563E-002   0.0000000000000000     
  -5.3284963544339703E-003   6.9887573631764299E-003   0.0000000000000000     
  -6.7204910108400974E-003   9.6515336698687719E-003   0.0000000000000000     
  -8.1132847832381099E-003   1.2606815344462775E-002   0.0000000000000000     
  -9.5068776716280053E-003   1.5854602386958436E-002   0.0000000000000000     
  -1.0901269676009791E-002   1.9394894797355764E-002   0.0000000000000000     
  -6.3140075227644671E-003   7.1851844718016497E-003   0.0000000000000000     
  -7.9527286349161067E-003   9.8964369177269463E-003   0.0000000000000000     
  -9.5952483010693975E-003   1.2894423303655514E-002   0.0000000000000000     
  -1.1241566521224350E-002   1.6179143629587348E-002   0.0000000000000000     
  -1.2891683295380957E-002   1.9750597895522453E-002   0.0000000000000000     
  -7.3396307727988776E-003   7.4199519662950146E-003   0.0000000000000000     
  -9.2282151282619997E-003   1.0186359088561711E-002   0.0000000000000000     
  -1.1126046558126086E-002   1.3233575267289882E-002   0.0000000000000000     
  -1.3033125062391127E-002   1.6561600502479523E-002   0.0000000000000000     
  -1.4949450641057131E-002   2.0170434794130637E-002   0.0000000000000000     
  -7.1225036161824979E-003   1.8875890002346858E-002   0.0000000000000000     
  -8.0325710801039899E-003   2.2650200863148985E-002   0.0000000000000000     
  -8.9318368466557961E-003   2.6676299169074231E-002   0.0000000000000000     
  -9.8203009158379217E-003   3.0954184920122568E-002   0.0000000000000000     
  -1.0697963287650360E-002   3.5483858116294023E-002   0.0000000000000000     
  -8.9782097829436396E-003   1.9103325499630563E-002   0.0000000000000000     
  -1.0120511259054671E-002   2.2892098376803352E-002   0.0000000000000000     
  -1.1248864388333045E-002   2.6929596218089508E-002   0.0000000000000000     
  -1.2363269170778768E-002   3.1215819023489032E-002   0.0000000000000000     
  -1.3463725606391832E-002   3.5750766793001924E-002   0.0000000000000000     
  -1.0901269676009791E-002   1.9394894797355764E-002   0.0000000000000000     
  -1.2285951275618059E-002   2.3202934496864960E-002   0.0000000000000000     
  -1.3650412949687411E-002   2.7253963406696238E-002   0.0000000000000000     
  -1.4994654698217851E-002   3.1547981526849594E-002   0.0000000000000000     
  -1.6318676521209375E-002   3.6084988857325036E-002   0.0000000000000000     
  -1.2891683295380957E-002   1.9750597895522453E-002   0.0000000000000000     
  -1.4528891129794160E-002   2.3582709223333814E-002   0.0000000000000000     
  -1.6136482530718897E-002   2.7649400734894414E-002   0.0000000000000000     
  -1.7714457498155176E-002   3.1950672430204261E-002   0.0000000000000000     
  -1.9262816032102989E-002   3.6486524309263337E-002   0.0000000000000000     
  -1.4949450641057131E-002   2.0170434794130637E-002   0.0000000000000000     
  -1.6849330821582967E-002   2.4031422556209912E-002   0.0000000000000000     
  -1.8707073131427505E-002   2.8115908202684042E-002   0.0000000000000000     
  -2.0522677570590737E-002   3.2423891733553020E-002   0.0000000000000000     
  -2.2296144139072674E-002   3.6955373148816854E-002   0.0000000000000000     
  -1.0697963287650360E-002   3.5483858116294023E-002   0.0000000000000000     
  -1.1558967300401707E-002   4.0244320972876439E-002   0.0000000000000000     
  -1.2397456292400548E-002   4.5214575705157682E-002   0.0000000000000000     
  -1.3213430263646884E-002   5.0394622313137752E-002   0.0000000000000000     
  -1.4006889214140715E-002   5.5784460796816655E-002   0.0000000000000000     
  -1.3463725606391832E-002   3.5750766793001924E-002   0.0000000000000000     
  -1.4542005330685673E-002   4.0513041616684238E-002   0.0000000000000000     
  -1.5589879979173720E-002   4.5481245584592031E-002   0.0000000000000000     
  -1.6607349551855978E-002   5.0655378696725303E-002   0.0000000000000000     
  -1.7594414048732441E-002   5.6035440953084034E-002   0.0000000000000000     
  -1.6318676521209375E-002   3.6084988857325036E-002   0.0000000000000000     
  -1.7614097205635948E-002   4.0845506946599747E-002   0.0000000000000000     
  -1.8872535538471544E-002   4.5810057343150953E-002   0.0000000000000000     
  -2.0093991519716164E-002   5.0978640046978621E-002   0.0000000000000000     
  -2.1278465149369801E-002   5.6351255058082798E-002   0.0000000000000000     
  -1.9262816032102989E-002   3.6486524309263337E-002   0.0000000000000000     
  -2.0775242925252534E-002   4.1241716962622979E-002   0.0000000000000000     
  -2.2245422970294020E-002   4.6201010980834428E-002   0.0000000000000000     
  -2.3673356167227436E-002   5.1364406363897754E-002   0.0000000000000000     
  -2.5059042516052787E-002   5.6731903111812913E-002   0.0000000000000000     
  -2.2296144139072674E-002   3.6955373148816854E-002   0.0000000000000000     
  -2.4025442489535434E-002   4.1701671664753887E-002   0.0000000000000000     
  -2.5708542274641148E-002   4.6654106497642497E-002   0.0000000000000000     
  -2.7345443494389800E-002   5.1812677647482673E-002   0.0000000000000000     
  -2.8936146148781407E-002   5.7177385114274407E-002   0.0000000000000000     
  -1.4006889214140715E-002   5.5784460796816655E-002   0.0000000000000000     
  -1.4777322577623349E-002   6.1372435463703023E-002   0.0000000000000000     
  -1.5524219787836076E-002   6.7146890621305522E-002   0.0000000000000000     
  -1.6247580844778915E-002   7.3107826269624143E-002   0.0000000000000000     
  -1.6947405748451848E-002   7.9255242408658916E-002   0.0000000000000000     
  -1.7594414048732441E-002   5.6035440953084034E-002   0.0000000000000000     
  -1.8552004345845880E-002   6.1611888687965605E-002   0.0000000000000000     
  -1.9481051319239055E-002   6.7375178235667355E-002   0.0000000000000000     
  -2.0381554968911964E-002   7.3325309596189284E-002   0.0000000000000000     
  -2.1253515294864612E-002   7.9462282769531378E-002   0.0000000000000000     
  -2.1278465149369801E-002   5.6351255058082798E-002   0.0000000000000000     
  -2.2427238115203078E-002   6.1918925221498146E-002   0.0000000000000000     
  -2.3541592104986620E-002   6.7672673382259407E-002   0.0000000000000000     
  -2.4621527118720420E-002   7.3612499540366583E-002   0.0000000000000000     
  -2.5667043156404480E-002   7.9738403695819624E-002   0.0000000000000000     
  -2.5059042516052787E-002   5.6731903111812913E-002   0.0000000000000000     
  -2.6403023885694939E-002   6.2293545064300654E-002   0.0000000000000000     
  -2.7705842145078770E-002   6.8039376061081708E-002   0.0000000000000000     
  -2.8967497294204270E-002   7.3969396102156054E-002   0.0000000000000000     
  -3.0187989333071444E-002   8.0083605187523679E-002   0.0000000000000000     
  -2.8936146148781407E-002   5.7177385114274407E-002   0.0000000000000000     
  -3.0479361657321468E-002   6.2735748216373108E-002   0.0000000000000000     
  -3.1973801439515510E-002   6.8475286272134200E-002   0.0000000000000000     
  -3.3419465495363523E-002   7.4395999281557684E-002   0.0000000000000000     
  -3.4816353824865517E-002   8.0497887244643518E-002   0.0000000000000000     
  -1.6947405748451848E-002   7.9255242408658916E-002   0.0000000000000000     
  -1.7621641725484451E-002   8.5574579409188944E-002   0.0000000000000000     
  -1.8268236002506294E-002   9.2051277641993390E-002   0.0000000000000000     
  -1.8887188579517371E-002   9.8685337107072280E-002   0.0000000000000000     
  -1.9478499456517688E-002  0.10547675780442559        0.0000000000000000     
  -2.1253515294864612E-002   7.9462282769531378E-002   0.0000000000000000     
  -2.2094396711353458E-002   8.5770908803144405E-002   0.0000000000000000     
  -2.2901663632634978E-002   9.2235998744479117E-002   0.0000000000000000     
  -2.3675316058709161E-002   9.8857552593535486E-002   0.0000000000000000     
  -2.4415353989576009E-002  0.10563557035031353        0.0000000000000000     
  -2.5667043156404480E-002   7.9738403695819624E-002   0.0000000000000000     
  -2.6675621434208308E-002   8.6035475647453480E-002   0.0000000000000000     
  -2.7644743168301417E-002   9.2488805194102991E-002   0.0000000000000000     
  -2.8574408358683800E-002   9.9098392335768143E-002   0.0000000000000000     
  -2.9464617005355465E-002  0.10586423707244896        0.0000000000000000     
  -3.0187989333071444E-002   8.0083605187523679E-002   0.0000000000000000     
  -3.1365315894048999E-002   8.6368279942116183E-002   0.0000000000000000     
  -3.2497474609505611E-002   9.2809696990865026E-002   0.0000000000000000     
  -3.3584465479441307E-002   9.9407856333770278E-002   0.0000000000000000     
  -3.4626288503856052E-002  0.10616275797083188        0.0000000000000000     
  -3.4816353824865517E-002   8.0497887244643518E-002   0.0000000000000000     
  -3.6163480090875513E-002   8.6769321687132472E-002   0.0000000000000000     
  -3.7459857956247559E-002   9.3198674134765236E-002   0.0000000000000000     
  -3.8705487420981649E-002   9.9785944587541850E-002   0.0000000000000000     
  -3.9900368485077775E-002  0.10653113304546230        0.0000000000000000     
  -1.9478499456517688E-002  0.10547675780442559        0.0000000000000000     
  -2.0043712280487701E-002  0.11241359380985720        0.0000000000000000     
  -2.0584370698407867E-002  0.11948389919917102        0.0000000000000000     
  -2.1100474710278184E-002  0.12668767397236708        0.0000000000000000     
  -2.1592024316098666E-002  0.13402491812944534        0.0000000000000000     
  -2.4415353989576009E-002  0.10563557035031353        0.0000000000000000     
  -2.5121853379855397E-002  0.11255742461424435        0.0000000000000000     
  -2.5794890184167175E-002  0.11961048798475905        0.0000000000000000     
  -2.6434464402511355E-002  0.12679476046185761        0.0000000000000000     
  -2.7040576034887930E-002  0.13411024204554009        0.0000000000000000     
  -2.9464617005355465E-002  0.10586423707244896        0.0000000000000000     
  -3.0314607274521285E-002  0.11277335988499484        0.0000000000000000     
  -3.1123617332386142E-002  0.11981278125425515        0.0000000000000000     
  -3.1891647178950031E-002  0.12698250118022988        0.0000000000000000     
  -3.2618696814212970E-002  0.13428251966291910        0.0000000000000000     
  -3.4626288503856052E-002  0.10616275797083188        0.0000000000000000     
  -3.5621973964485382E-002  0.11306139962210862        0.0000000000000000     
  -3.6570552143064768E-002  0.12009077900765931        0.0000000000000000     
  -3.7472023039594231E-002  0.12725089612748389        0.0000000000000000     
  -3.8326386654073751E-002  0.13454175098158233        0.0000000000000000     
  -3.9900368485077775E-002  0.10653113304546230        0.0000000000000000     
  -4.1043953449747678E-002  0.11342154382558575        0.0000000000000000     
  -4.2135694616203069E-002  0.12044448124497152        0.0000000000000000     
  -4.3175591984443942E-002  0.12759994530361954        0.0000000000000000     
  -4.4163645554470318E-002  0.13488793600152985        0.0000000000000000     
  -2.1592024316098666E-002  0.13402491812944534        0.0000000000000000     
  -2.2052335924348441E-002  0.14146395637610978        0.0000000000000000     
  -2.2474725943506680E-002  0.14897311341806432        0.0000000000000000     
  -2.2859194373573363E-002  0.15655238925530895        0.0000000000000000     
  -2.3205741214548502E-002  0.16420178388784373        0.0000000000000000     
  -2.7040576034887930E-002  0.13411024204554009        0.0000000000000000     
  -2.7607664810159385E-002  0.14151057379018109        0.0000000000000000     
  -2.8130170457188172E-002  0.14894939675015520        0.0000000000000000     
  -2.8608092975974310E-002  0.15642671092546248        0.0000000000000000     
  -2.9041432366517787E-002  0.16394251631610293        0.0000000000000000     
  -3.2618696814212970E-002  0.13428251966291910        0.0000000000000000     
  -3.3300527399463362E-002  0.14166280588447741        0.0000000000000000     
  -3.3932900095989656E-002  0.14907332902705964        0.0000000000000000     
  -3.4515814903791846E-002  0.15651408909066572        0.0000000000000000     
  -3.5049271822869932E-002  0.16398508607529572        0.0000000000000000     
  -3.8326386654073751E-002  0.13454175098158233        0.0000000000000000     
  -3.9130923692260379E-002  0.14192065265899889        0.0000000000000000     
  -3.9882914859911113E-002  0.14934491024877769        0.0000000000000000     
  -4.0582360157025973E-002  0.15681452375091873        0.0000000000000000     
  -4.1229259583604932E-002  0.16432949316542200        0.0000000000000000     
  -4.4163645554470318E-002  0.13488793600152985        0.0000000000000000     
  -4.5098853688550433E-002  0.14228411411374545        0.0000000000000000     
  -4.5980214748952558E-002  0.14976414041530930        0.0000000000000000     
  -4.6807728735676672E-002  0.15732801490622147        0.0000000000000000     
  -4.7581395648722796E-002  0.16497573758648190        0.0000000000000000     
   0.0000000000000000        0.0000000000000000        0.0000000000000000     
  -1.7981178494025276E-003   1.2767270397270993E-003   0.0000000000000000     
  -3.6207622613365163E-003   2.9389613806853018E-003   0.0000000000000000     
  -5.4679332358019668E-003   4.9867030228746070E-003   0.0000000000000000     
  -7.3396307727988776E-003   7.4199519662950146E-003   0.0000000000000000     
   0.0000000000000000        0.0000000000000000        0.0000000000000000     
  -2.0693079029561710E-003   1.3546845915079829E-003   0.0000000000000000     
  -4.1636440097665107E-003   3.0934730475517284E-003   0.0000000000000000     
  -6.2830083204310199E-003   5.2163653681312361E-003   0.0000000000000000     
  -8.4274008349496977E-003   7.7233615532465057E-003   0.0000000000000000     
   0.0000000000000000        0.0000000000000000        0.0000000000000000     
  -2.3400513435376863E-003   1.4586038962176792E-003   0.0000000000000000     
  -4.7199605313218186E-003   3.2990910181645897E-003   0.0000000000000000     
  -7.1397275633523945E-003   5.5214613658407311E-003   0.0000000000000000     
  -9.5993524396294199E-003   8.1257149392461054E-003   0.0000000000000000     
   0.0000000000000000        0.0000000000000000        0.0000000000000000     
  -2.6103481711470737E-003   1.5884849538561883E-003   0.0000000000000000     
  -5.2897118260024382E-003   3.5558152925238853E-003   0.0000000000000000     
  -8.0380909645660949E-003   5.9019910160030917E-003   0.0000000000000000     
  -1.0855485586838041E-002   8.6270121242938060E-003   0.0000000000000000     
   0.0000000000000000        0.0000000000000000        0.0000000000000000     
  -2.8801983857843329E-003   1.7443277644235097E-003   0.0000000000000000     
  -5.8728978938083721E-003   3.8636458706296150E-003   0.0000000000000000     
  -8.9780985240721159E-003   6.3579543186183174E-003   0.0000000000000000     
  -1.2195800276575568E-002   9.2272531083896145E-003   0.0000000000000000     
  -7.3396307727988776E-003   7.4199519662950146E-003   0.0000000000000000     
  -9.2282151282619997E-003   1.0186359088561711E-002   0.0000000000000000     
  -1.1126046558126086E-002   1.3233575267289882E-002   0.0000000000000000     
  -1.3033125062391127E-002   1.6561600502479523E-002   0.0000000000000000     
  -1.4949450641057131E-002   2.0170434794130637E-002   0.0000000000000000     
  -8.4274008349496977E-003   7.7233615532465057E-003   0.0000000000000000     
  -1.0588550658963471E-002   1.0557126536310746E-002   0.0000000000000000     
  -1.2758186898113271E-002   1.3660325250737170E-002   0.0000000000000000     
  -1.4936309552399097E-002   1.7032957696525769E-002   0.0000000000000000     
  -1.7122918621820950E-002   2.0675023873676548E-002   0.0000000000000000     
  -9.5993524396294199E-003   8.1257149392461054E-003   0.0000000000000000     
  -1.2075335395106203E-002   1.1044565614911741E-002   0.0000000000000000     
  -1.4544176664736067E-002   1.4210727269368674E-002   0.0000000000000000     
  -1.7005876248519011E-002   1.7624199902616905E-002   0.0000000000000000     
  -1.9460434146455038E-002   2.1284983514656432E-002   0.0000000000000000     
  -1.0855485586838041E-002   8.6270121242938060E-003   0.0000000000000000     
  -1.3688569336690194E-002   1.1648676324364685E-002   0.0000000000000000     
  -1.6484015857994475E-002   1.4884781323184394E-002   0.0000000000000000     
  -1.9241825150750867E-002   1.8335327120752920E-002   0.0000000000000000     
  -2.1961997214959388E-002   2.2000313717070282E-002   0.0000000000000000     
  -1.2195800276575568E-002   9.2272531083896145E-003   0.0000000000000000     
  -1.5428252483715450E-002   1.2369458664669588E-002   0.0000000000000000     
  -1.8577704477888486E-002   1.5682487412184330E-002   0.0000000000000000     
  -2.1644156259094671E-002   1.9166339350933835E-002   0.0000000000000000     
  -2.4627607827334013E-002   2.2821014480918101E-002   0.0000000000000000     
  -1.4949450641057131E-002   2.0170434794130637E-002   0.0000000000000000     
  -1.6849330821582967E-002   2.4031422556209912E-002   0.0000000000000000     
  -1.8707073131427505E-002   2.8115908202684042E-002   0.0000000000000000     
  -2.0522677570590737E-002   3.2423891733553020E-002   0.0000000000000000     
  -2.2296144139072674E-002   3.6955373148816854E-002   0.0000000000000000     
  -1.7122918621820950E-002   2.0675023873676548E-002   0.0000000000000000     
  -1.9286404672870034E-002   2.4558686012035542E-002   0.0000000000000000     
  -2.1395158272037550E-002   2.8656106341448780E-002   0.0000000000000000     
  -2.3449179419323507E-002   3.2967284861916253E-002   0.0000000000000000     
  -2.5448468114727899E-002   3.7492221573437977E-002   0.0000000000000000     
  -1.9460434146455038E-002   2.1284983514656432E-002   0.0000000000000000     
  -2.1879247005540899E-002   2.5174111107352983E-002   0.0000000000000000     
  -2.4233711472773371E-002   2.9272615682572285E-002   0.0000000000000000     
  -2.6523827548152454E-002   3.3580497240314339E-002   0.0000000000000000     
  -2.8749595231678138E-002   3.8097755780579147E-002   0.0000000000000000     
  -2.1961997214959388E-002   2.2000313717070282E-002   0.0000000000000000     
  -2.4627857819595575E-002   2.5877697842162237E-002   0.0000000000000000     
  -2.7222732733634975E-002   2.9965436226054569E-002   0.0000000000000000     
  -2.9746621957077571E-002   3.4263528868747270E-002   0.0000000000000000     
  -3.2199525489923386E-002   3.8771975770240337E-002   0.0000000000000000     
  -2.4627607827334013E-002   2.2821014480918101E-002   0.0000000000000000     
  -2.7532237115034053E-002   2.6669446216463302E-002   0.0000000000000000     
  -3.0362222054622343E-002   3.0734567971895617E-002   0.0000000000000000     
  -3.3117562646098872E-002   3.5016379747215033E-002   0.0000000000000000     
  -3.5798258889463641E-002   3.9514881542421568E-002   0.0000000000000000     
  -2.2296144139072674E-002   3.6955373148816854E-002   0.0000000000000000     
  -2.4025442489535434E-002   4.1701671664753887E-002   0.0000000000000000     
  -2.5708542274641148E-002   4.6654106497642497E-002   0.0000000000000000     
  -2.7345443494389800E-002   5.1812677647482673E-002   0.0000000000000000     
  -2.8936146148781407E-002   5.7177385114274407E-002   0.0000000000000000     
  -2.5448468114727899E-002   3.7492221573437977E-002   0.0000000000000000     
  -2.7395166249072591E-002   4.2228030188541411E-002   0.0000000000000000     
  -2.9291415713179454E-002   4.7171824419754031E-002   0.0000000000000000     
  -3.1137216507048478E-002   5.2323604267075829E-002   0.0000000000000000     
  -3.2932568630679671E-002   5.7683369730506813E-002   0.0000000000000000     
  -2.8749595231678138E-002   3.8097755780579147E-002   0.0000000000000000     
  -3.0914884554451971E-002   4.2823451669534433E-002   0.0000000000000000     
  -3.3023565547575490E-002   4.7756645273347970E-002   0.0000000000000000     
  -3.5075638211048706E-002   5.2897336592019728E-002   0.0000000000000000     
  -3.7071102544871594E-002   5.8245525625549709E-002   0.0000000000000000     
  -3.2199525489923386E-002   3.8771975770240337E-002   0.0000000000000000     
  -3.4584597405673566E-002   4.3487936107732945E-002   0.0000000000000000     
  -3.6904991777829257E-002   4.8408569058424292E-002   0.0000000000000000     
  -3.9160708606390468E-002   5.3533874622314327E-002   0.0000000000000000     
  -4.1351747891357191E-002   5.8863852799403087E-002   0.0000000000000000     
  -3.5798258889463641E-002   3.9514881542421568E-002   0.0000000000000000     
  -3.8404304802737363E-002   4.4221483503136969E-002   0.0000000000000000     
  -4.0935694403940744E-002   4.9127595774982998E-002   0.0000000000000000     
  -4.3392427693073762E-002   5.4233218357959662E-002   0.0000000000000000     
  -4.5774504670136447E-002   5.9538351252066954E-002   0.0000000000000000     
  -2.8936146148781407E-002   5.7177385114274407E-002   0.0000000000000000     
  -3.0479361657321468E-002   6.2735748216373108E-002   0.0000000000000000     
  -3.1973801439515510E-002   6.8475286272134200E-002   0.0000000000000000     
  -3.3419465495363523E-002   7.4395999281557684E-002   0.0000000000000000     
  -3.4816353824865517E-002   8.0497887244643518E-002   0.0000000000000000     
  -3.2932568630679671E-002   5.7683369730506813E-002   0.0000000000000000     
  -3.4674523888157269E-002   6.3236283636703236E-002   0.0000000000000000     
  -3.6360134083565525E-002   6.8967508812321388E-002   0.0000000000000000     
  -3.7989399216904432E-002   7.4877045257361219E-002   0.0000000000000000     
  -3.9562319288173983E-002   8.0964892971822772E-002   0.0000000000000000     
  -3.7071102544871594E-002   5.8245525625549709E-002   0.0000000000000000     
  -3.9006783036276943E-002   6.3785900284278746E-002   0.0000000000000000     
  -4.0879504172497486E-002   6.9503148478547647E-002   0.0000000000000000     
  -4.2689265953533208E-002   7.5397270208356418E-002   0.0000000000000000     
  -4.4436068379384151E-002   8.1468265473705032E-002   0.0000000000000000     
  -4.1351747891357191E-002   5.8863852799403087E-002   0.0000000000000000     
  -4.3476139101680487E-002   6.4384598159099651E-002   0.0000000000000000     
  -4.5531911706311372E-002   7.0082205270813047E-002   0.0000000000000000     
  -4.7519065705249892E-002   7.5956674134543281E-002   0.0000000000000000     
  -4.9437601098496022E-002   8.2008004750290367E-002   0.0000000000000000     
  -4.5774504670136447E-002   5.9538351252066954E-002   0.0000000000000000     
  -4.8082592084367902E-002   6.5032377261165897E-002   0.0000000000000000     
  -5.0317356685007239E-002   7.0704679189117506E-002   0.0000000000000000     
  -5.2478798472054458E-002   7.6555257035921767E-002   0.0000000000000000     
  -5.4566917445509587E-002   8.2584110801578708E-002   0.0000000000000000     
  -3.4816353824865517E-002   8.0497887244643518E-002   0.0000000000000000     
  -3.6163480090875513E-002   8.6769321687132472E-002   0.0000000000000000     
  -3.7459857956247559E-002   9.3198674134765236E-002   0.0000000000000000     
  -3.8705487420981649E-002   9.9785944587541850E-002   0.0000000000000000     
  -3.9900368485077775E-002  0.10653113304546230        0.0000000000000000     
  -3.9562319288173983E-002   8.0964892971822772E-002   0.0000000000000000     
  -4.1078910109126357E-002   8.7221470128235765E-002   0.0000000000000000     
  -4.2539187491513697E-002   9.3637194899130000E-002   0.0000000000000000     
  -4.3943151435336017E-002  0.10021206728450541        0.0000000000000000     
  -4.5290801940593282E-002  0.10694608728436203        0.0000000000000000     
  -4.4436068379384151E-002   8.1468265473705032E-002   0.0000000000000000     
  -4.6120402033239999E-002   8.7707594511159462E-002   0.0000000000000000     
  -4.7742757498290454E-002   9.4106717557285613E-002   0.0000000000000000     
  -4.9303134774535531E-002  0.10066563461208344        0.0000000000000000     
  -5.0801533861975223E-002  0.10738434567555299        0.0000000000000000     
  -4.9437601098496022E-002   8.2008004750290367E-002   0.0000000000000000     
  -5.1287955863216446E-002   8.8227694835903536E-002   0.0000000000000000     
  -5.3070567976577845E-002   9.4607242109232076E-002   0.0000000000000000     
  -5.4785437438580220E-002  0.10114664657027594        0.0000000000000000     
  -5.6432564249223584E-002  0.10784590821903517        0.0000000000000000     
  -5.4566917445509587E-002   8.2584110801578708E-002   0.0000000000000000     
  -5.6581571599055677E-002   8.8781771102468016E-002   0.0000000000000000     
  -5.8522618926375843E-002   9.5138768554969444E-002   0.0000000000000000     
  -6.0390059427470069E-002  0.10165510315908292        0.0000000000000000     
  -6.2183893102338378E-002  0.10833077491480854        0.0000000000000000     
  -3.9900368485077775E-002  0.10653113304546230        0.0000000000000000     
  -4.1043953449747678E-002  0.11342154382558575        0.0000000000000000     
  -4.2135694616203069E-002  0.12044448124497152        0.0000000000000000     
  -4.3175591984443942E-002  0.12759994530361954        0.0000000000000000     
  -4.4163645554470318E-002  0.13488793600152985        0.0000000000000000     
  -4.5290801940593282E-002  0.10694608728436203        0.0000000000000000     
  -4.6582177165520877E-002  0.11382693790072221        0.0000000000000000     
  -4.7817315268354109E-002  0.12084230213560831        0.0000000000000000     
  -4.8996216249093005E-002  0.12799217998902035        0.0000000000000000     
  -5.0118880107737539E-002  0.13527657146095823        0.0000000000000000     
  -5.0801533861975223E-002  0.10738434567555299        0.0000000000000000     
  -5.2238276547017660E-002  0.11425072725281400        0.0000000000000000     
  -5.3613684616070988E-002  0.12125265584898617        0.0000000000000000     
  -5.4927758069135219E-002  0.12839013146406952        0.0000000000000000     
  -5.6180496906210325E-002  0.13566315409806406        0.0000000000000000     
  -5.6432564249223584E-002  0.10784590821903517        0.0000000000000000     
  -5.8012251594238042E-002  0.11469291188186108        0.0000000000000000     
  -5.9524802659353712E-002  0.12167554238510511        0.0000000000000000     
  -6.0970217444570596E-002  0.12879379972876720        0.0000000000000000     
  -6.2348495949888692E-002  0.13604768391284741        0.0000000000000000     
  -6.2183893102338378E-002  0.10833077491480854        0.0000000000000000     
  -6.3904102307182006E-002  0.11515349178786351        0.0000000000000000     
  -6.5550669398202269E-002  0.12211096174396512        0.0000000000000000     
  -6.7123594375399137E-002  0.12920318478311332        0.0000000000000000     
  -6.8622877238772612E-002  0.13643016090530818        0.0000000000000000     
  -4.4163645554470318E-002  0.13488793600152985        0.0000000000000000     
  -4.5098853688550433E-002  0.14228411411374545        0.0000000000000000     
  -4.5980214748952558E-002  0.14976414041530930        0.0000000000000000     
  -4.6807728735676672E-002  0.15732801490622147        0.0000000000000000     
  -4.7581395648722796E-002  0.16497573758648190        0.0000000000000000     
  -5.0118880107737539E-002  0.13527657146095823        0.0000000000000000     
  -5.1185067392765446E-002  0.14268963495415291        0.0000000000000000     
  -5.2194538652654408E-002  0.15022552887133522        0.0000000000000000     
  -5.3147293887404426E-002  0.15788425321250515        0.0000000000000000     
  -5.4043333097015520E-002  0.16566580797766273        0.0000000000000000     
  -5.6180496906210325E-002  0.13566315409806406        0.0000000000000000     
  -5.7370314809337304E-002  0.14307365988565715        0.0000000000000000     
  -5.8495625460557081E-002  0.15062358496153616        0.0000000000000000     
  -5.9556428859869677E-002  0.15831292932570101        0.0000000000000000     
  -6.0552725007275071E-002  0.16614169297815184        0.0000000000000000     
  -6.2348495949888692E-002  0.13604768391284741        0.0000000000000000     
  -6.3654595938266015E-002  0.14343618890825816        0.0000000000000000     
  -6.4883475172660590E-002  0.15095830868591203        0.0000000000000000     
  -6.6035133653072398E-002  0.15861404324580911        0.0000000000000000     
  -6.7109571379501479E-002  0.16640339258794923        0.0000000000000000     
  -6.8622877238772612E-002  0.13643016090530818        0.0000000000000000     
  -7.0037910779551585E-002  0.14377722202195595        0.0000000000000000     
  -7.1358087788964922E-002  0.15122970004446301        0.0000000000000000     
  -7.2583408267012622E-002  0.15878759497282932        0.0000000000000000     
  -7.3713872213694714E-002  0.16645090680705493        0.0000000000000000     
   0.0000000000000000        0.0000000000000000        0.0000000000000000     
  -2.8801983857843329E-003   1.7443277644235097E-003   0.0000000000000000     
  -5.8728978938083721E-003   3.8636458706296150E-003   0.0000000000000000     
  -8.9780985240721159E-003   6.3579543186183174E-003   0.0000000000000000     
  -1.2195800276575568E-002   9.2272531083896145E-003   0.0000000000000000     
   0.0000000000000000        0.0000000000000000        0.0000000000000000     
  -3.2834186461242094E-003   1.9988210243998203E-003   0.0000000000000000     
  -6.6774240147455871E-003   4.3299197895280816E-003   0.0000000000000000     
  -1.0182016105864134E-002   6.9932962953847839E-003   0.0000000000000000     
  -1.3797194919479845E-002   9.9889505419699254E-003   0.0000000000000000     
   0.0000000000000000        0.0000000000000000        0.0000000000000000     
  -3.9538256108414497E-003   2.4246534302652958E-003   0.0000000000000000     
  -7.9111954688200533E-003   5.0619740862655853E-003   0.0000000000000000     
  -1.1872109573935811E-002   7.9119619680008673E-003   0.0000000000000000     
  -1.5836567926188722E-002   1.0974617075471144E-002   0.0000000000000000     
   0.0000000000000000        0.0000000000000000        0.0000000000000000     
  -4.8914192799360545E-003   3.0218249820199369E-003   0.0000000000000000     
  -9.5742122560317708E-003   6.0598087608421270E-003   0.0000000000000000     
  -1.4048378928287156E-002   9.1139513364665702E-003   0.0000000000000000     
  -1.8313919296702202E-002   1.2184252708893265E-002   0.0000000000000000     
   0.0000000000000000        0.0000000000000000        0.0000000000000000     
  -6.0961996534080222E-003   3.7903356796637434E-003   0.0000000000000000     
  -1.1666474376380742E-002   7.3234238132577067E-003   0.0000000000000000     
  -1.6710824168918163E-002   1.0599264400781889E-002   0.0000000000000000     
  -2.1229249031020279E-002   1.3617857442236292E-002   0.0000000000000000     
  -1.2195800276575568E-002   9.2272531083896145E-003   0.0000000000000000     
  -1.5428252483715450E-002   1.2369458664669588E-002   0.0000000000000000     
  -1.8577704477888486E-002   1.5682487412184330E-002   0.0000000000000000     
  -2.1644156259094671E-002   1.9166339350933835E-002   0.0000000000000000     
  -2.4627607827334013E-002   2.2821014480918101E-002   0.0000000000000000     
  -1.3797194919479845E-002   9.9889505419699254E-003   0.0000000000000000     
  -1.7405849490312753E-002   1.3218838225482652E-002   0.0000000000000000     
  -2.0890868853082872E-002   1.6584915042122103E-002   0.0000000000000000     
  -2.4252253007790214E-002   2.0087180991888269E-002   0.0000000000000000     
  -2.7490001954434774E-002   2.3725636074781169E-002   0.0000000000000000     
  -1.5836567926188722E-002   1.0974617075471144E-002   0.0000000000000000     
  -1.9732825010612891E-002   1.4208740596460075E-002   0.0000000000000000     
  -2.3489135312242414E-002   1.7573133718751324E-002   0.0000000000000000     
  -2.7105498831077292E-002   2.1067796442344876E-002   0.0000000000000000     
  -3.0581915567117531E-002   2.4692728767240754E-002   0.0000000000000000     
  -1.8313919296702202E-002   1.2184252708893265E-002   0.0000000000000000     
  -2.2409179044615864E-002   1.5339165777601858E-002   0.0000000000000000     
  -2.6372503855367099E-002   1.8647143442071985E-002   0.0000000000000000     
  -3.0203893728955912E-002   2.2108185702303659E-002   0.0000000000000000     
  -3.3903348665382291E-002   2.5722292558296868E-002   0.0000000000000000     
  -2.1229249031020279E-002   1.3617857442236292E-002   0.0000000000000000     
  -2.5434911592321679E-002   1.6610113768908003E-002   0.0000000000000000     
  -2.9540974482456940E-002   1.9806944212084104E-002   0.0000000000000000     
  -3.3547437701426069E-002   2.3208348771764607E-002   0.0000000000000000     
  -3.7454301249229063E-002   2.6814327447949499E-002   0.0000000000000000     
  -2.4627607827334013E-002   2.2821014480918101E-002   0.0000000000000000     
  -2.7532237115034053E-002   2.6669446216463302E-002   0.0000000000000000     
  -3.0362222054622343E-002   3.0734567971895617E-002   0.0000000000000000     
  -3.3117562646098872E-002   3.5016379747215033E-002   0.0000000000000000     
  -3.5798258889463641E-002   3.9514881542421568E-002   0.0000000000000000     
  -2.7490001954434774E-002   2.3725636074781169E-002   0.0000000000000000     
  -3.0627269736895744E-002   2.7543227153767620E-002   0.0000000000000000     
  -3.3687210399052342E-002   3.1582901091814469E-002   0.0000000000000000     
  -3.6669823940904532E-002   3.5844657888921709E-002   0.0000000000000000     
  -3.9575110362452350E-002   4.0328497545089347E-002   0.0000000000000000     
  -3.0581915567117531E-002   2.4692728767240754E-002   0.0000000000000000     
  -3.3947840530220055E-002   2.8492911577586617E-002   0.0000000000000000     
  -3.7232728730241804E-002   3.2513325757530152E-002   0.0000000000000000     
  -4.0436580167182760E-002   3.6753971307071344E-002   0.0000000000000000     
  -4.3559394841042945E-002   4.1214848226210209E-002   0.0000000000000000     
  -3.3903348665382291E-002   2.5722292558296868E-002   0.0000000000000000     
  -3.7493949495006992E-002   2.9518499487920305E-002   0.0000000000000000     
  -4.0998777048190743E-002   3.3525841969042659E-002   0.0000000000000000     
  -4.4417831324933557E-002   3.7744320001663938E-002   0.0000000000000000     
  -4.7751112325235413E-002   4.2173933585784126E-002   0.0000000000000000     
  -3.7454301249229063E-002   2.6814327447949499E-002   0.0000000000000000     
  -4.1265596631256549E-002   3.0619990884768668E-002   0.0000000000000000     
  -4.4985355352899166E-002   3.4620449726351997E-002   0.0000000000000000     
  -4.8613577414156908E-002   3.8815703972699470E-002   0.0000000000000000     
  -5.2150262815029783E-002   4.3205753623811113E-002   0.0000000000000000     
  -3.5798258889463641E-002   3.9514881542421568E-002   0.0000000000000000     
  -3.8404304802737363E-002   4.4221483503136969E-002   0.0000000000000000     
  -4.0935694403940744E-002   4.9127595774982998E-002   0.0000000000000000     
  -4.3392427693073762E-002   5.4233218357959662E-002   0.0000000000000000     
  -4.5774504670136447E-002   5.9538351252066954E-002   0.0000000000000000     
  -3.9575110362452350E-002   4.0328497545089347E-002   0.0000000000000000     
  -4.2399759262896360E-002   4.5021013804915133E-002   0.0000000000000000     
  -4.5140460241437134E-002   4.9908800412996827E-002   0.0000000000000000     
  -4.7797213298074667E-002   5.4991857369334436E-002   0.0000000000000000     
  -5.0370018432808951E-002   6.0270184673927939E-002   0.0000000000000000     
  -4.3559394841042945E-002   4.1214848226210209E-002   0.0000000000000000     
  -4.6596713303403502E-002   4.5883446962236119E-002   0.0000000000000000     
  -4.9544076105845568E-002   5.0747257962438508E-002   0.0000000000000000     
  -5.2401483248369171E-002   5.5806281226817349E-002   0.0000000000000000     
  -5.5168934730974298E-002   6.1060516755372662E-002   0.0000000000000000     
  -4.7751112325235413E-002   4.2173933585784126E-002   0.0000000000000000     
  -5.0995166924258782E-002   4.6808782975099925E-002   0.0000000000000000     
  -5.4146541997166085E-002   5.1642968423308025E-002   0.0000000000000000     
  -5.7205237543957309E-002   5.6676489930408427E-002   0.0000000000000000     
  -6.0171253564632467E-002   6.1909347496401132E-002   0.0000000000000000     
  -5.2150262815029783E-002   4.3205753623811113E-002   0.0000000000000000     
  -5.5595120125462215E-002   4.7797021843506537E-002   0.0000000000000000     
  -5.8947857915398638E-002   5.2595931795605393E-002   0.0000000000000000     
  -6.2208476184839066E-002   5.7602483480107658E-002   0.0000000000000000     
  -6.5376974933783485E-002   6.2816676897013354E-002   0.0000000000000000     
  -4.5774504670136447E-002   5.9538351252066954E-002   0.0000000000000000     
  -4.8082592084367902E-002   6.5032377261165897E-002   0.0000000000000000     
  -5.0317356685007239E-002   7.0704679189117506E-002   0.0000000000000000     
  -5.2478798472054458E-002   7.6555257035921767E-002   0.0000000000000000     
  -5.4566917445509587E-002   8.2584110801578708E-002   0.0000000000000000     
  -5.0370018432808951E-002   6.0270184673927939E-002   0.0000000000000000     
  -5.2861855434561525E-002   6.5735904591532460E-002   0.0000000000000000     
  -5.5275704092253915E-002   7.1381139386903117E-002   0.0000000000000000     
  -5.7611564405886093E-002   7.7205889060039903E-002   0.0000000000000000     
  -5.9869436375458052E-002   8.3210153610942847E-002   0.0000000000000000     
  -5.5168934730974298E-002   6.1060516755372662E-002   0.0000000000000000     
  -5.7849642602483743E-002   6.6501847151254248E-002   0.0000000000000000     
  -6.0446818911720275E-002   7.2122155017611933E-002   0.0000000000000000     
  -6.2960463658683907E-002   7.7921440354445703E-002   0.0000000000000000     
  -6.5390576843374654E-002   8.3899703161755559E-002   0.0000000000000000     
  -6.0171253564632467E-002   6.1909347496401132E-002   0.0000000000000000     
  -6.3045953588134501E-002   6.7330204940331248E-002   0.0000000000000000     
  -6.5830701143406334E-002   7.2927726081243913E-002   0.0000000000000000     
  -6.8525496230447971E-002   7.8701910919139112E-002   0.0000000000000000     
  -7.1130338849259372E-002   8.4652759454016832E-002   0.0000000000000000     
  -6.5376974933783485E-002   6.2816676897013354E-002   0.0000000000000000     
  -6.8450788391513834E-002   6.8220977958763487E-002   0.0000000000000000     
  -7.1427350787312077E-002   7.3797852577799083E-002   0.0000000000000000     
  -7.4306662121178202E-002   7.9547300754120157E-002   0.0000000000000000     
  -7.7088722393112208E-002   8.5469322487726679E-002   0.0000000000000000     
  -5.4566917445509587E-002   8.2584110801578708E-002   0.0000000000000000     
  -5.6581571599055677E-002   8.8781771102468016E-002   0.0000000000000000     
  -5.8522618926375843E-002   9.5138768554969444E-002   0.0000000000000000     
  -6.0390059427470069E-002  0.10165510315908292        0.0000000000000000     
  -6.2183893102338378E-002  0.10833077491480854        0.0000000000000000     
  -5.9869436375458052E-002   8.3210153610942847E-002   0.0000000000000000     
  -6.2048621912662513E-002   8.9383732682636968E-002   0.0000000000000000     
  -6.4148422929192123E-002   9.5716425918147385E-002   0.0000000000000000     
  -6.6168839425046921E-002  0.10220823331747408        0.0000000000000000     
  -6.8109871400226868E-002  0.10885915488061708        0.0000000000000000     
  -6.5390576843374654E-002   8.3899703161755559E-002   0.0000000000000000     
  -6.7736479475941733E-002   9.0047488948194532E-002   0.0000000000000000     
  -6.9997492566534356E-002   9.6355343222415735E-002   0.0000000000000000     
  -7.2173616115152578E-002  0.10282326598441910        0.0000000000000000     
  -7.4264850121796316E-002  0.10945125723420467        0.0000000000000000     
  -7.1130338849259372E-002   8.4652759454016832E-002   0.0000000000000000     
  -7.3645144288893322E-002   9.0773039899140748E-002   0.0000000000000000     
  -7.6069827838402534E-002   9.7055520467774464E-002   0.0000000000000000     
  -7.8404389497786997E-002  0.10350020115991797        0.0000000000000000     
  -8.0648829267046751E-002  0.11010708197557131        0.0000000000000000     
  -7.7088722393112208E-002   8.5469322487726679E-002   0.0000000000000000     
  -7.9774616351517308E-002   9.1560385535475533E-002   0.0000000000000000     
  -8.2365428744796645E-002   9.7816957654223533E-002   0.0000000000000000     
  -8.4861159572950276E-002  0.10423903884397072        0.0000000000000000     
  -8.7261808835978158E-002  0.11082662910471705        0.0000000000000000     
  -6.2183893102338378E-002  0.10833077491480854        0.0000000000000000     
  -6.3904102307182006E-002  0.11515349178786351        0.0000000000000000     
  -6.5550669398202269E-002  0.12211096174396512        0.0000000000000000     
  -6.7123594375399137E-002  0.12920318478311332        0.0000000000000000     
  -6.8622877238772612E-002  0.13643016090530818        0.0000000000000000     
  -6.8109871400226868E-002  0.10885915488061708        0.0000000000000000     
  -6.9971348142740503E-002  0.11565620592755307        0.0000000000000000     
  -7.1753098940596380E-002  0.12258640177825894        0.0000000000000000     
  -7.3455123793794472E-002  0.12964974243273461        0.0000000000000000     
  -7.5077422702334792E-002  0.13684622789098011        0.0000000000000000     
  -7.4264850121796316E-002  0.10945125723420467        0.0000000000000000     
  -7.6271508557804471E-002  0.11622479325766166        0.0000000000000000     
  -7.8193905394515775E-002  0.12312935034067939        0.0000000000000000     
  -8.0032040631930257E-002  0.13016492848325781        0.0000000000000000     
  -8.1785914270047916E-002  0.13733152768539697        0.0000000000000000     
  -8.0648829267046751E-002  0.11010708197557131        0.0000000000000000     
  -8.2804583552373884E-002  0.11685925377818920        0.0000000000000000     
  -8.4873088759960441E-002  0.12373980743122641        0.0000000000000000     
  -8.6854344889806451E-002  0.13074874293468294        0.0000000000000000     
  -8.8748351941911940E-002  0.13788606028855871        0.0000000000000000     
  -8.7261808835978158E-002  0.11082662910471705        0.0000000000000000     
  -8.9570573126448727E-002  0.11755958748913577        0.0000000000000000     
  -9.1790649036930377E-002  0.12441777304990005        0.0000000000000000     
  -9.3922036567423109E-002  0.13140118578700993        0.0000000000000000     
  -9.5964735717926936E-002  0.13850982570046536        0.0000000000000000     
  -6.8622877238772612E-002  0.13643016090530818        0.0000000000000000     
  -7.0037910779551585E-002  0.14377722202195595        0.0000000000000000     
  -7.1358087788964922E-002  0.15122970004446301        0.0000000000000000     
  -7.2583408267012622E-002  0.15878759497282932        0.0000000000000000     
  -7.3713872213694714E-002  0.16645090680705493        0.0000000000000000     
  -7.5077422702334792E-002  0.13684622789098011        0.0000000000000000     
  -7.6607286175476894E-002  0.14415136079754920        0.0000000000000000     
  -7.8032004722480300E-002  0.15154064379699567        0.0000000000000000     
  -7.9351578343345039E-002  0.15901407688931948        0.0000000000000000     
  -8.0566007038071125E-002  0.16657166007452068        0.0000000000000000     
  -8.1785914270047916E-002  0.13733152768539697        0.0000000000000000     
  -8.3449748968324772E-002  0.14461320680583667        0.0000000000000000     
  -8.5017767386216928E-002  0.15199402470331680        0.0000000000000000     
  -8.6489969523724355E-002  0.15947398137783730        0.0000000000000000     
  -8.7866355380847028E-002  0.16705307682939818        0.0000000000000000     
  -8.8748351941911940E-002  0.13788606028855871        0.0000000000000000     
  -9.0565299158095261E-002  0.14516276004681836        0.0000000000000000     
  -9.2315375780174791E-002  0.15258984276342635        0.0000000000000000     
  -9.3998581808150503E-002  0.16016730843838270        0.0000000000000000     
  -9.5614917242022410E-002  0.16789515707168745        0.0000000000000000     
  -9.5964735717926936E-002  0.13850982570046536        0.0000000000000000     
  -9.7953936744788361E-002  0.14580002052049423        0.0000000000000000     
  -9.9924829904353890E-002  0.15332809797732438        0.0000000000000000     
 -0.10187741519662355       0.16109405807095578        0.0000000000000000     
 -0.10381169262159730       0.16909790080138848        0.0000000000000000     
 </DataArray>
 <DataArray  type="Float64" Name="stress" NumberOfComponents="3" format="ascii">
   13417133261.282434        4025139978.3847303        2894000826.5987668     
   11766821500.530378        1890020330.6233108        1715695887.4786117     
   10313903863.634338        412881095.71527719        810520300.53194976     
   9058380350.5943127       -406277726.33937311        178474065.75878075     
   8000250961.4103060       -567456135.54063654       -180442816.84089512     
   10540446449.649679        3162133934.8949041        2225535200.1990128     
   9668051953.8327637        1589360626.7219059        1446437434.4307323     
   8944377737.4444427        512321583.31089544        862835980.38019741     
   8369423800.4847193       -68983195.338124752        474730838.04741061     
   7943190142.9535904       -154553709.22516060        282122007.43237096     
   8338398566.5799446        2501519569.9739833        1711990018.9875152     
   8022112648.6817503        1424549995.2844820        1275313274.7391186     
   7805873165.7847319        681068537.26557136        956499801.75272357     
   7689680117.8888931        271075195.91725206        755549600.02832866     
   7673533504.9942312        194569971.23952436        672462669.56593668     
   6810989612.0732279        2043296883.6219685        1353365282.9642727     
   6829003585.0773382        1395588436.3110383        1202323408.4037728     
   6898390148.6552057        919121957.57930207        1091511764.6495275     
   7019149302.8068323        613897447.42675972        1020930351.7015378     
   7191281047.5322180        479914905.85341239        990579169.55980301     
   5958219586.1295300        1787465875.8388591        1149660992.1292868     
   6088724763.0195284        1502475949.8015749        1227467835.4246931     
   6221928686.0558653        1226481844.2520876        1267871869.0706093     
   6357831355.2385416        959483559.19039834        1270873093.0670347     
   6496432770.5675554        701481094.61650586        1236471507.4139690     
   8000250961.4103060       -567456135.54063654       -180442816.84089512     
   7919472330.8983965       -199280341.82115459       -78187140.655155227     
   7797002197.6199989        29923776.010035515       -8790769.9556328245     
   7632840561.5751143        120156217.95293331        27746295.257675916     
   7426987422.7637415        71416984.007534981        31424054.984765228     
   7943190142.9535904       -154553709.22516060        282122007.43237096     
   7741368904.0744858        17092425.653317928        280912302.07037276     
   7516031510.9337511        110351379.65971041        264805201.64467221     
   7267177963.5313959        125223152.79401779        233800706.15526626     
   6994808261.8674078        61707745.056233406        187898815.60215804     
   7673533504.9942312        194569971.23952436        672462669.56593668     
   7401989401.8122473        185082370.49629402        588992155.91187465     
   7125104492.8735027        157792083.89718485        508586157.61661863     
   6842878778.1779919        112699111.44219708        431244674.68017703     
   6555312257.7257185        49803453.131328583        356967707.10254097     
   7191281047.5322180        479914905.85341239        990579169.55980301     
   6901333824.1116810        304689492.70777011        846052420.86934721     
   6624221143.4392452        172245888.72245669        722552097.96021557     
   6359943005.5149031        82584093.897469044        620078200.83240342     
   6108499410.3386650        35704108.232812643        538630729.48591292     
   6496432770.5675554        701481094.61650586        1236471507.4139690     
   6239402170.9727888        375913792.28774929        1052093096.9427942     
   6013381462.6309824        153712794.13552690        906703022.67545402     
   5818370645.5421352        34878100.159839392        800301284.61194682     
   5654369719.7062483        19409710.360686064        732887882.75227475     
   7426987422.7637415        71416984.007534981        31424054.984765228     
   7223618341.6965694       -20645326.536354542        13768554.251935594     
   7032884745.4254961       -70589354.426575184        748243.10531172401     
   6854786633.9505243       -78415099.663124561       -7636878.4550974136     
   6689324007.2716560       -44122562.246004105       -11386810.429295022     
   6994808261.8674078        61707745.056233406        187898815.60215804     
   6812101546.3005257        1634328.9685482979        179369837.41208845     
   6637444894.3277731       -31605541.805363178        174717744.37691218     
   6470838305.9491482       -38011867.265518188        173942536.49661642     
   6312281781.1646557       -17584647.411895275        177044213.77120793     
   6555312257.7257185        49803453.131328583        356967707.10254097     
   6391101323.5696249        21068956.272999763        352215593.38627088     
   6230355031.8056946        3883267.3885393143        350582060.39356565     
   6073073382.4339228       -1753613.5220570564        352067108.12442082     
   5919256375.4543095        4158313.5412137508        356670736.57884127     
   6108499410.3386650        35704108.232812643        538630729.48591292     
   5960617673.5038691        37658555.376991272        532305822.17447692     
   5811615157.8592625        35877073.155131817        528341191.15527827     
   5661491863.4048471        30359661.567247868        526736836.42832005     
   5510247790.1406193        21106320.613320589        527492757.99360192     
   5654369719.7062483        19409710.360686064        732887882.75227475     
   5520650596.1032553        51403126.280527353        719640523.77670515     
   5381225272.4884758        64375875.494423389        707995136.66205227     
   5236093748.8619232        58327958.002396107        697951721.40831256     
   5085256025.2235842        33259373.804425716        689510278.01548946     
   6689324007.2716560       -44122562.246004105       -11386810.429295022     
   6525658995.5869703       -107670.11342620850       -4145653.2847934123     
   6355413270.6779699        21971511.271450520        1469454.7390328501     
   6178586832.5446529        22114981.908597708        5458513.6421847269     
   5995179681.1870213        322741.79802918434        7821523.4246580536     
   6312281781.1646557       -17584647.411895275        177044213.77120793     
   6141211999.4027948        5331713.7187230587        173770344.13123325     
   5966208495.8293571        15135668.810762167        171295438.39917246     
   5787271270.4443445        11827217.864219904        169619496.57503054     
   5604400323.2477608       -4593639.1209063530        168742518.65880281     
   5919256375.4543095        4158313.5412137508        356670736.57884127     
   5747710432.2683887        8054726.2658026218        345969996.80258477     
   5574877758.6836329        7662037.6609578133        338493233.96283591     
   5400758354.7000399        2980247.7266466618        334240448.05959165     
   5225352220.3176184       -5990643.5370998383        333211639.09285593     
   5510247790.1406193        21106320.613320589        527492757.99360192     
   5345154294.1837559        8061367.5278213024        512453304.72926140     
   5181421059.2407961       -449382.17799806595        503062841.43001980     
   5019048085.3117447       -4425928.5041196346        499321368.09588021     
   4858035372.3965998       -3868271.4505600929        501228884.72682875     
   5085256025.2235842        33259373.804425716        689510278.01548946     
   4933543585.1488953        5351637.5047645569        673220267.91126573     
   4785838397.5008507       -9198590.7060763836        665004260.80072713     
   4642140462.2794552       -10391310.828088045        664862256.68387949     
   4502449779.4847031        1773477.1387131214        672794255.56071734     
   5995179681.1870213        322741.79802918434        7821523.4246580536     
   5799230741.7986794       -30433593.225685120       -13668089.891253429     
   5606432916.6210756       -50686214.213600874       -29443903.150171679     
   5416786205.6542120       -60435121.165719509       -39505916.352104068     
   5230290608.8980827       -59680314.082054853       -43854129.497034900     
   5604400323.2477608       -4593639.1209063530        168742518.65880281     
   5426329674.0837364       -22466673.114844084        154055186.12780029     
   5250285757.8838711       -33583930.561605215        144433515.01317793     
   5076268574.6481667       -37945411.461155653        139877505.31494230     
   4904278124.3766136       -35551115.813541651        140387157.03309545     
   5225352220.3176184       -5990643.5370998383        333211639.09285593     
   5063308036.6904650       -11535923.907513857        324014809.22575587     
   4902166204.7808857       -14073365.219338417        319235502.13442963     
   4741926724.5888882       -13602967.472568035        318873717.81887203     
   4582589596.1144609       -10124730.667220354        322929456.27909589     
   4858035372.3965998       -3868271.4505600929        501228884.72682875     
   4710165829.6188574        2358654.3963212967        496210779.40261620     
   4562074257.3121176        7845481.8131911755        494962058.21356744     
   4413760655.4763680        12592210.800043106        497482721.15968776     
   4265225024.1116133        16598841.356882334        503772768.24097151     
   4502449779.4847031        1773477.1387131214        672794255.56071734     
   4366903052.8689270        19217061.796658278        670643096.65838408     
   4230009915.4775648        32172610.535987616        671613183.25060332     
   4091770367.3106146        40640123.356691122        675704515.33738780     
   3952184408.3680778        44619600.258779049        682917092.91872394     
   5230290608.8980827       -59680314.082054853       -43854129.497034900     
   5048714442.0040264       -56412187.390611410       -48781369.146835625     
   4864671220.6679192       -61367575.506026506       -50146758.878043368     
   4678160944.8897552       -74546478.428299427       -47950298.690658130     
   4489183614.6695290       -95948896.157423496       -42191988.584697835     
   4904278124.3766136       -35551115.813541651        140387157.03309545     
   4732082651.6728182       -32755928.513139009        134630450.93390229     
   4558165324.0592260       -35700257.578699350        132636953.38348207     
   4382526141.5358438       -44384103.010245085        134406664.38182867     
   4205165104.1026735       -58807464.807749748        139939583.92894882     
   4582589596.1144609       -10124730.667220354        322929456.27909589     
   4420350127.9728689       -7629889.6462769508        317212683.18482417     
   4257134004.4537530       -8390566.5504114628        315460477.26950043     
   4092941225.5571151       -12406761.379622698        317672838.53312808     
   3927771791.2829504       -19678474.133920193        323849766.97571820     
   4265225024.1116133        16598841.356882334        503772768.24097151     
   4113516870.9041762        18965929.209949255        498965327.60592192     
   3961577261.8514886        20561497.578841448        498323812.78001219     
   3809406196.9535394        21385546.463526011        501848223.76324439     
   3657003676.2103357        21438075.864033699        509538560.55561072     
   3952184408.3680778        44619600.258779049        682917092.91872394     
   3811582880.4667559        47031528.055567265        679888384.19721067     
   3671495096.2524405        51155934.809049368        681226959.91503048     
   3531921055.7251368        56992820.519230366        686932820.07216465     
   3392860758.8848419        64542185.186123848        697005964.66861856     
   4489183614.6695290       -95948896.157423496       -42191988.584697835     
   4313541646.0748835       -113816494.37895799       -64153765.796095036     
   4140059618.3090429       -124484289.83779049       -85624307.982548818     
   3968737531.3720255       -127952282.53390074       -106603615.14404765     
   3799575385.2638297       -124220472.46724939       -127091687.28061587     
   4205165104.1026735       -58807464.807749748        139939583.92894882     
   4033921292.1353683       -71226074.993174553        123197865.67040212     
   3864511148.6859708       -77532456.785581112        108090651.01499939     
   3696934673.7544847       -77726610.184952021        94617939.962734193     
   3531191867.3408937       -71808535.191325903        82779732.513606533     
   3927771791.2829504       -19678474.133920193        323849766.97571820     
   3764192617.5949783       -25668151.787646770        311947456.64062387     
   3602120840.1140022       -26633175.418053389        302822918.48686534     
   3441556458.8400307       -22573545.025116920        296476152.51445335     
   3282499473.7730579       -13489260.608839273        292907158.72337884     
   3657003676.2103357        21438075.864033699        509538560.55561072     
   3504355622.4536877        22857275.237600803        502095007.11457473     
   3352888692.5931358        28213554.264804840        498572494.43307227     
   3202602886.6286774        37506912.945661664        498971022.51111418     
   3053498204.5603137        50737351.280151725        503290591.34869176     
   3392860758.8848419        64542185.186123848        697005964.66861856     
   3254410306.7115202        74350206.082592010        693640517.09225500     
   3116814706.1233816        87007732.263013124        695339378.85361767     
   2980073957.1204257        102514763.72737801        702102549.95272458     
   2844188059.7026572        120871300.47568893        713930030.38955259     
   3799575385.2638297       -124220472.46724939       -127091687.28061587     
   3746559017.3098660       -183771348.29713583       -85694877.558025658     
   3626683970.4989557       -466184486.98353195       -87402988.589144826     
   3439950244.8310428       -971459888.52661538       -132216020.37393497     
   3186357840.3061290       -1699597552.9263237       -220133972.91242170     
   3531191867.3408937       -71808535.191325903        82779732.513606533     
   3387407184.0005274       -123119011.85817385        73696503.730934337     
   3199712356.1538029       -320796636.87955880        35994784.059409156     
   2968107383.8007369       -664841410.25539243       -30325426.500988223     
   2692592266.9413204       -1155253331.9857607       -125264127.95025907     
   3282499473.7730579       -13489260.608839273        292907158.72337884     
   3089336274.6600394       -44142398.228623033        260117181.51119143     
   2875211465.3913283       -144667569.70072687        213195143.27497157     
   2640125045.9668970       -315064775.02523899        152141044.01472795     
   2384077016.3867440       -555334014.20212877        76954883.730433300     
   3053498204.5603137        50737351.280151725        503290591.34869176     
   2852346289.2884555        53158492.591645479        473567155.78274435     
   2653181298.2115240        62202714.552878737        444198089.05759096     
   2456003231.3295164        77870017.163857102        415183391.17323458     
   2260812088.6424308        100160400.42459583        386523062.12965542     
   2844188059.7026572        120871300.47568893        713930030.38955259     
   2676437227.8857350        168783660.60253978        714046426.54558671     
   2533621854.6143785        299814215.88126838        729003621.40724349     
   2415741939.8885894        513962966.31188923        758801614.97451150     
   2322797483.7083631        811229911.89438069        803440407.24739707     
   5958219586.1295300        1787465875.8388591        1149660992.1292868     
   6088724763.0195284        1502475949.8015749        1227467835.4246931     
   6221928686.0558653        1226481844.2520876        1267871869.0706093     
   6357831355.2385416        959483559.19039834        1270873093.0670347     
   6496432770.5675554        701481094.61650586        1236471507.4139690     
   5434740246.4380999        1630422073.9314299        1033153669.9753640     
   5489928438.3894157        1372683618.0377245        1113477507.7748921     
   5547298114.4913263        1122216775.9793308        1166979212.1610229     
   5606849274.7438316        879021547.75624800        1193658783.1337564     
   5668581919.1469288        643097933.36847639        1193516220.6930921     
   4895203350.6881866        1468561005.2064562        936119839.99531233     
   4905305061.2325182        1247143170.5158381        1018357199.9705920     
   4917070993.9316969        1031272743.0080459        1084353102.7685671     
   4930501148.7857237        820949722.68307841        1134107548.3892386     
   4945595525.7945967        616174109.54093564        1167620536.8326056     
   4339608898.8797913        1301882669.6639373        858559502.18913114     
   4334854631.5488319        1125854607.2359154        942106912.01179230     
   4331247324.3769732        953649745.33823276        1019993540.8932422     
   4328786977.3642168        785268083.97088897        1092219388.8334816     
   4327473590.5105619        620709623.13388455        1158784455.8325093     
   3767956891.0129132        1130387067.3038740        800472656.55682123     
   3778577149.3383574        1008817928.1979566        884726643.89849377     
   3789827105.8271570        889347782.96989179        973900526.53504825     
   3801706760.4793119        771976631.61968029        1067994304.4664847     
   3814216113.2948236        656704474.14732218        1167007977.6928036     
   6496432770.5675554        701481094.61650586        1236471507.4139690     
   6239402170.9727888        375913792.28774929        1052093096.9427942     
   6013381462.6309824        153712794.13552690        906703022.67545402     
   5818370645.5421352        34878100.159839392        800301284.61194682     
   5654369719.7062483        19409710.360686064        732887882.75227475     
   5668581919.1469288        643097933.36847639        1193516220.6930921     
   5518483364.8273849        383647681.68646622        1072560779.1531444     
   5392591934.4820108        204887843.25168228        979614639.93336391     
   5290907628.1108027        106818418.06412125        914677803.03374708     
   5213430445.7137623        89439406.123785496        877750268.45429754     
   4945595525.7945967        616174109.54093564        1167620536.8326056     
   4871060348.5112257        413430308.03395677        1102151502.3986268     
   4813929527.9232283        268701028.84489322        1053712736.4011458     
   4774203064.0306063        181986271.97374392        1022304238.8401619     
   4751880956.8333578        153286037.42051029        1007926009.7156761     
   4327473590.5105619        620709623.13388455        1158784455.8325093     
   4297133122.0243092        465261671.33022058        1140865266.6792419     
   4277394242.9546385        345152350.91516101        1128997312.0788033     
   4268256953.3015490        260381661.88870835        1123180592.0311925     
   4269721253.0650420        210949604.25086045        1123415106.5364130     
   3814216113.2948236        656704474.14732218        1167007977.6928036     
   3796701685.3666377        539141771.57525837        1188702071.9949880     
   3782986079.5762401        434241809.46248806        1205468366.9663327     
   3773069295.9236317        342004587.80901563        1217306862.6068394     
   3766951334.4088116        262430106.61483741        1224217558.9165051     
   5654369719.7062483        19409710.360686064        732887882.75227475     
   5520650596.1032553        51403126.280527353        719640523.77670515     
   5381225272.4884758        64375875.494423389        707995136.66205227     
   5236093748.8619232        58327958.002396107        697951721.40831256     
   5085256025.2235842        33259373.804425716        689510278.01548946     
   5213430445.7137623        89439406.123785496        877750268.45429754     
   5076538007.1448984        87439697.425462961        853710424.38183105     
   4937331112.7954254        77725136.125104666        833472164.15581810     
   4795809762.6653442        60295722.222707748        817035487.77626193     
   4651973956.7546453        35151455.718273163        804400395.24315786     
   4751880956.8333578        153286037.42051029        1007926009.7156761     
   4618099808.9715967        119178585.80591965        977050715.48267758     
   4485395949.5603933        88662095.693188667        952176617.08167255     
   4353769378.5997486        61736567.082319021        933303714.51266038     
   4223220096.0896597        38401999.973309994        920432007.77563941     
   4269721253.0650420        210949604.25086045        1123415106.5364130     
   4145336001.5833468        146619791.42189050        1089661397.0792468     
   4025419782.7833791        97186754.198679209        1064108495.4396126     
   3909972596.6651392        62650492.581228256        1046756401.6175072     
   3798994443.2286263        43011006.569530725        1037605115.6129345     
   3766951334.4088116        262430106.61483741        1224217558.9165051     
   3658246584.9801478        169763314.27337599        1191542469.1715367     
   3557402612.4643841        103299111.64157522        1169267799.2296364     
   3464419416.8615150        63037498.719426155        1157393549.0908051     
   3379296998.1715441        48978475.506938577        1155919718.7550428     
   5085256025.2235842        33259373.804425716        689510278.01548946     
   4933543585.1488953        5351637.5047645569        673220267.91126573     
   4785838397.5008507       -9198590.7060763836        665004260.80072713     
   4642140462.2794552       -10391310.828088045        664862256.68387949     
   4502449779.4847031        1773477.1387131214        672794255.56071734     
   4651973956.7546453        35151455.718273163        804400395.24315786     
   4521554360.7028809        14355748.024740219        792802353.11072183     
   4393662646.2690134        1986312.3908653259        787868181.40081525     
   4268298813.4530444       -1956851.1833412647        789597880.11343718     
   4145462862.2549753        2526257.3021080494        797991449.24859560     
   4223220096.0896597        38401999.973309994        920432007.77563941     
   4110064393.8575082        23509635.824906588        911800001.00478637     
   3997957202.4345059        12112307.707005024        908421732.08530462     
   3886898521.8206577        4210015.6196095943        910297201.01719713     
   3776888352.0159578       -197240.43728232384        917426407.80046141     
   3798994443.2286263        43011006.569530725        1037605115.6129345     
   3699073684.6127810        32813300.905268192        1030213211.5934582     
   3598722065.9973378        21179395.242349386        1026664912.8541970     
   3497939587.3822966        8109289.5807733536        1026960219.3951483     
   3396726248.7676611       -6397016.0794582367        1031099131.2163153     
   3379296998.1715441        48978475.506938577        1155919718.7550428     
   3288582232.9686956        42266743.265820861        1148041984.8767374     
   3195957236.9575014        29187574.996889591        1142597723.7074881     
   3101422010.1379628        9740970.7001379728        1139586935.2472982     
   3004976552.5100799       -16073069.624419332        1139009619.4961641     
   4502449779.4847031        1773477.1387131214        672794255.56071734     
   4366903052.8689270        19217061.796658278        670643096.65838408     
   4230009915.4775648        32172610.535987616        671613183.25060332     
   4091770367.3106146        40640123.356691122        675704515.33738780     
   3952184408.3680778        44619600.258779049        682917092.91872394     
   4145462862.2549753        2526257.3021080494        797991449.24859560     
   4015353728.4779234        7988220.8041825294        791092956.08525217     
   3884800763.4941730        11970746.950586796        788020970.64696014     
   3753803967.3037176        14473835.741312742        788775492.93371451     
   3622363339.9065623        15497487.176368237        793356522.94551909     
   3776888352.0159578       -197240.43728232384        917426407.80046141     
   3654231846.0218949       -6112387.6077966690        906833589.87314618     
   3532034088.3900137       -10498373.571038961        900772541.90136969     
   3410295079.1203113       -13355198.327015162        899243263.88512993     
   3289014818.2127953       -14682861.875711203        902245755.82443023     
   3396726248.7676611       -6397016.0794582367        1031099131.2163153     
   3283537405.5008440       -23084763.439280510        1017864998.0220575     
   3171709890.1650891       -35234751.028893828        1009867897.0138254     
   3061243702.7603965       -42846978.848293900        1007107828.1916239     
   2952138843.2867699       -45921446.897476315        1009584791.5554495     
   3004976552.5100799       -16073069.624419332        1139009619.4961641     
   2903270406.9147644       -42928906.690279603        1124187180.5319903     
   2803828168.8193932       -62238385.422981381        1115307035.9843364     
   2706649838.2239676       -74001505.822533131        1112369185.8532004     
   2611735415.1284952       -78218267.888906360        1115373630.1385860     
   3952184408.3680778        44619600.258779049        682917092.91872394     
   3811582880.4667559        47031528.055567265        679888384.19721067     
   3671495096.2524405        51155934.809049368        681226959.91503048     
   3531921055.7251368        56992820.519230366        686932820.07216465     
   3392860758.8848419        64542185.186123848        697005964.66861856     
   3622363339.9065623        15497487.176368237        793356522.94551909     
   3492621258.1459408        16576849.692964554        789440415.39858437     
   3363023764.1132836        18138171.302776814        789817958.58521700     
   3233570857.8085952        20181452.005810618        794489152.50542760     
   3104262539.2318664        22706691.802046299        803453997.15920186     
   3289014818.2127953       -14682861.875711203        902245755.82443023     
   3169921800.5764508       -14999179.244225621        897011567.49984586     
   3050604214.7090230       -16064057.383016586        895997396.20308113     
   2931062060.6105137       -17877496.292077541        899203241.93413675     
   2811295338.2809224       -20439495.971415520        906629104.69301820     
   2952138843.2867699       -45921446.897476315        1009584791.5554495     
   2843484507.7582750       -47696558.756029129        1002601840.5009942     
   2734236448.0396504       -51450751.248346806        999765272.76861084     
   2624394664.1308980       -57184024.374422908        1001075088.3583038     
   2513959156.0320101       -64896378.134272695        1006531287.2700632     
   2611735415.1284952       -78218267.888906360        1115373630.1385860     
   2513309379.6914196       -81515288.842433095        1106211234.4020381     
   2413920464.1051674       -88021910.293211222        1101121588.2818167     
   2313568668.3697429       -97738132.241230965        1100104691.7779140     
   2212253992.4851394       -110663954.68651080        1103160544.8903329     
   3392860758.8848419        64542185.186123848        697005964.66861856     
   3254410306.7115202        74350206.082592010        693640517.09225500     
   3116814706.1233816        87007732.263013124        695339378.85361767     
   2980073957.1204257        102514763.72737801        702102549.95272458     
   2844188059.7026572        120871300.47568893        713930030.38955259     
   3104262539.2318664        22706691.802046299        803453997.15920186     
   2976431525.4010811        26275503.594262242        798944641.08419228     
   2848851779.1646461        30681874.034307003        798979591.88207507     
   2721523300.5225692        35925803.122214198        803558849.55284739     
   2594446089.4748468        42007290.857976794        812682414.09651911     
   2811295338.2809224       -20439495.971415520        906629104.69301820     
   2692598041.4645524       -23555609.681917787        900271658.79672813     
   2573548428.2517090       -27846111.380656242        897938517.30849135     
   2454146498.6423945       -33311001.067638397        899629680.22830677     
   2334392252.6366034       -39950278.742868781        905345147.55617547     
   2513959156.0320101       -64896378.134272695        1006531287.2700632     
   2402909854.9019432       -75143133.745905161        997621570.22986209     
   2290904653.3845720       -88576223.981879473        992216155.13287377     
   2177943551.4798999       -105195648.84219360        990315041.97909486     
   2064026549.1879263       -125001408.32684588        991918230.76853096     
   2212253992.4851394       -110663954.68651080        1103160544.8903329     
   2107366965.7132540       -128487068.59772336        1090994375.3835895     
   2000920454.5632365       -151508463.76936316        1081812505.3552148     
   1892914459.0350940       -179728140.20143008        1075614934.8052142     
   1783348979.1288166       -213146097.89393961        1072401663.7335815     
   2844188059.7026572        120871300.47568893        713930030.38955259     
   2676437227.8857350        168783660.60253978        714046426.54558671     
   2533621854.6143785        299814215.88126838        729003621.40724349     
   2415741939.8885894        513962966.31188923        758801614.97451150     
   2322797483.7083631        811229911.89438069        803440407.24739707     
   2594446089.4748468        42007290.857976794        812682414.09651911     
   2451597976.9387021        60059740.671125054        828195248.42872286     
   2319511057.8129878        113982835.18570530        854913970.49753582     
   2198185332.0977044        203776574.40171415        892838580.30295134     
   2087620799.7928488        329440958.31916064        941969077.84496784     
   2334392252.6366034       -39950278.742868781        905345147.55617547     
   2206061399.4697728       -54873377.216865063        919717777.40689993     
   2074317474.5782337       -81173381.439880133        941661384.02521026     
   1939160477.9619961       -118850291.41191125        971175967.41111577     
   1800590409.6210470       -167904107.13295221        1008261527.5646198     
   2064026549.1879263       -125001408.32684588        991918230.76853096     
   1939827495.4789410       -176015693.06143606        988614013.48010826     
   1798041104.9101291       -285654433.99546087        989245861.99027050     
   1638667377.4814644       -453917631.12898540        993813776.29901433     
   1461706313.1929736       -680805284.46193981        1002317756.4063354     
   1783348979.1288166       -213146097.89393961        1072401663.7335815     
   1652896264.9662216       -303367206.86255300        1034883956.6483619     
   1490681948.8086634       -499460322.48105812        997667404.39271879     
   1296706030.6561251       -801425444.74949551        960752006.96664643     
   1070968510.5086155       -1209262573.6678195        924137764.37013388     
   3767956891.0129132        1130387067.3038740        800472656.55682123     
   3778577149.3383574        1008817928.1979566        884726643.89849377     
   3789827105.8271570        889347782.96989179        973900526.53504825     
   3801706760.4793119        771976631.61968029        1067994304.4664847     
   3814216113.2948236        656704474.14732218        1167007977.6928036     
   3207416811.3826194        962225043.41478586        756706530.42844248     
   3235223508.1801958        868290178.48092508        853072932.82723379     
   3262764308.1051087        773468990.63818884        951362637.02384710     
   3290039211.1573596        677761479.88657689        1051575643.0182823     
   3317048217.3369470        581167646.22608984        1153711950.8105388     
   2685158144.2839751        805547443.28519249        722108351.13405561     
   2721589583.8477974        736678343.81162262        829542307.71461034     
   2756859531.5029392        663937604.64244890        935902972.59592700     
   2790967987.2493992        587325225.77767110        1041190345.7780056     
   2823914951.0871773        506841207.21728927        1145404427.2608464     
   2201180889.7169819        660354266.91509449        696678118.67366040     
   2237675376.3411646        613982424.19004977        814134768.56062400     
   2272112776.0206475        560753624.98267257        927521533.25128913     
   2304493088.7554302        500667869.29296267        1036838412.7456560     
   2334816314.5455136        433725157.12092113        1142085407.0437248     
   1755485047.6816378        526645514.30449134        680415833.04725683     
   1783480885.6602950        500202419.61620611        806850315.36527419     
   1808524041.6582339        463917051.65885967        926218318.98993289     
   1830614515.6754546        417789410.43245244        1038519843.9212333     
   1849752307.7119563        361819495.93698400        1143754890.1591756     
   3814216113.2948236        656704474.14732218        1167007977.6928036     
   3796701685.3666377        539141771.57525837        1188702071.9949880     
   3782986079.5762401        434241809.46248806        1205468366.9663327     
   3773069295.9236317        342004587.80901563        1217306862.6068394     
   3766951334.4088116        262430106.61483741        1224217558.9165051     
   3317048217.3369470        581167646.22608984        1153711950.8105388     
   3292265303.9230757        474247189.25527561        1182097740.7006948     
   3271184080.2836537        379665698.19929433        1207364284.4093361     
   3253804546.4186826        297423173.05814743        1229511581.9364631     
   3240126702.3281612        227519613.83183372        1248539633.2820745     
   2823914951.0871773        506841207.21728927        1145404427.2608464     
   2797030846.8999753        412113184.26143301        1180368591.6484125     
   2773751300.1238852        329400352.67594683        1214022063.0037882     
   2754076310.7589073        258702712.46083367        1246364841.3269732     
   2738005878.8050385        200020263.61608958        1277396926.6179678     
   2334816314.5455136        433725157.12092113        1142085407.0437248     
   2310998314.2973375        352739756.59372813        1183514624.8381398     
   2290687739.0969334        283445772.89244467        1225441702.7496881     
   2273884588.9443021        225843206.01707023        1267866640.7783711     
   2260588863.8394437        179932055.96760380        1310789438.9241867     
   1849752307.7119563        361819495.93698400        1143754890.1591756     
   1834167706.1151607        296126906.25216198        1191535840.2698774     
   1821993397.2027981        241801958.84878618        1241623203.6470370     
   1813229380.9748697        198844653.72685820        1294016980.2906537     
   1807875657.4313748        167254990.88637531        1348717170.2007296     
   3766951334.4088116        262430106.61483741        1224217558.9165051     
   3658246584.9801478        169763314.27337599        1191542469.1715367     
   3557402612.4643841        103299111.64157522        1169267799.2296364     
   3464419416.8615150        63037498.719426155        1157393549.0908051     
   3379296998.1715441        48978475.506938577        1155919718.7550428     
   3240126702.3281612        227519613.83183372        1248539633.2820745     
   3160882093.1742620        152916091.02398121        1231540908.3364015     
   3087806167.3915043        98874846.119927287        1222634963.1374171     
   3020898924.9798808        65395879.119664073        1221821797.6851175     
   2960160365.9394002        52479190.023201942        1229101411.9795036     
   2738005878.8050385        200020263.61608958        1277396926.6179678     
   2681628152.6219525        141502033.15065885        1274100457.3395419     
   2629727016.2682481        97905768.783165932        1276589127.7514186     
   2582302469.7439241        69231470.513606071        1284862937.8536003     
   2539354513.0489802        55479138.341982007        1298921887.6460850     
   2260588863.8394437        179932055.96760380        1310789438.9241867     
   2220484763.3232203        135521140.65340889        1319221116.1809549     
   2183165159.0946193        100391879.63129127        1331130293.0716453     
   2148630051.1536407        74544272.901247144        1346516969.5962539     
   2116879439.5002851        57978320.463279724        1365381145.7547858     
   1807875657.4313748        167254990.88637531        1348717170.2007296     
   1777451925.2780626        134973413.53223175        1366902884.8606417     
   1748120595.8706164        106333178.66430771        1386258459.0980923     
   1719881669.2090318        81334286.282592714        1406783892.9130802     
   1692735145.2933140        59976736.387095511        1428479186.3056059     
   3379296998.1715441        48978475.506938577        1155919718.7550428     
   3288582232.9686956        42266743.265820861        1148041984.8767374     
   3195957236.9575014        29187574.996889591        1142597723.7074881     
   3101422010.1379628        9740970.7001379728        1139586935.2472982     
   3004976552.5100799       -16073069.624419332        1139009619.4961641     
   2960160365.9394002        52479190.023201942        1229101411.9795036     
   2875524419.4921942        40739196.503226638        1219621435.5074835     
   2790222588.6618733        26779588.372872829        1213544368.7412562     
   2704254873.4484425        10600365.632144690        1210870211.6808178     
   2617621273.8518949       -7798471.7189610004        1211598964.3261673     
   2539354513.0489802        55479138.341982007        1298921887.6460850     
   2463567205.3480806        39541829.540344834        1289291406.0764558     
   2388358359.6893005        25532727.545771003        1284033271.2093496     
   2313727976.0726395        13451832.358260155        1283147483.0447659     
   2239676054.4980993        3299143.9778152704        1286634041.5827036     
   2116879439.5002851        57978320.463279724        1365381145.7547858     
   2052710590.5363574        38674642.377180338        1357051896.5836494     
   1990364550.0397801        25446992.515587330        1354064431.1117704     
   1929841318.0105531        18295370.878490567        1356418749.3391473     
   1871140894.4486787        17219777.465903401        1364114851.2657750     
   1692735145.2933140        59976736.387095511        1428479186.3056059     
   1642954575.0570230        38137635.013735533        1422902907.0290685     
   1596241159.7133133        26522383.282315850        1423637848.4485202     
   1552594899.2621887        25130981.192841411        1430684010.5639577     
   1512015793.7036452        33963428.745307744        1444041393.3753834     
   3004976552.5100799       -16073069.624419332        1139009619.4961641     
   2903270406.9147644       -42928906.690279603        1124187180.5319903     
   2803828168.8193932       -62238385.422981381        1115307035.9843364     
   2706649838.2239676       -74001505.822533131        1112369185.8532004     
   2611735415.1284952       -78218267.888906360        1115373630.1385860     
   2617621273.8518949       -7798471.7189610004        1211598964.3261673     
   2533717166.2265768       -24034925.158773065        1201975165.8910160     
   2451364791.1073995       -35098936.911445498        1197652321.4102569     
   2370564148.4943624       -40990506.976986170        1198630430.8838902     
   2291315238.3874645       -41709635.355392098        1204909494.3119142     
   2239676054.4980993        3299143.9778152704        1286634041.5827036     
   2171741583.5224152       -2867646.2320545912        1281378012.8504667     
   2104646670.0590661       -6235911.4008133411        1280781597.6104941     
   2038391314.1080494       -6805651.5284583569        1284844795.8627868     
   1972975515.6693683       -4576866.6149905920        1293567607.6073442     
   1871140894.4486787        17219777.465903401        1364114851.2657750     
   1817343658.8022707        20572930.089868069        1362395721.4103444     
   1763673805.6743898        24350691.108920217        1364694864.5850503     
   1710131335.0650356        28553060.523062468        1371012280.7898967     
   1656716246.9742062        33180038.332289338        1381347970.0248799     
   1512015793.7036452        33963428.745307744        1444041393.3753834     
   1470523392.0661483        46286803.806996346        1445028291.5706506     
   1428446197.9533708        56660870.617744207        1449392122.3339279     
   1385784211.3653154        65085629.177569091        1457132885.6652160     
   1342537432.3019769        71561079.486449122        1468250581.5645154     
   2611735415.1284952       -78218267.888906360        1115373630.1385860     
   2513309379.6914196       -81515288.842433095        1106211234.4020381     
   2413920464.1051674       -88021910.293211222        1101121588.2818167     
   2313568668.3697429       -97738132.241230965        1100104691.7779140     
   2212253992.4851394       -110663954.68651080        1103160544.8903329     
   2291315238.3874645       -41709635.355392098        1204909494.3119142     
   2204129896.9689255       -43253229.012540936        1195655315.8480268     
   2116419063.1199026       -46548464.104643822        1190570438.4059911     
   2028182736.8403952       -51595340.631687760        1189654861.9858036     
   1939420918.1304021       -58393858.593684435        1192908586.5874681     
   1972975515.6693683       -4576866.6149905920        1293567607.6073442     
   1897306729.4280231       -4284274.6281731129        1284731932.0879171     
   1821549838.4748850       -4285365.0139919519        1280162108.9958770     
   1745704842.8099537       -4580137.7724628448        1279858138.3312142     
   1669771742.4332278       -5168592.9035776854        1283820020.0939343     
   1656716246.9742062        33180038.332289338        1381347970.0248799     
   1592839877.0687120        35391574.310681224        1373441083.1217227     
   1529312790.1701179        38767386.978733242        1369896600.0514770     
   1466134986.2784178        43307476.336435556        1370714520.8141427     
   1403306465.3936117        49011842.383789122        1375894845.4097214     
   1342537432.3019769        71561079.486449122        1468250581.5645154     
   1290729339.8909876        75774317.803994954        1461782768.9494340     
   1239707918.2055943        82609791.873528063        1459773911.5727944     
   1189473167.2457821        92067501.694998085        1462224009.4345925     
   1140025087.0115600        104147447.26843193        1469133062.5348361     
   2212253992.4851394       -110663954.68651080        1103160544.8903329     
   2107366965.7132540       -128487068.59772336        1090994375.3835895     
   2000920454.5632365       -151508463.76936316        1081812505.3552148     
   1892914459.0350940       -179728140.20143008        1075614934.8052142     
   1783348979.1288166       -213146097.89393961        1072401663.7335815     
   1939420918.1304021       -58393858.593684435        1192908586.5874681     
   1845951779.4452629       -68471049.032646418        1181049179.6094434     
   1751777489.3547192       -80898744.156288981        1173200943.1877184     
   1656898047.8587656       -95676943.964631438        1169363877.3222919     
   1561313454.9574139       -112805648.45763445        1169537982.0131691     
   1669771742.4332278       -5168592.9035776854        1283820020.0939343     
   1590654409.2003460       -6619684.6606521010        1273264097.4461379     
   1511686257.5347891       -7573504.5266515613        1267746216.4325738     
   1432867287.4365542       -8030052.5015743375        1267266377.0532434     
   1354197498.9056425       -7989328.5854231715        1271824579.3081410     
   1403306465.3936117        49011842.383789122        1375894845.4097214     
   1341474854.9785116        57067024.518270969        1367639128.8936706     
   1280646759.1034548        68467255.119564414        1365448325.0897813     
   1220822177.7684519        83212534.187703848        1369322433.9980557     
   1162001110.9734941        101302861.72266006        1379261455.6184978     
   1140025087.0115600        104147447.26843193        1469133062.5348361     
   1098413116.7797523        122589078.50411162        1464174273.9520450     
   1058658994.0607175        147223534.78237036        1466307269.1593468     
   1020762718.8544599        178050816.10321775        1475532048.1567411     
   984724291.16097867        215070922.46665314        1491848610.9442317     
   1783348979.1288166       -213146097.89393961        1072401663.7335815     
   1652896264.9662216       -303367206.86255300        1034883956.6483619     
   1490681948.8086634       -499460322.48105812        997667404.39271879     
   1296706030.6561251       -801425444.74949551        960752006.96664643     
   1070968510.5086155       -1209262573.6678195        924137764.37013388     
   1561313454.9574139       -112805648.45763445        1169537982.0131691     
   1445417920.9651418       -162830523.72810584        1109476791.3312209     
   1312555304.2352920       -269412341.45717227        1051036222.7896067     
   1162725604.7678673       -432551101.64483249        994216276.38833094     
   995928822.56285560       -652246804.29109144        939016952.12739933     
   1354197498.9056425       -7989328.5854231715        1271824579.3081410     
   1256629051.6858861       -16686998.177101374        1206480177.4964180     
   1156888040.9859467       -32626546.036064386        1144075865.1357994     
   1054974466.8058238       -55807972.162303329        1084611642.2262862     
   950888329.14551127       -86231276.555838525        1028087508.7678874     
   1162001110.9734941        101302861.72266006        1379261455.6184978     
   1086529657.1284506        135063369.79044405        1325894115.1439548     
   1023680159.0606192        210897063.78225505        1276786331.4312847     
   973452616.76999164        328803943.69807494        1231938104.4804924     
   935847030.25656903        488784009.53793830        1191349434.2915795     
   984724291.16097867        215070922.46665314        1491848610.9442317     
   935119737.29284298        292420580.17454118        1467718604.2738326     
   912931658.45930505        461158487.99775851        1449167621.6760793     
   918160054.66037631        721284645.93633842        1436195663.1509688     
   950804925.89604044        1072799053.9902326        1428802728.6985006     
   1755485047.6816378        526645514.30449134        680415833.04725683     
   1783480885.6602950        500202419.61620611        806850315.36527419     
   1808524041.6582339        463917051.65885967        926218318.98993289     
   1830614515.6754546        417789410.43245244        1038519843.9212333     
   1849752307.7119563        361819495.93698400        1143754890.1591756     
   1325850880.3736248        397755264.11208743        670197309.86414719     
   1339108209.6765821        375601078.34213865        792365221.32098055     
   1350151027.4939625        346065187.62026680        909272548.89332557     
   1358979333.8257654        309147591.94647127        1020919292.5811816     
   1365593128.6719921        264848291.32075322        1127305452.3845499     
   890058649.98862219        267017594.99658665        662898364.73363316     
   893737170.06979299        250700227.98114866        781660904.24028099     
   895939349.16052818        229461724.33092493        896968754.67131042     
   896665187.26082778        203302084.04591584        1008821916.0267208     
   895914684.37069154        172221307.12612095        1117220388.3065119     
   448108356.52663034        134432506.95798910        658518997.65571499     
   447367766.83992827        125499868.53323586        774737364.12317562     
   445889006.65793180        114106661.79083468        889306936.32388735     
   443672075.98064089        100252886.73078527        1002227714.2578493     
   440716974.80805588        83938543.353088737        1113499697.9250631     
  -1.2350983331315442E-002  -3.7052949993946322E-003   657059208.63039255     
  -1.3012433392705398E-002  -1.5996876442539842E-003   771594600.96966410     
  -1.3827100522249088E-002  -4.6737453650840671E-006   886287093.85105622     
  -1.4794720222273666E-002   1.0806066721381121E-003   1001136687.2745693     
  -1.5915491223463047E-002   1.6552092800776784E-003   1116143381.2402024     
   1849752307.7119563        361819495.93698400        1143754890.1591756     
   1834167706.1151607        296126906.25216198        1191535840.2698774     
   1821993397.2027981        241801958.84878618        1241623203.6470370     
   1813229380.9748697        198844653.72685820        1294016980.2906537     
   1807875657.4313748        167254990.88637531        1348717170.2007296     
   1365593128.6719921        264848291.32075322        1127305452.3845499     
   1359696546.9689045        217316409.90544957        1182960281.9947283     
   1356357684.7790046        178310260.20077300        1239570088.6560276     
   1355576542.1022918        147829842.20671982        1297134872.3684494     
   1357353118.9387672        125875155.92329377        1355654633.1319907     
   895914684.37069154        172221307.12612095        1117220388.3065119     
   895844876.23177946        141691760.08147702        1179754428.7163801     
   897480214.43480849        116846034.17663747        1241892009.9620330     
   900820698.97977865        97684129.411602288        1303633132.0434701     
   905866329.86669064        84206045.786371917        1364977794.9606917     
   440716974.80805588        83938543.353088737        1113499697.9250631     
   442612693.90378565        69252956.780243725        1181918280.4348330     
   445360986.17021048        57409280.776381940        1248588967.5650511     
   448961851.60733014        48407515.341503650        1313511759.3157175     
   453415290.21514517        42247660.475609720        1376686655.6868308     
  -1.5915491223463047E-002   1.6552092800776784E-003   1116143381.2402024     
  -1.5076876331647978E-002   1.7496278006987019E-003   1189451837.1500874     
  -1.4789797706124388E-002   6.0691493040014935E-006   1259660961.4650834     
  -1.5054159555843201E-002  -3.5757762078695138E-003   1326770754.1851912     
  -1.5869357110449737E-002  -8.9940875260306440E-003   1390781215.3104098     
   1807875657.4313748        167254990.88637531        1348717170.2007296     
   1777451925.2780626        134973413.53223175        1366902884.8606417     
   1748120595.8706164        106333178.66430771        1386258459.0980923     
   1719881669.2090318        81334286.282592714        1406783892.9130802     
   1692735145.2933140        59976736.387095511        1428479186.3056059     
   1357353118.9387672        125875155.92329377        1355654633.1319907     
   1332768962.8167336        101134065.80385923        1374824096.2097461     
   1309004108.7539611        79123982.548626006        1395575568.8337052     
   1286058556.7504468        59844906.157588601        1417909051.0038705     
   1263932306.8061929        43296836.630750835        1441824542.7202420     
   905866329.86669064        84206045.786371917        1364977794.9606917     
   888299321.11498666        67358714.303360283        1384812388.9885821     
   871278513.73593795        52332054.062534004        1406641142.5313468     
   854803907.72954381        39126065.063888311        1430464055.5889835     
   838875503.09580505        27740747.307427257        1456281128.1614940     
   453415290.21514517        42247660.475609720        1376686655.6868308     
   444043000.17282093        33647359.030737013        1396867763.1971536     
   434943810.81654662        25957393.206031039        1419455180.1910155     
   426117722.14632326        19177763.001494825        1444448906.6684189     
   417564734.16214901        13308468.417121753        1471848942.6293631     
  -1.5869357110449737E-002  -8.9940875260306440E-003   1390781215.3104098     
  -9.7638358021389718E-003  -1.4014241918950605E-002   1410990218.8354564     
  -4.2123127330529041E-003  -2.0880710164591035E-002   1434017681.8127129     
   7.8411979290545809E-004  -2.9597827165352336E-002   1459863604.2421772     
   5.2265883928507388E-003  -4.0161143641462067E-002   1488527986.1238492     
   1692735145.2933140        59976736.387095511        1428479186.3056059     
   1642954575.0570230        38137635.013735533        1422902907.0290685     
   1596241159.7133133        26522383.282315850        1423637848.4485202     
   1552594899.2621887        25130981.192841411        1430684010.5639577     
   1512015793.7036452        33963428.745307744        1444041393.3753834     
   1263932306.8061929        43296836.630750835        1441824542.7202420     
   1231213882.3050401        28302611.549677730        1440151779.1980979     
   1200795823.9728715        20976273.698554397        1443712935.6318512     
   1172678131.8096845        21317823.077367842        1452508012.0215032     
   1146860805.8154829        29327259.686132789        1466537008.3670554     
   838875503.09580505        27740747.307427257        1456281128.1614940     
   820141222.21525097        18667997.884279162        1457617293.5495420     
   802940518.78008187        14707173.279081792        1463110078.1534019     
   787273392.79029775        15858273.491833627        1472759481.9730697     
   773139844.24589717        22121298.522530973        1486565505.0085495     
   417564734.16214901        13308468.417121753        1471848942.6293631     
   409736594.78765541        9233794.0175397694        1475299450.0834055     
   402675244.13494599        7715082.0239053369        1481829276.0131707     
   396380682.20402533        8752332.4362324625        1491438420.4186580     
   390852908.99488688        12345545.254502460        1504126883.2998650     
   5.2265883928507388E-003  -4.0161143641462067E-002   1488527986.1238492     
   2.2252460862970270E-002  -5.0545156430289485E-002   1493198248.7996883     
   3.7466641510886578E-002  -6.6968488904489504E-002   1499870529.2111607     
   5.0868426915761600E-002  -8.9433485800189019E-002   1508544827.3582644     
   6.2453567958223967E-002 -0.11795292306984514        1519221143.2410009     
   1512015793.7036452        33963428.745307744        1444041393.3753834     
   1470523392.0661483        46286803.806996346        1445028291.5706506     
   1428446197.9533708        56660870.617744207        1449392122.3339279     
   1385784211.3653154        65085629.177569091        1457132885.6652160     
   1342537432.3019769        71561079.486449122        1468250581.5645154     
   1146860805.8154829        29327259.686132789        1466537008.3670554     
   1113666783.0005810        37947374.499148130        1464170890.9765279     
   1080034165.8301916        45105508.127206206        1465665807.8619847     
   1045962954.3043096        50801660.570289612        1471021759.0234284     
   1011453148.4229387        55035831.828405738        1480238744.4608550     
   773139844.24589717        22121298.522530973        1486565505.0085495     
   749627347.99066043        27453097.408001930        1481016936.5053160     
   725822455.49972367        31810242.174473345        1479813503.9860415     
   701725166.77308822        35192732.821948826        1482955207.4507279     
   677335481.81074977        37600569.350415528        1490442046.8993745     
   390852908.99488688        12345545.254502460        1504126883.2998650     
   378405087.03638369        14803972.533546537        1495566428.1570151     
   365811066.96196890        16775072.759551808        1491835210.7060974     
   353070848.77164853        18258845.932539240        1492933230.9471157     
   340184432.46541429        19255292.052480504        1498860488.8800669     
   6.2453567958223967E-002 -0.11795292306984514        1519221143.2410009     
  0.13775148604206838      -0.12421796649894348        1507819365.9316244     
  0.21693121200471188      -0.11754330338734961        1501730928.0221553     
  0.29999145338185040       -9.7933588894105625E-002   1500955829.5125921     
  0.38693023144494765       -6.5395765725694527E-002   1505494070.4029381     
   1342537432.3019769        71561079.486449122        1468250581.5645154     
   1290729339.8909876        75774317.803994954        1461782768.9494340     
   1239707918.2055943        82609791.873528063        1459773911.5727944     
   1189473167.2457821        92067501.694998085        1462224009.4345925     
   1140025087.0115600        104147447.26843193        1469133062.5348361     
   1011453148.4229387        55035831.828405738        1480238744.4608550     
   971216805.20153594        57781678.398762017        1473673339.5485382     
   931570465.02634108        62494201.789812952        1471888953.7929661     
   892514127.89734650        69173402.001530141        1474885587.1941404     
   854047793.81456316        77819279.033950090        1482663239.7520630     
   677335481.81074977        37600569.350415528        1490442046.8993745     
   649591070.40266466        39155078.960704863        1483549604.0638707     
   622239994.36139882        42020706.460391015        1481760244.3034208     
   595282253.68695688        46197451.849492610        1485073967.6180234     
   568717848.37933683        51685315.127997667        1493490774.0076735     
   340184432.46541429        19255292.052480504        1498860488.8800669     
   325852135.49437279        19894519.489813983        1491411562.4954348     
   311716506.21076775        21189305.885267511        1489387783.1041608     
   297777544.61460441        23139651.238861203        1492789150.7062426     
   284035250.70587718        25745555.550574414        1501615665.3016825     
  0.38693023144494765       -6.5395765725694527E-002   1505494070.4029381     
  0.47666330589572742       -1.3897170959796590E-002   1497259214.8432295     
  0.57444438400195164        6.4428796546973449E-002   1494771570.1951821     
  0.68028966159950166       0.16963508208013398        1498031136.4587984     
  0.79418824996255888       0.30168573683165212        1507037913.6340756     
   1140025087.0115600        104147447.26843193        1469133062.5348361     
   1098413116.7797523        122589078.50411162        1464174273.9520450     
   1058658994.0607175        147223534.78237036        1466307269.1593468     
   1020762718.8544599        178050816.10321775        1475532048.1567411     
   984724291.16097867        215070922.46665314        1491848610.9442317     
   854047793.81456316        77819279.033950090        1482663239.7520630     
   828321664.74171424        93295357.076332361        1479187909.8899901     
   803988921.30859017        113416053.91779852        1481525032.4816294     
   781049563.51519096        138181369.55834728        1489674607.5269849     
   759503591.36151755        167591303.99797934        1503636635.0260472     
   568717848.37933683        51685315.127997667        1493490774.0076735     
   555222328.07578921        63099270.260197848        1490957030.6810970     
   542655731.53891134        77609637.947964236        1492956408.4718497     
   531018058.76870716        95216418.191308931        1499488907.3799343     
   520309309.76517868        115919610.99023885        1510554527.4053483     
   284035250.70587718        25745555.550574414        1501615665.3016825     
   279115106.78196585        32000818.055678420        1499481636.3253691     
   274659424.75167859        39804286.872862309        1500601397.1300073     
   270668204.61500967        49155962.002108179        1504974947.7155955     
   267141446.37196645        60055843.443438083        1512602288.0821300     
  0.79418824996255888       0.30168573683165212        1507037913.6340756     
  0.86025518210739838       0.46280612126519688        1504761726.8228042     
  0.94689329637260766       0.69249711276664105        1504459998.4561017     
   1.0540965993838918       0.99073838647697265        1506132728.5339680     
   1.1818792281844352        1.3575781067075587        1509779917.0564013     
   984724291.16097867        215070922.46665314        1491848610.9442317     
   935119737.29284298        292420580.17454118        1467718604.2738326     
   912931658.45930505        461158487.99775851        1449167621.6760793     
   918160054.66037631        721284645.93633842        1436195663.1509688     
   950804925.89604044        1072799053.9902326        1428802728.6985006     
   759503591.36151755        167591303.99797934        1503636635.0260472     
   719253280.21785581        224689478.68735158        1502958997.5101266     
   699565325.37736630        350328841.05396688        1508571326.4061928     
   700439726.84006429        544509391.09787381        1520473621.7142580     
   721876484.60593760        807231128.81902981        1538665883.4343195     
   520309309.76517868        115919610.99023885        1510554527.4053483     
   491444505.17270589        153375681.80909815        1525332787.1905756     
   476287938.15199155        236525877.86715448        1547111955.7271471     
   474839608.70303291        365370199.16439521        1575892033.0150647     
   487099516.82583153        539908645.70083261        1611673019.0543301     
   267141446.37196645        60055843.443438083        1512602288.0821300     
   251693412.15740168        78479189.539805949        1534839973.3151810     
   243099496.78317297        119749598.43729389        1564789509.6389296     
   241359700.24928069        183867070.13590288        1602450897.0533707     
   246474022.55572450        270831604.63563192        1647824135.5585136     
   1.1818792281844352        1.3575781067075587        1509779917.0564013     
   1.1719384620254838        1.8794593628665393        1531480555.8839495     
   1.2709207312928976        2.7644174037800706        1561603988.1415477     
   1.4788087878789726        4.0123964704792821        1600150213.8291941     
   1.7956138407661690        5.6234301098473933        1647119232.9468884     
  -1.2350983331315442E-002  -3.7052949993946322E-003   657059208.63039255     
  -1.3012433392705398E-002  -1.5996876442539842E-003   771594600.96966410     
  -1.3827100522249088E-002  -4.6737453650840671E-006   886287093.85105622     
  -1.4794720222273666E-002   1.0806066721381121E-003   1001136687.2745693     
  -1.5915491223463047E-002   1.6552092800776784E-003   1116143381.2402024     
  -448108356.55097824       -134432506.96529347        658518997.65776646     
  -447367766.86550462       -125499868.53584822        774737364.12507153     
  -445889006.68508929       -114106661.78993027        889306936.32558930     
  -443672076.00973183       -100252886.72753923        1002227714.2593197     
  -440716974.83943290       -83938543.348676264        1113499697.9262629     
  -890058650.01190829       -267017595.00357249        662898364.73793721     
  -893737170.09432209       -250700227.98299423        781660904.24421990     
  -895939349.18669915       -229461724.32896027        896968754.67480731     
  -896665187.28903961       -203302084.04147035        1008821916.0296993     
  -895914684.40134335       -172221307.12052479        1117220388.3088965     
  -1325850880.3951406       -397755264.11854213        670197309.87090480     
  -1339108209.6994648       -375601078.34303772        792365221.32710934     
  -1350151027.5186574       -346065187.61709464        909272548.89871049     
  -1358979333.8527179       -309147591.94071245        1020919292.5857083     
  -1365593128.7016473       -264848291.31389168        1127305452.3881032     
  -1755485047.7006760       -526645514.31020278        680415833.05666947     
  -1783480885.6809325       -500202419.61597902        806850315.37373960     
  -1808524041.6809635       -463917051.65433359        926218318.99729848     
  -1830614515.7007675       -417789410.42526603        1038519843.9273462     
  -1849752307.7403445       -361819495.92877662        1143754890.1638827     
  -1.5915491223463047E-002   1.6552092800776784E-003   1116143381.2402024     
  -1.5076876331647978E-002   1.7496278006987019E-003   1189451837.1500874     
  -1.4789797706124388E-002   6.0691493040014935E-006   1259660961.4650834     
  -1.5054159555843201E-002  -3.5757762078695138E-003   1326770754.1851912     
  -1.5869357110449737E-002  -8.9940875260306440E-003   1390781215.3104098     
  -440716974.83943290       -83938543.348676264        1113499697.9262629     
  -442612693.93362588       -69252956.775364146        1181918280.4348941     
  -445360986.19937861       -57409280.773917645        1248588967.5638011     
  -448961851.63669133       -48407515.344336972        1313511759.3129840     
  -453415290.24556357       -42247660.486622691        1376686655.6824419     
  -895914684.40134335       -172221307.12052479        1117220388.3088965     
  -895844876.26152694       -141691760.07528302        1179754428.7167645     
  -897480214.46427846       -116846034.17193469        1241892009.9600725     
  -900820699.00959814       -97684129.410480320        1303633132.0388205     
  -905866329.89748585       -84206045.790919721        1364977794.9530094     
  -1365593128.7016473       -264848291.31389168        1127305452.3881032     
  -1359696546.9987798       -217316409.89800683        1182960281.9956975     
  -1356357684.8094890       -178310260.19404498        1239570088.6538966     
  -1355576542.1337748       -147829842.20200431        1297134872.3627009     
  -1357353118.9716365       -125875155.92188436        1355654633.1221092     
  -1849752307.7403445       -361819495.92877662        1143754890.1638827     
  -1834167706.1453853       -296126906.24353784        1191535840.2716942     
  -1821993397.2350101       -241801958.84024799        1241623203.6452749     
  -1813229381.0092206       -198844653.71890861        1294016980.2846248     
  -1807875657.4680159       -167254990.87951940        1348717170.1897428     
  -1.5869357110449737E-002  -8.9940875260306440E-003   1390781215.3104098     
  -9.7638358021389718E-003  -1.4014241918950605E-002   1410990218.8354564     
  -4.2123127330529041E-003  -2.0880710164591035E-002   1434017681.8127129     
   7.8411979290545809E-004  -2.9597827165352336E-002   1459863604.2421772     
   5.2265883928507388E-003  -4.0161143641462067E-002   1488527986.1238492     
  -453415290.24556357       -42247660.486622691        1376686655.6824419     
  -444043000.19105572       -33647359.049276903        1396867763.1904514     
  -434943810.82391840       -25957393.236500815        1419455180.1814005     
  -426117722.14415520       -19177763.048304066        1444448906.6552892     
  -417564734.15176409       -13308468.484682038        1471848942.6121182     
  -905866329.89748585       -84206045.790919721        1364977794.9530094     
  -888299321.13534164       -67358714.313434541        1384812388.9760253     
  -871278513.74738729       -52332054.083249629        1406641142.5127127     
  -854803907.73362446       -39126065.100369215        1430464055.5630713     
  -838875503.09405112       -27740747.364788949        1456281128.1271019     
  -1357353118.9716365       -125875155.92188436        1355654633.1221092     
  -1332768962.8426237       -101134065.80649090        1374824096.1921785     
  -1309004108.7746196       -79123982.561127961        1395575568.8066506     
  -1286058556.7676237       -59844906.185793400        1417909050.9655254     
  -1263932306.8216364       -43296836.680485904        1441824542.6688023     
  -1807875657.4680159       -167254990.87951940        1348717170.1897428     
  -1777451925.3129017       -134973413.52845031        1366902884.8389111     
  -1748120595.9056137       -106333178.67013425        1386258459.0632126     
  -1719881669.2461534       -81334286.304575443        1406783892.8626480     
  -1692735145.3345194       -59976736.431773067        1428479186.2372196     
   5.2265883928507388E-003  -4.0161143641462067E-002   1488527986.1238492     
   2.2252460862970270E-002  -5.0545156430289485E-002   1493198248.7996883     
   3.7466641510886578E-002  -6.6968488904489504E-002   1499870529.2111607     
   5.0868426915761600E-002  -8.9433485800189019E-002   1508544827.3582644     
   6.2453567958223967E-002 -0.11795292306984514        1519221143.2410009     
  -417564734.15176409       -13308468.484682038        1471848942.6121182     
  -409736594.74395466       -9233794.1042048484        1475299450.0590799     
  -402675244.06049025       -7715082.1382119656        1481829275.9808147     
  -396380682.10137039       -8752332.5866999924        1491438420.3773186     
  -390852908.86659718       -12345545.449677795        1504126883.2485955     
  -838875503.09405112       -27740747.364788949        1456281128.1271019     
  -820141222.18363452       -18667997.959908009        1457617293.5022330     
  -802940518.72009468       -14707173.377951324        1463110078.0912750     
  -787273392.70343101       -15858273.618914634        1472759481.8942282     
  -773139844.13364375       -22121298.682798922        1486565504.9110897     
  -1263932306.8216364       -43296836.680485904        1441824542.6688023     
  -1231213882.2967870       -28302611.617653847        1440151779.1291509     
  -1200795823.9413452       -20976273.786181152        1443712935.5425465     
  -1172678131.7553120       -21317823.186071277        1452508011.9089928     
  -1146860805.7386880       -29327259.817324758        1466537008.2284870     
  -1692735145.3345194       -59976736.431773067        1428479186.2372196     
  -1642954575.0834100       -38137635.077437341        1422902906.9398291     
  -1596241159.7242441       -26522383.362911582        1423637848.3346257     
  -1552594899.2570143       -25130981.288175404        1430684010.4216111     
  -1512015793.6817267       -33963428.853242278        1444041393.2007852     
   6.2453567958223967E-002 -0.11795292306984514        1519221143.2410009     
  0.13775148604206838      -0.12421796649894348        1507819365.9316244     
  0.21693121200471188      -0.11754330338734961        1501730928.0221553     
  0.29999145338185040       -9.7933588894105625E-002   1500955829.5125921     
  0.38693023144494765       -6.5395765725694527E-002   1505494070.4029381     
  -390852908.86659718       -12345545.449677795        1504126883.2485955     
  -378405086.75604796       -14803972.729720578        1495566428.1064172     
  -365811066.52322453       -16775072.935514972        1491835210.6546264     
  -353070848.16812307       -18258846.067049190        1492933230.8932254     
  -340184431.69074553       -19255292.124330685        1498860488.8222096     
  -773139844.13364375       -22121298.682798922        1486565504.9110897     
  -749627347.72933102       -27453097.559072018        1481016936.4075730     
  -725822455.08434701       -31810242.299774736        1479813503.8849239     
  -701725166.19869018       -35192732.904900461        1482955207.3431430     
  -677335481.07236135       -37600569.374454260        1490442046.7822294     
  -1146860805.7386880       -29327259.817324758        1466537008.2284870     
  -1113666782.7820952       -37947374.612266779        1464170890.8350921     
  -1080034165.4664340       -45105508.210316539        1465665807.7130451     
  -1045962953.7917085       -50801660.611485481        1471021758.8623469     
  -1011453147.7579141       -55035831.815755606        1480238744.2829962     
  -1512015793.6817267       -33963428.853242278        1444041393.2007852     
  -1470523391.9143407       -46286803.889305890        1445028291.3889735     
  -1428446197.6694927       -56660870.667164445        1449392122.1389918     
  -1385784210.9471815       -65085629.186809659        1457132885.4508355     
  -1342537431.7474058       -71561079.448242009        1468250581.3245111     
  0.38693023144494765       -6.5395765725694527E-002   1505494070.4029381     
  0.47666330589572742       -1.3897170959796590E-002   1497259214.8432295     
  0.57444438400195164        6.4428796546973449E-002   1494771570.1951821     
  0.68028966159950166       0.16963508208013398        1498031136.4587984     
  0.79418824996255888       0.30168573683165212        1507037913.6340756     
  -340184431.69074553       -19255292.124330685        1498860488.8222096     
  -325852134.54500085       -19894519.467426643        1491411562.4411933     
  -311716505.07294798       -21189305.722827643        1489387783.0518920     
  -297777543.27459157       -23139650.890550449        1492789150.6543069     
  -284035249.14992946       -25745554.970588185        1501615665.2484350     
  -677335481.07236135       -37600569.374454260        1490442046.7822294     
  -649591069.49901879       -39155078.900646418        1483549603.9511962     
  -622239993.28112233       -42020706.278324872        1481760244.1919322     
  -595282252.41867125       -46197451.507488728        1485073967.5044343     
  -568717846.91166639       -51685314.588141173        1493490773.8887041     
  -1011453147.7579141       -55035831.815755606        1480238744.2829962     
  -971216804.38539684       -57781678.313577145        1473673339.3732364     
  -931570464.05007565       -62494201.602054417        1471888953.6152954     
  -892514126.75195122       -69173401.681187123        1474885587.0091748     
  -854047792.49102581       -77819278.550980926        1482663239.5548766     
  -1342537431.7474058       -71561079.448242009        1468250581.3245111     
  -1290729339.2041349       -75774317.706222653        1461782768.7073123     
  -1239707917.3798072       -82609791.694013238        1459773911.3219881     
  -1189473166.2744367       -92067501.411658764        1462224009.1685369     
  -1140025085.8880079       -104147446.85911414        1469133062.2469561     
  0.79418824996255888       0.30168573683165212        1507037913.6340756     
  0.86025518210739838       0.46280612126519688        1504761726.8228042     
  0.94689329637260766       0.69249711276664105        1504459998.4561017     
   1.0540965993838918       0.99073838647697265        1506132728.5339680     
   1.1818792281844352        1.3575781067075587        1509779917.0564013     
  -284035249.14992946       -25745554.970588185        1501615665.2484350     
  -279115105.10943371       -32000817.200643465        1499481636.2961617     
  -274659422.92806530       -39804285.627788953        1500601397.1237686     
  -270668202.60581577       -49155960.251998767        1504974947.7312531     
  -267141444.14269391       -60055841.073298916        1512602288.1186175     
  -568717846.91166639       -51685314.588141173        1493490773.8887041     
  -555222326.51014400       -63099269.493402794        1490957030.6024508     
  -542655729.84743810       -77609636.861388862        1492956408.4313898     
  -531018056.92354935       -95216416.692098856        1499488907.3755176     
  -520309307.73847830       -115919608.98553433        1510554527.4348347     
  -854047792.49102581       -77819278.550980926        1482663239.5548766     
  -828321663.34187388       -93295356.415469676        1479187909.7416718     
  -803988919.81122887       -113416053.00831607        1481525032.3789687     
  -781049561.89909720       -138181368.32953829        1489674607.4667604     
  -759503589.60547602       -167591302.37912959        1503636635.0050576     
  -1140025085.8880079       -104147446.85911414        1469133062.2469561     
  -1098413115.6046214       -122589077.96683350        1464174273.7138226     
  -1058658992.8194400       -147223534.06857431        1466307268.9664991     
  -1020762717.5324601       -178050815.16431680        1475532048.0049853     
  -984724289.74369061       -215070921.25409654        1491848610.8292854     
   1.1818792281844352        1.3575781067075587        1509779917.0564013     
   1.1719384620254838        1.8794593628665393        1531480555.8839495     
   1.2709207312928976        2.7644174037800706        1561603988.1415477     
   1.4788087878789726        4.0123964704792821        1600150213.8291941     
   1.7956138407661690        5.6234301098473933        1647119232.9468884     
  -267141444.14269391       -60055841.073298916        1512602288.1186175     
  -251693410.00372732       -78479186.355015218        1534839973.5487592     
  -243099494.55277678       -119749593.93012100        1564789510.0796108     
  -241359697.78985137       -183867063.79864419        1602450897.7111750     
  -246474019.71494755       -270831595.96056646        1647824136.4434490     
  -520309307.73847830       -115919608.98553433        1510554527.4348347     
  -491444503.24871391       -153375679.21028602        1525332787.5378160     
  -476287936.24390316       -236525874.38488182        1547111956.4121666     
  -474839606.72404951       -365370194.50933474        1575892034.0578971     
  -487099514.68915200       -539908639.58364260        1611673020.4749885     
  -759503589.60547602       -167591302.37912959        1503636635.0050576     
  -719253278.56302357       -224689476.68635044        1502958997.8511164     
  -699565323.80246127       -350328838.59987193        1508571327.1392090     
  -700439725.32378817       -544509388.11969316        1520473622.8693376     
  -721876483.12700725       -807231125.24581742        1538665885.0414991     
  -984724289.74369061       -215070921.25409654        1491848610.8292854     
  -935119735.94665456       -292420578.78320795        1467718604.4886620     
  -912931657.22844875       -461158486.57508588        1449167622.2607412     
  -918160053.58906913       -721284644.62971306        1436195664.1455142     
  -950804925.02851236       -1072799052.9470937        1428802730.1429811     
  -1755485047.7006760       -526645514.31020278        680415833.05666947     
  -1783480885.6809325       -500202419.61597902        806850315.37373960     
  -1808524041.6809635       -463917051.65433359        926218318.99729848     
  -1830614515.7007675       -417789410.42526603        1038519843.9273462     
  -1849752307.7403445       -361819495.92877662        1143754890.1638827     
  -2201180889.7327671       -660354266.91983020        696678118.68566763     
  -2237675376.3590560       -613982424.18958223        814134768.57154477     
  -2272112776.0409703       -560753624.97808397        927521533.26105642     
  -2304493088.7785096       -500667869.28533554        1036838412.7542030     
  -2334816314.5716734       -433725157.11133730        1142085407.0509844     
  -2685158144.2956686       -805547443.28870058        722108351.14833546     
  -2721589583.8618588       -736678343.81058908        829542307.72785974     
  -2756859531.5195251       -663937604.63739872        935902972.60816467     
  -2790967987.2686677       -587325225.76912987        1041190345.7892499     
  -2823914951.1092882       -506841207.20578265        1145404427.2711160     
  -3207416811.3893800       -962225043.41681397        756706530.44467354     
  -3235223508.1893406       -868290178.47899961        853072932.84268475     
  -3262764308.1166277       -773468990.63227797        951362637.03862238     
  -3290039211.1712432       -677761479.87664938        1051575643.0324867     
  -3317048217.3531866       -581167646.21211314        1153711950.8242772     
  -3767956891.0139008       -1130387067.3041701        800472656.57468152     
  -3778577149.3414998       -1008817928.1948135        884726643.91601968     
  -3789827105.8322778       -889347782.96272111        973900526.55243003     
  -3801706760.4862356       -771976631.60789382        1067994304.4839129     
  -3814216113.3033733       -656704474.13033080        1167007977.7104683     
  -1849752307.7403445       -361819495.92877662        1143754890.1638827     
  -1834167706.1453853       -296126906.24353784        1191535840.2716942     
  -1821993397.2350101       -241801958.84024799        1241623203.6452749     
  -1813229381.0092206       -198844653.71890861        1294016980.2846248     
  -1807875657.4680159       -167254990.87951940        1348717170.1897428     
  -2334816314.5716734       -433725157.11133730        1142085407.0509844     
  -2310998314.3267016       -352739756.58288407        1183514624.8430595     
  -2290687739.1296129       -283445772.88070524        1225441702.7517102     
  -2273884588.9804068       -225843206.00480294        1267866640.7769365     
  -2260588863.8790827       -179932055.95517600        1310789438.9187372     
  -2823914951.1092882       -506841207.20578265        1145404427.2711160     
  -2797030846.9262867       -412113184.24771082        1180368591.6569414     
  -2773751300.1544657       -329400352.66023874        1214022063.0101478     
  -2754076310.7938247       -258702712.44336748        1246364841.3307366     
  -2738005878.8443642       -200020263.59709525        1277396926.6187067     
  -3317048217.3531866       -581167646.21211314        1153711950.8242772     
  -3292265303.9441385       -474247189.23801768        1182097740.7133389     
  -3271184080.3095684       -379665698.17884707        1207364284.4205885     
  -3253804546.4494753       -297423173.03460097        1229511581.9460254     
  -3240126702.3638592       -227519613.80527735        1248539633.2896504     
  -3814216113.3033733       -656704474.13033080        1167007977.7104683     
  -3796701685.3802590       -539141771.55380535        1188702072.0122530     
  -3782986079.5949211       -434241809.43652976        1205468366.9830315     
  -3773069295.9473591       -342004587.77850497        1217306862.6228044     
  -3766951334.4375687       -262430106.57972765        1224217558.9315705     
  -1807875657.4680159       -167254990.87951940        1348717170.1897428     
  -1777451925.3129017       -134973413.52845031        1366902884.8389111     
  -1748120595.9056137       -106333178.67013425        1386258459.0632126     
  -1719881669.2461534       -81334286.304575443        1406783892.8626480     
  -1692735145.3345194       -59976736.431773067        1428479186.2372196     
  -2260588863.8790827       -179932055.95517600        1310789438.9187372     
  -2220484763.3666286       -135521140.64265895        1319221116.1642606     
  -2183165159.1428509       -100391879.62572610        1331130293.0415006     
  -2148630051.2077479       -74544272.904382467        1346516969.5504565     
  -2116879439.5613222       -57978320.478626251        1365381145.6911292     
  -2738005878.8443642       -200020263.59709525        1277396926.6187067     
  -2681628152.6700492       -141502033.13177145        1274100457.3295944     
  -2629727016.3252592       -97905768.764866352        1276589127.7287805     
  -2582302469.8099971       -69231470.496382833        1284862937.8162661     
  -2539354513.1242604       -55479138.326320291        1298921887.5920479     
  -3240126702.3638592       -227519613.80527735        1248539633.2896504     
  -3160882093.2231636       -152916090.99579358        1231540908.3349123     
  -3087806167.4528446       -98874846.087561369        1222634963.1250539     
  -3020898925.0529003       -65395879.080581069        1221821797.6600761     
  -2960160366.0233321       -52479189.974851012        1229101411.9399781     
  -3766951334.4375687       -262430106.57972765        1224217558.9315705     
  -3658246585.0259724       -169763314.23472452        1191542469.1802142     
  -3557402612.5256028       -103299111.59380662        1169267799.2303195     
  -3464419416.9364581       -63037498.656975031        1157393549.0818877     
  -3379296998.2585382       -48978475.424227953        1155919718.7349176     
  -1692735145.3345194       -59976736.431773067        1428479186.2372196     
  -1642954575.0834100       -38137635.077437341        1422902906.9398291     
  -1596241159.7242441       -26522383.362911582        1423637848.3346257     
  -1552594899.2570143       -25130981.288175404        1430684010.4216111     
  -1512015793.6817267       -33963428.853242278        1444041393.2007852     
  -2116879439.5613222       -57978320.478626251        1365381145.6911292     
  -2052710590.5915399       -38674642.403082967        1357051896.5006256     
  -1990364550.0894849       -25446992.553303480        1354064431.0043285     
  -1929841318.0551634       -18295370.929302454        1356418749.2022367     
  -1871140894.4885740       -17219777.531071544        1364114851.0943515     
  -2539354513.1242604       -55479138.326320291        1298921887.5920479     
  -2463567205.4300342       -39541829.527832150        1289291406.0033417     
  -2388358359.7793307       -25532727.541088343        1284033271.1108606     
  -2313727976.1721511       -13451832.366086960        1283147482.9146028     
  -2239676054.6084929       -3299144.0028264523        1286634041.4145706     
  -2960160366.0233321       -52479189.974851012        1229101411.9399781     
  -2875524419.5988989       -40739196.451695442        1219621435.4479792     
  -2790222588.7937794       -26779588.326249957        1213544368.6542232     
  -2704254873.6079726       -10600365.598515511        1210870211.5587089     
  -2617621274.0414810        7798471.7314999104        1211598964.1614373     
  -3379296998.2585382       -48978475.424227953        1155919718.7349176     
  -3288582233.0981288       -42266743.174664855        1148041984.8345358     
  -3195957237.1328278       -29187574.908789396        1142597723.6344166     
  -3101422010.3626304       -9740970.6266024113        1139586935.1345565     
  -3004976552.7875385        16073069.671907306        1139009619.3349566     
  -1512015793.6817267       -33963428.853242278        1444041393.2007852     
  -1470523391.9143407       -46286803.889305890        1445028291.3889735     
  -1428446197.6694927       -56660870.667164445        1449392122.1389918     
  -1385784210.9471815       -65085629.186809659        1457132885.4508355     
  -1342537431.7474058       -71561079.448242009        1468250581.3245111     
  -1871140894.4885740       -17219777.531071544        1364114851.0943515     
  -1817343658.7267604       -20572930.134708881        1362395721.2320914     
  -1763673805.4821134       -24350691.128908753        1364694864.3962326     
  -1710131334.7546389       -28553060.513677657        1371012280.5867772     
  -1656716246.5443287       -33180038.288999259        1381347969.8037224     
  -2239676054.6084929       -3299144.0028264523        1286634041.4145706     
  -2171741583.5248923        2867646.2241753340        1281378012.6747887     
  -2104646669.9530942        6235911.4118385315        1280781597.4259846     
  -2038391313.8931000        6805651.5601564646        1284844795.6681557     
  -1972975515.3449056        4576866.6691423655        1293567607.4013081     
  -2617621274.0414810        7798471.7314999104        1211598964.1614373     
  -2533717166.3087416        24034925.187342167        1201975165.7170641     
  -2451364791.0824347        35098936.955069900        1197652321.2282429     
  -2370564148.3625631        40990507.034691930        1198630430.6949737     
  -2291315238.1491241        41709635.426190495        1204909494.1172557     
  -3004976552.7875385        16073069.671907306        1139009619.3349566     
  -2903270407.0783019        42928906.754799128        1124187180.3589218     
  -2803828168.8701315        62238385.500807762        1115307035.8030128     
  -2706649838.1630301        74001505.909918785        1112369185.6672306     
  -2611735414.9569917        78218267.982150674        1115373629.9515729     
  -1342537431.7474058       -71561079.448242009        1468250581.3245111     
  -1290729339.2041349       -75774317.706222653        1461782768.7073123     
  -1239707917.3798072       -82609791.694013238        1459773911.3219881     
  -1189473166.2744367       -92067501.411658764        1462224009.1685369     
  -1140025085.8880079       -104147446.85911414        1469133062.2469561     
  -1656716246.5443287       -33180038.288999259        1381347969.8037224     
  -1592839876.5267720       -35391574.224071741        1373441082.9134300     
  -1529312789.5097899       -38767386.827733994        1369896599.8508139     
  -1466134985.4933834       -43307476.099978209        1370714520.6158733     
  -1403306464.4775538       -49011842.040810585        1375894845.2086108     
  -1972975515.3449056        4576866.6691423655        1293567607.4013081     
  -1897306729.0079024        4284274.7105243206        1284731931.9093506     
  -1821549837.9531066        4285365.1445578337        1280162108.8408728     
  -1745704842.1805127        4580137.9712475538        1279858138.1958802     
  -1669771741.6901236        5168593.1905859709        1283820019.9743662     
  -2291315238.1491241        41709635.426190495        1204909494.1172557     
  -2204129896.6475244        43253229.097572923        1195655315.6950700     
  -2116419062.7097540        46548464.222855806        1190570438.2921700     
  -2028182736.3358204        51595340.802019715        1189654861.9085562     
  -1939420917.5257204        58393858.835070968        1192908586.5442290     
  -2611735414.9569917        78218267.982150674        1115373629.9515729     
  -2513309379.4456382        81515288.937079072        1106211234.2705920     
  -2413920463.7797475        88021910.407126546        1101121588.2047000     
  -2313568667.9593101        97738132.392328978        1100104691.7539015     
  -2212253991.9843378        110663954.89265323        1103160544.9181914     
  -1140025085.8880079       -104147446.85911414        1469133062.2469561     
  -1098413115.6046214       -122589077.96683350        1464174273.7138226     
  -1058658992.8194400       -147223534.06857431        1466307268.9664991     
  -1020762717.5324601       -178050815.16431680        1475532048.0049853     
  -984724289.74369061       -215070921.25409654        1491848610.8292854     
  -1403306464.4775538       -49011842.040810585        1375894845.2086108     
  -1341474854.0306334       -57067024.077060580        1367639128.7674842     
  -1280646758.1159327       -68467254.554034233        1365448325.0344620     
  -1220822176.7334499       -83212533.471733630        1369322434.0095468     
  -1162001109.8831818       -101302860.83016032        1379261455.6927335     
  -1669771741.6901236        5168593.1905859709        1283820019.9743662     
  -1590654408.4445448        6619685.0163484216        1273264097.4189000     
  -1511686256.7651951        7573504.9546808004        1267746216.4938307     
  -1432867286.6520801        8030053.0055637956        1267266377.1991608     
  -1354197498.1051965        7989329.1690089107        1271824579.5348923     
  -1939420917.5257204        58393858.835070968        1192908586.5442290     
  -1845951778.8463526        68471049.313390732        1181049179.6680696     
  -1751777488.7672300        80898744.457561135        1173200943.3446047     
  -1656898047.2883570        95676944.267570853        1169363877.5738342     
  -1561313454.4097288        112805648.74342114        1169537982.3557541     
  -2212253991.9843378        110663954.89265323        1103160544.9181914     
  -2107366965.2360582        128487068.81405675        1090994375.5149932     
  -2000920454.1220367        151508463.95460832        1081812505.5867815     
  -1892914458.6422806        179728140.31426990        1075614935.1335588     
  -1783348978.7967777        213146097.89308834        1072401664.1553198     
  -984724289.74369061       -215070921.25409654        1491848610.8292854     
  -935119735.94665456       -292420578.78320795        1467718604.4886620     
  -912931657.22844875       -461158486.57508588        1449167622.2607412     
  -918160053.58906913       -721284644.62971306        1436195664.1455142     
  -950804925.02851236       -1072799052.9470937        1428802730.1429811     
  -1162001109.8831818       -101302860.83016032        1379261455.6927335     
  -1086529656.0421426       -135063368.77969947        1325894115.5077612     
  -1023680158.0128301       -210897062.76833171        1276786332.1101933     
  -973452615.79525018       -328803942.79607278        1231938105.5000315     
  -935847029.38940299       -488784008.86292368        1191349435.6772768     
  -1354197498.1051965        7989329.1690089107        1271824579.5348923     
  -1256629050.8638287        16686998.805974483        1206480177.9838409     
  -1156888040.1671057        32626546.627465189        1144075865.8949037     
  -1054974466.0150183        55807972.633491576        1084611643.2680855     
  -950888328.40757275        86231276.824055910        1028087510.1033716     
  -1561313454.4097288        112805648.74342114        1169537982.3557541     
  -1445417920.4117293        162830523.97377163        1109476791.9168980     
  -1312555303.6912730        269412341.61229903        1051036223.6148690     
  -1162725604.2483740        432551101.65898627        994216277.44966066     
  -995928822.08301294        652246804.11386108        939016953.42127907     
  -1783348978.7967777        213146097.89308834        1072401664.1553198     
  -1652896264.6858344        303367206.72371423        1034883957.3069390     
  -1490681948.5853477        499460322.18614483        997667405.27008820     
  -1296706030.4953177        801425444.28039050        960752008.04477537     
  -1070968510.4157354        1209262573.0064750        924137765.63098180     
  -3767956891.0139008       -1130387067.3041701        800472656.57468152     
  -3778577149.3414998       -1008817928.1948135        884726643.91601968     
  -3789827105.8322778       -889347782.96272111        973900526.55243003     
  -3801706760.4862356       -771976631.60789382        1067994304.4839129     
  -3814216113.3033733       -656704474.13033080        1167007977.7104683     
  -4339608898.8745565       -1301882669.6623669        858559502.20807517     
  -4334854631.5456734       -1125854607.2327456        942106912.03073311     
  -4331247324.3756266       -953649745.33257174        1019993540.9124742     
  -4328786977.3644123       -785268083.96184504        1092219388.8532984     
  -4327473590.5120306       -620709623.12056506        1158784455.8532047     
  -4895203350.6766691       -1468561005.2030008        936119840.01457000     
  -4905305061.2227058       -1247143170.5125351        1018357199.9902844     
  -4917070993.9232311       -1031272743.0036991        1084353102.7890921     
  -4930501148.7782440       -820949722.67649281        1134107548.4109926     
  -4945595525.7877464       -616174109.53091681        1167620536.8559871     
  -5434740246.4202442       -1630422073.9260733        1033153669.9941663     
  -5489928438.3725948       -1372683618.0341811        1113477507.7946730     
  -5547298114.4750910       -1122216775.9761024        1166979212.1822829     
  -5606849274.7277298       -879021547.75183713        1193658783.1569967     
  -5668581919.1305132       -643097933.36138391        1193516220.7188139     
  -5958219586.1052752       -1787465875.8315825        1149660992.1468642     
  -6088724762.9953423       -1502475949.7976851        1227467835.4438984     
  -6221928686.0312071       -1226481844.2497835        1267871869.0920472     
  -6357831355.2128725       -959483559.18787718        1270873093.0913100     
  -6496432770.5403328       -701481094.61196685        1236471507.4416869     
  -3814216113.3033733       -656704474.13033080        1167007977.7104683     
  -3796701685.3802590       -539141771.55380535        1188702072.0122530     
  -3782986079.5949211       -434241809.43652976        1205468366.9830315     
  -3773069295.9473591       -342004587.77850497        1217306862.6228044     
  -3766951334.4375687       -262430106.57972765        1224217558.9315705     
  -4327473590.5120306       -620709623.12056506        1158784455.8532047     
  -4297133122.0310144       -465261671.31327760        1140865266.7002313     
  -4277394242.9664931       -345152350.89430606        1128997312.1003220     
  -4268256953.3184667       -260381661.86365390        1123180592.0534761     
  -4269721253.0869346       -210949604.22131634        1123415106.5596941     
  -4945595525.7877464       -616174109.53091681        1167620536.8559871     
  -4871060348.5086250       -413430308.02080631        1102151502.4230816     
  -4813929527.9247208       -268701028.82807994        1053712736.4273103     
  -4774203064.0360298       -181986271.95273995        1022304238.8686717     
  -4751880956.8425579       -153286037.39478350        1007926009.7471683     
  -5668581919.1305132       -643097933.36138391        1193516220.7188139     
  -5518483364.8130884       -383647681.67639017        1072560779.1808034     
  -5392591934.4696016       -204887843.23784947        979614639.96399629     
  -5290907628.1000500       -106818418.04576111        914677803.06839192     
  -5213430445.7044334       -89439406.100125551        877750268.49399161     
  -6496432770.5403328       -701481094.61196685        1236471507.4416869     
  -6239402170.9444075       -375913792.28003144        1052093096.9733963     
  -6013381462.6011381       -153712794.12361479        906703022.71037996     
  -5818370645.5105247       -34878100.142721653        800301284.65263641     
  -5654369719.6725683       -19409710.337346554        732887882.80016613     
  -3766951334.4375687       -262430106.57972765        1224217558.9315705     
  -3658246585.0259724       -169763314.23472452        1191542469.1802142     
  -3557402612.5256028       -103299111.59380662        1169267799.2303195     
  -3464419416.9364581       -63037498.656975031        1157393549.0818877     
  -3379296998.2585382       -48978475.424227953        1155919718.7349176     
  -4269721253.0869346       -210949604.22131634        1123415106.5596941     
  -4145336001.6249814       -146619791.39014792        1089661397.1006620     
  -4025419782.8434319       -97186754.160314083        1064108495.4590186     
  -3909972596.7422810       -62650492.531819105        1046756401.6347650     
  -3798994443.3215337       -43011006.504660845        1037605115.6278981     
  -4751880956.8425579       -153286037.39478350        1007926009.7471683     
  -4618099808.9990311       -119178585.77808046        977050715.51642251     
  -4485395949.6050797       -88662095.659968376        952176617.11899209     
  -4353769378.6607065       -61736567.040443897        933303714.55487597     
  -4223220096.1659122       -38401999.919508934        920432007.82407558     
  -5213430445.7044334       -89439406.100125551        877750268.49399161     
  -5076538007.1481152       -87439697.398525953        853710424.42749465     
  -4937331112.8105507       -77725136.092769384        833472164.21023941     
  -4795809762.6917343       -60295722.182847500        817035487.84222400     
  -4651973956.7916746       -35151455.668774843        804400395.32344949     
  -5654369719.6725683       -19409710.337346554        732887882.80016613     
  -5520650596.0722370       -51403126.251479864        719640523.83387864     
  -5381225272.4598379       -64375875.458713055        707995136.73275948     
  -5236093748.8353643       -58327957.959036589        697951721.49680507     
  -5085256025.1988192       -33259373.752451897        689510278.12602031     
  -3379296998.2585382       -48978475.424227953        1155919718.7349176     
  -3288582233.0981288       -42266743.174664855        1148041984.8345358     
  -3195957237.1328278       -29187574.908789396        1142597723.6344166     
  -3101422010.3626304       -9740970.6266024113        1139586935.1345565     
  -3004976552.7875385        16073069.671907306        1139009619.3349566     
  -3798994443.3215337       -43011006.504660845        1037605115.6278981     
  -3699073684.7655988       -32813300.840356350        1030213211.5936681     
  -3598722066.2128286       -21179395.186600447        1026664912.8369485     
  -3497939587.6632228       -8109289.5433926582        1026960219.3577415     
  -3396726249.1167831        6397016.0892632008        1031099131.1560442     
  -4223220096.1659122       -38401999.919508934        920432007.82407558     
  -4110064393.9937320       -23509635.774241924        911800001.04659283     
  -3997957202.6327758       -12112307.666391611        908421732.12387085     
  -3886898522.0830464       -4210015.5959565639        910297201.05591178     
  -3776888352.3445401        197240.43706488609        917426407.84271586     
  -4651973956.7916746       -35151455.668774843        804400395.32344949     
  -4521554360.7825346       -14355747.976332426        792802353.19331074     
  -4393662646.3926764       -1986312.3481662273        787868181.49518490     
  -4268298813.6221037        1956851.2157146931        789597880.22907329     
  -4145462862.4708176       -2526257.2846910954        797991449.39497423     
  -5085256025.1988192       -33259373.752451897        689510278.12602031     
  -4933543585.1319981       -5351637.4466173649        673220268.03382409     
  -4785838397.4925261        9198590.7680652142        665004260.95088840     
  -4642140462.2803936        10391310.891611814        664862256.87722063     
  -4502449779.4956074       -1773477.0759973526        672794255.81281626     
  -3004976552.7875385        16073069.671907306        1139009619.3349566     
  -2903270407.0783019        42928906.754799128        1124187180.3589218     
  -2803828168.8701315        62238385.500807762        1115307035.8030128     
  -2706649838.1630301        74001505.909918785        1112369185.6672306     
  -2611735414.9569917        78218267.982150674        1115373629.9515729     
  -3396726249.1167831        6397016.0892632008        1031099131.1560442     
  -3283537405.7292223        23084763.470649242        1017864997.9787419     
  -3171709890.2749414        35234751.074433923        1009867896.9880650     
  -3061243702.7539430        42846978.900615811        1007107828.1840141     
  -2952138843.1662216        45921446.949200034        1009584791.5665861     
  -3776888352.3445401        197240.43706488609        917426407.84271586     
  -3654231846.2315183        6112387.6310849190        906833589.95989871     
  -3532034088.4839902        10498373.606791496        900772542.03020549     
  -3410295079.1019526        13355198.364183426        899243264.05363655     
  -3289014818.0854135        14682861.903264284        902245756.03018904     
  -4145462862.4708176       -2526257.2846910954        797991449.39497423     
  -4015353728.5851893       -7988220.7638893127        791092956.30239046     
  -3884800763.4972730       -11970746.902119637        788020970.92943096     
  -3753803967.2070661       -14473835.699381351        788775493.27609217     
  -3622363339.7145605       -15497487.155658245        793356523.34237599     
  -4502449779.4956074       -1773477.0759973526        672794255.81281626     
  -4366903052.7902384       -19217061.714276314        670643097.00621998     
  -4230009915.3147936       -32172610.452301741        671613183.68574119     
  -4091770367.0692739       -40640123.290070295        675704515.85138500     
  -3952184408.0536704       -44619600.227569580        682917093.50315011     
  -2611735414.9569917        78218267.982150674        1115373629.9515729     
  -2513309379.4456382        81515288.937079072        1106211234.2705920     
  -2413920463.7797475        88021910.407126546        1101121588.2047000     
  -2313568667.9593101        97738132.392328978        1100104691.7539015     
  -2212253991.9843378        110663954.89265323        1103160544.9181914     
  -2952138843.1662216        45921446.949200034        1009584791.5665861     
  -2843484507.5674195        47696558.795680761        1002601840.5942427     
  -2734236447.7751694        51450751.286979437        999765272.94525719     
  -2624394663.7894812        57184024.423072338        1001075088.6196305     
  -2513959155.6103530        64896378.203973651        1006531287.6173613     
  -3289014818.0854135        14682861.903264284        902245756.03018904     
  -3169921800.3755322        14999179.248400331        897011567.81186616     
  -3050604214.4333072        16064057.368011117        895997396.62516916     
  -2931062060.2587433        17877496.262091756        899203242.47009969     
  -2811295337.8518300        20439495.930650473        906629105.34665489     
  -3622363339.7145605       -15497487.155658245        793356523.34237599     
  -3492621257.8699808       -16576849.704784632        789440415.92345822     
  -3363023763.7541618       -18138171.349770784        789817959.24443710     
  -3233570857.3670979       -20181452.090616584        794489153.30530620     
  -3104262538.7087913       -22706691.927312136        803453998.10607541     
  -3952184408.0536704       -44619600.227569580        682917093.50315011     
  -3811582880.0507741       -47031528.063879490        679888384.92902398     
  -3671495095.7377324       -51155934.866373062        681226960.80306244     
  -3531921055.1145458       -56992820.635055304        686932821.12525952     
  -3392860758.1812162       -64542185.369920373        697005965.89561784     
  -2212253991.9843378        110663954.89265323        1103160544.9181914     
  -2107366965.2360582        128487068.81405675        1090994375.5149932     
  -2000920454.1220367        151508463.95460832        1081812505.5867815     
  -1892914458.6422806        179728140.31426990        1075614935.1335588     
  -1783348978.7967777        213146097.89308834        1072401664.1553198     
  -2513959155.6103530        64896378.203973651        1006531287.6173613     
  -2402909854.5150156        75143133.784595370        997621570.69894135     
  -2290904653.0472813        88576223.939880371        992216155.72806489     
  -2177943551.2071424        105195648.66984570        990315042.70473039     
  -2064026548.9946048        125001407.97446907        991918231.62894273     
  -2811295337.8518300        20439495.930650473        906629105.34665489     
  -2692598041.0592823        23555609.575529456        900271659.58745074     
  -2573548427.8876686        27846111.150620580        897938518.24834764     
  -2454146498.3369956        33311000.655910969        899629681.32934320     
  -2334392252.4072580        39950278.091410160        905345148.83044112     
  -3104262538.7087913       -22706691.927312136        803453998.10607541     
  -2976431524.8688650       -26275503.813128710        798944642.18052495     
  -2848851778.6432147       -30681874.413197279        798979593.14763033     
  -2721523300.0318365       -35925803.727513671        803558851.00739539     
  -2594446089.0347452       -42007291.756106496        812682415.75981641     
  -3392860758.1812162       -64542185.369920373        697005965.89561784     
  -3254410305.9437509       -74350206.381374598        693640518.47816300     
  -3116814705.3139000       -87007732.751543760        695339380.42591631     
  -2980073956.2916689       -102514764.48043811        702102551.73888552     
  -2844188058.8770509       -120871301.56805527        713930032.41706669     
  -1783348978.7967777        213146097.89308834        1072401664.1553198     
  -1652896264.6858344        303367206.72371423        1034883957.3069390     
  -1490681948.5853477        499460322.18614483        997667405.27008820     
  -1296706030.4953177        801425444.28039050        960752008.04477537     
  -1070968510.4157354        1209262573.0064750        924137765.63098180     
  -2064026548.9946048        125001407.97446907        991918231.62894273     
  -1939827495.3951757        176015692.41670787        988614014.61789000     
  -1798041104.9891205        285654432.88102424        989245863.41454124     
  -1638667377.7764282        453917629.36745739        993813778.01889598     
  -1461706313.7571139        680805281.87598419        1002317758.4309449     
  -2334392252.4072580        39950278.091410160        905345148.83044112     
  -2206061399.3302870        54873376.141964078        919717778.94331968     
  -2074317474.6296058        81173379.604892731        941661385.86006808     
  -1939160478.3052073        118850288.48021042        971175969.58069181     
  -1800590410.3570914        167904102.76792717        1008261530.1051824     
  -2594446089.0347452       -42007291.756106496        812682415.75981641     
  -2451597976.4911747       -60059742.100506067        828195250.28322506     
  -2319511057.5068121       -113982837.64225292        854913972.60667431     
  -2198185332.0816398       -203776578.38132268        892838582.73016942     
  -2087620800.2156713       -329440964.31772053        941969080.65369451     
  -2844188058.8770509       -120871301.56805527        713930032.41706669     
  -2676437226.8778334       -168783662.31070757        714046428.63760304     
  -2533621853.6207314       -299814218.86041617        729003623.65435362     
  -2415741939.1057425       -513962971.21716917        758801617.46731102     
  -2322797483.3328590       -811229919.38094401        803440410.07648277     
  -5958219586.1052752       -1787465875.8315825        1149660992.1468642     
  -6088724762.9953423       -1502475949.7976851        1227467835.4438984     
  -6221928686.0312071       -1226481844.2497835        1267871869.0920472     
  -6357831355.2128725       -959483559.18787718        1270873093.0913100     
  -6496432770.5403328       -701481094.61196685        1236471507.4416869     
  -6810989612.0452766       -2043296883.6135828        1353365282.9801352     
  -6829003585.0476141       -1395588436.3061693        1202323408.4200482     
  -6898390148.6232595       -919121957.57644677        1091511764.6670575     
  -7019149302.7722111       -613897447.42441344        1020930351.7211633     
  -7191281047.4944715       -479914905.85007262        990579169.58236516     
  -8338398566.5537529       -2501519569.9661260        1711990019.0014517     
  -8022112648.6512718       -1424549995.2800696        1275313274.7521505     
  -7805873165.7496061       -681068537.26339793        956499801.76592731     
  -7689680117.8487558       -271075195.91611242        755549600.04278243     
  -7673533504.9487190       -194569971.23821115        672462669.58271575     
  -10540446449.630713       -3162133934.8892136        2225535200.2108140     
  -9668051953.8063145       -1589360626.7193854        1446437434.4402046     
  -8944377737.4102497       -512321583.31063843        862835980.38865614     
  -8369423800.4425030        68983195.337028980        474730838.05616820     
  -7943190142.9030809        154553709.22361708        282122007.44274038     
  -13417133261.276146       -4025139978.3828435        2894000826.6082215     
  -11766821500.512749       -1890020330.6241174        1715695887.4842117     
  -10313903863.605185       -412881095.71816540        810520300.53524423     
  -9058380350.5534515        406277726.33501053        178474065.76131952     
  -8000250961.3575516        567456135.53541327       -180442816.83756253     
  -6496432770.5403328       -701481094.61196685        1236471507.4416869     
  -6239402170.9444075       -375913792.28003144        1052093096.9733963     
  -6013381462.6011381       -153712794.12361479        906703022.71037996     
  -5818370645.5105247       -34878100.142721653        800301284.65263641     
  -5654369719.6725683       -19409710.337346554        732887882.80016613     
  -7191281047.4944715       -479914905.85007262        990579169.58236516     
  -6901333824.0695038       -304689492.70198655        846052420.89405465     
  -6624221143.3923864       -172245888.71340728        722552097.98831677     
  -6359943005.4631205       -82584093.884333372        620078200.86514843     
  -6108499410.2817106       -35704108.214767456        538630729.52455151     
  -7673533504.9487190       -194569971.23821115        672462669.58271575     
  -7401989401.7595730       -185082370.49343300        588992155.92999077     
  -7125104492.8134727       -157792083.89215040        508586157.63713723     
  -6842878778.1104221       -112699111.43435550        431244674.70414960     
  -6555312257.6504173       -49803453.120053291        356967707.13103217     
  -7943190142.9030809        154553709.22361708        282122007.44274038     
  -7741368904.0146198       -17092425.654376984        280912302.08120656     
  -7516031510.8643990       -110351379.65984297        264805201.65683916     
  -7267177963.4524212       -125223152.79278851        233800706.16963893     
  -6994808261.7786865       -61707745.053211212        187898815.61960483     
  -8000250961.3575516        567456135.53541327       -180442816.83756253     
  -7919472330.8346367        199280341.81519413       -78187140.652300775     
  -7797002197.5451632       -29923776.016494751       -8790769.9525718912     
  -7632840561.4891243       -120156217.95963097        27746295.261617653     
  -7426987422.6665268       -71416984.014240265        31424054.990271080     
  -5654369719.6725683       -19409710.337346554        732887882.80016613     
  -5520650596.0722370       -51403126.251479864        719640523.83387864     
  -5381225272.4598379       -64375875.458713055        707995136.73275948     
  -5236093748.8353643       -58327957.959036589        697951721.49680507     
  -5085256025.1988192       -33259373.752451897        689510278.12602031     
  -6108499410.2817106       -35704108.214767456        538630729.52455151     
  -5960617673.4388399       -37658555.353270531        532305822.22054088     
  -5811615157.7864752       -35877073.126791954        528341191.21278650     
  -5661491863.3246174       -30359661.535334826        526736836.50128722     
  -5510247790.0532665       -21106320.578893185        527492758.08604383     
  -6555312257.6504173       -49803453.120053291        356967707.13103217     
  -6391101323.4761839       -21068956.256282806        352215593.41962290     
  -6230355031.6950321       -3883267.3694491386        350582060.43556005     
  -6073073382.3069639        1753613.5404396057        352067108.17884094     
  -5919256375.3119774       -4158313.5266118050        356670736.64946890     
  -6994808261.7786865       -61707745.053211212        187898815.61960483     
  -6812101546.1842651       -1634328.9605112076        179369837.43112737     
  -6637444894.1855049        31605541.813316345        174717744.40108243     
  -6470838305.7824020        38011867.268290043        173942536.52947164     
  -6312281780.9749613        17584647.404383183        177044213.81629264     
  -7426987422.6665268       -71416984.014240265        31424054.990271080     
  -7223618341.5630922        20645326.534029484        13768554.255051050     
  -7032884745.2578917        70589354.421517849        748243.10935032042     
  -6854786633.7509327        78415099.648199558       -7636878.4468261050     
  -6689324007.0422049        44122562.214110374       -11386810.413482029     
  -5085256025.1988192       -33259373.752451897        689510278.12602031     
  -4933543585.1319981       -5351637.4466173649        673220268.03382409     
  -4785838397.4925261        9198590.7680652142        665004260.95088840     
  -4642140462.2803936        10391310.891611814        664862256.87722063     
  -4502449779.4956074       -1773477.0759973526        672794255.81281626     
  -5510247790.0532665       -21106320.578893185        527492758.08604383     
  -5345154294.0712404       -8061367.4861862659        512453304.82757711     
  -5181421059.1032782        449382.22630262375        503062841.54380339     
  -5019048085.1493883        4425928.5585644245        499321368.23472357     
  -4858035372.2095585        3868271.5106091499        501228884.90033400     
  -5919256375.3119774       -4158313.5266118050        356670736.64946890     
  -5747710432.0849476       -8054726.2480893135        345969996.87355512     
  -5574877758.4587107       -7662037.6388635635        338493234.03776538     
  -5400758354.4332600       -2980247.6989374161        334240448.14209610     
  -5225352220.0086021        5990643.5716900826        333211639.18654603     
  -6312281780.9749613        17584647.404383183        177044213.81629264     
  -6141211999.1731310       -5331713.7323393822        173770344.17176145     
  -5966208495.5588179       -15135668.827440262        171295438.43277380     
  -5787271270.1320152       -11827217.880911589        169619496.59933800     
  -5604400322.8927221        4593639.1072416306        168742518.67145607     
  -6689324007.0422049        44122562.214110374       -11386810.413482029     
  -6525658995.3357849        107670.06107759476       -4145653.2778143794     
  -6355413270.4035997       -21971511.339406490        1469454.7288329965     
  -6178586832.2456493       -22114981.987339973        5458513.6064539328     
  -5995179680.8619328       -322741.88272380829        7821523.3550573178     
  -4502449779.4956074       -1773477.0759973526        672794255.81281626     
  -4366903052.7902384       -19217061.714276314        670643097.00621998     
  -4230009915.3147936       -32172610.452301741        671613183.68574119     
  -4091770367.0692739       -40640123.290070295        675704515.85138500     
  -3952184408.0536704       -44619600.227569580        682917093.50315011     
  -4858035372.2095585        3868271.5106091499        501228884.90033400     
  -4710165829.3645191       -2358654.3245391846        496210779.64037472     
  -4562074256.9946947       -7845481.7437589169        494962058.50870806     
  -4413760655.1001005       -12592210.747063875        497482721.50533038     
  -4265225023.6807246       -16598841.334437132        503772768.63025063     
  -5225352220.0086021        5990643.5716900826        333211639.18654603     
  -5063308036.3319597        11535923.947254181        324014809.35370898     
  -4902166204.3758507        14073365.254396915        319235502.29133230     
  -4741926724.1402569        13602967.493144035        318873717.99941778     
  -4582589595.6251879        10124730.663470984        322929456.47796887     
  -5604400322.8927221        4593639.1072416306        168742518.67145607     
  -5426329673.6925755        22466673.101096392        154055186.14621806     
  -5250285757.4582539        33583930.542189121        144433515.03361627     
  -5076268574.1897516        37945411.430549860        139877505.33365017     
  -4904278123.8870764        35551115.766159058        140387157.04631332     
  -5995179680.8619328       -322741.88272380829        7821523.3550573178     
  -5799230741.4463606        30433593.136981249       -13668089.982091023     
  -5606432916.2419071        50686214.119609356       -29443903.264437649     
  -5416786205.2485781        60435121.065156937       -39505916.491981842     
  -5230290608.4663811        59680313.973609209       -43854129.664718710     
  -3952184408.0536704       -44619600.227569580        682917093.50315011     
  -3811582880.0507741       -47031528.063879490        679888384.92902398     
  -3671495095.7377324       -51155934.866373062        681226960.80306244     
  -3531921055.1145458       -56992820.635055304        686932821.12525952     
  -3392860758.1812162       -64542185.369920373        697005965.89561784     
  -4265225023.6807246       -16598841.334437132        503772768.63025063     
  -4113516870.3466635       -18965929.206518412        498965328.11760074     
  -3961577261.1697726       -20561497.602479219        498323813.41979027     
  -3809406196.1500282       -21385546.522281408        501848224.53680444     
  -3657003675.2874546       -21438075.965968132        509538561.46865422     
  -4582589595.6251879        10124730.663470984        322929456.47796887     
  -4420350127.3409138        7629889.6413390636        317212683.48161173     
  -4257134003.6811099        8390566.5376415253        315460477.66676033     
  -4092941224.6457696        12406761.352407694        317672839.03341091     
  -3927771790.2348905        19678474.085618496        323849767.58155888     
  -4904278123.8870764        35551115.766159058        140387157.04631332     
  -4732082651.0335321        32755928.479676008        134630451.02106503     
  -4558165323.2717543        35700257.553965569        132636953.54398093     
  -4382526140.6017504        44384102.989020348        134406664.61507124     
  -4205165103.0235081        58807464.784856796        139939584.23433673     
  -5230290608.4663811        59680313.973609209       -43854129.664718710     
  -5048714441.4245033        56412187.308513403       -48781369.264061086     
  -4864671219.9417095        61367575.446476460       -50146758.948554911     
  -4678160944.0179729        74546478.387573481       -47950298.718207881     
  -4489183613.6533251        95948896.131722450       -42191988.573022559     
  -3392860758.1812162       -64542185.369920373        697005965.89561784     
  -3254410305.9437509       -74350206.381374598        693640518.47816300     
  -3116814705.3139000       -87007732.751543760        695339380.42591631     
  -2980073956.2916689       -102514764.48043811        702102551.73888552     
  -2844188058.8770509       -120871301.56805527        713930032.41706669     
  -3657003675.2874546       -21438075.965968132        509538561.46865422     
  -3504355621.3767815       -22857275.406816959        502095008.13024932     
  -3352888691.3825264       -28213554.569059372        498572495.58204108     
  -3202602885.3046842       -37506913.452689767        498971023.82402426     
  -3053498203.1432700       -50737352.057723284        503290592.85619903     
  -3927771790.2348905        19678474.085618496        323849767.58155888     
  -3764192616.2939172        25668151.722507715        311947457.29527515     
  -3602120838.5781631        26633175.275321960        302822919.22416222     
  -3441556457.0876250        22573544.744090796        296476153.36822760     
  -3282499471.8223171        13489260.128757000        292907159.72746152     
  -4205165103.0235081        58807464.784856796        139939584.23433673     
  -4033921290.6951489        71226075.006607771        123197865.97323193     
  -3864511146.9008141        77532456.781602383        108090651.35227983     
  -3696934671.6404963        77726610.109874010        94617940.371486306     
  -3531191864.9142065        71808534.991396427        82779733.030846789     
  -4489183613.6533251        95948896.131722450       -42191988.573022559     
  -4313541644.5804873        113816494.44547892       -64153765.835879885     
  -4140059616.3504801        124484289.94977832       -85624308.033600286     
  -3968737528.9632874        127952282.64471102       -106603615.16618219     
  -3799575382.4189339        124220472.53017068       -127091687.23364063     
  -2844188058.8770509       -120871301.56805527        713930032.41706669     
  -2676437226.8778334       -168783662.31070757        714046428.63760304     
  -2533621853.6207314       -299814218.86041617        729003623.65435362     
  -2415741939.1057425       -513962971.21716917        758801617.46731102     
  -2322797483.3328590       -811229919.38094401        803440410.07648277     
  -3053498203.1432700       -50737352.057723284        503290592.85619903     
  -2852346287.4527950       -53158493.710333467        473567157.13564229     
  -2653181296.0478544       -62202716.314724207        444198090.28367126     
  -2456003228.9284582       -77870019.870906711        415183392.30029434     
  -2260812086.0945807       -100160404.37886631        386523063.18550825     
  -3282499471.8223171        13489260.128757000        292907159.72746152     
  -3089336272.2337856        44142397.628245115        260117182.26514313     
  -2875211462.4742169        144667569.03120244        213195143.74380073     
  -2640125042.5436072        315064774.33761573        152141044.16342583     
  -2384077012.4419546        555334013.54751575        76954883.524016365     
  -3531191864.9142065        71808534.991396427        82779733.030846789     
  -3387407181.2208266        123119011.70499182        73696504.026112080     
  -3199712352.8998175        320796637.17735076        35994784.034734823     
  -2968107379.9511991        664841411.40840054       -30325426.943298511     
  -2692592262.3749542        1155253334.3982205       -125264128.90798528     
  -3799575382.4189339        124220472.53017068       -127091687.23364063     
  -3746559014.4138937        183771348.51996422       -85694877.581449226     
  -3626683967.3246608        466184488.12371182       -87402988.843527243     
  -3439950241.1512370        971459891.34145570       -132216021.01986700     
  -3186357835.8936000        1699597558.1732106       -220133974.11049411     
 </DataArray>
 <DataArray  type="Float64" Name="VM" NumberOfComponents="1" format="ascii">
   12936038793.400476     
   11341145019.248657     
   10210754000.165424     
   9273353941.0805817     
   8304426062.9904356     
   10130588322.241768     
   9322436292.4306145     
   8826971538.2885227     
   8444256695.2950401     
   8036453476.3201094     
   7982515461.4883881     
   7735309001.4252844     
   7669670868.1617250     
   7670250721.2677536     
   7667108507.0242863     
   6491730167.6099215     
   6587049669.5326862     
   6757684792.5524635     
   6961550511.2026997     
   7171985759.0531979     
   5657778883.3901730     
   5890829530.6474257     
   6116213612.0403700     
   6331488674.9168043     
   6536449729.2909603     
   8304426062.9904356     
   8022112533.1509609     
   7782098353.7642145     
   7573629834.6119375     
   7391738086.2145615     
   8036453476.3201094     
   7748128874.2445259     
   7475551353.4453573     
   7216753131.8259382     
   6971759786.1560040     
   7667108507.0242863     
   7382036312.7466841     
   7102373330.7499962     
   6828207716.0021505     
   6559756079.7019072     
   7171985759.0531979     
   6911287465.6966457     
   6658470105.6792068     
   6409676743.8815079     
   6161761963.4001846     
   6536449729.2909603     
   6328244065.5032692     
   6142180531.8109550     
   5964324452.5335369     
   5785663136.7122307     
   7391738086.2145615     
   7234002409.0886078     
   7068443900.3882847     
   6894341336.7522097     
   6711523043.8410826     
   6971759786.1560040     
   6818366193.5222492     
   6660182621.2349138     
   6496916957.1869125     
   6328526188.2229538     
   6559756079.7019072     
   6409690606.2151375     
   6257944399.7855644     
   6104484167.6476603     
   5949339564.1014729     
   6161761963.4001846     
   6012982739.9306231     
   5865585001.3518572     
   5719605400.3805723     
   5575098291.3495750     
   5785663136.7122307     
   5634722179.1574879     
   5488085270.7548685     
   5345659833.6899338     
   5207501883.5763760     
   6711523043.8410826     
   6525716781.7831106     
   6344456559.2332230     
   6167566324.7191839     
   5995033623.5500984     
   6328526188.2229538     
   6145922100.2231798     
   5966036936.6923141     
   5788826620.6108751     
   5614311248.0627594     
   5949339564.1014729     
   5774861866.2005939     
   5601815671.3747864     
   5430216765.5893135     
   5260107881.5910997     
   5575098291.3495750     
   5414376725.8663263     
   5254395255.4648972     
   5095198004.5343056     
   4936902472.9247932     
   5207501883.5763760     
   5066868361.9259024     
   4926971559.7228575     
   4787895094.5496264     
   4649949300.9276342     
   5995033623.5500984     
   5814555467.0740824     
   5632177982.8915033     
   5447684965.6146631     
   5260933047.8269434     
   5614311248.0627594     
   5444140800.8392096     
   5273095558.8656588     
   5101103875.1865501     
   4928152394.5831480     
   5260107881.5910997     
   5100057654.3779402     
   4940258642.1906366     
   4780753049.5553875     
   4621631497.9890795     
   4936902472.9247932     
   4786776939.1527205     
   4638076511.5952597     
   4490916371.5846071     
   4345455469.8419342     
   4649949300.9276342     
   4509498753.9725180     
   4371626848.6778717     
   4236469766.4559031     
   4104209410.5230923     
   5260933047.8269434     
   5077858578.4657059     
   4896413915.8411074     
   4716607374.0702410     
   4538507289.9653835     
   4928152394.5831480     
   4754267452.4187279     
   4581882908.8280830     
   4411033356.9184036     
   4241805774.7851777     
   4621631497.9890795     
   4458155662.5896397     
   4296222298.4639864     
   4135921910.0152636     
   3977399534.5013680     
   4345455469.8419342     
   4194074782.1617627     
   4044507520.4126267     
   3896937464.3231254     
   3751616317.1020384     
   4104209410.5230923     
   3967096683.5985460     
   3832347181.6135726     
   3700277081.5879664     
   3571293759.9404283     
   4538507289.9653835     
   4372973248.5262785     
   4206299671.8485742     
   4038459037.5202398     
   3869450319.4307423     
   4241805774.7851777     
   4075591695.4093227     
   3908341529.3851690     
   3739996694.1019540     
   3570518118.9176369     
   3977399534.5013680     
   3815541695.6118770     
   3653358037.3282528     
   3490874228.7610359     
   3328159710.2928343     
   3751616317.1020384     
   3599615111.5319753     
   3448736765.7022591     
   3299222410.5401115     
   3151412922.9680839     
   3571293759.9404283     
   3434844948.6766376     
   3301728007.2214208     
   3172489946.5617719     
   3047839094.4300594     
   3869450319.4307423     
   3844608876.9659910     
   3883785041.8450770     
   4021344167.2456393     
   4313051241.8259077     
   3570518118.9176369     
   3452974582.9561548     
   3372152647.8840065     
   3350784256.8383541     
   3426713129.2789702     
   3328159710.2928343     
   3144089808.7843952     
   2973226536.7547765     
   2823256482.5518684     
   2708125608.1393914     
   3151412922.9680839     
   2942766776.9248657     
   2733155854.8488770     
   2522676820.9610858     
   2311505958.1485028     
   3047839094.4300594     
   2875700294.5354319     
   2709954105.9984531     
   2566262813.9517207     
   2470973246.7613711     
   5657778883.3901730     
   5890829530.6474257     
   6116213612.0403700     
   6331488674.9168043     
   6536449729.2909603     
   5151308255.0834980     
   5311039090.7289658     
   5467370236.4789305     
   5617415795.1188707     
   5759720958.1560059     
   4643247094.6228714     
   4755094140.5297728     
   4868031870.5622702     
   4979428307.3970327     
   5087361877.5227461     
   4133862058.4913955     
   4223836350.4814768     
   4319701237.8414745     
   4419797957.3165741     
   4522670434.2199059     
   3624678432.1351109     
   3719097500.4287829     
   3824748533.3659329     
   3941564275.2844892     
   4069449028.8383517     
   6536449729.2909603     
   6328244065.5032692     
   6142180531.8109550     
   5964324452.5335369     
   5785663136.7122307     
   5759720958.1560059     
   5651092878.1193666     
   5558424668.6876717     
   5472645957.0091448     
   5388219269.6702175     
   5087361877.5227461     
   5052575913.4149599     
   5028274208.7455454     
   5009252674.0791645     
   4992315771.0826664     
   4522670434.2199059     
   4537317580.1426105     
   4556619774.3832502     
   4578104860.8930836     
   4600055196.4727564     
   4069449028.8383517     
   4110680589.9543409     
   4149250638.1581373     
   4184270549.7907243     
   4215015583.7243176     
   5785663136.7122307     
   5634722179.1574879     
   5488085270.7548685     
   5345659833.6899338     
   5207501883.5763760     
   5388219269.6702175     
   5246089720.6827831     
   5107205941.2749729     
   4971609498.4792747     
   4839396000.5584593     
   4992315771.0826664     
   4863594871.9511995     
   4738024284.1288843     
   4615571459.8535328     
   4496272660.5949812     
   4600055196.4727564     
   4489944933.9816952     
   4383972271.8146677     
   4281815733.3909783     
   4183381799.3641438     
   4215015583.7243176     
   4129149060.3046427     
   4049675182.4018340     
   3975734745.9367743     
   3907043059.1789989     
   5207501883.5763760     
   5066868361.9259024     
   4926971559.7228575     
   4787895094.5496264     
   4649949300.9276342     
   4839396000.5584593     
   4718618054.3146172     
   4599756191.5706425     
   4482981759.1212749     
   4368611596.1145372     
   4496272660.5949812     
   4392117215.3088522     
   4290812760.1464043     
   4192559710.0355840     
   4097638863.8820653     
   4183381799.3641438     
   4092292976.1995587     
   4004641413.1521945     
   3920615154.4322729     
   3840444674.5784469     
   3907043059.1789989     
   3825122627.6752748     
   3746772078.4855962     
   3672148915.7587080     
   3601453923.3433418     
   4649949300.9276342     
   4509498753.9725180     
   4371626848.6778717     
   4236469766.4559031     
   4104209410.5230923     
   4368611596.1145372     
   4238931237.9167352     
   4111963941.2903857     
   3987909491.1490693     
   3867022436.7722607     
   4097638863.8820653     
   3980304675.0696292     
   3866087058.9593091     
   3755229872.8650694     
   3648049947.9651847     
   3840444674.5784469     
   3737124288.3361011     
   3637614469.8997908     
   3542176230.5513263     
   3451171304.1334033     
   3601453923.3433418     
   3513807994.4284286     
   3430970869.6904526     
   3353180781.0334144     
   3280813984.4936347     
   4104209410.5230923     
   3967096683.5985460     
   3832347181.6135726     
   3700277081.5879664     
   3571293759.9404283     
   3867022436.7722607     
   3743050880.7070746     
   3622250122.9527550     
   3504963433.2965875     
   3391620401.8482356     
   3648049947.9651847     
   3536956980.1045732     
   3429851776.9586082     
   3327092404.7971711     
   3229115933.5344796     
   3451171304.1334033     
   3352452070.5302529     
   3258522127.4125237     
   3169738918.5544777     
   3086529559.0447021     
   3280813984.4936347     
   3193642404.1754766     
   3112016068.5325193     
   3036275284.7575893     
   2966819943.4952121     
   3571293759.9404283     
   3434844948.6766376     
   3301728007.2214208     
   3172489946.5617719     
   3047839094.4300594     
   3391620401.8482356     
   3270560412.0392323     
   3153505175.2526469     
   3040941844.6287704     
   2933477047.9289384     
   3229115933.5344796     
   3121783472.1580391     
   3019018214.1303802     
   2921248948.8008938     
   2828991400.4358506     
   3086529559.0447021     
   2990974896.2677655     
   2900428978.1984463     
   2815277263.4534554     
   2735971948.4858985     
   2966819943.4952121     
   2880812392.4019046     
   2800133702.9698515     
   2725156841.8744702     
   2656316001.8392606     
   3047839094.4300594     
   2875700294.5354319     
   2709954105.9984531     
   2566262813.9517207     
   2470973246.7613711     
   2933477047.9289384     
   2815034561.5665836     
   2705803555.0045319     
   2610955220.0452609     
   2537885218.5832815     
   2828991400.4358506     
   2743795618.3595839     
   2671692338.8143287     
   2614285144.7364125     
   2573405926.2681050     
   2735971948.4858985     
   2658462962.0147233     
   2600767350.4421730     
   2568674652.4134941     
   2570825007.2992024     
   2656316001.8392606     
   2557046471.8615746     
   2490411717.4613233     
   2476302836.3734403     
   2542924199.1287684     
   3624678432.1351109     
   3719097500.4287829     
   3824748533.3659329     
   3941564275.2844892     
   4069449028.8383517     
   3137667473.6357317     
   3254947998.1640444     
   3381643209.3019519     
   3517284576.0472732     
   3661414672.0358248     
   2694490689.8310370     
   2830058313.6838975     
   2972952745.6649680     
   3122095343.1726294     
   3276577651.0538311     
   2298648967.8564787     
   2449228127.2105536     
   2604560270.6213012     
   2762729221.1418681     
   2922309599.0430942     
   1955367495.4250624     
   2119416752.3104393     
   2284866346.6629815     
   2448766329.3774247     
   2609165814.2460537     
   4069449028.8383517     
   4110680589.9543409     
   4149250638.1581373     
   4184270549.7907243     
   4215015583.7243176     
   3661414672.0358248     
   3700626820.8201036     
   3738451616.3129439     
   3773995745.6001067     
   3806513824.1397004     
   3276577651.0538311     
   3319689079.2375207     
   3363045482.7679224     
   3405826237.5066295     
   3447354980.9913840     
   2922309599.0430942     
   2975244219.1037807     
   3030417160.7338490     
   3087146311.4433646     
   3144899364.6374583     
   2609165814.2460537     
   2677310009.3836069     
   2749991107.9501162     
   2826699285.7041898     
   2907082113.3371401     
   4215015583.7243176     
   4129149060.3046427     
   4049675182.4018340     
   3975734745.9367743     
   3907043059.1789989     
   3806513824.1397004     
   3752504261.2482128     
   3704527711.0834727     
   3662116616.2364631     
   3625193440.6195097     
   3447354980.9913840     
   3420773664.6479311     
   3399503445.7570276     
   3383329831.9367433     
   3372256260.7285376     
   3144899364.6374583     
   3141501073.6777849     
   3142107598.2391968     
   3146636891.7747550     
   3155091750.1786323     
   2907082113.3371401     
   2922826526.7052803     
   2940490892.5564590     
   2960041492.6533980     
   2981456541.4510694     
   3907043059.1789989     
   3825122627.6752748     
   3746772078.4855962     
   3672148915.7587080     
   3601453923.3433418     
   3625193440.6195097     
   3551842219.5672112     
   3482729968.4227848     
   3418049254.5468049     
   3358024947.2014017     
   3372256260.7285376     
   3310608700.2849956     
   3254251157.4726114     
   3203403909.5828357     
   3158330598.6793137     
   3155091750.1786323     
   3108134198.9261208     
   3067901766.7586946     
   3034621976.6756749     
   3008599694.2325115     
   2981456541.4510694     
   2951618854.3700719     
   2930287925.7053132     
   2917659073.3784051     
   2914062228.5007443     
   3601453923.3433418     
   3513807994.4284286     
   3430970869.6904526     
   3353180781.0334144     
   3280813984.4936347     
   3358024947.2014017     
   3288682252.3282151     
   3224837177.5240817     
   3166791745.5336375     
   3114940738.9025006     
   3158330598.6793137     
   3106201273.4229212     
   3060049899.0832305     
   3020171600.3653469     
   2986910585.4145761     
   3008599694.2325115     
   2972228026.3719907     
   2942000644.6625781     
   2918143073.7978220     
   2900897511.5000653     
   2914062228.5007443     
   2891511019.7606049     
   2874881660.5820317     
   2864288414.5551567     
   2859848532.3730640     
   3280813984.4936347     
   3193642404.1754766     
   3112016068.5325193     
   3036275284.7575893     
   2966819943.4952121     
   3114940738.9025006     
   3040422681.5832982     
   2971916279.6849694     
   2909753966.2834501     
   2854313630.1241503     
   2986910585.4145761     
   2925667133.4250860     
   2870942921.8074923     
   2823050213.3897986     
   2782332886.0044055     
   2900897511.5000653     
   2853250699.3003392     
   2812625667.2761855     
   2779299843.8427277     
   2753570852.2001872     
   2859848532.3730640     
   2825658583.7087021     
   2798947606.8325601     
   2779947513.6997533     
   2768903944.4251184     
   2966819943.4952121     
   2880812392.4019046     
   2800133702.9698515     
   2725156841.8744702     
   2656316001.8392606     
   2854313630.1241503     
   2779073947.4442701     
   2710385016.4203053     
   2648627530.0697455     
   2594225716.8182979     
   2782332886.0044055     
   2721095236.4558053     
   2668003536.3061247     
   2623465524.0585556     
   2587923319.1497092     
   2753570852.2001872     
   2708794531.5269666     
   2674024850.9921665     
   2649693414.9300480     
   2636262752.9696054     
   2768903944.4251184     
   2741952756.5201468     
   2727039629.0544300     
   2724609230.9891481     
   2735139613.1727057     
   2656316001.8392606     
   2557046471.8615746     
   2490411717.4613233     
   2476302836.3734403     
   2542924199.1287684     
   2594225716.8182979     
   2458438763.5833783     
   2337313513.2153811     
   2237714803.4270120     
   2170748722.0508232     
   2587923319.1497092     
   2442774580.7215352     
   2303025932.8477020     
   2168895775.3665676     
   2040713732.7659507     
   2636262752.9696054     
   2515158855.1282215     
   2401469864.0952358     
   2299708992.6561432     
   2217032438.1969795     
   2735139613.1727057     
   2673780874.8412790     
   2631608931.4243045     
   2624688291.0280623     
   2675693724.0515461     
   1955367495.4250624     
   2119416752.3104393     
   2284866346.6629815     
   2448766329.3774247     
   2609165814.2460537     
   1654152031.2436690     
   1820671417.7964137     
   1988908833.2533381     
   2156177284.1554446     
   2320725522.9025574     
   1394325715.9756589     
   1571794493.1942089     
   1750267137.5886068     
   1927747719.2124577     
   2102991176.9731033     
   1208128585.5320909     
   1400141953.5141299     
   1591715713.1302731     
   1782076687.3519969     
   1970768561.2180481     
   1138059932.9288390     
   1336441051.7252922     
   1535094276.6425953     
   1734019607.6807482     
   1933217044.8397501     
   2609165814.2460537     
   2677310009.3836069     
   2749991107.9501162     
   2826699285.7041898     
   2907082113.3371401     
   2320725522.9025574     
   2408049384.0526562     
   2497849122.8106236     
   2589734231.3005209     
   2683429421.8180628     
   2102991176.9731033     
   2207066445.7827730     
   2311091521.4284930     
   2414829655.2754879     
   2518114013.7593641     
   1970768561.2180481     
   2088262961.3974302     
   2202952021.5827107     
   2314760533.9651880     
   2423636317.3586211     
   1933217044.8397501     
   2060191015.1000934     
   2181796785.5685859     
   2298034356.2452288     
   2408903727.1300201     
   2907082113.3371401     
   2922826526.7052803     
   2940490892.5564590     
   2960041492.6533980     
   2981456541.4510694     
   2683429421.8180628     
   2705944705.6589308     
   2731130214.4109750     
   2758978470.6115866     
   2789489067.4856291     
   2518114013.7593641     
   2546938208.5531416     
   2579183399.7763000     
   2614853284.4736505     
   2653954558.4127064     
   2423636317.3586211     
   2457047842.4521122     
   2494617991.4013095     
   2536349748.5484185     
   2582246735.9313936     
   2408903727.1300201     
   2443906748.0057392     
   2483791483.8517590     
   2528557934.6680751     
   2578206100.4546876     
   2981456541.4510694     
   2951618854.3700719     
   2930287925.7053132     
   2917659073.3784051     
   2914062228.5007443     
   2789489067.4856291     
   2775599671.2310786     
   2769491562.4716101     
   2771275533.1119227     
   2781134283.3691106     
   2653954558.4127064     
   2651719111.6867342     
   2656161533.9968228     
   2667325919.0212827     
   2685286337.6851711     
   2582246735.9313936     
   2587220771.2121553     
   2597412984.4792547     
   2612831926.9995837     
   2633493147.8698864     
   2578206100.4546876     
   2586295232.6939335     
   2597851961.3689504     
   2612876286.4797344     
   2631368208.0262885     
   2914062228.5007443     
   2891511019.7606049     
   2874881660.5820317     
   2864288414.5551567     
   2859848532.3730640     
   2781134283.3691106     
   2762394282.1866422     
   2750331179.5830317     
   2745031457.3937359     
   2746583417.7519441     
   2685286337.6851711     
   2668772890.1979442     
   2659752913.3489203     
   2658275673.0130920     
   2664391383.3134098     
   2633493147.8698864     
   2616861572.9674625     
   2608578064.8124995     
   2608657631.7475448     
   2617115618.2221665     
   2631368208.0262885     
   2611619750.4298625     
   2601074266.6319337     
   2599731756.6324992     
   2607592220.4315653     
   2859848532.3730640     
   2825658583.7087021     
   2798947606.8325601     
   2779947513.6997533     
   2768903944.4251184     
   2746583417.7519441     
   2721327176.7759299     
   2704234194.8945932     
   2695457414.8776217     
   2695155457.1619706     
   2664391383.3134098     
   2645907249.4053369     
   2636217299.6545124     
   2635399155.8681698     
   2643531932.4325967     
   2617115618.2221665     
   2602502272.9455600     
   2597275306.1445646     
   2601456281.8555703     
   2615066926.6363015     
   2607592220.4315653     
   2593329032.2091589     
   2589020305.2875638     
   2594666039.6667848     
   2610266235.3468170     
   2768903944.4251184     
   2741952756.5201468     
   2727039629.0544300     
   2724609230.9891481     
   2735139613.1727057     
   2695155457.1619706     
   2679838214.6578360     
   2674476659.3922381     
   2679290451.2413063     
   2694515864.4507408     
   2643531932.4325967     
   2635541278.3296905     
   2635363295.0336881     
   2643082605.1312165     
   2658791082.8141899     
   2615066926.6363015     
   2610619259.1935806     
   2611800761.4534492     
   2618629681.6012969     
   2631126165.2673984     
   2610266235.3468170     
   2606323764.1421762     
   2605801155.2809629     
   2608698408.7631760     
   2615015524.5888124     
   2735139613.1727057     
   2673780874.8412790     
   2631608931.4243045     
   2624688291.0280623     
   2675693724.0515461     
   2694515864.4507408     
   2680085678.2854080     
   2682239059.4852619     
   2709470498.4099259     
   2773532889.1792960     
   2658791082.8141899     
   2677608354.5616531     
   2711237075.3776956     
   2763292039.0702047     
   2838705304.4630399     
   2631126165.2673984     
   2667762563.0805445     
   2718460022.3233294     
   2784103111.5697789     
   2865888935.7443762     
   2615015524.5888124     
   2652602133.5948277     
   2704777448.7633471     
   2771541470.0943670     
   2852894197.5878882     
   1138059932.9288390     
   1336441051.7252922     
   1535094276.6425953     
   1734019607.6807482     
   1933217044.8397501     
   1208128585.5425801     
   1400141953.5241196     
   1591715713.1398215     
   1782076687.3611236     
   1970768561.2267356     
   1394325715.9935408     
   1571794493.2118461     
   1750267137.6059093     
   1927747719.2293336     
   2102991176.9894409     
   1654152031.2655070     
   1820671417.8187401     
   1988908833.2758636     
   2156177284.1779189     
   2320725522.9247293     
   1955367495.4483910     
   2119416752.3350806     
   2284866346.6884947     
   2448766329.4034262     
   2609165814.2721720     
   1933217044.8397501     
   2060191015.1000934     
   2181796785.5685859     
   2298034356.2452288     
   2408903727.1300201     
   1970768561.2267356     
   2088262961.4037189     
   2202952021.5862870     
   2314760533.9657068     
   2423636317.3557296     
   2102991176.9894409     
   2207066445.7953682     
   2311091521.4367075     
   2414829655.2786422     
   2518114013.7567682     
   2320725522.9247293     
   2408049384.0710354     
   2497849122.8242631     
   2589734231.3084288     
   2683429421.8192325     
   2609165814.2721720     
   2677310009.4070673     
   2749991107.9697328     
   2826699285.7187271     
   2907082113.3453183     
   2408903727.1300201     
   2443906748.0057392     
   2483791483.8517590     
   2528557934.6680751     
   2578206100.4546876     
   2423636317.3557296     
   2457047842.4424305     
   2494617991.3838038     
   2536349748.5220523     
   2582246735.8951392     
   2518114013.7567682     
   2546938208.5379996     
   2579183399.7464848     
   2614853284.4270105     
   2653954558.3470802     
   2683429421.8192325     
   2705944705.6438723     
   2731130214.3764696     
   2758978470.5543256     
   2789489067.4022465     
   2907082113.3453183     
   2922826526.6961493     
   2940490892.5257797     
   2960041492.5967698     
   2981456541.3639693     
   2578206100.4546876     
   2586295232.6939335     
   2597851961.3689504     
   2612876286.4797344     
   2631368208.0262885     
   2582246735.8951392     
   2587220771.1571460     
   2597412984.4039240     
   2612831926.9024816     
   2633493147.7497301     
   2653954558.3470802     
   2651719111.5878882     
   2656161533.8617935     
   2667325918.8473063     
   2685286337.4697018     
   2789489067.4022465     
   2775599671.1057544     
   2769491562.3000660     
   2771275532.8900504     
   2781134283.0929728     
   2981456541.3639693     
   2951618854.2386227     
   2930287925.5239940     
   2917659073.1417294     
   2914062228.2031927     
   2631368208.0262885     
   2611619750.4298625     
   2601074266.6319337     
   2599731756.6324992     
   2607592220.4315653     
   2633493147.7497301     
   2616861572.8278923     
   2608578064.6528683     
   2608657631.5672870     
   2617115618.0207729     
   2685286337.4697018     
   2668772889.9434953     
   2659752913.0536761     
   2658275672.6753626     
   2664391382.9316020     
   2781134283.0929728     
   2762394281.8539133     
   2750331179.1901021     
   2745031456.9371085     
   2746583417.2282166     
   2914062228.2031927     
   2891511019.3926249     
   2874881660.1376395     
   2864288414.0284014     
   2859848531.7580190     
   2607592220.4315653     
   2593329032.2091589     
   2589020305.2875638     
   2594666039.6667848     
   2610266235.3468170     
   2617115618.0207729     
   2602502272.7382984     
   2597275305.9311514     
   2601456281.6355743     
   2615066926.4090223     
   2664391382.9316020     
   2645907249.0071263     
   2636217299.2387276     
   2635399155.4334116     
   2643531931.9770732     
   2746583417.2282166     
   2721327176.2219214     
   2704234194.3074522     
   2695457414.2542472     
   2695155456.4988203     
   2859848531.7580190     
   2825658583.0481071     
   2798947606.1210270     
   2779947512.9316287     
   2768903943.5942898     
   2610266235.3468170     
   2606323764.1421762     
   2605801155.2809629     
   2608698408.7631760     
   2615015524.5888124     
   2615066926.4090223     
   2610619259.0099111     
   2611800761.3113108     
   2618629681.4970713     
   2631126165.1956511     
   2643531931.9770732     
   2635541277.9475398     
   2635363294.7214060     
   2643082604.8828201     
   2658791082.6207662     
   2695155456.4988203     
   2679838214.0830464     
   2674476658.9013848     
   2679290450.8271461     
   2694515864.1027017     
   2768903943.5942898     
   2741952755.7776341     
   2727039628.3949995     
   2724609230.4050303     
   2735139612.6530080     
   2615015524.5888124     
   2652602133.5948277     
   2704777448.7633471     
   2771541470.0943670     
   2852894197.5878882     
   2631126165.1956511     
   2667762563.3687315     
   2718460022.9369750     
   2784103112.4297905     
   2865888936.7139773     
   2658791082.6207662     
   2677608354.9466887     
   2711237076.3004837     
   2763292040.4295936     
   2838705306.0806985     
   2694515864.1027017     
   2680085678.5850844     
   2682239060.4136653     
   2709470499.9013352     
   2773532891.1094522     
   2735139612.6530080     
   2673780874.8889956     
   2631608932.0684981     
   2624688292.3025789     
   2675693725.9983149     
   1955367495.4483910     
   2119416752.3350806     
   2284866346.6884947     
   2448766329.4034262     
   2609165814.2721720     
   2298648967.8793378     
   2449228127.2356439     
   2604560270.6482906     
   2762729221.1704497     
   2922309599.0729713     
   2694490689.8517237     
   2830058313.7074690     
   2972952745.6912670     
   3122095343.2015023     
   3276577651.0851254     
   3137667473.6529346     
   3254947998.1845055     
   3381643209.3257184     
   3517284576.0743928     
   3661414672.0663476     
   3624678432.1477547     
   3719097500.4448009     
   3824748533.3855748     
   3941564275.3080311     
   4069449028.8660932     
   2609165814.2721720     
   2677310009.4070673     
   2749991107.9697328     
   2826699285.7187271     
   2907082113.3453183     
   2922309599.0729713     
   2975244219.1336455     
   3030417160.7628150     
   3087146311.4704900     
   3144899364.6617589     
   3276577651.0851254     
   3319689079.2712317     
   3363045482.8034735     
   3405826237.5434055     
   3447354981.0287385     
   3661414672.0663476     
   3700626820.8550744     
   3738451616.3520751     
   3773995745.6430826     
   3806513824.1861901     
   4069449028.8660932     
   4110680589.9881001     
   4149250638.1978626     
   4184270549.8363461     
   4215015583.7757525     
   2907082113.3453183     
   2922826526.6961493     
   2940490892.5257797     
   2960041492.5967698     
   2981456541.3639693     
   3144899364.6617589     
   3141501073.6898346     
   3142107598.2353821     
   3146636891.7512712     
   3155091750.1315141     
   3447354981.0287385     
   3420773664.6801472     
   3399503445.7813559     
   3383329831.9501829     
   3372256260.7278028     
   3806513824.1861901     
   3752504261.2976656     
   3704527711.1341662     
   3662116616.2864027     
   3625193440.6662750     
   4215015583.7757525     
   4129149060.3673439     
   4049675182.4751840     
   3975734746.0199165     
   3907043059.2705669     
   2981456541.3639693     
   2951618854.2386227     
   2930287925.5239940     
   2917659073.1417294     
   2914062228.2031927     
   3155091750.1315141     
   3108134198.8452430     
   3067901766.6365504     
   3034621976.5044703     
   3008599694.0041442     
   3372256260.7278028     
   3310608700.2645764     
   3254251157.4234319     
   3203403909.4952936     
   3158330598.5432162     
   3625193440.6662750     
   3551842219.6119571     
   3482729968.4552941     
   3418049254.5561976     
   3358024947.1760154     
   3907043059.2705669     
   3825122627.7860169     
   3746772078.6045022     
   3672148915.8740559     
   3601453923.4425378     
   2914062228.2031927     
   2891511019.3926249     
   2874881660.1376395     
   2864288414.0284014     
   2859848531.7580190     
   3008599694.0041442     
   2972228026.0675635     
   2942000644.2795229     
   2918143073.3338046     
   2900897510.9529529     
   3158330598.5432162     
   3106201273.2044792     
   3060049898.7823720     
   3020171599.9823980     
   2986910584.9502850     
   3358024947.1760154     
   3288682252.2123003     
   3224837177.3192334     
   3166791745.2419543     
   3114940738.5266805     
   3601453923.4425378     
   3513807994.4258809     
   3430970869.5887604     
   3353180780.8356724     
   3280813984.2036643     
   2859848531.7580190     
   2825658583.0481071     
   2798947606.1210270     
   2779947512.9316287     
   2768903943.5942898     
   2900897510.9529529     
   2853250698.7234697     
   2812625666.6674652     
   2779299843.2000546     
   2753570851.5213084     
   2986910584.9502850     
   2925667132.9439125     
   2870942921.3103108     
   2823050212.8777766     
   2782332885.4788957     
   3114940738.5266805     
   3040422681.1995945     
   2971916279.2968249     
   2909753965.8949089     
   2854313629.7398348     
   3280813984.2036643     
   3193642403.8819838     
   3112016068.2410407     
   3036275284.4745727     
   2966819943.2280636     
   2768903943.5942898     
   2741952755.7776341     
   2727039628.3949995     
   2724609230.4050303     
   2735139612.6530080     
   2753570851.5213084     
   2708794530.9763594     
   2674024850.5680618     
   2649693414.6297011     
   2636262752.7888885     
   2782332885.4788957     
   2721095236.0796652     
   2668003536.0787787     
   2623465523.9795275     
   2587923319.2184176     
   2854313629.7398348     
   2779073947.2139783     
   2710385016.3419094     
   2648627530.1414781     
   2594225717.0385327     
   2966819943.2280636     
   2880812392.2802515     
   2800133702.9872451     
   2725156842.0240889     
   2656316002.1134562     
   2735139612.6530080     
   2673780874.8889956     
   2631608932.0684981     
   2624688292.3025789     
   2675693725.9983149     
   2636262752.7888885     
   2515158855.4275064     
   2401469864.9045248     
   2299708994.0136447     
   2217032440.1540380     
   2587923319.2184176     
   2442774581.1841006     
   2303025933.7187915     
   2168895776.6613922     
   2040713734.4987373     
   2594225717.0385327     
   2458438764.1211033     
   2337313514.0532675     
   2237714804.5279307     
   2170748723.3437848     
   2656316002.1134562     
   2557046472.4019675     
   2490411718.2122831     
   2476302837.2434421     
   2542924199.9884410     
   3624678432.1477547     
   3719097500.4448009     
   3824748533.3855748     
   3941564275.3080311     
   4069449028.8660932     
   4133862058.4988580     
   4223836350.4921122     
   4319701237.8554840     
   4419797957.3342619     
   4522670434.2416620     
   4643247094.6249266     
   4755094140.5344267     
   4868031870.5696068     
   4979428307.4072809     
   5087361877.5362577     
   5151308255.0799294     
   5311039090.7271090     
   5467370236.4787130     
   5617415795.1203861     
   5759720958.1594553     
   5657778883.3807087     
   5890829530.6385345     
   6116213612.0317993     
   6331488674.9084759     
   6536449729.2828627     
   4069449028.8660932     
   4110680589.9881001     
   4149250638.1978626     
   4184270549.8363461     
   4215015583.7757525     
   4522670434.2416620     
   4537317580.1707354     
   4556619774.4181337     
   4578104860.9350300     
   4600055196.5219879     
   5087361877.5362577     
   5052575913.4338255     
   5028274208.7705336     
   5009252674.1109371     
   4992315771.1218109     
   5759720958.1594553     
   5651092878.1258745     
   5558424668.6982574     
   5472645957.0247421     
   5388219269.6917210     
   6536449729.2828627     
   6328244065.4947395     
   6142180531.8031111     
   5964324452.5274210     
   5785663136.7088976     
   4215015583.7757525     
   4129149060.3673439     
   4049675182.4751840     
   3975734746.0199165     
   3907043059.2705669     
   4600055196.5219879     
   4489944934.0486631     
   4383972271.9000378     
   4281815733.4953499     
   4183381799.4879584     
   4992315771.1218109     
   4863594872.0097857     
   4738024284.2083712     
   4615571459.9554234     
   4496272660.7208309     
   5388219269.6917210     
   5246089720.7207460     
   5107205941.3312626     
   4971609498.5558338     
   4839396000.6573896     
   5785663136.7088976     
   5634722179.1631098     
   5488085270.7714100     
   5345659833.7194881     
   5207501883.6212215     
   3907043059.2705669     
   3825122627.7860169     
   3746772078.6045022     
   3672148915.8740559     
   3601453923.4425378     
   4183381799.4879584     
   4092292976.3660550     
   4004641413.3567610     
   3920615154.6698256     
   3840444674.8433294     
   4496272660.7208309     
   4392117215.4854345     
   4290812760.3741622     
   4192559710.3148694     
   4097638864.2132158     
   4839396000.6573896     
   4718618054.4554977     
   4599756191.7576046     
   4482981759.3588028     
   4368611596.4077597     
   5207501883.6212215     
   5066868361.9865580     
   4926971559.8057880     
   4787895094.6620140     
   4649949301.0779572     
   3601453923.4425378     
   3513807994.4258809     
   3430970869.5887604     
   3353180780.8356724     
   3280813984.2036643     
   3840444674.8433294     
   3737124288.5160470     
   3637614469.9949450     
   3542176230.5624614     
   3451171304.0620685     
   4097638864.2132158     
   3980304675.3322611     
   3866087059.1517749     
   3755229872.9864273     
   3648049948.0152812     
   4368611596.4077597     
   4238931238.1588211     
   4111963941.4784622     
   3987909491.2810078     
   3867022436.8466644     
   4649949301.0779572     
   4509498754.0912113     
   4371626848.7613945     
   4236469766.5014400     
   4104209410.5284629     
   3280813984.2036643     
   3193642403.8819838     
   3112016068.2410407     
   3036275284.4745727     
   2966819943.2280636     
   3451171304.0620685     
   3352452070.4680576     
   3258522127.3679209     
   3169738918.5373363     
   3086529559.0664501     
   3648049948.0152812     
   3536956980.1633620     
   3429851777.0367823     
   3327092404.9075170     
   3229115933.6921058     
   3867022436.8466644     
   3743050880.7768278     
   3622250123.0298743     
   3504963433.3958540     
   3391620401.9876676     
   4104209410.5284629     
   3967096683.5737009     
   3832347181.5707717     
   3700277081.5428658     
   3571293759.9127479     
   2966819943.2280636     
   2880812392.2802515     
   2800133702.9872451     
   2725156842.0240889     
   2656316002.1134562     
   3086529559.0664501     
   2990974896.4379420     
   2900428978.5198503     
   2815277263.9300036     
   2735971949.1224418     
   3229115933.6921058     
   3121783472.4443679     
   3019018214.5568256     
   2921248949.3821726     
   2828991401.1903882     
   3391620401.9876676     
   3270560412.2626333     
   3153505175.5786018     
   3040941845.0818524     
   2933477048.5409341     
   3571293759.9127479     
   3434844948.6620536     
   3301728007.2435999     
   3172489946.6531954     
   3047839094.6344056     
   2656316002.1134562     
   2557046472.4019675     
   2490411718.2122831     
   2476302837.2434421     
   2542924199.9884410     
   2735971949.1224418     
   2658462962.9422541     
   2600767351.6187215     
   2568674653.7508183     
   2570825008.6427641     
   2828991401.1903882     
   2743795619.3374424     
   2671692340.0270300     
   2614285146.1961255     
   2573405927.9814162     
   2933477048.5409341     
   2815034562.2264924     
   2705803555.7982616     
   2610955221.1577497     
   2537885220.3426433     
   3047839094.6344056     
   2875700294.4906678     
   2709954105.8748555     
   2566262814.1780534     
   2470973248.1687255     
   5657778883.3807087     
   5890829530.6385345     
   6116213612.0317993     
   6331488674.9084759     
   6536449729.2828627     
   6491730167.5966749     
   6587049669.5154238     
   6757684792.5315876     
   6961550511.1789293     
   7171985759.0274124     
   7982515461.4757404     
   7735309001.4044018     
   7669670868.1333885     
   7670250721.2330256     
   7667108506.9843531     
   10130588322.233955     
   9322436292.4107246     
   8826971538.2574635     
   8444256695.2539511     
   8036453476.2699995     
   12936038793.401669     
   11341145019.234091     
   10210754000.136009     
   9273353941.0375977     
   8304426062.9347210     
   6536449729.2828627     
   6328244065.4947395     
   6142180531.8031111     
   5964324452.5274210     
   5785663136.7088976     
   7171985759.0274124     
   6911287465.6671658     
   6658470105.6466112     
   6409676743.8463125     
   6161761963.3628597     
   7667108506.9843531     
   7382036312.7002258     
   7102373330.6972618     
   6828207715.9433346     
   6559756079.6371422     
   8036453476.2699995     
   7748128874.1854305     
   7475551353.3773699     
   7216753131.7490921     
   6971759786.0702820     
   8304426062.9347210     
   8022112533.0840521     
   7782098353.6861582     
   7573629834.5227308     
   7391738086.1141195     
   5785663136.7088976     
   5634722179.1631098     
   5488085270.7714100     
   5345659833.7194881     
   5207501883.6212215     
   6161761963.3628597     
   6012982739.8902063     
   5865585001.3093681     
   5719605400.3371553     
   5575098291.3065262     
   6559756079.6371422     
   6409690606.1358986     
   6257944399.6919727     
   6104484167.5399017     
   5949339563.9798670     
   6971759786.0702820     
   6818366193.4116268     
   6660182621.0986967     
   6496916957.0243826     
   6328526188.0334988     
   7391738086.1141195     
   7234002408.9539824     
   7068443900.2181196     
   6894341336.5450106     
   6711523043.5954523     
   5207501883.6212215     
   5066868361.9865580     
   4926971559.8057880     
   4787895094.6620140     
   4649949301.0779572     
   5575098291.3065262     
   5414376725.8037386     
   5254395255.3857851     
   5095198004.4419870     
   4936902472.8231049     
   5949339563.9798670     
   5774861866.0396891     
   5601815671.1756468     
   5430216765.3530531     
   5260107881.3189754     
   6328526188.0334988     
   6145922099.9904385     
   5966036936.4167080     
   5788826620.2927752     
   5614311247.7025118     
   6711523043.5954523     
   6525716781.5057354     
   6344456558.9250460     
   6167566324.3809290     
   5995033623.1823940     
   4649949301.0779572     
   4509498754.0912113     
   4371626848.7613945     
   4236469766.5014400     
   4104209410.5284629     
   4936902472.8231049     
   4786776939.0117359     
   4638076511.4118252     
   4490916371.3560839     
   4345455469.5661421     
   5260107881.3189754     
   5100057654.0658178     
   4940258641.8360586     
   4780753049.1561518     
   4621631497.5432253     
   5614311247.7025118     
   5444140800.4431763     
   5273095558.4324160     
   5101103874.7147446     
   4928152394.0714283     
   5995033623.1823940     
   5814555466.6777115     
   5632177982.4665270     
   5447684965.1610117     
   5260933047.3443642     
   4104209410.5284629     
   3967096683.5737009     
   3832347181.5707717     
   3700277081.5428658     
   3571293759.9127479     
   4345455469.5661421     
   4194074781.8005080     
   4044507519.9716468     
   3896937463.8103290     
   3751616316.5279942     
   4621631497.5432253     
   4458155662.0233974     
   4296222297.7787762     
   4135921909.2137513     
   3977399533.5876913     
   4928152394.0714283     
   4754267451.7707443     
   4581882908.0430632     
   4411033355.9962111     
   4241805773.7264132     
   5260933047.3443642     
   5077858577.8479433     
   4896413915.0868921     
   4716607373.1786747     
   4538507288.9359026     
   3571293759.9127479     
   3434844948.6620536     
   3301728007.2435999     
   3172489946.6531954     
   3047839094.6344056     
   3751616316.5279942     
   3599615110.8307095     
   3448736764.8831453     
   3299222409.6177821     
   3151412921.9645486     
   3977399533.5876913     
   3815541694.4519467     
   3653358035.9202909     
   3490874227.1049075     
   3328159708.3913140     
   4241805773.7264132     
   4075591694.0055885     
   3908341527.6282630     
   3739996691.9826946     
   3570518116.4263659     
   4538507288.9359026     
   4372973247.0690355     
   4206299669.9534173     
   4038459035.1746407     
   3869450316.6198387     
   3047839094.6344056     
   2875700294.4906678     
   2709954105.8748555     
   2566262814.1780534     
   2470973248.1687255     
   3151412921.9645486     
   2942766775.2933879     
   2733155852.5558853     
   2522676817.9828305     
   2311505954.4789696     
   3328159708.3913140     
   3144089806.2670999     
   2973226533.6074100     
   2823256478.7854109     
   2708125603.8221889     
   3570518116.4263659     
   3452974580.1179819     
   3372152644.8104620     
   3350784253.7979989     
   3426713126.7873044     
   3869450316.6198387     
   3844608874.1954517     
   3883785039.3767900     
   4021344165.6010222     
   4313051241.8858137     
 </DataArray>
 <DataArray  type="Float64" Name="strain" NumberOfComponents="3" format="ascii">
  0.20349318779611691        0.0000000000000000       0.12540670248594657     
  0.18666359002238975       -2.7333768658930047E-002   7.4346821790739842E-002
  0.16983399224866258       -4.4688167722917074E-002   3.5122546356384489E-002
  0.15300439447493541       -5.2063197191961119E-002   7.7338761828804996E-003
  0.13617479670120827       -4.9458857066062137E-002  -7.8191887297721224E-003
  0.15986343781968682        0.0000000000000000        9.6439858675290563E-002
  0.15318739609693652       -2.1850915990465382E-002   6.2678955491998395E-002
  0.14651135437418622       -3.6183195632040616E-002   3.7389559149808557E-002
  0.13983531265143595       -4.2996838924725680E-002   2.0571669648721126E-002
  0.13315927092868562       -4.2291845868520625E-002   1.2225286988736074E-002
  0.12646571159312917        0.0000000000000000        7.4186234156125658E-002
  0.12657912750160677       -1.6368063322000720E-002   5.5263575238695142E-002
  0.12669254341008435       -2.7678223541164136E-002   4.1448324742618024E-002
  0.12680595931856195       -3.3930480657490263E-002   3.2740482667894241E-002
  0.12691937522703955       -3.5124834670979078E-002   2.9140049014523921E-002
  0.10330000911644396        0.0000000000000000        5.8645828928451819E-002
  0.10683878423640045       -1.0885210653536054E-002   5.2100681030830154E-002
  0.11037755935635693       -1.9173251450287667E-002   4.7298843134812862E-002
  0.11391633447631341       -2.4864122390254834E-002   4.4240315240399973E-002
  0.11745510959626991       -2.7957823473437549E-002   4.2925097347591465E-002
   9.0366330389631211E-002   0.0000000000000000        4.9818642992269097E-002
   9.3966366301317605E-002  -5.4023579850713925E-003   5.3190272868403374E-002
   9.7566402213003972E-002  -1.0668279359411195E-002   5.4941114326393072E-002
  0.10116643812469037       -1.5797764123019403E-002   5.5071167366238176E-002
  0.10476647403637673       -2.0790812275896017E-002   5.3580431987938659E-002
  0.13617479670120827       -4.9458857066062137E-002  -7.8191887297721224E-003
  0.13298760722407904       -4.2918700684844553E-002  -3.3881094283900598E-003
  0.12980041774694981       -3.8486281387932739E-002  -3.8093336474408906E-004
  0.12661322826982058       -3.6161599175326686E-002   1.2023394611659563E-003
  0.12342603879269134       -3.5944654047026459E-002   1.3617090493398265E-003
  0.13315927092868562       -4.2291845868520625E-002   1.2225286988736074E-002
  0.12893735293964151       -3.8421970759483795E-002   1.2172866423049485E-002
  0.12471543495059731       -3.5740967893673585E-002   1.1474892071269130E-002
  0.12049351696155318       -3.4248837271090016E-002   1.0131363933394871E-002
  0.11627159897250897       -3.3945578891733150E-002   8.1422820094268489E-003
  0.12691937522703955       -3.5124834670979078E-002   2.9140049014523921E-002
  0.12244107817772265       -3.3925240834123002E-002   2.5522993422847903E-002
  0.11796278112840577       -3.2995654399414424E-002   2.2038733496720142E-002
  0.11348448407908888       -3.2336075366853345E-002   1.8687269236141005E-002
  0.10900618702977199       -3.1946503736439785E-002   1.5468600641110108E-002
  0.11745510959626991       -2.7957823473437549E-002   4.2925097347591465E-002
  0.11349878293832250       -2.9428510908762237E-002   3.6662271571005045E-002
  0.10954245628037514       -3.0250340905155281E-002   3.1310590911609343E-002
  0.10558612962242772       -3.0423313462616702E-002   2.6870055369404146E-002
  0.10162980296448036       -2.9947428581146449E-002   2.3340664944389560E-002
  0.10476647403637673       -2.0790812275896017E-002   5.3580431987938659E-002
  0.10211046722144107       -2.4931780983401458E-002   4.5590700867521081E-002
   9.9454460406505407E-002  -2.7505027410896131E-002   3.9290464315936344E-002
   9.6798453591569716E-002  -2.8510551558380018E-002   3.4679722333184365E-002
   9.4142446776634039E-002  -2.7948353425853140E-002   3.1758474919265242E-002
  0.12342603879269134       -3.5944654047026459E-002   1.3617090493398265E-003
  0.12049686566095794       -3.6462180484088752E-002   5.9663735091720904E-004
  0.11756769252922449       -3.6340912967570402E-002   3.2423867896841374E-005
  0.11463851939749103       -3.5580851497471366E-002  -3.3093139972088792E-004
  0.11170934626575763       -3.4181996073791687E-002  -4.9342845193611762E-004
  0.11627159897250897       -3.3945578891733150E-002   8.1422820094268489E-003
  0.11352685412683268       -3.4033268915360154E-002   7.7726929545238327E-003
  0.11078210928115638       -3.3713983501728259E-002   7.5711022563328609E-003
  0.10803736443548007       -3.2987722650837714E-002   7.5375099148533783E-003
  0.10529261958980374       -3.1854486362688200E-002   7.6719159300856765E-003
  0.10900618702977199       -3.1946503736439785E-002   1.5468600641110108E-002
  0.10641301061146208       -3.1604357346631459E-002   1.5262675713405071E-002
  0.10381983419315222       -3.1087054035886151E-002   1.5191889283721179E-002
  0.10122665777484233       -3.0394593804203895E-002   1.5256241352058237E-002
   9.8633481356532438E-002  -2.9526976651584658E-002   1.5455731918416454E-002
  0.10162980296448036       -2.9947428581146449E-002   2.3340664944389560E-002
   9.9155335114846199E-002  -2.9175445777902827E-002   2.3066585627560667E-002
   9.6680867265212037E-002  -2.8460124570044109E-002   2.2894784950062058E-002
   9.4206399415577874E-002  -2.7801464957570104E-002   2.2825262911893868E-002
   9.1731931565943725E-002  -2.7199466940481087E-002   2.2858019513056084E-002
   9.4142446776634039E-002  -2.7948353425853140E-002   3.1758474919265242E-002
   9.1753827636984961E-002  -2.6746534209174160E-002   3.1184422696990559E-002
   8.9365208497335813E-002  -2.5833195104201991E-002   3.0679789255355597E-002
   8.6976589357686734E-002  -2.5208336110936348E-002   3.0244574594360210E-002
   8.4587970218037600E-002  -2.4871957229377489E-002   2.9878778714004545E-002
  0.11170934626575763       -3.4181996073791687E-002  -4.9342845193611762E-004
  0.10876152161034996       -3.2630089479825292E-002  -1.7964497567438120E-004
  0.10581369695494225       -3.1410874498865676E-002   6.3676372024756844E-005
  0.10286587229953456       -3.0524351130913306E-002   2.3653559116133815E-004
   9.9918047644126873E-002  -2.9970519375967952E-002   3.3893268173518232E-004
  0.10529261958980374       -3.1854486362688200E-002   7.6719159300856765E-003
  0.10232687475478630       -3.0617198101701923E-002   7.5300482456867740E-003
   9.9361129919768809E-002  -2.9578781332300748E-002   7.4228023306308066E-003
   9.6395385084751303E-002  -2.8739236054484724E-002   7.3501781849179895E-003
   9.3429640249733881E-002  -2.8098562268253913E-002   7.3121758085481214E-003
   9.8633481356532438E-002  -2.9526976651584658E-002   1.5455731918416454E-002
   9.5754900239810800E-002  -2.8604306723578568E-002   1.4992033194778674E-002
   9.2876319123089107E-002  -2.7746688165735542E-002   1.4668040138389557E-002
   8.9997738006367442E-002  -2.6954120978056089E-002   1.4483752749248971E-002
   8.7119156889645818E-002  -2.6226605160539762E-002   1.4439171027357089E-002
   9.1731931565943725E-002  -2.7199466940481087E-002   2.2858019513056084E-002
   8.9045598065423504E-002  -2.6591415345455095E-002   2.2206309871601326E-002
   8.6359264564903254E-002  -2.5914594999170613E-002   2.1799389795300859E-002
   8.3672931064383019E-002  -2.5169005901627385E-002   2.1637259284154810E-002
   8.0986597563862797E-002  -2.4354648052825667E-002   2.1719918338162579E-002
   8.4587970218037600E-002  -2.4871957229377489E-002   2.9878778714004545E-002
   8.2198968231624425E-002  -2.4578523967331734E-002   2.9172878276154848E-002
   7.9809966245211222E-002  -2.4082501832605525E-002   2.8816851301364840E-002
   7.7420964258798033E-002  -2.3383890825198747E-002   2.8810697789634777E-002
   7.5031962272384817E-002  -2.2482690945111627E-002   2.9154417740964417E-002
   9.9918047644126873E-002  -2.9970519375967952E-002   3.3893268173518232E-004
   9.6806013662773083E-002  -2.9503380262754814E-002  -5.9228389528764858E-004
   9.3693979681419265E-002  -2.8876934819998729E-002  -1.2759024698407728E-003
   9.0581945700065461E-002  -2.8091183047699718E-002  -1.7119230419245096E-003
   8.7469911718711657E-002  -2.7146124945857997E-002  -1.9003456115381789E-003
   9.3429640249733881E-002  -2.8098562268253913E-002   7.3121758085481214E-003
   9.0551161266969826E-002  -2.7506092922332748E-002   6.6757247322046798E-003
   8.7672682284205883E-002  -2.6811160965446112E-002   6.2587856505710443E-003
   8.4794203301441884E-002  -2.6013766397593424E-002   6.0613585636474995E-003
   8.1915724318677940E-002  -2.5113909218775432E-002   6.0834434714341357E-003
   8.7119156889645818E-002  -2.6226605160539762E-002   1.4439171027357089E-002
   8.4446146897711988E-002  -2.5508805581910890E-002   1.4040641733116088E-002
   8.1773136905778115E-002  -2.4745387110893399E-002   1.3833538425825284E-002
   7.9100126913844312E-002  -2.3936349747487245E-002   1.3817861105484455E-002
   7.6427116921910454E-002  -2.3081693491692645E-002   1.3993609772094157E-002
   8.0986597563862797E-002  -2.4354648052825667E-002   2.1719918338162579E-002
   7.8490970554999345E-002  -2.3511518241488928E-002   2.1502467107446702E-002
   7.5995343546136004E-002  -2.2679613256340735E-002   2.1448355855921256E-002
   7.3499716537272594E-002  -2.1858933097381121E-002   2.1557584583586469E-002
   7.1004089528409142E-002  -2.1049477764610025E-002   2.1830153290442099E-002
   7.5031962272384817E-002  -2.2482690945111627E-002   2.9154417740964417E-002
   7.2685632238832149E-002  -2.1514230901066994E-002   2.9061200855196645E-002
   7.0339302205279466E-002  -2.0613839401788028E-002   2.9103237940859478E-002
   6.7992972171726784E-002  -1.9781516447274886E-002   2.9280528997953470E-002
   6.5646642138174061E-002  -1.9017262037527405E-002   2.9593074026478039E-002
   8.7469911718711657E-002  -2.7146124945857997E-002  -1.9003456115381789E-003
   8.4427301637020169E-002  -2.6183775333196990E-002  -2.1138593296962105E-003
   8.1384691555328792E-002  -2.5346149028440040E-002  -2.1730262180485460E-003
   7.8342081473637415E-002  -2.4633246031587099E-002  -2.0778462765951855E-003
   7.5299471391945927E-002  -2.4045066342638033E-002  -1.8283195053369061E-003
   8.1915724318677940E-002  -2.5113909218775432E-002   6.0834434714341357E-003
   7.9031823837112658E-002  -2.4206345400249740E-002   5.8339862071357662E-003
   7.6147923355547265E-002  -2.3385830913274452E-002   5.7476013132842230E-003
   7.3264022873981954E-002  -2.2652365757849971E-002   5.8242887898792423E-003
   7.0380122392416644E-002  -2.2005949933975866E-002   6.0640486369211155E-003
   7.6427116921910454E-002  -2.3081693491692645E-002   1.3993609772094157E-002
   7.3710651581112535E-002  -2.2228915467302296E-002   1.3745882938009046E-002
   7.0994186240314616E-002  -2.1425512798108962E-002   1.3669954015011684E-002
   6.8277720899516697E-002  -2.0671485484112618E-002   1.3765823003102216E-002
   6.5561255558718778E-002  -1.9966833525313421E-002   1.4033489902281121E-002
   7.1004089528409142E-002  -2.1049477764610025E-002   2.1830153290442099E-002
   6.8463784869019856E-002  -2.0251485534355060E-002   2.1621830862923283E-002
   6.5923480209630611E-002  -1.9465194682943422E-002   2.1594031887133863E-002
   6.3383175550241366E-002  -1.8690605210375598E-002   2.1746756363073924E-002
   6.0842870890852094E-002  -1.7927717116651115E-002   2.2080004290743131E-002
   6.5646642138174061E-002  -1.9017262037527405E-002   2.9593074026478039E-002
   6.3291223700834759E-002  -1.8274055601407657E-002   2.9461829981879128E-002
   6.0935805263495429E-002  -1.7504876567778049E-002   2.9519834929651323E-002
   5.8580386826156128E-002  -1.6709724936638512E-002   2.9767088869793804E-002
   5.6224968388816743E-002  -1.5888600707988809E-002   3.0203591802306806E-002
   7.5299471391945927E-002  -2.4045066342638033E-002  -1.8283195053369061E-003
   7.2461443239809520E-002  -2.3464649803357052E-002  -2.7799965178307851E-003
   6.9623415087673002E-002  -2.2775036255508391E-002  -3.7103866792437823E-003
   6.6785386935536595E-002  -2.1976225699091807E-002  -4.6194899895753982E-003
   6.3947358783400077E-002  -2.1068218134106642E-002  -5.5073064488266876E-003
   7.0380122392416644E-002  -2.2005949933975866E-002   6.0640486369211155E-003
   6.7588151910555339E-002  -2.1356707710563083E-002   5.3385741790507590E-003
   6.4796181428694088E-002  -2.0614763356522875E-002   4.6839282106499736E-003
   6.2004210946832838E-002  -1.9780116871854957E-002   4.1001107317184815E-003
   5.9212240464971533E-002  -1.8852768256559904E-002   3.5871217422562829E-003
   6.5561255558718778E-002  -1.9966833525313421E-002   1.4033489902281121E-002
   6.2864884385521208E-002  -1.9248765617769004E-002   1.3517723121093700E-002
   6.0168513212323638E-002  -1.8454490457537567E-002   1.3122326467764164E-002
   5.7472142039126095E-002  -1.7584008044618769E-002   1.2847299942292979E-002
   5.4775770865928497E-002  -1.6637318379012611E-002   1.2692643544679749E-002
   6.0842870890852094E-002  -1.7927717116651115E-002   2.2080004290743131E-002
   5.8291640664706788E-002  -1.7140823524975091E-002   2.1757450308298239E-002
   5.5740410438561580E-002  -1.6294217558552267E-002   2.1604808092099800E-002
   5.3189180212416316E-002  -1.5387899217382360E-002   2.1622077642148282E-002
   5.0637949986271136E-002  -1.4421868501465707E-002   2.1809258958443309E-002
   5.6224968388816743E-002  -1.5888600707988809E-002   3.0203591802306806E-002
   5.3868420748112378E-002  -1.5032881432181067E-002   3.0057755740664382E-002
   5.1511873107407957E-002  -1.4133944659566688E-002   3.0131373083656765E-002
   4.9155325466703537E-002  -1.3191790390145827E-002   3.0424443831284731E-002
   4.6798777825999172E-002  -1.2206418623918469E-002   3.0936967983547281E-002
   6.3947358783400077E-002  -2.1068218134106642E-002  -5.5073064488266876E-003
   6.3361507029983444E-002  -2.1795650891501595E-002  -3.7134446941811117E-003
   6.2775655276566922E-002  -2.5903161302220312E-002  -3.7874628388629428E-003
   6.2189803523150455E-002  -3.3390749366265474E-002  -5.7293608828705156E-003
   6.1603951769733767E-002  -4.4258415083636038E-002  -9.5391388262049404E-003
   5.9212240464971533E-002  -1.8852768256559904E-002   3.5871217422562829E-003
   5.7072381459299659E-002  -1.8989019450972200E-002   3.1935151616738211E-003
   5.4932522453627841E-002  -2.1345172395428325E-002   1.5597739759077300E-003
   5.2792663447955912E-002  -2.5921227089926890E-002  -1.3141018150428230E-003
   5.0652804442284149E-002  -3.2717183534469285E-002  -5.4281122111778934E-003
   5.4775770865928497E-002  -1.6637318379012611E-002   1.2692643544679749E-002
   5.1709649902143773E-002  -1.6182388010443916E-002   1.1271744532151629E-002
   4.8643528938359104E-002  -1.6787183488635421E-002   9.2384562085821020E-003
   4.5577407974574477E-002  -1.8451704813588467E-002   6.5927785739715444E-003
   4.2511287010789711E-002  -2.1175951985302532E-002   3.3347116283187761E-003
   5.0637949986271136E-002  -1.4421868501465707E-002   2.1809258958443309E-002
   4.7273312358516034E-002  -1.3375756569914854E-002   2.0521243417252255E-002
   4.3908674730761009E-002  -1.2229194581842975E-002   1.9248583859162276E-002
   4.0544037103005984E-002  -1.0982182537249963E-002   1.7991280284173499E-002
   3.7179399475250868E-002  -9.6347204361355576E-003   1.6749332692285068E-002
   4.6798777825999172E-002  -1.2206418623918469E-002   3.0936967983547281E-002
   4.3763368828416221E-002  -1.0569125129386348E-002   3.0942011816975423E-002
   4.0727959830833299E-002  -7.6712056750507518E-003   3.1590156927647217E-002
   3.7692550833250377E-002  -3.5126602609114599E-003   3.2881403315562163E-002
   3.4657141835667482E-002   1.9065111130311951E-003   3.4815750980720539E-002
   9.0366330389631211E-002   0.0000000000000000        4.9818642992269097E-002
   9.3966366301317605E-002  -5.4023579850713925E-003   5.3190272868403374E-002
   9.7566402213003972E-002  -1.0668279359411195E-002   5.4941114326393072E-002
  0.10116643812469037       -1.5797764123019403E-002   5.5071167366238176E-002
  0.10476647403637673       -2.0790812275896017E-002   5.3580431987938659E-002
   8.2426893737644516E-002   0.0000000000000000        4.4769992365599108E-002
   8.4635389216301649E-002  -4.5715818913183402E-003   4.8250692003578663E-002
   8.6843884694958795E-002  -9.0328776394677894E-003   5.0569099193644329E-002
   8.9052380173615955E-002  -1.3383887244448358E-002   5.1725213935796113E-002
   9.1260875652273102E-002  -1.7624610706260039E-002   5.1719036230033988E-002
   7.4243917485437502E-002   0.0000000000000000        4.0565193066463535E-002
   7.5519368501296105E-002  -3.7408057975652853E-003   4.4128811998725655E-002
   7.6794819517154722E-002  -7.3974759195243895E-003   4.6988634453304576E-002
   7.8070270533013339E-002  -1.0970010365877312E-002   4.9144660430200340E-002
   7.9345721548871928E-002  -1.4458409136624053E-002   5.0596889929412907E-002
   6.5817401633010170E-002   0.0000000000000000        3.7204245094862351E-002
   6.6618304156300948E-002  -2.9100297038122313E-003   4.0824632853844335E-002
   6.7419206679591726E-002  -5.7620741995809879E-003   4.4199720105373833E-002
   6.8220109202882503E-002  -8.5561334873062687E-003   4.7329506849450864E-002
   6.9021011726173281E-002  -1.1292207566988070E-002   5.0213993086075402E-002
   5.7147346180362518E-002   0.0000000000000000        3.4687148450795589E-002
   5.7932196181316176E-002  -2.0792536100591782E-003   3.8338154568934732E-002
   5.8717046182269819E-002  -4.1266724796375845E-003   4.2202356149852092E-002
   5.9501896183223470E-002  -6.1422566087352241E-003   4.6279753193547671E-002
   6.0286746184177120E-002  -8.1260059973520832E-003   5.0570345700021488E-002
  0.10476647403637673       -2.0790812275896017E-002   5.3580431987938659E-002
  0.10211046722144107       -2.4931780983401458E-002   4.5590700867521081E-002
   9.9454460406505407E-002  -2.7505027410896131E-002   3.9290464315936344E-002
   9.6798453591569716E-002  -2.8510551558380018E-002   3.4679722333184365E-002
   9.4142446776634039E-002  -2.7948353425853140E-002   3.1758474919265242E-002
   9.1260875652273102E-002  -1.7624610706260039E-002   5.1719036230033988E-002
   9.0056484338690748E-002  -2.1198288796029155E-002   4.6477633763302925E-002
   8.8852093025108436E-002  -2.3548162284882015E-002   4.2449967730445771E-002
   8.7647701711526096E-002  -2.4674231172818657E-002   3.9636038131462374E-002
   8.6443310397943771E-002  -2.4576495459839053E-002   3.8035844966352893E-002
   7.9345721548871928E-002  -1.4458409136624053E-002   5.0596889929412907E-002
   7.9117187601683972E-002  -1.7464796608656845E-002   4.7759898437273830E-002
   7.8888653654496002E-002  -1.9591297158867923E-002   4.5660885244049654E-002
   7.8660119707308046E-002  -2.0837910787257295E-002   4.4299850349740350E-002
   7.8431585760120076E-002  -2.1204637493824952E-002   4.3676793754345966E-002
   6.9021011726173281E-002  -1.1292207566988070E-002   5.0213993086075402E-002
   6.9292577010420728E-002  -1.3731304421284538E-002   4.9437494889433817E-002
   6.9564142294668174E-002  -1.5634432032853845E-002   4.8923216856748143E-002
   6.9835707578915607E-002  -1.7001590401695937E-002   4.8671158988018347E-002
   7.0107272863163067E-002  -1.7832779527810871E-002   4.8681321283244559E-002
   6.0286746184177120E-002  -8.1260059973520832E-003   5.0570345700021488E-002
   6.0582652564901002E-002  -9.9978122339122160E-003   5.1510423119782808E-002
   6.0878558945624897E-002  -1.1677566906839732E-002   5.2236962568541087E-002
   6.1174465326348786E-002  -1.3165270016134564E-002   5.2749964046296380E-002
   6.1470371707072674E-002  -1.4460921561796770E-002   5.3049427553048555E-002
   9.4142446776634039E-002  -2.7948353425853140E-002   3.1758474919265242E-002
   9.1753827636984961E-002  -2.6746534209174160E-002   3.1184422696990559E-002
   8.9365208497335813E-002  -2.5833195104201991E-002   3.0679789255355597E-002
   8.6976589357686734E-002  -2.5208336110936348E-002   3.0244574594360210E-002
   8.4587970218037600E-002  -2.4871957229377489E-002   2.9878778714004545E-002
   8.6443310397943771E-002  -2.4576495459839053E-002   3.8035844966352893E-002
   8.4171768298620997E-002  -2.3925361745300109E-002   3.6994118389879344E-002
   8.1900226199298237E-002  -2.3391236628558715E-002   3.6117127113418787E-002
   7.9628684099975519E-002  -2.2974120109614922E-002   3.5404871136971348E-002
   7.7357142000652732E-002  -2.2674012188468678E-002   3.4857350460536840E-002
   7.8431585760120076E-002  -2.1204637493824952E-002   4.3676793754345966E-002
   7.6372437220497011E-002  -2.1104189281425986E-002   4.2338864337582695E-002
   7.4313288680873946E-002  -2.0949278152915491E-002   4.1260986740205813E-002
   7.2254140141250880E-002  -2.0739904108293423E-002   4.0443160962215285E-002
   7.0194991601627788E-002  -2.0476067147559798E-002   3.9885387003611043E-002
   7.0107272863163067E-002  -1.7832779527810871E-002   4.8681321283244559E-002
   6.8355834402612989E-002  -1.8283016817551893E-002   4.7218660540100689E-002
   6.6604395942062924E-002  -1.8507319677272240E-002   4.6111368135716549E-002
   6.4852957481512846E-002  -1.8505688106971892E-002   4.5359444070091980E-002
   6.3101519020962782E-002  -1.8278122106650953E-002   4.4962888343227161E-002
   6.1470371707072674E-002  -1.4460921561796770E-002   5.3049427553048555E-002
   6.0121959844968917E-002  -1.5461844353677805E-002   5.1633506997433257E-002
   5.8773547982865187E-002  -1.6065361201628998E-002   5.0668271299950912E-002
   5.7425136120761458E-002  -1.6271472105650473E-002   5.0153720460601549E-002
   5.6076724258657715E-002  -1.6080177065742080E-002   5.0089854479385187E-002
   8.4587970218037600E-002  -2.4871957229377489E-002   2.9878778714004545E-002
   8.2198968231624425E-002  -2.4578523967331734E-002   2.9172878276154848E-002
   7.9809966245211222E-002  -2.4082501832605525E-002   2.8816851301364840E-002
   7.7420964258798033E-002  -2.3383890825198747E-002   2.8810697789634777E-002
   7.5031962272384817E-002  -2.2482690945111627E-002   2.9154417740964417E-002
   7.7357142000652732E-002  -2.2674012188468678E-002   3.4857350460536840E-002
   7.5287460604924319E-002  -2.2368509336435402E-002   3.4354768634797944E-002
   7.3217779209195893E-002  -2.1935208024830642E-002   3.4140954527368664E-002
   7.1148097813467454E-002  -2.1374108253654246E-002   3.4215908138248943E-002
   6.9078416417739041E-002  -2.0685210022906408E-002   3.4579629467439144E-002
   7.0194991601627788E-002  -2.0476067147559798E-002   3.9885387003611043E-002
   6.8383525051833940E-002  -2.0158494705539098E-002   3.9511333376874076E-002
   6.6572058502040080E-002  -1.9787914217055783E-002   3.9364941723696534E-002
   6.4760591952246246E-002  -1.9364325682109794E-002   3.9446212044078541E-002
   6.2949125402452372E-002  -1.8887729100701162E-002   3.9755144338019993E-002
   6.3101519020962782E-002  -1.8278122106650953E-002   4.4962888343227161E-002
   6.1487161572353344E-002  -1.7948480074642767E-002   4.4642572502383189E-002
   5.9872804123743885E-002  -1.7640620409280869E-002   4.4488812890348541E-002
   5.8258446675134412E-002  -1.7354543110565262E-002   4.4501609507123091E-002
   5.6644089226524974E-002  -1.7090248178495943E-002   4.4680962352706993E-002
   5.6076724258657715E-002  -1.6080177065742080E-002   5.0089854479385187E-002
   5.4598370166482488E-002  -1.5738465443746463E-002   4.9748486011325282E-002
   5.3120016074307240E-002  -1.5493326601506013E-002   4.9512568027324483E-002
   5.1641661982132020E-002  -1.5344760539020848E-002   4.9382100527382927E-002
   5.0163307889956765E-002  -1.5292767256290724E-002   4.9357083511500449E-002
   7.5031962272384817E-002  -2.2482690945111627E-002   2.9154417740964417E-002
   7.2685632238832149E-002  -2.1514230901066994E-002   2.9061200855196645E-002
   7.0339302205279466E-002  -2.0613839401788028E-002   2.9103237940859478E-002
   6.7992972171726784E-002  -1.9781516447274886E-002   2.9280528997953470E-002
   6.5646642138174061E-002  -1.9017262037527405E-002   2.9593074026478039E-002
   6.9078416417739041E-002  -2.0685210022906408E-002   3.4579629467439144E-002
   6.6882621037277809E-002  -1.9943631628986574E-002   3.4280694763694261E-002
   6.4686825656816618E-002  -1.9224491368294419E-002   3.4147575394701604E-002
   6.2491030276355400E-002  -1.8527789240830043E-002   3.4180271360460965E-002
   6.0295234895894195E-002  -1.7853525246593338E-002   3.4378782660972496E-002
   6.2949125402452372E-002  -1.8887729100701162E-002   3.9755144338019993E-002
   6.0934426038403898E-002  -1.8373032356906085E-002   3.9296122227836336E-002
   5.8919726674355424E-002  -1.7835143334800720E-002   3.9033476815726019E-002
   5.6905027310306930E-002  -1.7274062034385140E-002   3.8967208101688966E-002
   5.4890327946258477E-002  -1.6689788455659160E-002   3.9097316085725309E-002
   5.6644089226524974E-002  -1.7090248178495943E-002   4.4680962352706993E-002
   5.4841047242210471E-002  -1.6802433084825562E-002   4.4107483247622495E-002
   5.3038005257895954E-002  -1.6445795301307010E-002   4.3760942203932437E-002
   5.1234963273581409E-002  -1.6020334827940214E-002   4.3641339221637036E-002
   4.9431921289266878E-002  -1.5526051664725121E-002   4.3748674300736146E-002
   5.0163307889956765E-002  -1.5292767256290724E-002   4.9357083511500449E-002
   4.8602484648697472E-002  -1.5231833812745149E-002   4.8714777823052918E-002
   4.7041661407438123E-002  -1.5056447267813321E-002   4.8329971559321241E-002
   4.5480838166178789E-002  -1.4766607621495389E-002   4.8202664720305356E-002
   4.3920014924919454E-002  -1.4362314873790916E-002   4.8332857306005395E-002
   6.5646642138174061E-002  -1.9017262037527405E-002   2.9593074026478039E-002
   6.3291223700834759E-002  -1.8274055601407657E-002   2.9461829981879128E-002
   6.0935805263495429E-002  -1.7504876567778049E-002   2.9519834929651323E-002
   5.8580386826156128E-002  -1.6709724936638512E-002   2.9767088869793804E-002
   5.6224968388816743E-002  -1.5888600707988809E-002   3.0203591802306806E-002
   6.0295234895894195E-002  -1.7853525246593338E-002   3.4378782660972496E-002
   5.8127470053967525E-002  -1.7186825462513627E-002   3.4209084667271988E-002
   5.5959705212040842E-002  -1.6512815965520136E-002   3.4225444872026070E-002
   5.3791940370114200E-002  -1.5831496755612798E-002   3.4427863275235199E-002
   5.1624175528187544E-002  -1.5142867832791895E-002   3.4816339876898750E-002
   5.4890327946258477E-002  -1.6689788455659160E-002   3.9097316085725309E-002
   5.2907025905828645E-002  -1.6099595323619348E-002   3.8870501258326653E-002
   5.0923723865398798E-002  -1.5520755363262057E-002   3.8826553835466848E-002
   4.8940421824968952E-002  -1.4953268574587196E-002   3.8965473817145928E-002
   4.6957119784539120E-002  -1.4397134957594870E-002   3.9287261203364121E-002
   4.9431921289266878E-002  -1.5526051664725121E-002   4.3748674300736146E-002
   4.7629891256418061E-002  -1.5012365184725193E-002   4.3446079755043082E-002
   4.5827861223569237E-002  -1.4528694761004032E-002   4.3323161819973137E-002
   4.4025831190720413E-002  -1.4075040393561538E-002   4.3379920495526497E-002
   4.2223801157871534E-002  -1.3651402082397929E-002   4.3616355781702740E-002
   4.3920014924919454E-002  -1.4362314873790916E-002   4.8332857306005395E-002
   4.2296066105735830E-002  -1.3925135045830983E-002   4.7935820157421649E-002
   4.0672117286552179E-002  -1.3536634158746022E-002   4.7715268825545387E-002
   3.9048168467368534E-002  -1.3196812212535897E-002   4.7671203310376276E-002
   3.7424219648184875E-002  -1.2905669207200876E-002   4.7803623611914425E-002
   5.6224968388816743E-002  -1.5888600707988809E-002   3.0203591802306806E-002
   5.3868420748112378E-002  -1.5032881432181067E-002   3.0057755740664382E-002
   5.1511873107407957E-002  -1.4133944659566688E-002   3.0131373083656765E-002
   4.9155325466703537E-002  -1.3191790390145827E-002   3.0424443831284731E-002
   4.6798777825999172E-002  -1.2206418623918469E-002   3.0936967983547281E-002
   5.1624175528187544E-002  -1.5142867832791895E-002   3.4816339876898750E-002
   4.9475814572046709E-002  -1.4444232567101034E-002   3.4620934446981666E-002
   4.7327453615905901E-002  -1.3732894328584780E-002   3.4622448981556586E-002
   4.5179092659765080E-002  -1.3008853117242609E-002   3.4820883480623385E-002
   4.3030731703624231E-002  -1.2272108933074621E-002   3.5216237944182494E-002
   4.6957119784539120E-002  -1.4397134957594870E-002   3.9287261203364121E-002
   4.4994412072818790E-002  -1.3855583702021390E-002   3.9011771881191551E-002
   4.3031704361098433E-002  -1.3331843997602816E-002   3.8910669083367960E-002
   4.1068996649378103E-002  -1.2825915844339279E-002   3.8983952809893294E-002
   3.9106288937657732E-002  -1.2337799242230829E-002   3.9231623060767606E-002
   4.2223801157871534E-002  -1.3651402082397929E-002   4.3616355781702740E-002
   4.0424213250428581E-002  -1.3266934836941469E-002   4.3230268043294023E-002
   3.8624625342985601E-002  -1.2930793666620852E-002   4.2996033389091200E-002
   3.6825037435542635E-002  -1.2642978571436061E-002   4.2913651819094109E-002
   3.5025449528099668E-002  -1.2403489551387065E-002   4.2983123333303008E-002
   3.7424219648184875E-002  -1.2905669207200876E-002   4.7803623611914425E-002
   3.5765218104876179E-002  -1.2678285971861658E-002   4.7276422933288875E-002
   3.4106216561567426E-002  -1.2529743335638902E-002   4.6878541898725978E-002
   3.2447215018258715E-002  -1.2460041298532638E-002   4.6609980508225943E-002
   3.0788213474949977E-002  -1.2469179860543078E-002   4.6470738761788533E-002
   4.6798777825999172E-002  -1.2206418623918469E-002   3.0936967983547281E-002
   4.3763368828416221E-002  -1.0569125129386348E-002   3.0942011816975423E-002
   4.0727959830833299E-002  -7.6712056750507518E-003   3.1590156927647217E-002
   3.7692550833250377E-002  -3.5126602609114599E-003   3.2881403315562163E-002
   3.4657141835667482E-002   1.9065111130311951E-003   3.4815750980720539E-002
   4.3030731703624231E-002  -1.2272108933074621E-002   3.5216237944182494E-002
   4.0559667578956071E-002  -1.1256994206841425E-002   3.5888460765244656E-002
   3.8088603454287939E-002  -9.6978413693031840E-003   3.7046272054893220E-002
   3.5617539329619835E-002  -7.5946504204599530E-003   3.8689671813127893E-002
   3.3146475204951675E-002  -4.9474213603115658E-003   4.0818660039948607E-002
   3.9106288937657732E-002  -1.2337799242230829E-002   3.9231623060767606E-002
   3.7042056877247202E-002  -1.1944863284296614E-002   3.9854437020965666E-002
   3.4977824816836631E-002  -1.1724477063555838E-002   4.0805326641092446E-002
   3.2913592756426156E-002  -1.1676640580008502E-002   4.2084291921148348E-002
   3.0849360696015543E-002  -1.1801353833654438E-002   4.3691332861133525E-002
   3.5025449528099668E-002  -1.2403489551387065E-002   4.2983123333303008E-002
   3.3210536723289524E-002  -1.2632732361751969E-002   4.2839940584138023E-002
   3.1395623918479457E-002  -1.3751112757808326E-002   4.2867320686245054E-002
   2.9580711113669333E-002  -1.5758630739557078E-002   4.3065263639623957E-002
   2.7765798308859259E-002  -1.8655286306997199E-002   4.3433769444274531E-002
   3.0788213474949977E-002  -1.2469179860543078E-002   4.6470738761788533E-002
   2.9065107117083128E-002  -1.3320601439206992E-002   4.4844971454762350E-002
   2.7342000759216348E-002  -1.5777748452060952E-002   4.3232254190351149E-002
   2.5618894401349561E-002  -1.9840620899105550E-002   4.1632586968554680E-002
   2.3895788043482691E-002  -2.5509218780340071E-002   4.0045969789372471E-002
   5.7147346180362518E-002   0.0000000000000000        3.4687148450795589E-002
   5.7932196181316176E-002  -2.0792536100591782E-003   3.8338154568934732E-002
   5.8717046182269819E-002  -4.1266724796375845E-003   4.2202356149852092E-002
   5.9501896183223470E-002  -6.1422566087352241E-003   4.6279753193547671E-002
   6.0286746184177120E-002  -8.1260059973520832E-003   5.0570345700021488E-002
   4.8645821639303061E-002   0.0000000000000000        3.2790616318565842E-002
   4.9578940910598640E-002  -1.7046145662188948E-003   3.6966493755846798E-002
   5.0512060181894206E-002  -3.4226716965557319E-003   4.1225714271033373E-002
   5.1445179453189771E-002  -5.1541713910105147E-003   4.5568277864125567E-002
   5.2378298724485337E-002  -6.8991136495832380E-003   4.9994184535123345E-002
   4.0724898521640289E-002   0.0000000000000000        3.1291361882475742E-002
   4.1676434678405178E-002  -1.3299755223786097E-003   3.5946833334299780E-002
   4.2627970835170073E-002  -2.7186709134738793E-003   4.0555795479156838E-002
   4.3579506991934962E-002  -4.1660861732858104E-003   4.5118248317046909E-002
   4.4531043148699843E-002  -5.6722213018143989E-003   4.9634191847970008E-002
   3.3384576827374224E-002   0.0000000000000000        3.0189385142525282E-002
   3.4224677484735823E-002  -9.5533647853832549E-004   3.5279173304293705E-002
   3.5064778142097429E-002  -2.0146701303920267E-003   4.0192599774222529E-002
   3.5904878799459028E-002  -3.1780009555611079E-003   4.4929664552311760E-002
   3.6744979456820627E-002  -4.4453289540455510E-003   4.9490367638561406E-002
   2.6624856556504841E-002   0.0000000000000000        2.9484686098714463E-002
   2.7223669329590555E-002  -5.8069743469804126E-004   3.4963513665828547E-002
   2.7822482102676266E-002  -1.3106693473101741E-003   4.0136127156230425E-002
   2.8421294875761980E-002  -2.1899157378363985E-003   4.5002526569920112E-002
   2.9020107648847687E-002  -3.2184366062767153E-003   4.9562711906897615E-002
   6.0286746184177120E-002  -8.1260059973520832E-003   5.0570345700021488E-002
   6.0582652564901002E-002  -9.9978122339122160E-003   5.1510423119782808E-002
   6.0878558945624897E-002  -1.1677566906839732E-002   5.2236962568541087E-002
   6.1174465326348786E-002  -1.3165270016134564E-002   5.2749964046296380E-002
   6.1470371707072674E-002  -1.4460921561796770E-002   5.3049427553048555E-002
   5.2378298724485337E-002  -6.8991136495832380E-003   4.9994184535123345E-002
   5.2499852452441549E-002  -8.5572066986941177E-003   5.1224235430363446E-002
   5.2621406180397762E-002  -1.0028158764763366E-002   5.2319118991071230E-002
   5.2742959908353974E-002  -1.1311969847790957E-002   5.3278835217246738E-002
   5.2864513636310187E-002  -1.2408639947776912E-002   5.4103384108889895E-002
   4.4531043148699843E-002  -5.6722213018143989E-003   4.9634191847970008E-002
   4.4556614860359098E-002  -7.1166011634759959E-003   5.1149305638097879E-002
   4.4582186572018352E-002  -8.3787506226869774E-003   5.2607622730164158E-002
   4.4607758283677620E-002  -9.4586696794473086E-003   5.4009143124168844E-002
   4.4633329995336868E-002  -1.0356358333757035E-002   5.5353866820111945E-002
   3.6744979456820627E-002  -4.4453289540455510E-003   4.9490367638561406E-002
   3.6752939788653648E-002  -5.6759956282578846E-003   5.1285633742986059E-002
   3.6760900120486668E-002  -6.7293424806105897E-003   5.3102473785819823E-002
   3.6768860452319689E-002  -7.6053695111036749E-003   5.4940887767062747E-002
   3.6776820784152703E-002  -8.3040767197371541E-003   5.6800875686714755E-002
   2.9020107648847687E-002  -3.2184366062767153E-003   4.9562711906897615E-002
   2.9088827237325199E-002  -4.2353900930397689E-003   5.1633219745028019E-002
   2.9157546825802703E-002  -5.0799343385342210E-003   5.3803672158038267E-002
   2.9226266414280205E-002  -5.7520693427600446E-003   5.6074069145928329E-002
   2.9294986002757706E-002  -6.2517951057172866E-003   5.8444410708698283E-002
   6.1470371707072674E-002  -1.4460921561796770E-002   5.3049427553048555E-002
   6.0121959844968917E-002  -1.5461844353677805E-002   5.1633506997433257E-002
   5.8773547982865187E-002  -1.6065361201628998E-002   5.0668271299950912E-002
   5.7425136120761458E-002  -1.6271472105650473E-002   5.0153720460601549E-002
   5.6076724258657715E-002  -1.6080177065742080E-002   5.0089854479385187E-002
   5.2864513636310187E-002  -1.2408639947776912E-002   5.4103384108889895E-002
   5.1916787764451133E-002  -1.3255808948804959E-002   5.3366772694577402E-002
   5.0969061892592100E-002  -1.3791116734958732E-002   5.2980848402621405E-002
   5.0021336020733026E-002  -1.4014563306238336E-002   5.2945611233021758E-002
   4.9073610148873993E-002  -1.3926148662643634E-002   5.3261061185778488E-002
   4.4633329995336868E-002  -1.0356358333757035E-002   5.5353866820111945E-002
   4.3986292377945921E-002  -1.1049773543932117E-002   5.5211019818046818E-002
   4.3339254760554974E-002  -1.1516872268288476E-002   5.5318862202561478E-002
   4.2692217143164041E-002  -1.1757654506826186E-002   5.5677393973656016E-002
   4.2045179525773094E-002  -1.1772120259545202E-002   5.6286615131330348E-002
   3.6776820784152703E-002  -8.3040767197371541E-003   5.6800875686714755E-002
   3.6330473685453293E-002  -8.8437381390592869E-003   5.7166248367841385E-002
   3.5884126586753863E-002  -9.2426278016182421E-003   5.7682312699771296E-002
   3.5437779488054440E-002  -9.5007457074140836E-003   5.8349068682504335E-002
   3.4991432389355023E-002  -9.6180918564467630E-003   5.9166516316040717E-002
   2.9294986002757706E-002  -6.2517951057172866E-003   5.8444410708698283E-002
   2.8949331686973220E-002  -6.6377027341864500E-003   5.9232458343961139E-002
   2.8603677371188733E-002  -6.9683833349479529E-003   6.0071199894250665E-002
   2.8258023055404233E-002  -7.2438369080019480E-003   6.0960635359566806E-002
   2.7912368739619754E-002  -7.4640634533483102E-003   6.1900764739909589E-002
   5.6076724258657715E-002  -1.6080177065742080E-002   5.0089854479385187E-002
   5.4598370166482488E-002  -1.5738465443746463E-002   4.9748486011325282E-002
   5.3120016074307240E-002  -1.5493326601506013E-002   4.9512568027324483E-002
   5.1641661982132020E-002  -1.5344760539020848E-002   4.9382100527382927E-002
   5.0163307889956765E-002  -1.5292767256290724E-002   4.9357083511500449E-002
   4.9073610148873993E-002  -1.3926148662643634E-002   5.3261061185778488E-002
   4.7721711009020430E-002  -1.3698635489073858E-002   5.2850262205324287E-002
   4.6369811869166860E-002  -1.3504786470428153E-002   5.2586922645454434E-002
   4.5017912729313311E-002  -1.3344601606706466E-002   5.2471042506168769E-002
   4.3666013589459721E-002  -1.3218080897908824E-002   5.2502621787467257E-002
   4.2045179525773094E-002  -1.1772120259545202E-002   5.6286615131330348E-002
   4.0861744274766285E-002  -1.1658805534401323E-002   5.5869294263313087E-002
   3.9678309023759489E-002  -1.1516246339350319E-002   5.5641441752405152E-002
   3.8494873772752687E-002  -1.1344442674392195E-002   5.5603057598606530E-002
   3.7311438521745913E-002  -1.1143394539526910E-002   5.5754141801917158E-002
   3.4991432389355023E-002  -9.6180918564467630E-003   5.9166516316040717E-002
   3.4018469963720051E-002  -9.6189755797287807E-003   5.8805582185291479E-002
   3.3045507538085064E-002  -9.5277062082724448E-003   5.8676125348176719E-002
   3.2072545112450099E-002  -9.3442837420779235E-003   5.8778145804696390E-002
   3.1099582686815130E-002  -9.0687081811450035E-003   5.9111643554850248E-002
   2.7912368739619754E-002  -7.4640634533483102E-003   6.1900764739909589E-002
   2.7191888075881708E-002  -7.5791456250561898E-003   6.1659125971259637E-002
   2.6471407412143644E-002  -7.5391660771946360E-003   6.1690973432769212E-002
   2.5750926748405602E-002  -7.3441248097635857E-003   6.1996307124438169E-002
   2.5030446084667549E-002  -6.9940218227630968E-003   6.2575127046266610E-002
   5.0163307889956765E-002  -1.5292767256290724E-002   4.9357083511500449E-002
   4.8602484648697472E-002  -1.5231833812745149E-002   4.8714777823052918E-002
   4.7041661407438123E-002  -1.5056447267813321E-002   4.8329971559321241E-002
   4.5480838166178789E-002  -1.4766607621495389E-002   4.8202664720305356E-002
   4.3920014924919454E-002  -1.4362314873790916E-002   4.8332857306005395E-002
   4.3666013589459721E-002  -1.3218080897908824E-002   5.2502621787467257E-002
   4.2348794062903476E-002  -1.3069167917112434E-002   5.2085590521944031E-002
   4.1031574536347218E-002  -1.2841806237394421E-002   5.1898267261111131E-002
   3.9714355009790973E-002  -1.2535995858754916E-002   5.1940652004968578E-002
   3.8397135483234701E-002  -1.2151736781193856E-002   5.2212744753516283E-002
   3.7311438521745913E-002  -1.1143394539526910E-002   5.5754141801917158E-002
   3.6210031289867189E-002  -1.0906502021479650E-002   5.5526380556853563E-002
   3.5108624057988501E-002  -1.0627165206975552E-002   5.5500535896454747E-002
   3.4007216826109785E-002  -1.0305384096014555E-002   5.5676607820720765E-002
   3.2905809594231096E-002  -9.9411586885966852E-003   5.6054596329651582E-002
   3.1099582686815130E-002  -9.0687081811450035E-003   5.9111643554850248E-002
   3.0186196329588504E-002  -8.7438361258468864E-003   5.9037147927781593E-002
   2.9272809972361896E-002  -8.4125241765566124E-003   5.9136777465352182E-002
   2.8359423615135281E-002  -8.0747723332741366E-003   5.9410532167562188E-002
   2.7446037257908659E-002  -7.7305805959995422E-003   5.9858412034411460E-002
   2.5030446084667549E-002  -6.9940218227630968E-003   6.2575127046266610E-002
   2.4277289182067494E-002  -6.5811702302141367E-003   6.2617892634728195E-002
   2.3524132279467459E-002  -6.1978831461377837E-003   6.2806991967803538E-002
   2.2770975376867415E-002  -5.8441605705337601E-003   6.3142425045492695E-002
   2.2017818474267370E-002  -5.5200025034023992E-003   6.3624191867795665E-002
   4.3920014924919454E-002  -1.4362314873790916E-002   4.8332857306005395E-002
   4.2296066105735830E-002  -1.3925135045830983E-002   4.7935820157421649E-002
   4.0672117286552179E-002  -1.3536634158746022E-002   4.7715268825545387E-002
   3.9048168467368534E-002  -1.3196812212535897E-002   4.7671203310376276E-002
   3.7424219648184875E-002  -1.2905669207200876E-002   4.7803623611914425E-002
   3.8397135483234701E-002  -1.2151736781193856E-002   5.2212744753516283E-002
   3.6951764427878134E-002  -1.1741536635053645E-002   5.1811730353414492E-002
   3.5506393372521594E-002  -1.1357903050676910E-002   5.1591385664259609E-002
   3.4061022317165027E-002  -1.1000836028063440E-002   5.1551710686051494E-002
   3.2615651261808459E-002  -1.0670335567213418E-002   5.1692705418790286E-002
   3.2905809594231096E-002  -9.9411586885966852E-003   5.6054596329651582E-002
   3.1643200196941251E-002  -9.5579382242763355E-003   5.5671717057143078E-002
   3.0380590799651375E-002  -9.1791719426076238E-003   5.5473691389821340E-002
   2.9117981402361541E-002  -8.8048598435908152E-003   5.5460519327685948E-002
   2.7855372005071682E-002  -8.4350019272257659E-003   5.5632200870737156E-002
   2.7446037257908659E-002  -7.7305805959995422E-003   5.9858412034411460E-002
   2.6370373412925127E-002  -7.3743398134988730E-003   5.9515780268607987E-002
   2.5294709567941633E-002  -7.0004408345383691E-003   5.9362186002230664E-002
   2.4219045722958119E-002  -6.6088836591181631E-003   5.9397629235279518E-002
   2.3143381877974580E-002  -6.1996682872382386E-003   5.9622109967754591E-002
   2.2017818474267370E-002  -5.5200025034023992E-003   6.3624191867795665E-002
   2.1133284075829817E-002  -5.1907414027216880E-003   6.3343919987808806E-002
   2.0248749677392264E-002  -4.8217097264691700E-003   6.3256869501487761E-002
   1.9364215278954711E-002  -4.4129074746456082E-003   6.3363040408832338E-002
   1.8479680880517171E-002  -3.9643346472506003E-003   6.3662432709842898E-002
   3.7424219648184875E-002  -1.2905669207200876E-002   4.7803623611914425E-002
   3.5765218104876179E-002  -1.2678285971861658E-002   4.7276422933288875E-002
   3.4106216561567426E-002  -1.2529743335638902E-002   4.6878541898725978E-002
   3.2447215018258715E-002  -1.2460041298532638E-002   4.6609980508225943E-002
   3.0788213474949977E-002  -1.2469179860543078E-002   4.6470738761788533E-002
   3.2615651261808459E-002  -1.0670335567213418E-002   5.1692705418790286E-002
   3.1108218235917612E-002  -1.0370943047770420E-002   5.1178797783075880E-002
   2.9600785210026764E-002  -1.0107199849378412E-002   5.0838707538134464E-002
   2.8093352184135917E-002  -9.8791059720376856E-003   5.0672434683965983E-002
   2.6585919158245069E-002  -9.6866614157476438E-003   5.0679979220570659E-002
   2.7855372005071682E-002  -8.4350019272257659E-003   5.5632200870737156E-002
   2.6544005243309028E-002  -8.0636001236792654E-003   5.5174777555999310E-002
   2.5232638481546409E-002  -7.6846563631181378E-003   5.4935669378744868E-002
   2.3921271719783775E-002  -7.2981706455423432E-003   5.4914876338973878E-002
   2.2609904958021156E-002  -6.9041429709519320E-003   5.5112398436686111E-002
   2.3143381877974580E-002  -6.1996682872382386E-003   5.9622109967754591E-002
   2.2072579127050504E-002  -5.7562571995880413E-003   5.9264362252059055E-002
   2.1001776376126425E-002  -5.2621128768578669E-003   5.9169427420557190E-002
   1.9930973625202346E-002  -4.7172353190471960E-003   5.9337305473249079E-002
   1.8860170874278270E-002  -4.1216245261564699E-003   5.9767996410134909E-002
   1.8479680880517171E-002  -3.9643346472506003E-003   6.3662432709842898E-002
   1.7693939887141977E-002  -3.4489142754969004E-003   6.3447551871255281E-002
   1.6908198893766775E-002  -2.8395693905974156E-003   6.3539981663571693E-002
   1.6122457900391577E-002  -2.1362999925520036E-003   6.3939722086792120E-002
   1.5336716907016379E-002  -1.3391060813606748E-003   6.4646773140916713E-002
   3.0788213474949977E-002  -1.2469179860543078E-002   4.6470738761788533E-002
   2.9065107117083128E-002  -1.3320601439206992E-002   4.4844971454762350E-002
   2.7342000759216348E-002  -1.5777748452060952E-002   4.3232254190351149E-002
   2.5618894401349561E-002  -1.9840620899105550E-002   4.1632586968554680E-002
   2.3895788043482691E-002  -2.5509218780340071E-002   4.0045969789372471E-002
   2.6585919158245069E-002  -9.6866614157476438E-003   5.0679979220570659E-002
   2.4904451301392891E-002  -9.9409316669608061E-003   4.8077327624352906E-002
   2.3222983444540726E-002  -1.1052982212129331E-002   4.5544902987549624E-002
   2.1541515587688617E-002  -1.3022813051253211E-002   4.3082705310161007E-002
   1.9860047730836383E-002  -1.5850424184332468E-002   4.0690734592187305E-002
   2.2609904958021156E-002  -6.9041429709519320E-003   5.5112398436686111E-002
   2.1027252518983609E-002  -6.5612618947144541E-003   5.2280807691511444E-002
   1.9444600079946101E-002  -6.3282159721974734E-003   4.9576620822551307E-002
   1.7861947640908579E-002  -6.2050052034008409E-003   4.6999837829805734E-002
   1.6279295201871047E-002  -6.1916295883248651E-003   4.4550458713275121E-002
   1.8860170874278270E-002  -4.1216245261564699E-003   5.9767996410134909E-002
   1.7433510769855290E-002  -3.1815921224681853E-003   5.7455411656238041E-002
   1.6006850665432379E-002  -1.6034497322655120E-003   5.5327407695355671E-002
   1.4580190561009485E-002   6.1280264445129178E-004   5.3383984527488007E-002
   1.3153530456586460E-002   3.4671650076827931E-003   5.1625142152635112E-002
   1.5336716907016379E-002  -1.3391060813606748E-003   6.4646773140916713E-002
   1.4123226054008009E-002   1.9807764977813891E-004   6.3601139518532745E-002
   1.2909735200999625E-002   3.1213165076661165E-003   6.2797263605963438E-002
   1.1696244347991248E-002   7.4306104923037575E-003   6.2235145403208653E-002
   1.0482753494982844E-002   1.3125959603690340E-002   6.1914784910268361E-002
   2.6624856556504841E-002   0.0000000000000000        2.9484686098714463E-002
   2.7223669329590555E-002  -5.8069743469804126E-004   3.4963513665828547E-002
   2.7822482102676266E-002  -1.3106693473101741E-003   4.0136127156230425E-002
   2.8421294875761980E-002  -2.1899157378363985E-003   4.5002526569920112E-002
   2.9020107648847687E-002  -3.2184366062767153E-003   4.9562711906897615E-002
   2.0108738352333309E-002   0.0000000000000000        2.9041883427446378E-002
   2.0440464769565674E-002  -4.3552307601393229E-004   3.4335826257242491E-002
   2.0772191186798041E-002  -9.8300201046536573E-004   3.9401810452044106E-002
   2.1103917604030402E-002  -1.6424368033543055E-003   4.4239836011851205E-002
   2.1435644021262770E-002  -2.4138274546807404E-003   4.8849902936663823E-002
   1.3499222858160770E-002   0.0000000000000000        2.8725595805124106E-002
   1.3642118361257474E-002  -2.9034871732982071E-004   3.3871972517078845E-002
   1.3785013864354179E-002  -6.5533467362055911E-004   3.8868646035756786E-002
   1.3927909367450884E-002  -1.0949578688722083E-003   4.3715616361157901E-002
   1.4070804870547588E-002  -1.6092183030847755E-003   4.8412883493282183E-002
   6.7963100739872268E-003   0.0000000000000000        2.8535823231747651E-002
   6.8286301046659587E-003  -1.4517435864571044E-004   3.3571952445337609E-002
   6.8609501353446897E-003  -3.2766733677574728E-004   3.8536633907368452E-002
   6.8932701660234224E-003  -5.4747893439011661E-004   4.3429867617840137E-002
   6.9255901967021543E-003  -8.0460915148880042E-004   4.8251653576752734E-002
  -1.8732324719161753E-013   0.0000000000000000        2.8472565707317009E-002
  -2.0887545165715338E-013   3.8400706225960590E-014   3.3435766042018776E-002
  -2.3042830664399272E-013   6.9057606855160714E-014   3.8405774066879103E-002
  -2.5198170373191831E-013   9.1983712313670196E-014   4.3382589781898004E-002
  -2.7353423345810590E-013   1.0716427745194324E-013   4.8366213187075437E-002
   2.9020107648847687E-002  -3.2184366062767153E-003   4.9562711906897615E-002
   2.9088827237325199E-002  -4.2353900930397689E-003   5.1633219745028019E-002
   2.9157546825802703E-002  -5.0799343385342210E-003   5.3803672158038267E-002
   2.9226266414280205E-002  -5.7520693427600446E-003   5.6074069145928329E-002
   2.9294986002757706E-002  -6.2517951057172866E-003   5.8444410708698283E-002
   2.1435644021262770E-002  -2.4138274546807404E-003   4.8849902936663823E-002
   2.1575027066621157E-002  -3.1765425697536948E-003   5.1261612219771560E-002
   2.1714410111979544E-002  -3.8099507538821393E-003   5.3714703841761191E-002
   2.1853793157337931E-002  -4.3140520070661286E-003   5.6209177802632806E-002
   2.1993176202696318E-002  -4.6888463293056071E-003   5.8745034102386261E-002
   1.4070804870547588E-002  -1.6092183030847755E-003   4.8412883493282183E-002
   1.4222289136788939E-002  -2.1176950464676138E-003   5.1122691911043142E-002
   1.4373773403030287E-002  -2.5399671692300846E-003   5.3815320431688095E-002
   1.4525257669271633E-002  -2.8760346713721883E-003   5.6490769055217042E-002
   1.4676741935512983E-002  -3.1258975528939206E-003   5.9149037781629971E-002
   6.9255901967021543E-003  -8.0460915148880042E-004   4.8251653576752734E-002
   7.0306134478285423E-003  -1.0588475231815327E-003   5.1216458818842771E-002
   7.1356366989549311E-003  -1.2699835845780198E-003   5.4105521927818881E-002
   7.2406599500813174E-003  -1.4380173356782567E-003   5.6918842903681093E-002
   7.3456832012077046E-003  -1.5629487764822307E-003   5.9656421746429329E-002
  -2.7353423345810590E-013   1.0716427745194324E-013   4.8366213187075437E-002
  -2.6002941119762646E-013   1.0454484500321826E-013   5.1542912943170448E-002
  -2.4652697418192648E-013   7.4050141019021964E-014   5.4585308330153612E-002
  -2.3302377822470577E-013   1.5674527648057435E-014   5.7493399348024950E-002
  -2.1951884754400908E-013  -7.0554673214928698E-014   6.0267185996784420E-002
   2.9294986002757706E-002  -6.2517951057172866E-003   5.8444410708698283E-002
   2.8949331686973220E-002  -6.6377027341864500E-003   5.9232458343961139E-002
   2.8603677371188733E-002  -6.9683833349479529E-003   6.0071199894250665E-002
   2.8258023055404233E-002  -7.2438369080019480E-003   6.0960635359566806E-002
   2.7912368739619754E-002  -7.4640634533483102E-003   6.1900764739909589E-002
   2.1993176202696318E-002  -4.6888463293056071E-003   5.8745034102386261E-002
   2.1707145717926264E-002  -4.9782770506860141E-003   5.9575710835755663E-002
   2.1421115233156221E-002  -5.2262875012927049E-003   6.0474941316127226E-002
   2.1135084748386171E-002  -5.4328776811257574E-003   6.1442725543501060E-002
   2.0849054263616128E-002  -5.5980475901851179E-003   6.2479063517877152E-002
   1.4676741935512983E-002  -3.1258975528939206E-003   5.9149037781629971E-002
   1.4468195113732978E-002  -3.3188513671855956E-003   6.0008536856171892E-002
   1.4259648291952963E-002  -3.4841916676374568E-003   6.0954449509691699E-002
   1.4051101470172956E-002  -3.6219184542495807E-003   6.1986775742189283E-002
   1.3842554648392949E-002  -3.7320317270219047E-003   6.3105515553664740E-002
   7.3456832012077046E-003  -1.5629487764822307E-003   5.9656421746429329E-002
   7.2324798743933303E-003  -1.6594256836851545E-003   6.0530936405209984E-002
   7.1192765475789552E-003  -1.7420958339822157E-003   6.1509724474944003E-002
   7.0060732207645809E-003  -1.8109592273733693E-003   6.2592785955631489E-002
   6.8928698939502084E-003  -1.8660158638587158E-003   6.3780120847272401E-002
  -2.1951884754400908E-013  -7.0554673214928698E-014   6.0267185996784420E-002
  -9.2659387107563163E-014  -1.8475151963848191E-013   6.1142909482869781E-002
   3.4198338605406775E-014  -3.2695027241125274E-013   6.2140766211884226E-002
   1.6105779904185269E-013  -4.9721771838706630E-013   6.3260756183827677E-002
   2.8791552475482263E-013  -6.9548533598862150E-013   6.4502879398700128E-002
   2.7912368739619754E-002  -7.4640634533483102E-003   6.1900764739909589E-002
   2.7191888075881708E-002  -7.5791456250561898E-003   6.1659125971259637E-002
   2.6471407412143644E-002  -7.5391660771946360E-003   6.1690973432769212E-002
   2.5750926748405602E-002  -7.3441248097635857E-003   6.1996307124438169E-002
   2.5030446084667549E-002  -6.9940218227630968E-003   6.2575127046266610E-002
   2.0849054263616128E-002  -5.5980475901851179E-003   6.2479063517877152E-002
   2.0378718314002280E-002  -5.6843592190305714E-003   6.2406577098584243E-002
   1.9908382364388421E-002  -5.6543745582217850E-003   6.2560893877380216E-002
   1.9438046414774569E-002  -5.5080936077589581E-003   6.2942013854265136E-002
   1.8967710465160714E-002  -5.2455163676418670E-003   6.3549937029239070E-002
   1.3842554648392949E-002  -3.7320317270219047E-003   6.3105515553664740E-002
   1.3575680380832787E-002  -3.7895728130049357E-003   6.3163416053813481E-002
   1.3308806113272623E-002  -3.7695830392490467E-003   6.3401436719980747E-002
   1.3041931845712462E-002  -3.6720624057542616E-003   6.3819577552166357E-002
   1.2775057578152300E-002  -3.4970109125206372E-003   6.4417838550370476E-002
   6.8928698939502084E-003  -1.8660158638587158E-003   6.3780120847272401E-002
   6.7827742763732247E-003  -1.8947864069792809E-003   6.3929642836947576E-002
   6.6726786587962394E-003  -1.8847915202763075E-003   6.4212601960570728E-002
   6.5625830412192601E-003  -1.8360312037495857E-003   6.4628998218141845E-002
   6.4524874236422695E-003  -1.7485054573993936E-003   6.5178831609660814E-002
   2.8791552475482263E-013  -6.9548533598862150E-013   6.4502879398700128E-002
   6.2360012986761859E-013  -9.5368157815300947E-013   6.4705257447986497E-002
   9.5928646970389053E-013  -1.3034746892959248E-012   6.4994389599150298E-002
   1.2949745442636384E-012  -1.7449002312486250E-012   6.5370275852191462E-002
   1.6306574146529584E-012  -2.2781498909552056E-012   6.5832916207110043E-002
   2.5030446084667549E-002  -6.9940218227630968E-003   6.2575127046266610E-002
   2.4277289182067494E-002  -6.5811702302141367E-003   6.2617892634728195E-002
   2.3524132279467459E-002  -6.1978831461377837E-003   6.2806991967803538E-002
   2.2770975376867415E-002  -5.8441605705337601E-003   6.3142425045492695E-002
   2.2017818474267370E-002  -5.5200025034023992E-003   6.3624191867795665E-002
   1.8967710465160714E-002  -5.2455163676418670E-003   6.3549937029239070E-002
   1.8371376177513943E-002  -4.9358776733504361E-003   6.3447405275649543E-002
   1.7775041889867161E-002  -4.6484123603641875E-003   6.3512185007352673E-002
   1.7178707602220379E-002  -4.3831204286833882E-003   6.3744276224348570E-002
   1.6582373314573615E-002  -4.1400018783079306E-003   6.4143678926637054E-002
   1.2775057578152300E-002  -3.4970109125206372E-003   6.4417838550370476E-002
   1.2356523646137665E-002  -3.2905851164866037E-003   6.4177400581897026E-002
   1.1937989714123029E-002  -3.0989415745907301E-003   6.4125251839395131E-002
   1.1519455782108393E-002  -2.9220802868329607E-003   6.4261392322864874E-002
   1.1100921850093752E-002  -2.7600012532134899E-003   6.4585822032306228E-002
   6.4524874236422695E-003  -1.7485054573993936E-003   6.5178831609660814E-002
   6.2327315879386622E-003  -1.6452925596228095E-003   6.4807878553470658E-002
   6.0129757522350558E-003  -1.5494707888173143E-003   6.4646192463930885E-002
   5.7932199165314458E-003  -1.4610401449825887E-003   6.4693773341041677E-002
   5.5734640808278359E-003  -1.3800006281190630E-003   6.4950621184802895E-002
   1.6306574146529584E-012  -2.2781498909552056E-012   6.5832916207110043E-002
   2.9169479331958570E-012  -2.7590568718594000E-012   6.5338839190370396E-002
   4.2032367170152796E-012  -3.0437111164793862E-012   6.5075006880960060E-002
   5.4895255008347021E-012  -3.1321837484776793E-012   6.5041419278878992E-002
   6.7758160193776007E-012  -3.0245805859863140E-012   6.5238076384127319E-002
   2.2017818474267370E-002  -5.5200025034023992E-003   6.3624191867795665E-002
   2.1133284075829817E-002  -5.1907414027216880E-003   6.3343919987808806E-002
   2.0248749677392264E-002  -4.8217097264691700E-003   6.3256869501487761E-002
   1.9364215278954711E-002  -4.4129074746456082E-003   6.3363040408832338E-002
   1.8479680880517171E-002  -3.9643346472506003E-003   6.3662432709842898E-002
   1.6582373314573615E-002  -4.1400018783079306E-003   6.4143678926637054E-002
   1.5898038361365122E-002  -3.8930560526949792E-003   6.3859178047103324E-002
   1.5213703408156622E-002  -3.6162822953014900E-003   6.3781854664361870E-002
   1.4529368454948125E-002  -3.3096806061278967E-003   6.3911708778412749E-002
   1.3845033501739636E-002  -2.9732509851736477E-003   6.4248740389256070E-002
   1.1100921850093752E-002  -2.7600012532134899E-003   6.4585822032306228E-002
   1.0630742445240888E-002  -2.5953707026682427E-003   6.4287149509434399E-002
   1.0160563040388024E-002  -2.4108548641338101E-003   6.4209610586481572E-002
   9.6903836355351526E-003  -2.2064537376099078E-003   6.4353205263447677E-002
   9.2202042306822919E-003  -1.9821673230967229E-003   6.4717933540332520E-002
   5.5734640808278359E-003  -1.3800006281190630E-003   6.4950621184802895E-002
   5.3313963274571434E-003  -1.2976853526416310E-003   6.4627834374802171E-002
   5.0893285740864587E-003  -1.2054274329660469E-003   6.4540137267846964E-002
   4.8472608207157670E-003  -1.1032268690920020E-003   6.4687529863937179E-002
   4.6051930673450805E-003  -9.9108366101981205E-004   6.5070012163072913E-002
   6.7758160193776007E-012  -3.0245805859863140E-012   6.5238076384127319E-002
   8.0138742863944401E-012  -2.6149360454752468E-012   6.4881232643206610E-002
   9.2519290839643276E-012  -1.7984086442268676E-012   6.4773434708457894E-002
   1.0489985616257691E-011  -5.7419693999527510E-013   6.4914682579881269E-002
   1.1728042148551054E-011   1.0571543640480741E-012   6.5304976257476610E-002
   1.8479680880517171E-002  -3.9643346472506003E-003   6.3662432709842898E-002
   1.7693939887141977E-002  -3.4489142754969004E-003   6.3447551871255281E-002
   1.6908198893766775E-002  -2.8395693905974156E-003   6.3539981663571693E-002
   1.6122457900391577E-002  -2.1362999925520036E-003   6.3939722086792120E-002
   1.5336716907016379E-002  -1.3391060813606748E-003   6.4646773140916713E-002
   1.3845033501739636E-002  -2.9732509851736477E-003   6.4248740389256070E-002
   1.3338884293646908E-002  -2.5866857057696979E-003   6.4098142761899568E-002
   1.2832735085554176E-002  -2.1296770412463084E-003   6.4199418074203943E-002
   1.2326585877461447E-002  -1.6022249916035000E-003   6.4552566326169347E-002
   1.1820436669368731E-002  -1.0043295568412658E-003   6.5157587517795379E-002
   9.2202042306822919E-003  -1.9821673230967229E-003   6.4717933540332520E-002
   8.9382091166288306E-003  -1.7244571360423150E-003   6.4608137996180870E-002
   8.6562140025753676E-003  -1.4197846918951526E-003   6.4694777700446821E-002
   8.3742188885219081E-003  -1.0681499906550537E-003   6.4977852653130483E-002
   8.0922237744684503E-003  -6.6955303232191232E-004   6.5457362854231760E-002
   4.6051930673450805E-003  -9.9108366101981205E-004   6.5070012163072913E-002
   4.4919143560877050E-003  -8.6222856631518879E-004   6.4977537574099326E-002
   4.3786356448303320E-003  -7.0989234254402109E-004   6.5026060542300312E-002
   4.2653569335729538E-003  -5.3407498970657868E-004   6.5215581067675804E-002
   4.1520782223155844E-003  -3.3477650780253110E-004   6.5546099150225634E-002
   1.1728042148551054E-011   1.0571543640480741E-012   6.5304976257476610E-002
   1.2023555762130655E-011   3.4121594438829561E-012   6.5206341495654851E-002
   1.2319069375710257E-011   6.8071520642476457E-012   6.5193266599764405E-002
   1.2614584724013334E-011   1.1241823444363419E-011   6.5265751569805283E-002
   1.2910096602869459E-011   1.6716905637537138E-011   6.5423796405777390E-002
   1.5336716907016379E-002  -1.3391060813606748E-003   6.4646773140916713E-002
   1.4123226054008009E-002   1.9807764977813891E-004   6.3601139518532745E-002
   1.2909735200999625E-002   3.1213165076661165E-003   6.2797263605963438E-002
   1.1696244347991248E-002   7.4306104923037575E-003   6.2235145403208653E-002
   1.0482753494982844E-002   1.3125959603690340E-002   6.1914784910268361E-002
   1.1820436669368731E-002  -1.0043295568412658E-003   6.5157587517795379E-002
   1.0864107276860838E-002   1.4855824369991444E-004   6.5128223225438819E-002
   9.9077778843529377E-003   2.3409873906792833E-003   6.5371424144268359E-002
   8.9514484918450342E-003   5.5729578840975763E-003   6.5887190274284510E-002
   7.9951190993371446E-003   9.8444697239541412E-003   6.6675521615487177E-002
   8.0922237744684503E-003  -6.6955303232191232E-004   6.5457362854231760E-002
   7.4238633438329406E-003   9.9038837621440168E-005   6.6097754111591606E-002
   6.7555029131974205E-003   1.5606582736926167E-003   6.7041518081509710E-002
   6.0871424825619056E-003   3.7153052758914229E-003   6.8288654763986142E-002
   5.4187820519263630E-003   6.5629798442180531E-003   6.9839164159020972E-002
   4.1520782223155844E-003  -3.3477650780253110E-004   6.5546099150225634E-002
   3.8024942549243317E-003   4.9519431543090797E-005   6.6509732176991174E-002
   3.4529102875330798E-003   7.8032915670570024E-004   6.7807545417686951E-002
   3.1033263201418301E-003   1.8576526676853111E-003   6.9439538872312731E-002
   2.7537423527505822E-003   3.2814899644819095E-003   7.1405712540868929E-002
   1.2910096602869459E-011   1.6716905637537138E-011   6.5423796405777390E-002
   1.0135010886092033E-011   2.5464630404314903E-011   6.6364157421637815E-002
   7.3599251693146073E-012   3.9719019739870021E-011   6.7669506152800402E-002
   4.5848307789198017E-012   5.9479230568593167E-011   6.9339842599265081E-002
   1.8097467968658520E-012   8.4745765960292374E-011   7.1375166761031839E-002
  -1.8732324719161753E-013   0.0000000000000000        2.8472565707317009E-002
  -2.0887545165715338E-013   3.8400706225960590E-014   3.3435766042018776E-002
  -2.3042830664399272E-013   6.9057606855160714E-014   3.8405774066879103E-002
  -2.5198170373191831E-013   9.1983712313670196E-014   4.3382589781898004E-002
  -2.7353423345810590E-013   1.0716427745194324E-013   4.8366213187075437E-002
  -6.7963100743565034E-003   0.0000000000000000        2.8535823231836545E-002
  -6.8286301050791698E-003   1.4517435873005313E-004   3.3571952445419766E-002
  -6.8609501358018361E-003   3.2766733692660838E-004   3.8536633907442205E-002
  -6.8932701665245007E-003   5.4747893458967183E-004   4.3429867617903850E-002
  -6.9255901972471671E-003   8.0460915171922699E-004   4.8251653576804721E-002
  -1.3499222858513942E-002   0.0000000000000000        2.8725595805310613E-002
  -1.3642118361657064E-002   2.9034871742170685E-004   3.3871972517249528E-002
  -1.3785013864800185E-002   6.5533467378415828E-004   3.8868646035908318E-002
  -1.3927909367943310E-002   1.0949578690873591E-003   4.3715616361286971E-002
  -1.4070804871086431E-002   1.6092183033313036E-003   4.8412883493385517E-002
  -2.0108738352659632E-002   0.0000000000000000        2.9041883427739210E-002
  -2.0440464769942556E-002   4.3552307611336078E-004   3.4335826257508070E-002
  -2.0772191187225484E-002   9.8300201064170948E-004   3.9401810452277454E-002
  -2.1103917604508401E-002   1.6424368035850485E-003   4.4239836012047361E-002
  -2.1435644021791329E-002   2.4138274549433750E-003   4.8849902936817804E-002
  -2.6624856556793586E-002   0.0000000000000000        2.9484686099122345E-002
  -2.7223669329935651E-002   5.8069743480501385E-004   3.4963513666195385E-002
  -2.7822482103077723E-002   1.3106693474992572E-003   4.0136127156549600E-002
  -2.8421294876219794E-002   2.1899157380827379E-003   4.5002526570185004E-002
  -2.9020107649361859E-002   3.2184366065554455E-003   4.9562711907101584E-002
  -2.7353423345810590E-013   1.0716427745194324E-013   4.8366213187075437E-002
  -2.6002941119762646E-013   1.0454484500321826E-013   5.1542912943170448E-002
  -2.4652697418192648E-013   7.4050141019021964E-014   5.4585308330153612E-002
  -2.3302377822470577E-013   1.5674527648057435E-014   5.7493399348024950E-002
  -2.1951884754400908E-013  -7.0554673214928698E-014   6.0267185996784420E-002
  -6.9255901972471671E-003   8.0460915171922699E-004   4.8251653576804721E-002
  -7.0306134483502777E-003   1.0588475234120606E-003   5.1216458818845415E-002
  -7.1356366994533883E-003   1.2699835847649319E-003   5.4105521927764716E-002
  -7.2406599505565042E-003   1.4380173357778406E-003   5.6918842903562639E-002
  -7.3456832016596130E-003   1.5629487764507732E-003   5.9656421746239155E-002
  -1.4070804871086431E-002   1.6092183033313036E-003   4.8412883493385517E-002
  -1.4222289137315700E-002   2.1176950467195841E-003   5.1122691911059795E-002
  -1.4373773403544968E-002   2.5399671694558137E-003   5.3815320431603142E-002
  -1.4525257669774236E-002   2.8760346715399863E-003   5.6490769055015558E-002
  -1.4676741936003500E-002   3.1258975529721011E-003   5.9149037781297070E-002
  -2.1435644021791329E-002   2.4138274549433750E-003   4.8849902936817804E-002
  -2.1575027067156295E-002   3.1765425700271176E-003   5.1261612219813554E-002
  -2.1714410112521260E-002   3.8099507541466955E-003   5.3714703841668855E-002
  -2.1853793157886225E-002   4.3140520073021351E-003   5.6209177802383707E-002
  -2.1993176203251186E-002   4.6888463294934429E-003   5.8745034101958062E-002
  -2.9020107649361859E-002   3.2184366065554455E-003   4.9562711907101584E-002
  -2.9088827237872063E-002   4.2353900933346294E-003   5.1633219745106748E-002
  -2.9157546826382261E-002   5.0799343388375834E-003   5.3803672157961911E-002
  -2.9226266414892468E-002   5.7520693430642925E-003   5.6074069145667080E-002
  -2.9294986003402669E-002   6.2517951060147570E-003   5.8444410708222191E-002
  -2.1951884754400908E-013  -7.0554673214928698E-014   6.0267185996784420E-002
  -9.2659387107563163E-014  -1.8475151963848191E-013   6.1142909482869781E-002
   3.4198338605406775E-014  -3.2695027241125274E-013   6.2140766211884226E-002
   1.6105779904185269E-013  -4.9721771838706630E-013   6.3260756183827677E-002
   2.8791552475482263E-013  -6.9548533598862150E-013   6.4502879398700128E-002
  -7.3456832016596130E-003   1.5629487764507732E-003   5.9656421746239155E-002
  -7.2324798746045450E-003   1.6594256834673304E-003   6.0530936404919564E-002
  -7.1192765475494692E-003   1.7420958335112452E-003   6.1509724474527357E-002
  -7.0060732204944003E-003   1.8109592265823753E-003   6.2592785955062527E-002
  -6.8928698934393254E-003   1.8660158626807866E-003   6.3780120846525123E-002
  -1.4676741936003500E-002   3.1258975529721011E-003   5.9149037781297070E-002
  -1.4468195114021854E-002   3.3188513671194662E-003   6.0008536855627764E-002
  -1.4259648292040206E-002   3.4841916673494424E-003   6.0954449508884213E-002
  -1.4051101470058561E-002   3.6219184536619687E-003   6.1986775741066417E-002
  -1.3842554648076908E-002   3.7320317260571070E-003   6.3105515552174418E-002
  -2.1993176203251186E-002   4.6888463294934429E-003   5.8745034101958062E-002
  -2.1707145718344607E-002   4.9782770507716028E-003   5.9575710834994397E-002
  -2.1421115233438020E-002   5.2262875011876318E-003   6.0474941314954865E-002
  -2.1135084748531430E-002   5.4328776807415621E-003   6.1442725541839438E-002
  -2.0849054263624843E-002   5.5980475894334171E-003   6.2479063515648102E-002
  -2.9294986003402669E-002   6.2517951060147570E-003   5.8444410708222191E-002
  -2.8949331687572778E-002   6.6377027344236700E-003   5.9232458343019476E-002
  -2.8603677371742891E-002   6.9683833350258316E-003   6.0071199892739215E-002
  -2.8258023055913011E-002   7.2438369078211750E-003   6.0960635357381415E-002
  -2.7912368740083123E-002   7.4640634528097133E-003   6.1900764736946182E-002
   2.8791552475482263E-013  -6.9548533598862150E-013   6.4502879398700128E-002
   6.2360012986761859E-013  -9.5368157815300947E-013   6.4705257447986497E-002
   9.5928646970389053E-013  -1.3034746892959248E-012   6.4994389599150298E-002
   1.2949745442636384E-012  -1.7449002312486250E-012   6.5370275852191462E-002
   1.6306574146529584E-012  -2.2781498909552056E-012   6.5832916207110043E-002
  -6.8928698934393254E-003   1.8660158626807866E-003   6.3780120846525123E-002
  -6.7827742752115542E-003   1.8947864053163593E-003   6.3929642835893460E-002
  -6.6726786569837777E-003   1.8847915179989183E-003   6.4212601959168641E-002
  -6.5625830387560074E-003   1.8360312007285190E-003   6.4628998216350472E-002
  -6.4524874205282301E-003   1.7485054535050226E-003   6.5178831607439133E-002
  -1.3842554648076908E-002   3.7320317260571070E-003   6.3105515552174418E-002
  -1.3575680379927702E-002   3.7895728115863725E-003   6.3163416051763427E-002
  -1.3308806111778489E-002   3.7695830373012853E-003   6.3401436717288581E-002
  -1.3041931843629277E-002   3.6720624032019109E-003   6.3819577548749895E-002
  -1.2775057575480067E-002   3.4970109092882368E-003   6.4417838546147216E-002
  -2.0849054263624843E-002   5.5980475894334171E-003   6.2479063515648102E-002
  -2.0378718313524849E-002   5.6843592178563718E-003   6.2406577095596535E-002
  -1.9908382363424848E-002   5.6543745566037069E-003   6.2560893873510354E-002
  -1.9438046413324844E-002   5.5080936056753722E-003   6.2942013849389689E-002
  -1.8967710463224843E-002   5.2455163650713607E-003   6.3549937023234443E-002
  -2.7912368740083123E-002   7.4640634528097133E-003   6.1900764736946182E-002
  -2.7191888076002979E-002   7.5791456241264266E-003   6.1659125967392592E-002
  -2.6471407411922845E-002   7.5391660759060279E-003   6.1690973427833785E-002
  -2.5750926747842694E-002   7.3441248081488148E-003   6.1996307118269811E-002
  -2.5030446083762568E-002   6.9940218208545957E-003   6.2575127038700690E-002
   1.6306574146529584E-012  -2.2781498909552056E-012   6.5832916207110043E-002
   2.9169479331958570E-012  -2.7590568718594000E-012   6.5338839190370396E-002
   4.2032367170152796E-012  -3.0437111164793862E-012   6.5075006880960060E-002
   5.4895255008347021E-012  -3.1321837484776793E-012   6.5041419278878992E-002
   6.7758160193776007E-012  -3.0245805859863140E-012   6.5238076384127319E-002
  -6.4524874205282301E-003   1.7485054535050226E-003   6.5178831607439133E-002
  -6.2327315822855297E-003   1.6452925549515635E-003   6.4807878551278078E-002
  -6.0129757440428346E-003   1.5494707836908733E-003   6.4646192461700475E-002
  -5.7932199058001394E-003   1.4610401397231292E-003   6.4693773338706434E-002
  -5.5734640675574390E-003   1.3800006230482165E-003   6.4950621182295748E-002
  -1.2775057575480067E-002   3.4970109092882368E-003   6.4417838546147216E-002
  -1.2356523641026823E-002   3.2905851126621213E-003   6.4177400577661498E-002
  -1.1937989706573575E-002   3.0989415704254890E-003   6.4125251835013372E-002
  -1.1519455772120334E-002   2.9220802825784429E-003   6.4261392318202867E-002
  -1.1100921837667085E-002   2.7600012491209025E-003   6.4585822027229942E-002
  -1.8967710463224843E-002   5.2455163650713607E-003   6.3549937023234443E-002
  -1.8371376173306919E-002   4.9358776703726966E-003   6.3447405269520654E-002
  -1.7775041883388985E-002   4.6484123571602278E-003   6.3512185000898627E-002
  -1.7178707593471048E-002   4.3831204254337845E-003   6.3744276217368362E-002
  -1.6582373303553125E-002   4.1400018751936440E-003   6.4143678918929831E-002
  -2.5030446083762568E-002   6.9940218208545957E-003   6.2575127038700690E-002
  -2.4277289179125815E-002   6.5811702280832718E-003   6.2617892626855520E-002
  -2.3524132274489060E-002   6.1978831438947238E-003   6.2806991959356309E-002
  -2.2770975369852307E-002   5.8441605682890783E-003   6.3142425036202876E-002
  -2.2017818465215555E-002   5.5200025012663301E-003   6.3624191857395485E-002
   6.7758160193776007E-012  -3.0245805859863140E-012   6.5238076384127319E-002
   8.0138742863944401E-012  -2.6149360454752468E-012   6.4881232643206610E-002
   9.2519290839643276E-012  -1.7984086442268676E-012   6.4773434708457894E-002
   1.0489985616257691E-011  -5.7419693999527510E-013   6.4914682579881269E-002
   1.1728042148551054E-011   1.0571543640480741E-012   6.5304976257476610E-002
  -5.5734640675574390E-003   1.3800006230482165E-003   6.4950621182295748E-002
  -5.3313963117462143E-003   1.2976853482678935E-003   6.4627834372451717E-002
  -5.0893285559349948E-003   1.2054274299842793E-003   6.4540137265581984E-002
  -4.8472608001237745E-003   1.1032268681971172E-003   6.4687529861686632E-002
  -4.6051930443125506E-003   9.9108366290651118E-004   6.5070012160765522E-002
  -1.1100921837667085E-002   2.7600012491209025E-003   6.4585822027229942E-002
  -1.0630742430480414E-002   2.5953706991509867E-003   6.4287149504551833E-002
  -1.0160563023293746E-002   2.4108548617668632E-003   6.4209610581650395E-002
  -9.6903836161070771E-003   2.2064537369685441E-003   6.4353205258525489E-002
  -9.2202042089204010E-003   1.9821673247559790E-003   6.4717933535177172E-002
  -1.6582373303553125E-002   4.1400018751936440E-003   6.4143678918929831E-002
  -1.5898038348188728E-002   3.8930560500340314E-003   6.3859178039506914E-002
  -1.5213703392824322E-002   3.6162822935494714E-003   6.3781854656662806E-002
  -1.4529368437459916E-002   3.3096806057399701E-003   6.3911708770397577E-002
  -1.3845033482095526E-002   2.9732509866054468E-003   6.4248740380711322E-002
  -2.2017818465215555E-002   5.5200025012663301E-003   6.3624191857395485E-002
  -2.1133284064871138E-002   5.1907414009169650E-003   6.3343919977316865E-002
  -2.0248749664526722E-002   4.8217097253321489E-003   6.3256869490619483E-002
  -1.9364215264182319E-002   4.4129074745112053E-003   6.3363040397303269E-002
  -1.8479680863837895E-002   3.9643346484548037E-003   6.3662432697368099E-002
   1.1728042148551054E-011   1.0571543640480741E-012   6.5304976257476610E-002
   1.2023555762130655E-011   3.4121594438829561E-012   6.5206341495654851E-002
   1.2319069375710257E-011   6.8071520642476457E-012   6.5193266599764405E-002
   1.2614584724013334E-011   1.1241823444363419E-011   6.5265751569805283E-002
   1.2910096602869459E-011   1.6716905637537138E-011   6.5423796405777390E-002
  -4.6051930443125506E-003   9.9108366290651118E-004   6.5070012160765522E-002
  -4.4919143324873446E-003   8.6222857220311089E-004   6.4977537572833671E-002
  -4.3786356206621437E-003   7.0989235417717733E-004   6.5026060542029973E-002
  -4.2653569088369351E-003   5.3407500882909908E-004   6.5215581068354303E-002
  -4.1520781970117368E-003   3.3477653615848757E-004   6.5546099151806758E-002
  -9.2202042089204010E-003   1.9821673247559790E-003   6.4717933535177172E-002
  -8.9382090943687202E-003   1.7244571409940068E-003   6.4608137992772874E-002
  -8.6562139798170238E-003   1.4197847015473761E-003   6.4694777698693556E-002
  -8.3742188652653274E-003   1.0681500064160989E-003   6.4977852652939094E-002
  -8.0922237507136327E-003   6.6955305560015277E-004   6.5457362855509502E-002
  -1.3845033482095526E-002   2.9732509866054468E-003   6.4248740380711322E-002
  -1.3338884273620550E-002   2.5866857097848750E-003   6.4098142755472445E-002
  -1.2832735065145569E-002   2.1296770489175436E-003   6.4199418069755307E-002
  -1.2326585856670595E-002   1.6022250040031811E-003   6.4552566323559615E-002
  -1.1820436648195621E-002   1.0043295750418874E-003   6.5157587516885829E-002
  -1.8479680863837895E-002   3.9643346484548037E-003   6.3662432697368099E-002
  -1.7693939870242856E-002   3.4489142785758820E-003   6.3447551860932316E-002
  -1.6908198876647795E-002   2.8395693962876278E-003   6.3539981655214961E-002
  -1.6122457883052752E-002   2.1363000015903535E-003   6.3939722080216033E-002
  -1.5336716889457695E-002   1.3391060944835109E-003   6.4646773135935698E-002
   1.2910096602869459E-011   1.6716905637537138E-011   6.5423796405777390E-002
   1.0135010886092033E-011   2.5464630404314903E-011   6.6364157421637815E-002
   7.3599251693146073E-012   3.9719019739870021E-011   6.7669506152800402E-002
   4.5848307789198017E-012   5.9479230568593167E-011   6.9339842599265081E-002
   1.8097467968658520E-012   8.4745765960292374E-011   7.1375166761031839E-002
  -4.1520781970117368E-003   3.3477653615848757E-004   6.5546099151806758E-002
  -3.8024942349537127E-003  -4.9519389231617028E-005   6.6509732187112897E-002
  -3.4529102728956748E-003  -7.8032909273813289E-004   6.7807545436783134E-002
  -3.1033263108376351E-003  -1.8576525743614798E-003   6.9439538900817582E-002
  -2.7537423487796267E-003  -3.2814898341013699E-003   7.1405712579216130E-002
  -8.0922237507136327E-003   6.6955305560015277E-004   6.5457362855509502E-002
  -7.4238633247604678E-003  -9.9038803927864461E-005   6.6097754126638694E-002
  -6.7555028988073099E-003  -1.5606582251951814E-003   6.7041518111193882E-002
  -6.0871424728541519E-003  -3.7153052082019977E-003   6.8288654809175536E-002
  -5.4187820469009870E-003  -6.5629797529482836E-003   6.9839164220582839E-002
  -1.1820436648195621E-002   1.0043295750418874E-003   6.5157587516885829E-002
  -1.0864107259285306E-002  -1.4855821862405638E-004   6.5128223240215041E-002
  -9.9077778703749939E-003  -2.3409873576522265E-003   6.5371424176032394E-002
  -8.9514484814646710E-003  -5.5729578420426118E-003   6.5887190324337958E-002
  -7.9951190925543671E-003  -9.8444696717952529E-003   6.6675521685131633E-002
  -1.5336716889457695E-002   1.3391060944835109E-003   6.4646773135935698E-002
  -1.4123226038528204E-002  -1.9807763332019279E-004   6.3601139527842021E-002
  -1.2909735187598716E-002  -3.1213164901091883E-003   6.2797263631298783E-002
  -1.1696244336669255E-002  -7.4306104758832051E-003   6.2235145446305623E-002
  -1.0482753485739738E-002  -1.3125959590642333E-002   6.1914784972862513E-002
  -2.6624856556793586E-002   0.0000000000000000        2.9484686099122345E-002
  -2.7223669329935651E-002   5.8069743480501385E-004   3.4963513666195385E-002
  -2.7822482103077723E-002   1.3106693474992572E-003   4.0136127156549600E-002
  -2.8421294876219794E-002   2.1899157380827379E-003   4.5002526570185004E-002
  -2.9020107649361859E-002   3.2184366065554455E-003   4.9562711907101584E-002
  -3.3384576827613636E-002   0.0000000000000000        3.0189385143045595E-002
  -3.4224677485036360E-002   9.5533647863557756E-004   3.5279173304766938E-002
  -3.5064778142459084E-002   2.0146701305701177E-003   4.0192599774645781E-002
  -3.5904878799881815E-002   3.1780009558036231E-003   4.4929664552682130E-002
  -3.6744979457304532E-002   4.4453289543360773E-003   4.9490367638875994E-002
  -4.0724898521817640E-002   0.0000000000000000        3.1291361883094539E-002
  -4.1676434678644701E-002   1.3299755224661430E-003   3.5946833334873925E-002
  -4.2627970835471762E-002   2.7186709136409809E-003   4.0555795479687136E-002
  -4.3579506992298817E-002   4.1660861735245084E-003   4.5118248317534165E-002
  -4.4531043149125892E-002   5.6722213021167308E-003   4.9634191848415027E-002
  -4.8645821639405597E-002   0.0000000000000000        3.2790616319269189E-002
  -4.9578940910760677E-002   1.7046145662967089E-003   3.6966493756516339E-002
  -5.0512060182115737E-002   3.4226716967118392E-003   4.1225714271673639E-002
  -5.1445179453470810E-002   5.1541713912453936E-003   4.5568277864741089E-002
  -5.2378298724825877E-002   6.8991136498973800E-003   4.9994184535718675E-002
  -5.7147346180377492E-002   0.0000000000000000        3.4687148451569533E-002
  -5.7932196181384260E-002   2.0792536101272713E-003   3.8338154569694187E-002
  -5.8717046182391021E-002   4.1266724797827028E-003   4.2202356150605302E-002
  -5.9501896183397796E-002   6.1422566089662806E-003   4.6279753194302893E-002
  -6.0286746184404563E-002   8.1260059976780187E-003   5.0570345700786959E-002
  -2.9020107649361859E-002   3.2184366065554455E-003   4.9562711907101584E-002
  -2.9088827237872063E-002   4.2353900933346294E-003   5.1633219745106748E-002
  -2.9157546826382261E-002   5.0799343388375834E-003   5.3803672157961911E-002
  -2.9226266414892468E-002   5.7520693430642925E-003   5.6074069145667080E-002
  -2.9294986003402669E-002   6.2517951060147570E-003   5.8444410708222191E-002
  -3.6744979457304532E-002   4.4453289543360773E-003   4.9490367638875994E-002
  -3.6752939789197275E-002   5.6759956285854403E-003   5.1285633743199249E-002
  -3.6760900121090019E-002   6.7293424809696427E-003   5.3102473785907441E-002
  -3.6768860452982763E-002   7.6053695114886516E-003   5.4940887767000582E-002
  -3.6776820784875500E-002   8.3040767201424809E-003   5.6800875686478611E-002
  -4.4531043149125892E-002   5.6722213021167308E-003   4.9634191848415027E-002
  -4.4556614860866227E-002   7.1166011638362538E-003   5.1149305638467459E-002
  -4.4582186572606569E-002   8.3787506231016821E-003   5.2607622730439743E-002
  -4.4607758284346911E-002   9.4586696799130003E-003   5.4009143124331922E-002
  -4.4633329996087261E-002   1.0356358334270233E-002   5.5353866820143954E-002
  -5.2378298724825877E-002   6.8991136498973800E-003   4.9994184535718675E-002
  -5.2499852452878894E-002   8.5572066990870655E-003   5.1224235430911355E-002
  -5.2621406180931904E-002   1.0028158765233724E-002   5.2319118991558833E-002
  -5.2742959908984921E-002   1.1311969848337362E-002   5.3278835217661101E-002
  -5.2864513637037931E-002   1.2408639948398005E-002   5.4103384109218187E-002
  -6.0286746184404563E-002   8.1260059976780187E-003   5.0570345700786959E-002
  -6.0582652565235290E-002   9.9978122343378703E-003   5.1510423120530967E-002
  -6.0878558946066037E-002   1.1677566907365777E-002   5.2236962569264696E-002
  -6.1174465326896792E-002   1.3165270016761712E-002   5.2749964046988188E-002
  -6.1470371707727504E-002   1.4460921562525715E-002   5.3049427553701393E-002
  -2.9294986003402669E-002   6.2517951060147570E-003   5.8444410708222191E-002
  -2.8949331687572778E-002   6.6377027344236700E-003   5.9232458343019476E-002
  -2.8603677371742891E-002   6.9683833350258316E-003   6.0071199892739215E-002
  -2.8258023055913011E-002   7.2438369078211750E-003   6.0960635357381415E-002
  -2.7912368740083123E-002   7.4640634528097133E-003   6.1900764736946182E-002
  -3.6776820784875500E-002   8.3040767201424809E-003   5.6800875686478611E-002
  -3.6330473686230519E-002   8.8437381394554961E-003   5.7166248367117964E-002
  -3.5884126587585545E-002   9.2426278019521503E-003   5.7682312698465028E-002
  -3.5437779488940557E-002   9.5007457076323673E-003   5.8349068680519783E-002
  -3.4991432390295577E-002   9.6180918564961748E-003   5.9166516313282264E-002
  -4.4633329996087261E-002   1.0356358334270233E-002   5.5353866820143954E-002
  -4.3986292378841968E-002   1.1049773544487392E-002   5.5211019817615753E-002
  -4.3339254761596661E-002   1.1516872268878526E-002   5.5318862201580492E-002
  -4.2692217144351369E-002   1.1757654507443604E-002   5.5677393972038192E-002
  -4.2045179527106069E-002   1.1772120260182629E-002   5.6286615128988748E-002
  -5.2864513637037931E-002   1.2408639948398005E-002   5.4103384109218187E-002
  -5.1916787765407091E-002   1.3255808949519259E-002   5.3366772694512871E-002
  -5.0969061893776271E-002   1.3791116735804868E-002   5.2980848402085667E-002
  -5.0021336022145438E-002   1.4014563307254818E-002   5.2945611231936633E-002
  -4.9073610150514611E-002   1.3926148663869143E-002   5.3261061184065719E-002
  -6.1470371707727504E-002   1.4460921562525715E-002   5.3049427553701393E-002
  -6.0121959845925922E-002   1.5461844354551120E-002   5.1633506997809282E-002
  -5.8773547984124347E-002   1.6065361202731235E-002   5.0668271299980513E-002
  -5.7425136122322765E-002   1.6271472107066042E-002   5.0153720460215136E-002
  -5.6076724260521169E-002   1.6080177067555559E-002   5.0089854478513093E-002
  -2.7912368740083123E-002   7.4640634528097133E-003   6.1900764736946182E-002
  -2.7191888076002979E-002   7.5791456241264266E-003   6.1659125967392592E-002
  -2.6471407411922845E-002   7.5391660759060279E-003   6.1690973427833785E-002
  -2.5750926747842694E-002   7.3441248081488148E-003   6.1996307118269811E-002
  -2.5030446083762568E-002   6.9940218208545957E-003   6.2575127038700690E-002
  -3.4991432390295577E-002   9.6180918564961748E-003   5.9166516313282264E-002
  -3.4018469964510245E-002   9.6189755795729817E-003   5.8805582181693773E-002
  -3.3045507538724900E-002   9.5277062078923669E-003   5.8676125343520902E-002
  -3.2072545112939541E-002   9.3442837414541083E-003   5.8778145798763594E-002
  -3.1099582687154213E-002   9.0687081802583447E-003   5.9111643547421905E-002
  -4.2045179527106069E-002   1.1772120260182629E-002   5.6286615128988748E-002
  -4.0861744276194739E-002   1.1658805535019634E-002   5.5869294260144808E-002
  -3.9678309025283402E-002   1.1516246339878513E-002   5.5641441748137295E-002
  -3.8494873774372086E-002   1.1344442674759305E-002   5.5603057592966125E-002
  -3.7311438523460749E-002   1.1143394539662024E-002   5.5754141794631389E-002
  -4.9073610150514611E-002   1.3926148663869143E-002   5.3261061184065719E-002
  -4.7721711011056503E-002   1.3698635490466238E-002   5.2850262202745767E-002
  -4.6369811871598401E-002   1.3504786471864729E-002   5.2586922641683007E-002
  -4.5017912732140300E-002   1.3344601608064605E-002   5.2471042500877384E-002
  -4.3666013592682185E-002   1.3218080899065739E-002   5.2502621780328947E-002
  -5.6076724260521169E-002   1.6080177067555559E-002   5.0089854478513093E-002
  -5.4598370169095495E-002   1.5738465445912897E-002   4.9748486009496551E-002
  -5.3120016077669842E-002   1.5493326603850981E-002   4.9512568024158050E-002
  -5.1641661986244161E-002   1.5344760541369778E-002   4.9382100522497446E-002
  -5.0163307894818515E-002   1.5292767258469481E-002   4.9357083504514787E-002
  -2.5030446083762568E-002   6.9940218208545957E-003   6.2575127038700690E-002
  -2.4277289179125815E-002   6.5811702280832718E-003   6.2617892626855520E-002
  -2.3524132274489060E-002   6.1978831438947238E-003   6.2806991959356309E-002
  -2.2770975369852307E-002   5.8441605682890783E-003   6.3142425036202876E-002
  -2.2017818465215555E-002   5.5200025012663301E-003   6.3624191857395485E-002
  -3.1099582687154213E-002   9.0687081802583447E-003   5.9111643547421905E-002
  -3.0186196328105794E-002   8.7438361247219876E-003   5.9037147920057292E-002
  -2.9272809969057345E-002   8.4125241752620872E-003   5.9136777457170081E-002
  -2.8359423610008927E-002   8.0747723318785672E-003   5.9410532158760347E-002
  -2.7446037250960481E-002   7.7305805945716566E-003   5.9858412024827973E-002
  -3.7311438523460749E-002   1.1143394539662024E-002   5.5754141794631389E-002
  -3.6210031289869084E-002   1.0906502021360717E-002   5.5526380549240847E-002
  -3.5108624056277432E-002   1.0627165206629447E-002   5.5500535888459337E-002
  -3.4007216822685787E-002   1.0305384095468110E-002   5.5676607812286748E-002
  -3.2905809589094136E-002   9.9411586878768998E-003   5.6054596320723349E-002
  -4.3666013592682185E-002   1.3218080899065739E-002   5.2502621780328947E-002
  -4.2348794064415739E-002   1.3069167917999412E-002   5.2085590514406116E-002
  -4.1031574536149258E-002   1.2841806237996670E-002   5.1898267253223863E-002
  -3.9714355007882847E-002   1.2535995859057682E-002   5.1940651996782196E-002
  -3.8397135479616359E-002   1.2151736781182129E-002   5.2212744745081086E-002
  -5.0163307894818515E-002   1.5292767258469481E-002   4.9357083504514787E-002
  -4.8602484651745700E-002   1.5231833814638163E-002   4.8714777815553278E-002
  -4.7041661408672900E-002   1.5056447269364122E-002   4.8329971551463888E-002
  -4.5480838165600099E-002   1.4766607622647131E-002   4.8202664712246664E-002
  -4.3920014922527284E-002   1.4362314874487470E-002   4.8332857297901488E-002
  -2.2017818465215555E-002   5.5200025012663301E-003   6.3624191857395485E-002
  -2.1133284064871138E-002   5.1907414009169650E-003   6.3343919977316865E-002
  -2.0248749664526722E-002   4.8217097253321489E-003   6.3256869490619483E-002
  -1.9364215264182319E-002   4.4129074745112053E-003   6.3363040397303269E-002
  -1.8479680863837895E-002   3.9643346484548037E-003   6.3662432697368099E-002
  -2.7446037250960481E-002   7.7305805945716566E-003   5.9858412024827973E-002
  -2.6370373404325839E-002   7.3743398122326637E-003   5.9515780259581971E-002
  -2.5294709557691163E-002   7.0004408337533824E-003   5.9362185993535266E-002
  -2.4219045711056503E-002   6.6088836591339482E-003   5.9397629226687843E-002
  -2.3143381864421848E-002   6.1996682883742604E-003   5.9622109959039798E-002
  -3.2905809589094136E-002   9.9411586878768998E-003   5.6054596320723349E-002
  -3.1643200190350995E-002   9.5579382235482513E-003   5.5671717049405198E-002
  -3.0380590791607900E-002   9.1791719421748311E-003   5.5473691383104491E-002
  -2.9117981392864783E-002   8.8048598437566895E-003   5.5460519321821472E-002
  -2.7855371994121657E-002   8.4350019282937172E-003   5.5632200865555870E-002
  -3.8397135479616359E-002   1.2151736781182129E-002   5.2212744745081086E-002
  -3.6951764422946606E-002   1.1741536634863839E-002   5.1811730346786364E-002
  -3.5506393366276846E-002   1.1357903050596366E-002   5.1591385659327374E-002
  -3.4061022309607107E-002   1.1000836028379431E-002   5.1551710682704102E-002
  -3.2615651252937361E-002   1.0670335568213118E-002   5.1692705416916597E-002
  -4.3920014922527284E-002   1.4362314874487470E-002   4.8332857297901488E-002
  -4.2296066102112700E-002   1.3925135046179510E-002   4.7935820151725650E-002
  -4.0672117281698089E-002   1.3536634159017513E-002   4.7715268822203671E-002
  -3.9048168461283485E-002   1.3196812213002035E-002   4.7671203309335733E-002
  -3.7424219640868894E-002   1.2905669208132575E-002   4.7803623613121626E-002
  -1.8479680863837895E-002   3.9643346484548037E-003   6.3662432697368099E-002
  -1.7693939870242856E-002   3.4489142785758820E-003   6.3447551860932316E-002
  -1.6908198876647795E-002   2.8395693962876278E-003   6.3539981655214961E-002
  -1.6122457883052752E-002   2.1363000015903535E-003   6.3939722080216033E-002
  -1.5336716889457695E-002   1.3391060944835109E-003   6.4646773135935698E-002
  -2.3143381864421848E-002   6.1996682883742604E-003   5.9622109959039798E-002
  -2.2072579113458592E-002   5.7562572022021585E-003   5.9264362246590985E-002
  -2.1001776362495374E-002   5.2621128813457596E-003   5.9169427418160017E-002
  -1.9930973611532163E-002   4.7172353258050220E-003   5.9337305473747028E-002
  -1.8860170860568896E-002   4.1216245355799042E-003   5.9767996413351787E-002
  -2.7855371994121657E-002   8.4350019282937172E-003   5.5632200865555870E-002
  -2.6544005232490824E-002   8.0636001258285323E-003   5.5174777554819004E-002
  -2.5232638470859988E-002   7.6846563664039885E-003   5.4935669381399335E-002
  -2.3921271709229155E-002   7.2981706500197981E-003   5.4914876345296966E-002
  -2.2609904947598319E-002   6.9041429766761309E-003   5.5112398446512001E-002
  -3.2615651252937361E-002   1.0670335568213118E-002   5.1692705416916597E-002
  -3.1108218227339494E-002   1.0370943049454941E-002   5.1178797785616348E-002
  -2.9600785201741642E-002   1.0107199851462169E-002   5.0838707544932873E-002
  -2.8093352176143803E-002   9.8791059742346313E-003   5.0672434694866153E-002
  -2.6585919150545919E-002   9.6866614177723298E-003   5.0679979235416013E-002
  -3.7424219640868894E-002   1.2905669208132575E-002   4.7803623613121626E-002
  -3.5765218098004592E-002   1.2678285973081238E-002   4.7276422938983043E-002
  -3.4106216555140317E-002   1.2529743336520321E-002   4.6878541908760535E-002
  -3.2447215012276029E-002   1.2460041298449236E-002   4.6609980522454214E-002
  -3.0788213469411740E-002   1.2469179858868695E-002   4.6470738780063858E-002
  -1.5336716889457695E-002   1.3391060944835109E-003   6.4646773135935698E-002
  -1.4123226038528204E-002  -1.9807763332019279E-004   6.3601139527842021E-002
  -1.2909735187598716E-002  -3.1213164901091883E-003   6.2797263631298783E-002
  -1.1696244336669255E-002  -7.4306104758832051E-003   6.2235145446305623E-002
  -1.0482753485739738E-002  -1.3125959590642333E-002   6.1914784972862513E-002
  -1.8860170860568896E-002   4.1216245355799042E-003   5.9767996413351787E-002
  -1.7433510756803879E-002   3.1815921338823883E-003   5.7455411672002993E-002
  -1.6006850653038845E-002   1.6034497439252893E-003   5.5327407724775041E-002
  -1.4580190549273805E-002  -6.1280263429162873E-004   5.3383984571668028E-002
  -1.3153530445508765E-002  -3.4671650007683796E-003   5.1625142212681996E-002
  -2.2609904947598319E-002   6.9041429766761309E-003   5.5112398446512001E-002
  -2.1027252508427019E-002   6.5612619010853857E-003   5.2280807712633104E-002
  -1.9444600069255753E-002   6.3282159779599473E-003   4.9576620855445827E-002
  -1.7861947630084429E-002   6.2050052072999511E-003   4.6999837874950372E-002
  -1.6279295190913159E-002   6.1916295891054629E-003   4.4550458771146106E-002
  -2.6585919150545919E-002   9.6866614177723298E-003   5.0679979235416013E-002
  -2.4904451293397682E-002   9.9409316682881749E-003   4.8077327649732243E-002
  -2.3222983436249376E-002   1.1052982211994682E-002   4.5544903023310990E-002
  -2.1541515579101164E-002   1.3022813048891640E-002   4.3082705356151961E-002
  -1.9860047721952854E-002   1.5850424178979416E-002   4.0690734648255428E-002
  -3.0788213469411740E-002   1.2469179858868695E-002   4.6470738780063858E-002
  -2.9065107111715810E-002   1.3320601435491075E-002   4.4844971483300688E-002
  -2.7342000754019852E-002   1.5777748446029152E-002   4.3232254228370487E-002
  -2.5618894396323914E-002   1.9840620890483097E-002   4.1632587015273601E-002
  -2.3895788038627963E-002   2.5509218768853259E-002   4.0045969844009210E-002
  -5.7147346180377492E-002   0.0000000000000000        3.4687148451569533E-002
  -5.7932196181384260E-002   2.0792536101272713E-003   3.8338154569694187E-002
  -5.8717046182391021E-002   4.1266724797827028E-003   4.2202356150605302E-002
  -5.9501896183397796E-002   6.1422566089662806E-003   4.6279753194302893E-002
  -6.0286746184404563E-002   8.1260059976780187E-003   5.0570345700786959E-002
  -6.5817401632930775E-002   0.0000000000000000        3.7204245095683257E-002
  -6.6618304156264171E-002   2.9100297038492763E-003   4.0824632854665102E-002
  -6.7419206679597582E-002   5.7620741996686027E-003   4.4199720106207215E-002
  -6.8220109202930979E-002   8.5561334874579772E-003   4.7329506850309594E-002
  -6.9021011726264361E-002   1.1292207567217404E-002   5.0213993086972206E-002
  -7.4243917485262823E-002   0.0000000000000000        4.0565193067298035E-002
  -7.5519368501149098E-002   3.7408057975712831E-003   4.4128811999578993E-002
  -7.6794819517035359E-002   7.3974759195545060E-003   4.6988634454193989E-002
  -7.8070270532921607E-002   1.0970010365949676E-002   4.9144660431143017E-002
  -7.9345721548807854E-002   1.4458409136756787E-002   5.0596889930426103E-002
  -8.2426893737373705E-002   0.0000000000000000        4.4769992366413873E-002
  -8.4635389216039011E-002   4.5715818912932873E-003   4.8250692004435825E-002
  -8.6843884694704332E-002   9.0328776394404120E-003   5.0569099194565592E-002
  -8.9052380173369652E-002   1.3383887244441365E-002   5.1725213936803190E-002
  -9.1260875652034973E-002   1.7624610706296170E-002   5.1719036231148603E-002
  -9.0366330389263338E-002   0.0000000000000000        4.9818642993030779E-002
  -9.3966366300933954E-002   5.4023579850152950E-003   5.3190272869235597E-002
  -9.7566402212604542E-002   1.0668279359326311E-002   5.4941114327322044E-002
 -0.10116643812427514        1.5797764122933072E-002   5.5071167367290105E-002
 -0.10476647403594572        2.0790812275835551E-002   5.3580431989139768E-002
  -6.0286746184404563E-002   8.1260059976780187E-003   5.0570345700786959E-002
  -6.0582652565235290E-002   9.9978122343378703E-003   5.1510423120530967E-002
  -6.0878558946066037E-002   1.1677566907365777E-002   5.2236962569264696E-002
  -6.1174465326896792E-002   1.3165270016761712E-002   5.2749964046988188E-002
  -6.1470371707727504E-002   1.4460921562525715E-002   5.3049427553701393E-002
  -6.9021011726264361E-002   1.1292207567217404E-002   5.0213993086972206E-002
  -6.9292577010617182E-002   1.3731304421600444E-002   4.9437494890343360E-002
  -6.9564142294970016E-002   1.5634432033260696E-002   4.8923216857680620E-002
  -6.9835707579322837E-002   1.7001590402198102E-002   4.8671158988983963E-002
  -7.0107272863675657E-002   1.7832779528412730E-002   4.8681321284253405E-002
  -7.9345721548807854E-002   1.4458409136756787E-002   5.0596889930426103E-002
  -7.9117187601706399E-002   1.7464796608863024E-002   4.7759898438333538E-002
  -7.8888653654604943E-002   1.9591297159155602E-002   4.5660885245183448E-002
  -7.8660119707503473E-002   2.0837910787634487E-002   4.4299850350975771E-002
  -7.8431585760402045E-002   2.1204637494299728E-002   4.3676793755710625E-002
  -9.1260875652034973E-002   1.7624610706296170E-002   5.1719036231148603E-002
  -9.0056484338502857E-002   2.1198288796125606E-002   4.6477633764501480E-002
  -8.8852093024970782E-002   2.3548162285050515E-002   4.2449967731773175E-002
  -8.7647701711438694E-002   2.4674231173070896E-002   3.9636038132963652E-002
  -8.6443310397906592E-002   2.4576495460186740E-002   3.8035844968072968E-002
 -0.10476647403594572        2.0790812275835551E-002   5.3580431989139768E-002
 -0.10211046722100663        2.4931780983388177E-002   4.5590700868847173E-002
  -9.9454460406067563E-002   2.7505027410945446E-002   3.9290464317449800E-002
  -9.6798453591128472E-002   2.8510551558507263E-002   3.4679722334947580E-002
  -9.4142446776189409E-002   2.7948353426073734E-002   3.1758474921340533E-002
  -6.1470371707727504E-002   1.4460921562525715E-002   5.3049427553701393E-002
  -6.0121959845925922E-002   1.5461844354551120E-002   5.1633506997809282E-002
  -5.8773547984124347E-002   1.6065361202731235E-002   5.0668271299980513E-002
  -5.7425136122322765E-002   1.6271472107066042E-002   5.0153720460215136E-002
  -5.6076724260521169E-002   1.6080177067555559E-002   5.0089854478513093E-002
  -7.0107272863675657E-002   1.7832779528412730E-002   4.8681321284253405E-002
  -6.8355834403465626E-002   1.8283016818289113E-002   4.7218660541028690E-002
  -6.6604395943255623E-002   1.8507319678211925E-002   4.6111368136557473E-002
  -6.4852957483045592E-002   1.8505688108181088E-002   4.5359444070839819E-002
  -6.3101519022835589E-002   1.8278122108196654E-002   4.4962888343875587E-002
  -7.8431585760402045E-002   2.1204637494299728E-002   4.3676793755710625E-002
  -7.6372437221093450E-002   2.1104189282027151E-002   4.2338864339044976E-002
  -7.4313288681784828E-002   2.0949278153692595E-002   4.1260986741822991E-002
  -7.2254140142476220E-002   2.0739904109296135E-002   4.0443160964044628E-002
  -7.0194991603167653E-002   2.0476067148837741E-002   3.9885387005709941E-002
  -8.6443310397906592E-002   2.4576495460186740E-002   3.8035844968072968E-002
  -8.4171768298809291E-002   2.3925361745765143E-002   3.6994118391858101E-002
  -8.1900226199711990E-002   2.3391236629173261E-002   3.6117127115777040E-002
  -7.9628684100614661E-002   2.2974120110411212E-002   3.5404871139829708E-002
  -7.7357142001517359E-002   2.2674012189478791E-002   3.4857350464016147E-002
  -9.4142446776189409E-002   2.7948353426073734E-002   3.1758474921340533E-002
  -9.1753827636613217E-002   2.6746534209503188E-002   3.1184422699468077E-002
  -8.9365208497037066E-002   2.5833195104653969E-002   3.0679789258419580E-002
  -8.6976589357460887E-002   2.5208336111526213E-002   3.0244574598194886E-002
  -8.4587970217884723E-002   2.4871957230119895E-002   2.9878778718794213E-002
  -5.6076724260521169E-002   1.6080177067555559E-002   5.0089854478513093E-002
  -5.4598370169095495E-002   1.5738465445912897E-002   4.9748486009496551E-002
  -5.3120016077669842E-002   1.5493326603850981E-002   4.9512568024158050E-002
  -5.1641661986244161E-002   1.5344760541369778E-002   4.9382100522497446E-002
  -5.0163307894818515E-002   1.5292767258469481E-002   4.9357083504514787E-002
  -6.3101519022835589E-002   1.8278122108196654E-002   4.4962888343875587E-002
  -6.1487161575224866E-002   1.7948480076488721E-002   4.4642572502392286E-002
  -5.9872804127614143E-002   1.7640620411287472E-002   4.4488812889601104E-002
  -5.8258446680003420E-002   1.7354543112592907E-002   4.4501609505502131E-002
  -5.6644089232392704E-002   1.7090248180404971E-002   4.4680962350095249E-002
  -7.0194991603167653E-002   2.0476067148837741E-002   3.9885387005709941E-002
  -6.8383525054357658E-002   2.0158494707064628E-002   3.9511333378685690E-002
  -6.6572058505547649E-002   1.9787914218724022E-002   3.9364941725367739E-002
  -6.4760591956737654E-002   1.9364325683815953E-002   3.9446212045756178E-002
  -6.2949125407927659E-002   1.8887729102340448E-002   3.9755144339851022E-002
  -7.7357142001517359E-002   2.2674012189478791E-002   3.4857350464016147E-002
  -7.5287460606493911E-002   2.2368509337640466E-002   3.4354768638376797E-002
  -7.3217779211470435E-002   2.1935208026160610E-002   3.4140954531458011E-002
  -7.1148097816446973E-002   2.1374108255039100E-002   3.4215908143259845E-002
  -6.9078416421423511E-002   2.0685210024275903E-002   3.4579629473782215E-002
  -8.4587970217884723E-002   2.4871957230119895E-002   2.9878778718794213E-002
  -8.2198968231633557E-002   2.4578523968216373E-002   2.9172878281465711E-002
  -7.9809966245382433E-002   2.4082501833597052E-002   2.8816851307871830E-002
  -7.7420964259131281E-002   2.3383890826262160E-002   2.8810697798012895E-002
  -7.5031962272880143E-002   2.2482690946211414E-002   2.9154417751888706E-002
  -5.0163307894818515E-002   1.5292767258469481E-002   4.9357083504514787E-002
  -4.8602484651745700E-002   1.5231833814638163E-002   4.8714777815553278E-002
  -4.7041661408672900E-002   1.5056447269364122E-002   4.8329971551463888E-002
  -4.5480838165600099E-002   1.4766607622647131E-002   4.8202664712246664E-002
  -4.3920014922527284E-002   1.4362314874487470E-002   4.8332857297901488E-002
  -5.6644089232392704E-002   1.7090248180404971E-002   4.4680962350095249E-002
  -5.4841047246173613E-002   1.6802433086490265E-002   4.4107483245745482E-002
  -5.3038005259954529E-002   1.6445795302615272E-002   4.3760942202816150E-002
  -5.1234963273735466E-002   1.6020334828779979E-002   4.3641339221307279E-002
  -4.9431921287516362E-002   1.5526051664984442E-002   4.3748674301218732E-002
  -6.2949125407927659E-002   1.8887729102340448E-002   3.9755144339851022E-002
  -6.0934426042014066E-002   1.8373032358342339E-002   3.9296122231595614E-002
  -5.8919726676100459E-002   1.7835143335866475E-002   3.9033476821308907E-002
  -5.6905027310186797E-002   1.7274062034912822E-002   3.8967208108990917E-002
  -5.4890327944273211E-002   1.6689788455481469E-002   3.9097316094641524E-002
  -6.9078416421423511E-002   2.0685210024275903E-002   3.4579629473782215E-002
  -6.6882621039267037E-002   1.9943631630194456E-002   3.4280694773103589E-002
  -6.4686825657110619E-002   1.9224491369117705E-002   3.4147575406942007E-002
  -6.2491030274954194E-002   1.8527789241045641E-002   3.4180271375297326E-002
  -6.0295234892797714E-002   1.7853525245978497E-002   3.4378782678169628E-002
  -7.5031962272880143E-002   2.2482690946211414E-002   2.9154417751888706E-002
  -7.2685632237932590E-002   2.1514230902046586E-002   2.9061200870269532E-002
  -7.0339302202985052E-002   2.0613839402368939E-002   2.9103237959715450E-002
  -6.7992972168037541E-002   1.9781516447178529E-002   2.9280529020226681E-002
  -6.5646642133089989E-002   1.9017262036475524E-002   2.9593074051803170E-002
  -4.3920014922527284E-002   1.4362314874487470E-002   4.8332857297901488E-002
  -4.2296066102112700E-002   1.3925135046179510E-002   4.7935820151725650E-002
  -4.0672117281698089E-002   1.3536634159017513E-002   4.7715268822203671E-002
  -3.9048168461283485E-002   1.3196812213002035E-002   4.7671203309335733E-002
  -3.7424219640868894E-002   1.2905669208132575E-002   4.7803623613121626E-002
  -4.9431921287516362E-002   1.5526051664984442E-002   4.3748674301218732E-002
  -4.7629891253435391E-002   1.5012365184431775E-002   4.3446079759083850E-002
  -4.5827861219354393E-002   1.4528694760325506E-002   4.3323161827627812E-002
  -4.4025831185273381E-002   1.4075040392665279E-002   4.3379920506850654E-002
  -4.2223801151192418E-002   1.3651402081451325E-002   4.3616355796752326E-002
  -5.4890327944273211E-002   1.6689788455481469E-002   3.9097316094641524E-002
  -5.2907025902500869E-002   1.6099595322684332E-002   3.8870501271847532E-002
  -5.0923723860728506E-002   1.5520755361633387E-002   3.8826553853757328E-002
  -4.8940421818956178E-002   1.4953268572328579E-002   3.8965473840370989E-002
  -4.6957119777183753E-002   1.4397134954769991E-002   3.9287261231688381E-002
  -6.0295234892797714E-002   1.7853525245978497E-002   3.4378782678169628E-002
  -5.8127470049309092E-002   1.7186825460936826E-002   3.4209084690016524E-002
  -5.5959705205820505E-002   1.6512815962941296E-002   3.4225444900592275E-002
  -5.3791940362331883E-002   1.5831496751991879E-002   3.4427863309896604E-002
  -5.1624175518843296E-002   1.5142867828088755E-002   3.4816339917929935E-002
  -6.5646642133089989E-002   1.9017262036475524E-002   2.9593074051803170E-002
  -6.3291223693860171E-002   1.8274055599189210E-002   2.9461830013591039E-002
  -6.0935805254630340E-002   1.7504876564249108E-002   2.9519834968132708E-002
  -5.8580386815400488E-002   1.6709724931655141E-002   2.9767088915427911E-002
  -5.6224968376170664E-002   1.5888600701407407E-002   3.0203591855476775E-002
  -3.7424219640868894E-002   1.2905669208132575E-002   4.7803623613121626E-002
  -3.5765218098004592E-002   1.2678285973081238E-002   4.7276422938983043E-002
  -3.4106216555140317E-002   1.2529743336520321E-002   4.6878541908760535E-002
  -3.2447215012276029E-002   1.2460041298449236E-002   4.6609980522454214E-002
  -3.0788213469411740E-002   1.2469179858868695E-002   4.6470738780063858E-002
  -4.2223801151192418E-002   1.3651402081451325E-002   4.3616355796752326E-002
  -4.0424213244173238E-002   1.3266934835651667E-002   4.3230268063620791E-002
  -3.8624625337154092E-002   1.2930793664234413E-002   4.2996033414882812E-002
  -3.6825037430134933E-002   1.2642978567199807E-002   4.2913651850538317E-002
  -3.5025449523115759E-002   1.2403489544547508E-002   4.2983123370587517E-002
  -4.6957119777183753E-002   1.4397134954769991E-002   3.9287261231688381E-002
  -4.4994412065532348E-002   1.3855583698221902E-002   3.9011771915456198E-002
  -4.3031704353880915E-002   1.3331843991948686E-002   3.8910669124095063E-002
  -4.1068996642229481E-002   1.2825915835950160E-002   3.8983952857604871E-002
  -3.9106288930578013E-002   1.2337799230226459E-002   3.9231623115985784E-002
  -5.1624175518843296E-002   1.5142867828088755E-002   3.4816339917929935E-002
  -4.9475814562082103E-002   1.4444232560792178E-002   3.4620934494489414E-002
  -4.7327453605320924E-002   1.3732894319662785E-002   3.4622449036397315E-002
  -4.5179092648559710E-002   1.3008853104700622E-002   3.4820883543653799E-002
  -4.3030731691798559E-002   1.2272108915905286E-002   3.5216238016258714E-002
  -5.6224968376170664E-002   1.5888600701407407E-002   3.0203591855476775E-002
  -5.3868420733822309E-002   1.5032881423362510E-002   3.0057755800720398E-002
  -5.1511873091473953E-002   1.4133944647377106E-002   3.0131373151789709E-002
  -4.9155325449125625E-002   1.3191790373451043E-002   3.0424443908685039E-002
  -4.6798777806777242E-002   1.2206418601584335E-002   3.0936968071406223E-002
  -3.0788213469411740E-002   1.2469179858868695E-002   4.6470738780063858E-002
  -2.9065107111715810E-002   1.3320601435491075E-002   4.4844971483300688E-002
  -2.7342000754019852E-002   1.5777748446029152E-002   4.3232254228370487E-002
  -2.5618894396323914E-002   1.9840620890483097E-002   4.1632587015273601E-002
  -2.3895788038627963E-002   2.5509218768853259E-002   4.0045969844009210E-002
  -3.5025449523115759E-002   1.2403489544547508E-002   4.2983123370587517E-002
  -3.3210536718669803E-002   1.2632732350587678E-002   4.2839940633441903E-002
  -3.1395623914223798E-002   1.3751112739629340E-002   4.2867320747963455E-002
  -2.9580711109777755E-002   1.5758630711673098E-002   4.3065263714152160E-002
  -2.7765798305331824E-002   1.8655286266718640E-002   4.3433769532007616E-002
  -3.9106288930578013E-002   1.2337799230226459E-002   3.9231623115985784E-002
  -3.7042056869547937E-002   1.1944863265684169E-002   3.9854437087543854E-002
  -3.4977824808517896E-002   1.1724477033229576E-002   4.0805326720602948E-002
  -3.2913592747487841E-002   1.1676640532862876E-002   4.2084292015163310E-002
  -3.0849360686457827E-002   1.1801353764584244E-002   4.3691332971224572E-002
  -4.3030731691798559E-002   1.2272108915905286E-002   3.5216238016258714E-002
  -4.0559667564350380E-002   1.1256994180780772E-002   3.5888460845606422E-002
  -3.8088603436902263E-002   9.6978413268298432E-003   3.7046272146289222E-002
  -3.5617539309454049E-002   7.5946503540528206E-003   3.8689671918307342E-002
  -3.3146475182005919E-002   4.9474212624496805E-003   4.0818660161660095E-002
  -4.6798777806777242E-002   1.2206418601584335E-002   3.0936968071406223E-002
  -4.3763368803077018E-002   1.0569125095877374E-002   3.0942011907629463E-002
  -4.0727959799376781E-002   7.6712056204300549E-003   3.1590157025021992E-002
  -3.7692550795676523E-002   3.5126601752425574E-003   3.2881403423583477E-002
  -3.4657141791976265E-002  -1.9065112396847717E-003   3.4815751103314252E-002
  -9.0366330389263338E-002   0.0000000000000000        4.9818642993030779E-002
  -9.3966366300933954E-002   5.4023579850152950E-003   5.3190272869235597E-002
  -9.7566402212604542E-002   1.0668279359326311E-002   5.4941114327322044E-002
 -0.10116643812427514        1.5797764122933072E-002   5.5071167367290105E-002
 -0.10476647403594572        2.0790812275835551E-002   5.3580431989139768E-002
 -0.10330000911602003        0.0000000000000000        5.8645828929139193E-002
 -0.10683878423592939        1.0885210653468582E-002   5.2100681031535423E-002
 -0.11037755935583876        1.9173251450175521E-002   4.7298843135572498E-002
 -0.11391633447574812        2.4864122390120827E-002   4.4240315241250411E-002
 -0.11745510959565750        2.7957823473304482E-002   4.2925097348569155E-002
 -0.12646571159273193        0.0000000000000000        7.4186234156729577E-002
 -0.12657912750112085        1.6368063321921866E-002   5.5263575239259857E-002
 -0.12669254340950978        2.7678223541024734E-002   4.1448324743190185E-002
 -0.12680595931789870        3.3930480657308575E-002   3.2740482668520574E-002
 -0.12691937522628760        3.5124834670773417E-002   2.9140049015251017E-002
 -0.15986343781939913        0.0000000000000000        9.6439858675801945E-002
 -0.15318739609650833        2.1850915990375155E-002   6.2678955492408872E-002
 -0.14651135437361762        3.6183195631873936E-002   3.7389559150175097E-002
 -0.13983531265072685        4.2996838924496329E-002   2.0571669649100621E-002
 -0.13315927092783611        4.2291845868242361E-002   1.2225286989185416E-002
 -0.20349318779602155        0.0000000000000000       0.12540670248635627     
 -0.18666359002209187        2.7333768658828448E-002   7.4346821790982509E-002
 -0.16983399224816223        4.4688167722723160E-002   3.5122546356527250E-002
 -0.15300439447423256        5.2063197191684098E-002   7.7338761829905123E-003
 -0.13617479670030291        4.9458857065711306E-002  -7.8191887296277102E-003
 -0.10476647403594572        2.0790812275835551E-002   5.3580431989139768E-002
 -0.10211046722100663        2.4931780983388177E-002   4.5590700868847173E-002
  -9.9454460406067563E-002   2.7505027410945446E-002   3.9290464317449800E-002
  -9.6798453591128472E-002   2.8510551558507263E-002   3.4679722334947580E-002
  -9.4142446776189409E-002   2.7948353426073734E-002   3.1758474921340533E-002
 -0.11745510959565750        2.7957823473304482E-002   4.2925097348569155E-002
 -0.11349878293764847        2.9428510908647745E-002   3.6662271572075703E-002
 -0.10954245627963941        3.0250340905071810E-002   3.1310590912827063E-002
 -0.10558612962163035        3.0423313462576717E-002   2.6870055370823098E-002
 -0.10162980296362134        2.9947428581162429E-002   2.3340664946063898E-002
 -0.12691937522628760        3.5124834670773417E-002   2.9140049015251017E-002
 -0.12244107817685904        3.3925240833907307E-002   2.5522993423632935E-002
 -0.11796278112743047        3.2995654399198195E-002   2.2038733497609281E-002
 -0.11348448407800192        3.2336075366646184E-002   1.8687269237179817E-002
 -0.10900618702857336        3.1946503736251200E-002   1.5468600642344727E-002
 -0.13315927092783611        4.2291845868242361E-002   1.2225286989185416E-002
 -0.12893735293863845        3.8421970759166819E-002   1.2172866423518950E-002
 -0.12471543494944076        3.5740967893324607E-002   1.1474892071796364E-002
 -0.12049351696024307        3.4248837270715628E-002   1.0131363934017687E-002
 -0.11627159897104539        3.3945578891339916E-002   8.1422820101828761E-003
 -0.13617479670030291        4.9458857065711306E-002  -7.8191887296277102E-003
 -0.13298760722298658        4.2918700684426422E-002  -3.3881094282663671E-003
 -0.12980041774567025        3.8486281387450902E-002  -3.8093336461144864E-004
 -0.12661322826835392        3.6161599174785106E-002   1.2023394613367650E-003
 -0.12342603879103758        3.5944654046428631E-002   1.3617090495784134E-003
  -9.4142446776189409E-002   2.7948353426073734E-002   3.1758474921340533E-002
  -9.1753827636613217E-002   2.6746534209503188E-002   3.1184422699468077E-002
  -8.9365208497037066E-002   2.5833195104653969E-002   3.0679789258419580E-002
  -8.6976589357460887E-002   2.5208336111526213E-002   3.0244574598194886E-002
  -8.4587970217884723E-002   2.4871957230119895E-002   2.9878778718794213E-002
 -0.10162980296362134        2.9947428581162429E-002   2.3340664946063898E-002
  -9.9155335113880971E-002   2.9175445777973024E-002   2.3066585629556772E-002
  -9.6680867264140630E-002   2.8460124570152512E-002   2.2894784952554082E-002
  -9.4206399414400288E-002   2.7801464957700840E-002   2.2825262915055780E-002
  -9.1731931564659988E-002   2.7199466940618117E-002   2.2858019517061900E-002
 -0.10900618702857336        3.1946503736251200E-002   1.5468600642344727E-002
 -0.10641301060998833        3.1604357346442874E-002   1.5262675714850326E-002
 -0.10381983419140328        3.1087054035651006E-002   1.5191889285540935E-002
 -0.10122665777281827        3.0394593803875481E-002   1.5256241354416441E-002
  -9.8633481354233221E-002   2.9526976651116352E-002   1.5455731921476985E-002
 -0.11627159897104539        3.3945578891339916E-002   8.1422820101828761E-003
 -0.11352685412493520        3.4033268914912804E-002   7.7726929553488533E-003
 -0.11078210927882499        3.3713983501149465E-002   7.5711022573802383E-003
 -0.10803736443271481        3.2987722650050171E-002   7.5375099162771049E-003
 -0.10529261958660460        3.1854486361614524E-002   7.6719159320393481E-003
 -0.12342603879103758        3.5944654046428631E-002   1.3617090495784134E-003
 -0.12049686565872170        3.6462180483382622E-002   5.9663735105221216E-004
 -0.11756769252640578        3.6340912966648091E-002   3.2423868071847217E-005
 -0.11463851939408988        3.5580851496224655E-002  -3.3093139936246456E-004
 -0.11170934626177398        3.4181996072112864E-002  -4.9342845125088797E-004
  -8.4587970217884723E-002   2.4871957230119895E-002   2.9878778718794213E-002
  -8.2198968231633557E-002   2.4578523968216373E-002   2.9172878281465711E-002
  -7.9809966245382433E-002   2.4082501833597052E-002   2.8816851307871830E-002
  -7.7420964259131281E-002   2.3383890826262160E-002   2.8810697798012895E-002
  -7.5031962272880143E-002   2.2482690946211414E-002   2.9154417751888706E-002
  -9.1731931564659988E-002   2.7199466940618117E-002   2.2858019517061900E-002
  -8.9045598063756420E-002   2.6591415345586435E-002   2.2206309875861675E-002
  -8.6359264562852811E-002   2.5914594999288103E-002   2.1799389800231481E-002
  -8.3672931061949299E-002   2.5169005901723017E-002   2.1637259290171355E-002
  -8.0986597561045690E-002   2.4354648052891281E-002   2.1719918345681141E-002
  -9.8633481354233221E-002   2.9526976651116352E-002   1.5455731921476985E-002
  -9.5754900236842022E-002   2.8604306722956586E-002   1.4992033197854054E-002
  -9.2876319119450851E-002   2.7746688164979157E-002   1.4668040141636501E-002
  -8.9997738002059652E-002   2.6954120977184012E-002   1.4483752752824165E-002
  -8.7119156884668481E-002   2.6226605159571176E-002   1.4439171031416995E-002
 -0.10529261958660460        3.1854486361614524E-002   7.6719159320393481E-003
 -0.10232687475089049        3.0617198100326665E-002   7.5300482474429959E-003
  -9.9361129915176427E-002   2.9578781330670087E-002   7.4228023320868650E-003
  -9.6395385079462367E-002   2.8739236052644883E-002   7.3501781859713136E-003
  -9.3429640243748252E-002   2.8098562266250973E-002   7.3121758090964294E-003
 -0.11170934626177398        3.4181996072112864E-002  -4.9342845125088797E-004
 -0.10876152160590180        3.2630089477696883E-002  -1.7964497537195645E-004
 -0.10581369695002962        3.1410874496361221E-002   6.3676371582763180E-005
 -0.10286587229415745        3.0524351128105909E-002   2.3653558961300378E-004
  -9.9918047638285268E-002   2.9970519372930937E-002   3.3893267871915045E-004
  -7.5031962272880143E-002   2.2482690946211414E-002   2.9154417751888706E-002
  -7.2685632237932590E-002   2.1514230902046586E-002   2.9061200870269532E-002
  -7.0339302202985052E-002   2.0613839402368939E-002   2.9103237959715450E-002
  -6.7992972168037541E-002   1.9781516447178529E-002   2.9280529020226681E-002
  -6.5646642133089989E-002   1.9017262036475524E-002   2.9593074051803170E-002
  -8.0986597561045690E-002   2.4354648052891281E-002   2.1719918345681141E-002
  -7.8490970551119282E-002   2.3511518241413606E-002   2.1502467117749571E-002
  -7.5995343541192778E-002   2.2679613255910822E-002   2.1448355868710682E-002
  -7.3499716531266357E-002   2.1858933096382770E-002   2.1557584598564317E-002
  -7.1004089521339894E-002   2.1049477762829671E-002   2.1830153307310862E-002
  -8.7119156884668481E-002   2.6226605159571176E-002   1.4439171031416995E-002
  -8.4446146891935608E-002   2.5508805580780704E-002   1.4040641738660722E-002
  -8.1773136899202833E-002   2.4745387109452538E-002   1.3833538432624401E-002
  -7.9100126906469989E-002   2.3936349745587011E-002   1.3817861113308103E-002
  -7.6427116913737159E-002   2.3081693489183791E-002   1.3993609780711985E-002
  -9.3429640243748252E-002   2.8098562266250973E-002   7.3121758090964294E-003
  -9.0551161260381749E-002   2.7506092920147818E-002   6.6757247330027827E-003
  -8.7672682277015176E-002   2.6811160962994421E-002   6.2587856514567056E-003
  -8.4794203293648604E-002   2.6013766394791252E-002   6.0613585644581740E-003
  -8.1915724310282073E-002   2.5113909215538036E-002   6.0834434720069101E-003
  -9.9918047638285268E-002   2.9970519372930937E-002   3.3893267871915045E-004
  -9.6806013656457579E-002   2.9503380259514822E-002  -5.9228389922394431E-004
  -9.3693979674629835E-002   2.8876934816536359E-002  -1.2759024747922981E-003
  -9.0581945692802091E-002   2.8091183043995507E-002  -1.7119230479858798E-003
  -8.7469911710974402E-002   2.7146124941892058E-002  -1.9003456188044776E-003
  -6.5646642133089989E-002   1.9017262036475524E-002   2.9593074051803170E-002
  -6.3291223693860171E-002   1.8274055599189210E-002   2.9461830013591039E-002
  -6.0935805254630340E-002   1.7504876564249108E-002   2.9519834968132708E-002
  -5.8580386815400488E-002   1.6709724931655141E-002   2.9767088915427911E-002
  -5.6224968376170664E-002   1.5888600701407407E-002   3.0203591855476775E-002
  -7.1004089521339894E-002   2.1049477762829671E-002   2.1830153307310862E-002
  -6.8463784859745122E-002   2.0251485531624674E-002   2.1621830885096033E-002
  -6.5923480198150475E-002   1.9465194679140874E-002   2.1594031914857578E-002
  -6.3383175536555730E-002   1.8690605205378782E-002   2.1746756396594860E-002
  -6.0842870874961069E-002   1.7927717110337804E-002   2.2080004330308350E-002
  -7.6427116913737159E-002   2.3081693489183791E-002   1.3993609780711985E-002
  -7.3710651570555272E-002   2.2228915464060223E-002   1.3745882950869842E-002
  -7.0994186227373371E-002   2.1425512794032910E-002   1.3669954032226282E-002
  -6.8277720884191540E-002   2.0671485479102310E-002   1.3765823024781139E-002
  -6.5561255541009597E-002   1.9966833519268090E-002   1.4033489928534218E-002
  -8.1915724310282073E-002   2.5113909215538036E-002   6.0834434720069101E-003
  -7.9031823826290579E-002   2.4206345396495590E-002   5.8339862109128178E-003
  -7.6147923342299070E-002   2.3385830908924866E-002   5.7476013202391735E-003
  -7.3264022858307604E-002   2.2652365752825757E-002   5.8242887999864204E-003
  -7.0380122374316081E-002   2.2005949928198487E-002   6.0640486501545923E-003
  -8.7469911710974402E-002   2.7146124941892058E-002  -1.9003456188044776E-003
  -8.4427301626950946E-002   2.6183775328931069E-002  -2.1138593347759804E-003
  -8.1384691542927545E-002   2.5346149023816489E-002  -2.1730262211040463E-003
  -7.8342081458904089E-002   2.4633246026549427E-002  -2.0778462777890083E-003
  -7.5299471374880689E-002   2.4045066337128662E-002  -1.8283195048309775E-003
  -5.6224968376170664E-002   1.5888600701407407E-002   3.0203591855476775E-002
  -5.3868420733822309E-002   1.5032881423362510E-002   3.0057755800720398E-002
  -5.1511873091473953E-002   1.4133944647377106E-002   3.0131373151789709E-002
  -4.9155325449125625E-002   1.3191790373451043E-002   3.0424443908685039E-002
  -4.6798777806777242E-002   1.2206418601584335E-002   3.0936968071406223E-002
  -6.0842870874961069E-002   1.7927717110337804E-002   2.2080004330308350E-002
  -5.8291640645912274E-002   1.7140823516770293E-002   2.1757450352310803E-002
  -5.5740410416863478E-002   1.6294217547428311E-002   2.1604808141888449E-002
  -5.3189180187814621E-002   1.5387899202311924E-002   2.1622077699041051E-002
  -5.0637949958765888E-002   1.4421868481420963E-002   2.1809259023768623E-002
  -6.5561255541009597E-002   1.9966833519268090E-002   1.4033489928534218E-002
  -6.2864884363511161E-002   1.9248765610178048E-002   1.3517723149461924E-002
  -6.0168513186012663E-002   1.8454490447479516E-002   1.3122326499713698E-002
  -5.7472142008514207E-002   1.7584008031172972E-002   1.2847299979289864E-002
  -5.4775770831015737E-002   1.6637318361257536E-002   1.2692643588190000E-002
  -7.0380122374316081E-002   2.2005949928198487E-002   6.0640486501545923E-003
  -6.7588151886618861E-002   2.1356707703585873E-002   5.3385741921733836E-003
  -6.4796181398921585E-002   2.0614763347530776E-002   4.6839282252654595E-003
  -6.2004210911224308E-002   1.9780116860033715E-002   4.1001107494310733E-003
  -5.9212240423527088E-002   1.8852768241094303E-002   3.5871217646700274E-003
  -7.5299471374880689E-002   2.4045066337128662E-002  -1.8283195048309775E-003
  -7.2461443215235510E-002   2.3464649796993753E-002  -2.7799965195547949E-003
  -6.9623415055590221E-002   2.2775036247582037E-002  -3.7103866814560127E-003
  -6.6785386895945015E-002   2.1976225688894957E-002  -4.6194899905345616E-003
  -6.3947358736299753E-002   2.1068218120930848E-002  -5.5073064467910937E-003
  -4.6798777806777242E-002   1.2206418601584335E-002   3.0936968071406223E-002
  -4.3763368803077018E-002   1.0569125095877374E-002   3.0942011907629463E-002
  -4.0727959799376781E-002   7.6712056204300549E-003   3.1590157025021992E-002
  -3.7692550795676523E-002   3.5126601752425574E-003   3.2881403423583477E-002
  -3.4657141791976265E-002  -1.9065112396847717E-003   3.4815751103314252E-002
  -5.0637949958765888E-002   1.4421868481420963E-002   2.1809259023768623E-002
  -4.7273312322328245E-002   1.3375756542091749E-002   2.0521243475877832E-002
  -4.3908674685890617E-002   1.2229194541660535E-002   1.9248583912292422E-002
  -4.0544037049453099E-002   1.0982182480127178E-002   1.7991280333012755E-002
  -3.7179399413015346E-002   9.6347203574917994E-003   1.6749332738038691E-002
  -5.4775770831015737E-002   1.6637318361257536E-002   1.2692643588190000E-002
  -5.1709649858704319E-002   1.6182387988306346E-002   1.1271744564822869E-002
  -4.8643528886392964E-002   1.6787183462891125E-002   9.2384562288980315E-003
  -4.5577407914081533E-002   1.8451704785011631E-002   6.5927785804151193E-003
  -4.2511286941770157E-002   2.1175951954668371E-002   3.3347116193740423E-003
  -5.9212240423527088E-002   1.8852768241094303E-002   3.5871217646700274E-003
  -5.7072381412205407E-002   1.8989019434520665E-002   3.1935151744648567E-003
  -5.4932522400883720E-002   2.1345172384121605E-002   1.5597739748385089E-003
  -5.2792663389561983E-002   2.5921227089896002E-002  -1.3141018342096022E-003
  -5.0652804378240338E-002   3.2717183551845108E-002  -5.4281122526793624E-003
  -6.3947358736299753E-002   2.1068218120930848E-002  -5.5073064467910937E-003
  -6.3361506982831384E-002   2.1795650880735540E-002  -3.7134446951961331E-003
  -6.2775655229362903E-002   2.5903161305351835E-002  -3.7874628498861806E-003
  -6.2189803475894562E-002   3.3390749394780449E-002  -5.7293609108609034E-003
  -6.1603951722426054E-002   4.4258415149021513E-002  -9.5391388781214115E-003
 </DataArray>
 </PointData>
 </Piece>
 <Piece  NumberOfPoints="          1600 "  NumberOfCells="         1024 ">
 <Points>
 <DataArray  type="Float64" NumberOfComponents="3"  format="ascii" >
  0.50000000000000000        0.0000000000000000        0.0000000000000000     
  0.53125000000000000        0.0000000000000000        0.0000000000000000     
  0.56250000000000000        0.0000000000000000        0.0000000000000000     
  0.59375000000000000        0.0000000000000000        0.0000000000000000     
  0.62500000000000000        0.0000000000000000        0.0000000000000000     
  0.50000000000000000        3.1250000000000000E-002   0.0000000000000000     
  0.53125000000000000        3.1250000000000000E-002   0.0000000000000000     
  0.56250000000000000        3.1250000000000000E-002   0.0000000000000000     
  0.59375000000000000        3.1250000000000000E-002   0.0000000000000000     
  0.62500000000000000        3.1250000000000000E-002   0.0000000000000000     
  0.50000000000000000        6.2500000000000000E-002   0.0000000000000000     
  0.53125000000000000        6.2500000000000000E-002   0.0000000000000000     
  0.56250000000000000        6.2500000000000000E-002   0.0000000000000000     
  0.59375000000000000        6.2500000000000000E-002   0.0000000000000000     
  0.62500000000000000        6.2500000000000000E-002   0.0000000000000000     
  0.50000000000000000        9.3750000000000000E-002   0.0000000000000000     
  0.53125000000000000        9.3750000000000000E-002   0.0000000000000000     
  0.56250000000000000        9.3750000000000000E-002   0.0000000000000000     
  0.59375000000000000        9.3750000000000000E-002   0.0000000000000000     
  0.62500000000000000        9.3750000000000000E-002   0.0000000000000000     
  0.50000000000000000       0.12500000000000000        0.0000000000000000     
  0.53125000000000000       0.12500000000000000        0.0000000000000000     
  0.56250000000000000       0.12500000000000000        0.0000000000000000     
  0.59375000000000000       0.12500000000000000        0.0000000000000000     
  0.62500000000000000       0.12500000000000000        0.0000000000000000     
  0.62500000000000000        0.0000000000000000        0.0000000000000000     
  0.65625000000000000        0.0000000000000000        0.0000000000000000     
  0.68750000000000000        0.0000000000000000        0.0000000000000000     
  0.71875000000000000        0.0000000000000000        0.0000000000000000     
  0.75000000000000000        0.0000000000000000        0.0000000000000000     
  0.62500000000000000        3.1250000000000000E-002   0.0000000000000000     
  0.65625000000000000        3.1250000000000000E-002   0.0000000000000000     
  0.68750000000000000        3.1250000000000000E-002   0.0000000000000000     
  0.71875000000000000        3.1250000000000000E-002   0.0000000000000000     
  0.75000000000000000        3.1250000000000000E-002   0.0000000000000000     
  0.62500000000000000        6.2500000000000000E-002   0.0000000000000000     
  0.65625000000000000        6.2500000000000000E-002   0.0000000000000000     
  0.68750000000000000        6.2500000000000000E-002   0.0000000000000000     
  0.71875000000000000        6.2500000000000000E-002   0.0000000000000000     
  0.75000000000000000        6.2500000000000000E-002   0.0000000000000000     
  0.62500000000000000        9.3750000000000000E-002   0.0000000000000000     
  0.65625000000000000        9.3750000000000000E-002   0.0000000000000000     
  0.68750000000000000        9.3750000000000000E-002   0.0000000000000000     
  0.71875000000000000        9.3750000000000000E-002   0.0000000000000000     
  0.75000000000000000        9.3750000000000000E-002   0.0000000000000000     
  0.62500000000000000       0.12500000000000000        0.0000000000000000     
  0.65625000000000000       0.12500000000000000        0.0000000000000000     
  0.68750000000000000       0.12500000000000000        0.0000000000000000     
  0.71875000000000000       0.12500000000000000        0.0000000000000000     
  0.75000000000000000       0.12500000000000000        0.0000000000000000     
  0.75000000000000000        0.0000000000000000        0.0000000000000000     
  0.78125000000000000        0.0000000000000000        0.0000000000000000     
  0.81250000000000000        0.0000000000000000        0.0000000000000000     
  0.84375000000000000        0.0000000000000000        0.0000000000000000     
  0.87500000000000000        0.0000000000000000        0.0000000000000000     
  0.75000000000000000        3.1250000000000000E-002   0.0000000000000000     
  0.78125000000000000        3.1250000000000000E-002   0.0000000000000000     
  0.81250000000000000        3.1250000000000000E-002   0.0000000000000000     
  0.84375000000000000        3.1250000000000000E-002   0.0000000000000000     
  0.87500000000000000        3.1250000000000000E-002   0.0000000000000000     
  0.75000000000000000        6.2500000000000000E-002   0.0000000000000000     
  0.78125000000000000        6.2500000000000000E-002   0.0000000000000000     
  0.81250000000000000        6.2500000000000000E-002   0.0000000000000000     
  0.84375000000000000        6.2500000000000000E-002   0.0000000000000000     
  0.87500000000000000        6.2500000000000000E-002   0.0000000000000000     
  0.75000000000000000        9.3750000000000000E-002   0.0000000000000000     
  0.78125000000000000        9.3750000000000000E-002   0.0000000000000000     
  0.81250000000000000        9.3750000000000000E-002   0.0000000000000000     
  0.84375000000000000        9.3750000000000000E-002   0.0000000000000000     
  0.87500000000000000        9.3750000000000000E-002   0.0000000000000000     
  0.75000000000000000       0.12500000000000000        0.0000000000000000     
  0.78125000000000000       0.12500000000000000        0.0000000000000000     
  0.81250000000000000       0.12500000000000000        0.0000000000000000     
  0.84375000000000000       0.12500000000000000        0.0000000000000000     
  0.87500000000000000       0.12500000000000000        0.0000000000000000     
  0.87500000000000000        0.0000000000000000        0.0000000000000000     
  0.90625000000000000        0.0000000000000000        0.0000000000000000     
  0.93750000000000000        0.0000000000000000        0.0000000000000000     
  0.96875000000000000        0.0000000000000000        0.0000000000000000     
   1.0000000000000000        0.0000000000000000        0.0000000000000000     
  0.87500000000000000        3.1250000000000000E-002   0.0000000000000000     
  0.90625000000000000        3.1250000000000000E-002   0.0000000000000000     
  0.93750000000000000        3.1250000000000000E-002   0.0000000000000000     
  0.96875000000000000        3.1250000000000000E-002   0.0000000000000000     
   1.0000000000000000        3.1250000000000000E-002   0.0000000000000000     
  0.87500000000000000        6.2500000000000000E-002   0.0000000000000000     
  0.90625000000000000        6.2500000000000000E-002   0.0000000000000000     
  0.93750000000000000        6.2500000000000000E-002   0.0000000000000000     
  0.96875000000000000        6.2500000000000000E-002   0.0000000000000000     
   1.0000000000000000        6.2500000000000000E-002   0.0000000000000000     
  0.87500000000000000        9.3750000000000000E-002   0.0000000000000000     
  0.90625000000000000        9.3750000000000000E-002   0.0000000000000000     
  0.93750000000000000        9.3750000000000000E-002   0.0000000000000000     
  0.96875000000000000        9.3750000000000000E-002   0.0000000000000000     
   1.0000000000000000        9.3750000000000000E-002   0.0000000000000000     
  0.87500000000000000       0.12500000000000000        0.0000000000000000     
  0.90625000000000000       0.12500000000000000        0.0000000000000000     
  0.93750000000000000       0.12500000000000000        0.0000000000000000     
  0.96875000000000000       0.12500000000000000        0.0000000000000000     
   1.0000000000000000       0.12500000000000000        0.0000000000000000     
   1.0000000000000000        0.0000000000000000        0.0000000000000000     
   1.0312500000000000        0.0000000000000000        0.0000000000000000     
   1.0625000000000000        0.0000000000000000        0.0000000000000000     
   1.0937500000000000        0.0000000000000000        0.0000000000000000     
   1.1250000000000000        0.0000000000000000        0.0000000000000000     
   1.0000000000000000        3.1250000000000000E-002   0.0000000000000000     
   1.0312500000000000        3.1250000000000000E-002   0.0000000000000000     
   1.0625000000000000        3.1250000000000000E-002   0.0000000000000000     
   1.0937500000000000        3.1250000000000000E-002   0.0000000000000000     
   1.1250000000000000        3.1250000000000000E-002   0.0000000000000000     
   1.0000000000000000        6.2500000000000000E-002   0.0000000000000000     
   1.0312500000000000        6.2500000000000000E-002   0.0000000000000000     
   1.0625000000000000        6.2500000000000000E-002   0.0000000000000000     
   1.0937500000000000        6.2500000000000000E-002   0.0000000000000000     
   1.1250000000000000        6.2500000000000000E-002   0.0000000000000000     
   1.0000000000000000        9.3750000000000000E-002   0.0000000000000000     
   1.0312500000000000        9.3750000000000000E-002   0.0000000000000000     
   1.0625000000000000        9.3750000000000000E-002   0.0000000000000000     
   1.0937500000000000        9.3750000000000000E-002   0.0000000000000000     
   1.1250000000000000        9.3750000000000000E-002   0.0000000000000000     
   1.0000000000000000       0.12500000000000000        0.0000000000000000     
   1.0312500000000000       0.12500000000000000        0.0000000000000000     
   1.0625000000000000       0.12500000000000000        0.0000000000000000     
   1.0937500000000000       0.12500000000000000        0.0000000000000000     
   1.1250000000000000       0.12500000000000000        0.0000000000000000     
   1.1250000000000000        0.0000000000000000        0.0000000000000000     
   1.1562500000000000        0.0000000000000000        0.0000000000000000     
   1.1875000000000000        0.0000000000000000        0.0000000000000000     
   1.2187500000000000        0.0000000000000000        0.0000000000000000     
   1.2500000000000000        0.0000000000000000        0.0000000000000000     
   1.1250000000000000        3.1250000000000000E-002   0.0000000000000000     
   1.1562500000000000        3.1250000000000000E-002   0.0000000000000000     
   1.1875000000000000        3.1250000000000000E-002   0.0000000000000000     
   1.2187500000000000        3.1250000000000000E-002   0.0000000000000000     
   1.2500000000000000        3.1250000000000000E-002   0.0000000000000000     
   1.1250000000000000        6.2500000000000000E-002   0.0000000000000000     
   1.1562500000000000        6.2500000000000000E-002   0.0000000000000000     
   1.1875000000000000        6.2500000000000000E-002   0.0000000000000000     
   1.2187500000000000        6.2500000000000000E-002   0.0000000000000000     
   1.2500000000000000        6.2500000000000000E-002   0.0000000000000000     
   1.1250000000000000        9.3750000000000000E-002   0.0000000000000000     
   1.1562500000000000        9.3750000000000000E-002   0.0000000000000000     
   1.1875000000000000        9.3750000000000000E-002   0.0000000000000000     
   1.2187500000000000        9.3750000000000000E-002   0.0000000000000000     
   1.2500000000000000        9.3750000000000000E-002   0.0000000000000000     
   1.1250000000000000       0.12500000000000000        0.0000000000000000     
   1.1562500000000000       0.12500000000000000        0.0000000000000000     
   1.1875000000000000       0.12500000000000000        0.0000000000000000     
   1.2187500000000000       0.12500000000000000        0.0000000000000000     
   1.2500000000000000       0.12500000000000000        0.0000000000000000     
   1.2500000000000000        0.0000000000000000        0.0000000000000000     
   1.2812500000000000        0.0000000000000000        0.0000000000000000     
   1.3125000000000000        0.0000000000000000        0.0000000000000000     
   1.3437500000000000        0.0000000000000000        0.0000000000000000     
   1.3750000000000000        0.0000000000000000        0.0000000000000000     
   1.2500000000000000        3.1250000000000000E-002   0.0000000000000000     
   1.2812500000000000        3.1250000000000000E-002   0.0000000000000000     
   1.3125000000000000        3.1250000000000000E-002   0.0000000000000000     
   1.3437500000000000        3.1250000000000000E-002   0.0000000000000000     
   1.3750000000000000        3.1250000000000000E-002   0.0000000000000000     
   1.2500000000000000        6.2500000000000000E-002   0.0000000000000000     
   1.2812500000000000        6.2500000000000000E-002   0.0000000000000000     
   1.3125000000000000        6.2500000000000000E-002   0.0000000000000000     
   1.3437500000000000        6.2500000000000000E-002   0.0000000000000000     
   1.3750000000000000        6.2500000000000000E-002   0.0000000000000000     
   1.2500000000000000        9.3750000000000000E-002   0.0000000000000000     
   1.2812500000000000        9.3750000000000000E-002   0.0000000000000000     
   1.3125000000000000        9.3750000000000000E-002   0.0000000000000000     
   1.3437500000000000        9.3750000000000000E-002   0.0000000000000000     
   1.3750000000000000        9.3750000000000000E-002   0.0000000000000000     
   1.2500000000000000       0.12500000000000000        0.0000000000000000     
   1.2812500000000000       0.12500000000000000        0.0000000000000000     
   1.3125000000000000       0.12500000000000000        0.0000000000000000     
   1.3437500000000000       0.12500000000000000        0.0000000000000000     
   1.3750000000000000       0.12500000000000000        0.0000000000000000     
   1.3750000000000000        0.0000000000000000        0.0000000000000000     
   1.4062500000000000        0.0000000000000000        0.0000000000000000     
   1.4375000000000000        0.0000000000000000        0.0000000000000000     
   1.4687500000000000        0.0000000000000000        0.0000000000000000     
   1.5000000000000000        0.0000000000000000        0.0000000000000000     
   1.3750000000000000        3.1250000000000000E-002   0.0000000000000000     
   1.4062500000000000        3.1250000000000000E-002   0.0000000000000000     
   1.4375000000000000        3.1250000000000000E-002   0.0000000000000000     
   1.4687500000000000        3.1250000000000000E-002   0.0000000000000000     
   1.5000000000000000        3.1250000000000000E-002   0.0000000000000000     
   1.3750000000000000        6.2500000000000000E-002   0.0000000000000000     
   1.4062500000000000        6.2500000000000000E-002   0.0000000000000000     
   1.4375000000000000        6.2500000000000000E-002   0.0000000000000000     
   1.4687500000000000        6.2500000000000000E-002   0.0000000000000000     
   1.5000000000000000        6.2500000000000000E-002   0.0000000000000000     
   1.3750000000000000        9.3750000000000000E-002   0.0000000000000000     
   1.4062500000000000        9.3750000000000000E-002   0.0000000000000000     
   1.4375000000000000        9.3750000000000000E-002   0.0000000000000000     
   1.4687500000000000        9.3750000000000000E-002   0.0000000000000000     
   1.5000000000000000        9.3750000000000000E-002   0.0000000000000000     
   1.3750000000000000       0.12500000000000000        0.0000000000000000     
   1.4062500000000000       0.12500000000000000        0.0000000000000000     
   1.4375000000000000       0.12500000000000000        0.0000000000000000     
   1.4687500000000000       0.12500000000000000        0.0000000000000000     
   1.5000000000000000       0.12500000000000000        0.0000000000000000     
  0.50000000000000000       0.12500000000000000        0.0000000000000000     
  0.53125000000000000       0.12500000000000000        0.0000000000000000     
  0.56250000000000000       0.12500000000000000        0.0000000000000000     
  0.59375000000000000       0.12500000000000000        0.0000000000000000     
  0.62500000000000000       0.12500000000000000        0.0000000000000000     
  0.50000000000000000       0.15625000000000000        0.0000000000000000     
  0.53125000000000000       0.15625000000000000        0.0000000000000000     
  0.56250000000000000       0.15625000000000000        0.0000000000000000     
  0.59375000000000000       0.15625000000000000        0.0000000000000000     
  0.62500000000000000       0.15625000000000000        0.0000000000000000     
  0.50000000000000000       0.18750000000000000        0.0000000000000000     
  0.53125000000000000       0.18750000000000000        0.0000000000000000     
  0.56250000000000000       0.18750000000000000        0.0000000000000000     
  0.59375000000000000       0.18750000000000000        0.0000000000000000     
  0.62500000000000000       0.18750000000000000        0.0000000000000000     
  0.50000000000000000       0.21875000000000000        0.0000000000000000     
  0.53125000000000000       0.21875000000000000        0.0000000000000000     
  0.56250000000000000       0.21875000000000000        0.0000000000000000     
  0.59375000000000000       0.21875000000000000        0.0000000000000000     
  0.62500000000000000       0.21875000000000000        0.0000000000000000     
  0.50000000000000000       0.25000000000000000        0.0000000000000000     
  0.53125000000000000       0.25000000000000000        0.0000000000000000     
  0.56250000000000000       0.25000000000000000        0.0000000000000000     
  0.59375000000000000       0.25000000000000000        0.0000000000000000     
  0.62500000000000000       0.25000000000000000        0.0000000000000000     
  0.62500000000000000       0.12500000000000000        0.0000000000000000     
  0.65625000000000000       0.12500000000000000        0.0000000000000000     
  0.68750000000000000       0.12500000000000000        0.0000000000000000     
  0.71875000000000000       0.12500000000000000        0.0000000000000000     
  0.75000000000000000       0.12500000000000000        0.0000000000000000     
  0.62500000000000000       0.15625000000000000        0.0000000000000000     
  0.65625000000000000       0.15625000000000000        0.0000000000000000     
  0.68750000000000000       0.15625000000000000        0.0000000000000000     
  0.71875000000000000       0.15625000000000000        0.0000000000000000     
  0.75000000000000000       0.15625000000000000        0.0000000000000000     
  0.62500000000000000       0.18750000000000000        0.0000000000000000     
  0.65625000000000000       0.18750000000000000        0.0000000000000000     
  0.68750000000000000       0.18750000000000000        0.0000000000000000     
  0.71875000000000000       0.18750000000000000        0.0000000000000000     
  0.75000000000000000       0.18750000000000000        0.0000000000000000     
  0.62500000000000000       0.21875000000000000        0.0000000000000000     
  0.65625000000000000       0.21875000000000000        0.0000000000000000     
  0.68750000000000000       0.21875000000000000        0.0000000000000000     
  0.71875000000000000       0.21875000000000000        0.0000000000000000     
  0.75000000000000000       0.21875000000000000        0.0000000000000000     
  0.62500000000000000       0.25000000000000000        0.0000000000000000     
  0.65625000000000000       0.25000000000000000        0.0000000000000000     
  0.68750000000000000       0.25000000000000000        0.0000000000000000     
  0.71875000000000000       0.25000000000000000        0.0000000000000000     
  0.75000000000000000       0.25000000000000000        0.0000000000000000     
  0.75000000000000000       0.12500000000000000        0.0000000000000000     
  0.78125000000000000       0.12500000000000000        0.0000000000000000     
  0.81250000000000000       0.12500000000000000        0.0000000000000000     
  0.84375000000000000       0.12500000000000000        0.0000000000000000     
  0.87500000000000000       0.12500000000000000        0.0000000000000000     
  0.75000000000000000       0.15625000000000000        0.0000000000000000     
  0.78125000000000000       0.15625000000000000        0.0000000000000000     
  0.81250000000000000       0.15625000000000000        0.0000000000000000     
  0.84375000000000000       0.15625000000000000        0.0000000000000000     
  0.87500000000000000       0.15625000000000000        0.0000000000000000     
  0.75000000000000000       0.18750000000000000        0.0000000000000000     
  0.78125000000000000       0.18750000000000000        0.0000000000000000     
  0.81250000000000000       0.18750000000000000        0.0000000000000000     
  0.84375000000000000       0.18750000000000000        0.0000000000000000     
  0.87500000000000000       0.18750000000000000        0.0000000000000000     
  0.75000000000000000       0.21875000000000000        0.0000000000000000     
  0.78125000000000000       0.21875000000000000        0.0000000000000000     
  0.81250000000000000       0.21875000000000000        0.0000000000000000     
  0.84375000000000000       0.21875000000000000        0.0000000000000000     
  0.87500000000000000       0.21875000000000000        0.0000000000000000     
  0.75000000000000000       0.25000000000000000        0.0000000000000000     
  0.78125000000000000       0.25000000000000000        0.0000000000000000     
  0.81250000000000000       0.25000000000000000        0.0000000000000000     
  0.84375000000000000       0.25000000000000000        0.0000000000000000     
  0.87500000000000000       0.25000000000000000        0.0000000000000000     
  0.87500000000000000       0.12500000000000000        0.0000000000000000     
  0.90625000000000000       0.12500000000000000        0.0000000000000000     
  0.93750000000000000       0.12500000000000000        0.0000000000000000     
  0.96875000000000000       0.12500000000000000        0.0000000000000000     
   1.0000000000000000       0.12500000000000000        0.0000000000000000     
  0.87500000000000000       0.15625000000000000        0.0000000000000000     
  0.90625000000000000       0.15625000000000000        0.0000000000000000     
  0.93750000000000000       0.15625000000000000        0.0000000000000000     
  0.96875000000000000       0.15625000000000000        0.0000000000000000     
   1.0000000000000000       0.15625000000000000        0.0000000000000000     
  0.87500000000000000       0.18750000000000000        0.0000000000000000     
  0.90625000000000000       0.18750000000000000        0.0000000000000000     
  0.93750000000000000       0.18750000000000000        0.0000000000000000     
  0.96875000000000000       0.18750000000000000        0.0000000000000000     
   1.0000000000000000       0.18750000000000000        0.0000000000000000     
  0.87500000000000000       0.21875000000000000        0.0000000000000000     
  0.90625000000000000       0.21875000000000000        0.0000000000000000     
  0.93750000000000000       0.21875000000000000        0.0000000000000000     
  0.96875000000000000       0.21875000000000000        0.0000000000000000     
   1.0000000000000000       0.21875000000000000        0.0000000000000000     
  0.87500000000000000       0.25000000000000000        0.0000000000000000     
  0.90625000000000000       0.25000000000000000        0.0000000000000000     
  0.93750000000000000       0.25000000000000000        0.0000000000000000     
  0.96875000000000000       0.25000000000000000        0.0000000000000000     
   1.0000000000000000       0.25000000000000000        0.0000000000000000     
   1.0000000000000000       0.12500000000000000        0.0000000000000000     
   1.0312500000000000       0.12500000000000000        0.0000000000000000     
   1.0625000000000000       0.12500000000000000        0.0000000000000000     
   1.0937500000000000       0.12500000000000000        0.0000000000000000     
   1.1250000000000000       0.12500000000000000        0.0000000000000000     
   1.0000000000000000       0.15625000000000000        0.0000000000000000     
   1.0312500000000000       0.15625000000000000        0.0000000000000000     
   1.0625000000000000       0.15625000000000000        0.0000000000000000     
   1.0937500000000000       0.15625000000000000        0.0000000000000000     
   1.1250000000000000       0.15625000000000000        0.0000000000000000     
   1.0000000000000000       0.18750000000000000        0.0000000000000000     
   1.0312500000000000       0.18750000000000000        0.0000000000000000     
   1.0625000000000000       0.18750000000000000        0.0000000000000000     
   1.0937500000000000       0.18750000000000000        0.0000000000000000     
   1.1250000000000000       0.18750000000000000        0.0000000000000000     
   1.0000000000000000       0.21875000000000000        0.0000000000000000     
   1.0312500000000000       0.21875000000000000        0.0000000000000000     
   1.0625000000000000       0.21875000000000000        0.0000000000000000     
   1.0937500000000000       0.21875000000000000        0.0000000000000000     
   1.1250000000000000       0.21875000000000000        0.0000000000000000     
   1.0000000000000000       0.25000000000000000        0.0000000000000000     
   1.0312500000000000       0.25000000000000000        0.0000000000000000     
   1.0625000000000000       0.25000000000000000        0.0000000000000000     
   1.0937500000000000       0.25000000000000000        0.0000000000000000     
   1.1250000000000000       0.25000000000000000        0.0000000000000000     
   1.1250000000000000       0.12500000000000000        0.0000000000000000     
   1.1562500000000000       0.12500000000000000        0.0000000000000000     
   1.1875000000000000       0.12500000000000000        0.0000000000000000     
   1.2187500000000000       0.12500000000000000        0.0000000000000000     
   1.2500000000000000       0.12500000000000000        0.0000000000000000     
   1.1250000000000000       0.15625000000000000        0.0000000000000000     
   1.1562500000000000       0.15625000000000000        0.0000000000000000     
   1.1875000000000000       0.15625000000000000        0.0000000000000000     
   1.2187500000000000       0.15625000000000000        0.0000000000000000     
   1.2500000000000000       0.15625000000000000        0.0000000000000000     
   1.1250000000000000       0.18750000000000000        0.0000000000000000     
   1.1562500000000000       0.18750000000000000        0.0000000000000000     
   1.1875000000000000       0.18750000000000000        0.0000000000000000     
   1.2187500000000000       0.18750000000000000        0.0000000000000000     
   1.2500000000000000       0.18750000000000000        0.0000000000000000     
   1.1250000000000000       0.21875000000000000        0.0000000000000000     
   1.1562500000000000       0.21875000000000000        0.0000000000000000     
   1.1875000000000000       0.21875000000000000        0.0000000000000000     
   1.2187500000000000       0.21875000000000000        0.0000000000000000     
   1.2500000000000000       0.21875000000000000        0.0000000000000000     
   1.1250000000000000       0.25000000000000000        0.0000000000000000     
   1.1562500000000000       0.25000000000000000        0.0000000000000000     
   1.1875000000000000       0.25000000000000000        0.0000000000000000     
   1.2187500000000000       0.25000000000000000        0.0000000000000000     
   1.2500000000000000       0.25000000000000000        0.0000000000000000     
   1.2500000000000000       0.12500000000000000        0.0000000000000000     
   1.2812500000000000       0.12500000000000000        0.0000000000000000     
   1.3125000000000000       0.12500000000000000        0.0000000000000000     
   1.3437500000000000       0.12500000000000000        0.0000000000000000     
   1.3750000000000000       0.12500000000000000        0.0000000000000000     
   1.2500000000000000       0.15625000000000000        0.0000000000000000     
   1.2812500000000000       0.15625000000000000        0.0000000000000000     
   1.3125000000000000       0.15625000000000000        0.0000000000000000     
   1.3437500000000000       0.15625000000000000        0.0000000000000000     
   1.3750000000000000       0.15625000000000000        0.0000000000000000     
   1.2500000000000000       0.18750000000000000        0.0000000000000000     
   1.2812500000000000       0.18750000000000000        0.0000000000000000     
   1.3125000000000000       0.18750000000000000        0.0000000000000000     
   1.3437500000000000       0.18750000000000000        0.0000000000000000     
   1.3750000000000000       0.18750000000000000        0.0000000000000000     
   1.2500000000000000       0.21875000000000000        0.0000000000000000     
   1.2812500000000000       0.21875000000000000        0.0000000000000000     
   1.3125000000000000       0.21875000000000000        0.0000000000000000     
   1.3437500000000000       0.21875000000000000        0.0000000000000000     
   1.3750000000000000       0.21875000000000000        0.0000000000000000     
   1.2500000000000000       0.25000000000000000        0.0000000000000000     
   1.2812500000000000       0.25000000000000000        0.0000000000000000     
   1.3125000000000000       0.25000000000000000        0.0000000000000000     
   1.3437500000000000       0.25000000000000000        0.0000000000000000     
   1.3750000000000000       0.25000000000000000        0.0000000000000000     
   1.3750000000000000       0.12500000000000000        0.0000000000000000     
   1.4062500000000000       0.12500000000000000        0.0000000000000000     
   1.4375000000000000       0.12500000000000000        0.0000000000000000     
   1.4687500000000000       0.12500000000000000        0.0000000000000000     
   1.5000000000000000       0.12500000000000000        0.0000000000000000     
   1.3750000000000000       0.15625000000000000        0.0000000000000000     
   1.4062500000000000       0.15625000000000000        0.0000000000000000     
   1.4375000000000000       0.15625000000000000        0.0000000000000000     
   1.4687500000000000       0.15625000000000000        0.0000000000000000     
   1.5000000000000000       0.15625000000000000        0.0000000000000000     
   1.3750000000000000       0.18750000000000000        0.0000000000000000     
   1.4062500000000000       0.18750000000000000        0.0000000000000000     
   1.4375000000000000       0.18750000000000000        0.0000000000000000     
   1.4687500000000000       0.18750000000000000        0.0000000000000000     
   1.5000000000000000       0.18750000000000000        0.0000000000000000     
   1.3750000000000000       0.21875000000000000        0.0000000000000000     
   1.4062500000000000       0.21875000000000000        0.0000000000000000     
   1.4375000000000000       0.21875000000000000        0.0000000000000000     
   1.4687500000000000       0.21875000000000000        0.0000000000000000     
   1.5000000000000000       0.21875000000000000        0.0000000000000000     
   1.3750000000000000       0.25000000000000000        0.0000000000000000     
   1.4062500000000000       0.25000000000000000        0.0000000000000000     
   1.4375000000000000       0.25000000000000000        0.0000000000000000     
   1.4687500000000000       0.25000000000000000        0.0000000000000000     
   1.5000000000000000       0.25000000000000000        0.0000000000000000     
  0.50000000000000000       0.25000000000000000        0.0000000000000000     
  0.53125000000000000       0.25000000000000000        0.0000000000000000     
  0.56250000000000000       0.25000000000000000        0.0000000000000000     
  0.59375000000000000       0.25000000000000000        0.0000000000000000     
  0.62500000000000000       0.25000000000000000        0.0000000000000000     
  0.50000000000000000       0.28125000000000000        0.0000000000000000     
  0.53125000000000000       0.28125000000000000        0.0000000000000000     
  0.56250000000000000       0.28125000000000000        0.0000000000000000     
  0.59375000000000000       0.28125000000000000        0.0000000000000000     
  0.62500000000000000       0.28125000000000000        0.0000000000000000     
  0.50000000000000000       0.31250000000000000        0.0000000000000000     
  0.53125000000000000       0.31250000000000000        0.0000000000000000     
  0.56250000000000000       0.31250000000000000        0.0000000000000000     
  0.59375000000000000       0.31250000000000000        0.0000000000000000     
  0.62500000000000000       0.31250000000000000        0.0000000000000000     
  0.50000000000000000       0.34375000000000000        0.0000000000000000     
  0.53125000000000000       0.34375000000000000        0.0000000000000000     
  0.56250000000000000       0.34375000000000000        0.0000000000000000     
  0.59375000000000000       0.34375000000000000        0.0000000000000000     
  0.62500000000000000       0.34375000000000000        0.0000000000000000     
  0.50000000000000000       0.37500000000000000        0.0000000000000000     
  0.53125000000000000       0.37500000000000000        0.0000000000000000     
  0.56250000000000000       0.37500000000000000        0.0000000000000000     
  0.59375000000000000       0.37500000000000000        0.0000000000000000     
  0.62500000000000000       0.37500000000000000        0.0000000000000000     
  0.62500000000000000       0.25000000000000000        0.0000000000000000     
  0.65625000000000000       0.25000000000000000        0.0000000000000000     
  0.68750000000000000       0.25000000000000000        0.0000000000000000     
  0.71875000000000000       0.25000000000000000        0.0000000000000000     
  0.75000000000000000       0.25000000000000000        0.0000000000000000     
  0.62500000000000000       0.28125000000000000        0.0000000000000000     
  0.65625000000000000       0.28125000000000000        0.0000000000000000     
  0.68750000000000000       0.28125000000000000        0.0000000000000000     
  0.71875000000000000       0.28125000000000000        0.0000000000000000     
  0.75000000000000000       0.28125000000000000        0.0000000000000000     
  0.62500000000000000       0.31250000000000000        0.0000000000000000     
  0.65625000000000000       0.31250000000000000        0.0000000000000000     
  0.68750000000000000       0.31250000000000000        0.0000000000000000     
  0.71875000000000000       0.31250000000000000        0.0000000000000000     
  0.75000000000000000       0.31250000000000000        0.0000000000000000     
  0.62500000000000000       0.34375000000000000        0.0000000000000000     
  0.65625000000000000       0.34375000000000000        0.0000000000000000     
  0.68750000000000000       0.34375000000000000        0.0000000000000000     
  0.71875000000000000       0.34375000000000000        0.0000000000000000     
  0.75000000000000000       0.34375000000000000        0.0000000000000000     
  0.62500000000000000       0.37500000000000000        0.0000000000000000     
  0.65625000000000000       0.37500000000000000        0.0000000000000000     
  0.68750000000000000       0.37500000000000000        0.0000000000000000     
  0.71875000000000000       0.37500000000000000        0.0000000000000000     
  0.75000000000000000       0.37500000000000000        0.0000000000000000     
  0.75000000000000000       0.25000000000000000        0.0000000000000000     
  0.78125000000000000       0.25000000000000000        0.0000000000000000     
  0.81250000000000000       0.25000000000000000        0.0000000000000000     
  0.84375000000000000       0.25000000000000000        0.0000000000000000     
  0.87500000000000000       0.25000000000000000        0.0000000000000000     
  0.75000000000000000       0.28125000000000000        0.0000000000000000     
  0.78125000000000000       0.28125000000000000        0.0000000000000000     
  0.81250000000000000       0.28125000000000000        0.0000000000000000     
  0.84375000000000000       0.28125000000000000        0.0000000000000000     
  0.87500000000000000       0.28125000000000000        0.0000000000000000     
  0.75000000000000000       0.31250000000000000        0.0000000000000000     
  0.78125000000000000       0.31250000000000000        0.0000000000000000     
  0.81250000000000000       0.31250000000000000        0.0000000000000000     
  0.84375000000000000       0.31250000000000000        0.0000000000000000     
  0.87500000000000000       0.31250000000000000        0.0000000000000000     
  0.75000000000000000       0.34375000000000000        0.0000000000000000     
  0.78125000000000000       0.34375000000000000        0.0000000000000000     
  0.81250000000000000       0.34375000000000000        0.0000000000000000     
  0.84375000000000000       0.34375000000000000        0.0000000000000000     
  0.87500000000000000       0.34375000000000000        0.0000000000000000     
  0.75000000000000000       0.37500000000000000        0.0000000000000000     
  0.78125000000000000       0.37500000000000000        0.0000000000000000     
  0.81250000000000000       0.37500000000000000        0.0000000000000000     
  0.84375000000000000       0.37500000000000000        0.0000000000000000     
  0.87500000000000000       0.37500000000000000        0.0000000000000000     
  0.87500000000000000       0.25000000000000000        0.0000000000000000     
  0.90625000000000000       0.25000000000000000        0.0000000000000000     
  0.93750000000000000       0.25000000000000000        0.0000000000000000     
  0.96875000000000000       0.25000000000000000        0.0000000000000000     
   1.0000000000000000       0.25000000000000000        0.0000000000000000     
  0.87500000000000000       0.28125000000000000        0.0000000000000000     
  0.90625000000000000       0.28125000000000000        0.0000000000000000     
  0.93750000000000000       0.28125000000000000        0.0000000000000000     
  0.96875000000000000       0.28125000000000000        0.0000000000000000     
   1.0000000000000000       0.28125000000000000        0.0000000000000000     
  0.87500000000000000       0.31250000000000000        0.0000000000000000     
  0.90625000000000000       0.31250000000000000        0.0000000000000000     
  0.93750000000000000       0.31250000000000000        0.0000000000000000     
  0.96875000000000000       0.31250000000000000        0.0000000000000000     
   1.0000000000000000       0.31250000000000000        0.0000000000000000     
  0.87500000000000000       0.34375000000000000        0.0000000000000000     
  0.90625000000000000       0.34375000000000000        0.0000000000000000     
  0.93750000000000000       0.34375000000000000        0.0000000000000000     
  0.96875000000000000       0.34375000000000000        0.0000000000000000     
   1.0000000000000000       0.34375000000000000        0.0000000000000000     
  0.87500000000000000       0.37500000000000000        0.0000000000000000     
  0.90625000000000000       0.37500000000000000        0.0000000000000000     
  0.93750000000000000       0.37500000000000000        0.0000000000000000     
  0.96875000000000000       0.37500000000000000        0.0000000000000000     
   1.0000000000000000       0.37500000000000000        0.0000000000000000     
   1.0000000000000000       0.25000000000000000        0.0000000000000000     
   1.0312500000000000       0.25000000000000000        0.0000000000000000     
   1.0625000000000000       0.25000000000000000        0.0000000000000000     
   1.0937500000000000       0.25000000000000000        0.0000000000000000     
   1.1250000000000000       0.25000000000000000        0.0000000000000000     
   1.0000000000000000       0.28125000000000000        0.0000000000000000     
   1.0312500000000000       0.28125000000000000        0.0000000000000000     
   1.0625000000000000       0.28125000000000000        0.0000000000000000     
   1.0937500000000000       0.28125000000000000        0.0000000000000000     
   1.1250000000000000       0.28125000000000000        0.0000000000000000     
   1.0000000000000000       0.31250000000000000        0.0000000000000000     
   1.0312500000000000       0.31250000000000000        0.0000000000000000     
   1.0625000000000000       0.31250000000000000        0.0000000000000000     
   1.0937500000000000       0.31250000000000000        0.0000000000000000     
   1.1250000000000000       0.31250000000000000        0.0000000000000000     
   1.0000000000000000       0.34375000000000000        0.0000000000000000     
   1.0312500000000000       0.34375000000000000        0.0000000000000000     
   1.0625000000000000       0.34375000000000000        0.0000000000000000     
   1.0937500000000000       0.34375000000000000        0.0000000000000000     
   1.1250000000000000       0.34375000000000000        0.0000000000000000     
   1.0000000000000000       0.37500000000000000        0.0000000000000000     
   1.0312500000000000       0.37500000000000000        0.0000000000000000     
   1.0625000000000000       0.37500000000000000        0.0000000000000000     
   1.0937500000000000       0.37500000000000000        0.0000000000000000     
   1.1250000000000000       0.37500000000000000        0.0000000000000000     
   1.1250000000000000       0.25000000000000000        0.0000000000000000     
   1.1562500000000000       0.25000000000000000        0.0000000000000000     
   1.1875000000000000       0.25000000000000000        0.0000000000000000     
   1.2187500000000000       0.25000000000000000        0.0000000000000000     
   1.2500000000000000       0.25000000000000000        0.0000000000000000     
   1.1250000000000000       0.28125000000000000        0.0000000000000000     
   1.1562500000000000       0.28125000000000000        0.0000000000000000     
   1.1875000000000000       0.28125000000000000        0.0000000000000000     
   1.2187500000000000       0.28125000000000000        0.0000000000000000     
   1.2500000000000000       0.28125000000000000        0.0000000000000000     
   1.1250000000000000       0.31250000000000000        0.0000000000000000     
   1.1562500000000000       0.31250000000000000        0.0000000000000000     
   1.1875000000000000       0.31250000000000000        0.0000000000000000     
   1.2187500000000000       0.31250000000000000        0.0000000000000000     
   1.2500000000000000       0.31250000000000000        0.0000000000000000     
   1.1250000000000000       0.34375000000000000        0.0000000000000000     
   1.1562500000000000       0.34375000000000000        0.0000000000000000     
   1.1875000000000000       0.34375000000000000        0.0000000000000000     
   1.2187500000000000       0.34375000000000000        0.0000000000000000     
   1.2500000000000000       0.34375000000000000        0.0000000000000000     
   1.1250000000000000       0.37500000000000000        0.0000000000000000     
   1.1562500000000000       0.37500000000000000        0.0000000000000000     
   1.1875000000000000       0.37500000000000000        0.0000000000000000     
   1.2187500000000000       0.37500000000000000        0.0000000000000000     
   1.2500000000000000       0.37500000000000000        0.0000000000000000     
   1.2500000000000000       0.25000000000000000        0.0000000000000000     
   1.2812500000000000       0.25000000000000000        0.0000000000000000     
   1.3125000000000000       0.25000000000000000        0.0000000000000000     
   1.3437500000000000       0.25000000000000000        0.0000000000000000     
   1.3750000000000000       0.25000000000000000        0.0000000000000000     
   1.2500000000000000       0.28125000000000000        0.0000000000000000     
   1.2812500000000000       0.28125000000000000        0.0000000000000000     
   1.3125000000000000       0.28125000000000000        0.0000000000000000     
   1.3437500000000000       0.28125000000000000        0.0000000000000000     
   1.3750000000000000       0.28125000000000000        0.0000000000000000     
   1.2500000000000000       0.31250000000000000        0.0000000000000000     
   1.2812500000000000       0.31250000000000000        0.0000000000000000     
   1.3125000000000000       0.31250000000000000        0.0000000000000000     
   1.3437500000000000       0.31250000000000000        0.0000000000000000     
   1.3750000000000000       0.31250000000000000        0.0000000000000000     
   1.2500000000000000       0.34375000000000000        0.0000000000000000     
   1.2812500000000000       0.34375000000000000        0.0000000000000000     
   1.3125000000000000       0.34375000000000000        0.0000000000000000     
   1.3437500000000000       0.34375000000000000        0.0000000000000000     
   1.3750000000000000       0.34375000000000000        0.0000000000000000     
   1.2500000000000000       0.37500000000000000        0.0000000000000000     
   1.2812500000000000       0.37500000000000000        0.0000000000000000     
   1.3125000000000000       0.37500000000000000        0.0000000000000000     
   1.3437500000000000       0.37500000000000000        0.0000000000000000     
   1.3750000000000000       0.37500000000000000        0.0000000000000000     
   1.3750000000000000       0.25000000000000000        0.0000000000000000     
   1.4062500000000000       0.25000000000000000        0.0000000000000000     
   1.4375000000000000       0.25000000000000000        0.0000000000000000     
   1.4687500000000000       0.25000000000000000        0.0000000000000000     
   1.5000000000000000       0.25000000000000000        0.0000000000000000     
   1.3750000000000000       0.28125000000000000        0.0000000000000000     
   1.4062500000000000       0.28125000000000000        0.0000000000000000     
   1.4375000000000000       0.28125000000000000        0.0000000000000000     
   1.4687500000000000       0.28125000000000000        0.0000000000000000     
   1.5000000000000000       0.28125000000000000        0.0000000000000000     
   1.3750000000000000       0.31250000000000000        0.0000000000000000     
   1.4062500000000000       0.31250000000000000        0.0000000000000000     
   1.4375000000000000       0.31250000000000000        0.0000000000000000     
   1.4687500000000000       0.31250000000000000        0.0000000000000000     
   1.5000000000000000       0.31250000000000000        0.0000000000000000     
   1.3750000000000000       0.34375000000000000        0.0000000000000000     
   1.4062500000000000       0.34375000000000000        0.0000000000000000     
   1.4375000000000000       0.34375000000000000        0.0000000000000000     
   1.4687500000000000       0.34375000000000000        0.0000000000000000     
   1.5000000000000000       0.34375000000000000        0.0000000000000000     
   1.3750000000000000       0.37500000000000000        0.0000000000000000     
   1.4062500000000000       0.37500000000000000        0.0000000000000000     
   1.4375000000000000       0.37500000000000000        0.0000000000000000     
   1.4687500000000000       0.37500000000000000        0.0000000000000000     
   1.5000000000000000       0.37500000000000000        0.0000000000000000     
  0.50000000000000000       0.37500000000000000        0.0000000000000000     
  0.53125000000000000       0.37500000000000000        0.0000000000000000     
  0.56250000000000000       0.37500000000000000        0.0000000000000000     
  0.59375000000000000       0.37500000000000000        0.0000000000000000     
  0.62500000000000000       0.37500000000000000        0.0000000000000000     
  0.50000000000000000       0.40625000000000000        0.0000000000000000     
  0.53125000000000000       0.40625000000000000        0.0000000000000000     
  0.56250000000000000       0.40625000000000000        0.0000000000000000     
  0.59375000000000000       0.40625000000000000        0.0000000000000000     
  0.62500000000000000       0.40625000000000000        0.0000000000000000     
  0.50000000000000000       0.43750000000000000        0.0000000000000000     
  0.53125000000000000       0.43750000000000000        0.0000000000000000     
  0.56250000000000000       0.43750000000000000        0.0000000000000000     
  0.59375000000000000       0.43750000000000000        0.0000000000000000     
  0.62500000000000000       0.43750000000000000        0.0000000000000000     
  0.50000000000000000       0.46875000000000000        0.0000000000000000     
  0.53125000000000000       0.46875000000000000        0.0000000000000000     
  0.56250000000000000       0.46875000000000000        0.0000000000000000     
  0.59375000000000000       0.46875000000000000        0.0000000000000000     
  0.62500000000000000       0.46875000000000000        0.0000000000000000     
  0.50000000000000000       0.50000000000000000        0.0000000000000000     
  0.53125000000000000       0.50000000000000000        0.0000000000000000     
  0.56250000000000000       0.50000000000000000        0.0000000000000000     
  0.59375000000000000       0.50000000000000000        0.0000000000000000     
  0.62500000000000000       0.50000000000000000        0.0000000000000000     
  0.62500000000000000       0.37500000000000000        0.0000000000000000     
  0.65625000000000000       0.37500000000000000        0.0000000000000000     
  0.68750000000000000       0.37500000000000000        0.0000000000000000     
  0.71875000000000000       0.37500000000000000        0.0000000000000000     
  0.75000000000000000       0.37500000000000000        0.0000000000000000     
  0.62500000000000000       0.40625000000000000        0.0000000000000000     
  0.65625000000000000       0.40625000000000000        0.0000000000000000     
  0.68750000000000000       0.40625000000000000        0.0000000000000000     
  0.71875000000000000       0.40625000000000000        0.0000000000000000     
  0.75000000000000000       0.40625000000000000        0.0000000000000000     
  0.62500000000000000       0.43750000000000000        0.0000000000000000     
  0.65625000000000000       0.43750000000000000        0.0000000000000000     
  0.68750000000000000       0.43750000000000000        0.0000000000000000     
  0.71875000000000000       0.43750000000000000        0.0000000000000000     
  0.75000000000000000       0.43750000000000000        0.0000000000000000     
  0.62500000000000000       0.46875000000000000        0.0000000000000000     
  0.65625000000000000       0.46875000000000000        0.0000000000000000     
  0.68750000000000000       0.46875000000000000        0.0000000000000000     
  0.71875000000000000       0.46875000000000000        0.0000000000000000     
  0.75000000000000000       0.46875000000000000        0.0000000000000000     
  0.62500000000000000       0.50000000000000000        0.0000000000000000     
  0.65625000000000000       0.50000000000000000        0.0000000000000000     
  0.68750000000000000       0.50000000000000000        0.0000000000000000     
  0.71875000000000000       0.50000000000000000        0.0000000000000000     
  0.75000000000000000       0.50000000000000000        0.0000000000000000     
  0.75000000000000000       0.37500000000000000        0.0000000000000000     
  0.78125000000000000       0.37500000000000000        0.0000000000000000     
  0.81250000000000000       0.37500000000000000        0.0000000000000000     
  0.84375000000000000       0.37500000000000000        0.0000000000000000     
  0.87500000000000000       0.37500000000000000        0.0000000000000000     
  0.75000000000000000       0.40625000000000000        0.0000000000000000     
  0.78125000000000000       0.40625000000000000        0.0000000000000000     
  0.81250000000000000       0.40625000000000000        0.0000000000000000     
  0.84375000000000000       0.40625000000000000        0.0000000000000000     
  0.87500000000000000       0.40625000000000000        0.0000000000000000     
  0.75000000000000000       0.43750000000000000        0.0000000000000000     
  0.78125000000000000       0.43750000000000000        0.0000000000000000     
  0.81250000000000000       0.43750000000000000        0.0000000000000000     
  0.84375000000000000       0.43750000000000000        0.0000000000000000     
  0.87500000000000000       0.43750000000000000        0.0000000000000000     
  0.75000000000000000       0.46875000000000000        0.0000000000000000     
  0.78125000000000000       0.46875000000000000        0.0000000000000000     
  0.81250000000000000       0.46875000000000000        0.0000000000000000     
  0.84375000000000000       0.46875000000000000        0.0000000000000000     
  0.87500000000000000       0.46875000000000000        0.0000000000000000     
  0.75000000000000000       0.50000000000000000        0.0000000000000000     
  0.78125000000000000       0.50000000000000000        0.0000000000000000     
  0.81250000000000000       0.50000000000000000        0.0000000000000000     
  0.84375000000000000       0.50000000000000000        0.0000000000000000     
  0.87500000000000000       0.50000000000000000        0.0000000000000000     
  0.87500000000000000       0.37500000000000000        0.0000000000000000     
  0.90625000000000000       0.37500000000000000        0.0000000000000000     
  0.93750000000000000       0.37500000000000000        0.0000000000000000     
  0.96875000000000000       0.37500000000000000        0.0000000000000000     
   1.0000000000000000       0.37500000000000000        0.0000000000000000     
  0.87500000000000000       0.40625000000000000        0.0000000000000000     
  0.90625000000000000       0.40625000000000000        0.0000000000000000     
  0.93750000000000000       0.40625000000000000        0.0000000000000000     
  0.96875000000000000       0.40625000000000000        0.0000000000000000     
   1.0000000000000000       0.40625000000000000        0.0000000000000000     
  0.87500000000000000       0.43750000000000000        0.0000000000000000     
  0.90625000000000000       0.43750000000000000        0.0000000000000000     
  0.93750000000000000       0.43750000000000000        0.0000000000000000     
  0.96875000000000000       0.43750000000000000        0.0000000000000000     
   1.0000000000000000       0.43750000000000000        0.0000000000000000     
  0.87500000000000000       0.46875000000000000        0.0000000000000000     
  0.90625000000000000       0.46875000000000000        0.0000000000000000     
  0.93750000000000000       0.46875000000000000        0.0000000000000000     
  0.96875000000000000       0.46875000000000000        0.0000000000000000     
   1.0000000000000000       0.46875000000000000        0.0000000000000000     
  0.87500000000000000       0.50000000000000000        0.0000000000000000     
  0.90625000000000000       0.50000000000000000        0.0000000000000000     
  0.93750000000000000       0.50000000000000000        0.0000000000000000     
  0.96875000000000000       0.50000000000000000        0.0000000000000000     
   1.0000000000000000       0.50000000000000000        0.0000000000000000     
   1.0000000000000000       0.37500000000000000        0.0000000000000000     
   1.0312500000000000       0.37500000000000000        0.0000000000000000     
   1.0625000000000000       0.37500000000000000        0.0000000000000000     
   1.0937500000000000       0.37500000000000000        0.0000000000000000     
   1.1250000000000000       0.37500000000000000        0.0000000000000000     
   1.0000000000000000       0.40625000000000000        0.0000000000000000     
   1.0312500000000000       0.40625000000000000        0.0000000000000000     
   1.0625000000000000       0.40625000000000000        0.0000000000000000     
   1.0937500000000000       0.40625000000000000        0.0000000000000000     
   1.1250000000000000       0.40625000000000000        0.0000000000000000     
   1.0000000000000000       0.43750000000000000        0.0000000000000000     
   1.0312500000000000       0.43750000000000000        0.0000000000000000     
   1.0625000000000000       0.43750000000000000        0.0000000000000000     
   1.0937500000000000       0.43750000000000000        0.0000000000000000     
   1.1250000000000000       0.43750000000000000        0.0000000000000000     
   1.0000000000000000       0.46875000000000000        0.0000000000000000     
   1.0312500000000000       0.46875000000000000        0.0000000000000000     
   1.0625000000000000       0.46875000000000000        0.0000000000000000     
   1.0937500000000000       0.46875000000000000        0.0000000000000000     
   1.1250000000000000       0.46875000000000000        0.0000000000000000     
   1.0000000000000000       0.50000000000000000        0.0000000000000000     
   1.0312500000000000       0.50000000000000000        0.0000000000000000     
   1.0625000000000000       0.50000000000000000        0.0000000000000000     
   1.0937500000000000       0.50000000000000000        0.0000000000000000     
   1.1250000000000000       0.50000000000000000        0.0000000000000000     
   1.1250000000000000       0.37500000000000000        0.0000000000000000     
   1.1562500000000000       0.37500000000000000        0.0000000000000000     
   1.1875000000000000       0.37500000000000000        0.0000000000000000     
   1.2187500000000000       0.37500000000000000        0.0000000000000000     
   1.2500000000000000       0.37500000000000000        0.0000000000000000     
   1.1250000000000000       0.40625000000000000        0.0000000000000000     
   1.1562500000000000       0.40625000000000000        0.0000000000000000     
   1.1875000000000000       0.40625000000000000        0.0000000000000000     
   1.2187500000000000       0.40625000000000000        0.0000000000000000     
   1.2500000000000000       0.40625000000000000        0.0000000000000000     
   1.1250000000000000       0.43750000000000000        0.0000000000000000     
   1.1562500000000000       0.43750000000000000        0.0000000000000000     
   1.1875000000000000       0.43750000000000000        0.0000000000000000     
   1.2187500000000000       0.43750000000000000        0.0000000000000000     
   1.2500000000000000       0.43750000000000000        0.0000000000000000     
   1.1250000000000000       0.46875000000000000        0.0000000000000000     
   1.1562500000000000       0.46875000000000000        0.0000000000000000     
   1.1875000000000000       0.46875000000000000        0.0000000000000000     
   1.2187500000000000       0.46875000000000000        0.0000000000000000     
   1.2500000000000000       0.46875000000000000        0.0000000000000000     
   1.1250000000000000       0.50000000000000000        0.0000000000000000     
   1.1562500000000000       0.50000000000000000        0.0000000000000000     
   1.1875000000000000       0.50000000000000000        0.0000000000000000     
   1.2187500000000000       0.50000000000000000        0.0000000000000000     
   1.2500000000000000       0.50000000000000000        0.0000000000000000     
   1.2500000000000000       0.37500000000000000        0.0000000000000000     
   1.2812500000000000       0.37500000000000000        0.0000000000000000     
   1.3125000000000000       0.37500000000000000        0.0000000000000000     
   1.3437500000000000       0.37500000000000000        0.0000000000000000     
   1.3750000000000000       0.37500000000000000        0.0000000000000000     
   1.2500000000000000       0.40625000000000000        0.0000000000000000     
   1.2812500000000000       0.40625000000000000        0.0000000000000000     
   1.3125000000000000       0.40625000000000000        0.0000000000000000     
   1.3437500000000000       0.40625000000000000        0.0000000000000000     
   1.3750000000000000       0.40625000000000000        0.0000000000000000     
   1.2500000000000000       0.43750000000000000        0.0000000000000000     
   1.2812500000000000       0.43750000000000000        0.0000000000000000     
   1.3125000000000000       0.43750000000000000        0.0000000000000000     
   1.3437500000000000       0.43750000000000000        0.0000000000000000     
   1.3750000000000000       0.43750000000000000        0.0000000000000000     
   1.2500000000000000       0.46875000000000000        0.0000000000000000     
   1.2812500000000000       0.46875000000000000        0.0000000000000000     
   1.3125000000000000       0.46875000000000000        0.0000000000000000     
   1.3437500000000000       0.46875000000000000        0.0000000000000000     
   1.3750000000000000       0.46875000000000000        0.0000000000000000     
   1.2500000000000000       0.50000000000000000        0.0000000000000000     
   1.2812500000000000       0.50000000000000000        0.0000000000000000     
   1.3125000000000000       0.50000000000000000        0.0000000000000000     
   1.3437500000000000       0.50000000000000000        0.0000000000000000     
   1.3750000000000000       0.50000000000000000        0.0000000000000000     
   1.3750000000000000       0.37500000000000000        0.0000000000000000     
   1.4062500000000000       0.37500000000000000        0.0000000000000000     
   1.4375000000000000       0.37500000000000000        0.0000000000000000     
   1.4687500000000000       0.37500000000000000        0.0000000000000000     
   1.5000000000000000       0.37500000000000000        0.0000000000000000     
   1.3750000000000000       0.40625000000000000        0.0000000000000000     
   1.4062500000000000       0.40625000000000000        0.0000000000000000     
   1.4375000000000000       0.40625000000000000        0.0000000000000000     
   1.4687500000000000       0.40625000000000000        0.0000000000000000     
   1.5000000000000000       0.40625000000000000        0.0000000000000000     
   1.3750000000000000       0.43750000000000000        0.0000000000000000     
   1.4062500000000000       0.43750000000000000        0.0000000000000000     
   1.4375000000000000       0.43750000000000000        0.0000000000000000     
   1.4687500000000000       0.43750000000000000        0.0000000000000000     
   1.5000000000000000       0.43750000000000000        0.0000000000000000     
   1.3750000000000000       0.46875000000000000        0.0000000000000000     
   1.4062500000000000       0.46875000000000000        0.0000000000000000     
   1.4375000000000000       0.46875000000000000        0.0000000000000000     
   1.4687500000000000       0.46875000000000000        0.0000000000000000     
   1.5000000000000000       0.46875000000000000        0.0000000000000000     
   1.3750000000000000       0.50000000000000000        0.0000000000000000     
   1.4062500000000000       0.50000000000000000        0.0000000000000000     
   1.4375000000000000       0.50000000000000000        0.0000000000000000     
   1.4687500000000000       0.50000000000000000        0.0000000000000000     
   1.5000000000000000       0.50000000000000000        0.0000000000000000     
  0.50000000000000000       0.50000000000000000        0.0000000000000000     
  0.53125000000000000       0.50000000000000000        0.0000000000000000     
  0.56250000000000000       0.50000000000000000        0.0000000000000000     
  0.59375000000000000       0.50000000000000000        0.0000000000000000     
  0.62500000000000000       0.50000000000000000        0.0000000000000000     
  0.50000000000000000       0.53125000000000000        0.0000000000000000     
  0.53125000000000000       0.53125000000000000        0.0000000000000000     
  0.56250000000000000       0.53125000000000000        0.0000000000000000     
  0.59375000000000000       0.53125000000000000        0.0000000000000000     
  0.62500000000000000       0.53125000000000000        0.0000000000000000     
  0.50000000000000000       0.56250000000000000        0.0000000000000000     
  0.53125000000000000       0.56250000000000000        0.0000000000000000     
  0.56250000000000000       0.56250000000000000        0.0000000000000000     
  0.59375000000000000       0.56250000000000000        0.0000000000000000     
  0.62500000000000000       0.56250000000000000        0.0000000000000000     
  0.50000000000000000       0.59375000000000000        0.0000000000000000     
  0.53125000000000000       0.59375000000000000        0.0000000000000000     
  0.56250000000000000       0.59375000000000000        0.0000000000000000     
  0.59375000000000000       0.59375000000000000        0.0000000000000000     
  0.62500000000000000       0.59375000000000000        0.0000000000000000     
  0.50000000000000000       0.62500000000000000        0.0000000000000000     
  0.53125000000000000       0.62500000000000000        0.0000000000000000     
  0.56250000000000000       0.62500000000000000        0.0000000000000000     
  0.59375000000000000       0.62500000000000000        0.0000000000000000     
  0.62500000000000000       0.62500000000000000        0.0000000000000000     
  0.62500000000000000       0.50000000000000000        0.0000000000000000     
  0.65625000000000000       0.50000000000000000        0.0000000000000000     
  0.68750000000000000       0.50000000000000000        0.0000000000000000     
  0.71875000000000000       0.50000000000000000        0.0000000000000000     
  0.75000000000000000       0.50000000000000000        0.0000000000000000     
  0.62500000000000000       0.53125000000000000        0.0000000000000000     
  0.65625000000000000       0.53125000000000000        0.0000000000000000     
  0.68750000000000000       0.53125000000000000        0.0000000000000000     
  0.71875000000000000       0.53125000000000000        0.0000000000000000     
  0.75000000000000000       0.53125000000000000        0.0000000000000000     
  0.62500000000000000       0.56250000000000000        0.0000000000000000     
  0.65625000000000000       0.56250000000000000        0.0000000000000000     
  0.68750000000000000       0.56250000000000000        0.0000000000000000     
  0.71875000000000000       0.56250000000000000        0.0000000000000000     
  0.75000000000000000       0.56250000000000000        0.0000000000000000     
  0.62500000000000000       0.59375000000000000        0.0000000000000000     
  0.65625000000000000       0.59375000000000000        0.0000000000000000     
  0.68750000000000000       0.59375000000000000        0.0000000000000000     
  0.71875000000000000       0.59375000000000000        0.0000000000000000     
  0.75000000000000000       0.59375000000000000        0.0000000000000000     
  0.62500000000000000       0.62500000000000000        0.0000000000000000     
  0.65625000000000000       0.62500000000000000        0.0000000000000000     
  0.68750000000000000       0.62500000000000000        0.0000000000000000     
  0.71875000000000000       0.62500000000000000        0.0000000000000000     
  0.75000000000000000       0.62500000000000000        0.0000000000000000     
  0.75000000000000000       0.50000000000000000        0.0000000000000000     
  0.78125000000000000       0.50000000000000000        0.0000000000000000     
  0.81250000000000000       0.50000000000000000        0.0000000000000000     
  0.84375000000000000       0.50000000000000000        0.0000000000000000     
  0.87500000000000000       0.50000000000000000        0.0000000000000000     
  0.75000000000000000       0.53125000000000000        0.0000000000000000     
  0.78125000000000000       0.53125000000000000        0.0000000000000000     
  0.81250000000000000       0.53125000000000000        0.0000000000000000     
  0.84375000000000000       0.53125000000000000        0.0000000000000000     
  0.87500000000000000       0.53125000000000000        0.0000000000000000     
  0.75000000000000000       0.56250000000000000        0.0000000000000000     
  0.78125000000000000       0.56250000000000000        0.0000000000000000     
  0.81250000000000000       0.56250000000000000        0.0000000000000000     
  0.84375000000000000       0.56250000000000000        0.0000000000000000     
  0.87500000000000000       0.56250000000000000        0.0000000000000000     
  0.75000000000000000       0.59375000000000000        0.0000000000000000     
  0.78125000000000000       0.59375000000000000        0.0000000000000000     
  0.81250000000000000       0.59375000000000000        0.0000000000000000     
  0.84375000000000000       0.59375000000000000        0.0000000000000000     
  0.87500000000000000       0.59375000000000000        0.0000000000000000     
  0.75000000000000000       0.62500000000000000        0.0000000000000000     
  0.78125000000000000       0.62500000000000000        0.0000000000000000     
  0.81250000000000000       0.62500000000000000        0.0000000000000000     
  0.84375000000000000       0.62500000000000000        0.0000000000000000     
  0.87500000000000000       0.62500000000000000        0.0000000000000000     
  0.87500000000000000       0.50000000000000000        0.0000000000000000     
  0.90625000000000000       0.50000000000000000        0.0000000000000000     
  0.93750000000000000       0.50000000000000000        0.0000000000000000     
  0.96875000000000000       0.50000000000000000        0.0000000000000000     
   1.0000000000000000       0.50000000000000000        0.0000000000000000     
  0.87500000000000000       0.53125000000000000        0.0000000000000000     
  0.90625000000000000       0.53125000000000000        0.0000000000000000     
  0.93750000000000000       0.53125000000000000        0.0000000000000000     
  0.96875000000000000       0.53125000000000000        0.0000000000000000     
   1.0000000000000000       0.53125000000000000        0.0000000000000000     
  0.87500000000000000       0.56250000000000000        0.0000000000000000     
  0.90625000000000000       0.56250000000000000        0.0000000000000000     
  0.93750000000000000       0.56250000000000000        0.0000000000000000     
  0.96875000000000000       0.56250000000000000        0.0000000000000000     
   1.0000000000000000       0.56250000000000000        0.0000000000000000     
  0.87500000000000000       0.59375000000000000        0.0000000000000000     
  0.90625000000000000       0.59375000000000000        0.0000000000000000     
  0.93750000000000000       0.59375000000000000        0.0000000000000000     
  0.96875000000000000       0.59375000000000000        0.0000000000000000     
   1.0000000000000000       0.59375000000000000        0.0000000000000000     
  0.87500000000000000       0.62500000000000000        0.0000000000000000     
  0.90625000000000000       0.62500000000000000        0.0000000000000000     
  0.93750000000000000       0.62500000000000000        0.0000000000000000     
  0.96875000000000000       0.62500000000000000        0.0000000000000000     
   1.0000000000000000       0.62500000000000000        0.0000000000000000     
   1.0000000000000000       0.50000000000000000        0.0000000000000000     
   1.0312500000000000       0.50000000000000000        0.0000000000000000     
   1.0625000000000000       0.50000000000000000        0.0000000000000000     
   1.0937500000000000       0.50000000000000000        0.0000000000000000     
   1.1250000000000000       0.50000000000000000        0.0000000000000000     
   1.0000000000000000       0.53125000000000000        0.0000000000000000     
   1.0312500000000000       0.53125000000000000        0.0000000000000000     
   1.0625000000000000       0.53125000000000000        0.0000000000000000     
   1.0937500000000000       0.53125000000000000        0.0000000000000000     
   1.1250000000000000       0.53125000000000000        0.0000000000000000     
   1.0000000000000000       0.56250000000000000        0.0000000000000000     
   1.0312500000000000       0.56250000000000000        0.0000000000000000     
   1.0625000000000000       0.56250000000000000        0.0000000000000000     
   1.0937500000000000       0.56250000000000000        0.0000000000000000     
   1.1250000000000000       0.56250000000000000        0.0000000000000000     
   1.0000000000000000       0.59375000000000000        0.0000000000000000     
   1.0312500000000000       0.59375000000000000        0.0000000000000000     
   1.0625000000000000       0.59375000000000000        0.0000000000000000     
   1.0937500000000000       0.59375000000000000        0.0000000000000000     
   1.1250000000000000       0.59375000000000000        0.0000000000000000     
   1.0000000000000000       0.62500000000000000        0.0000000000000000     
   1.0312500000000000       0.62500000000000000        0.0000000000000000     
   1.0625000000000000       0.62500000000000000        0.0000000000000000     
   1.0937500000000000       0.62500000000000000        0.0000000000000000     
   1.1250000000000000       0.62500000000000000        0.0000000000000000     
   1.1250000000000000       0.50000000000000000        0.0000000000000000     
   1.1562500000000000       0.50000000000000000        0.0000000000000000     
   1.1875000000000000       0.50000000000000000        0.0000000000000000     
   1.2187500000000000       0.50000000000000000        0.0000000000000000     
   1.2500000000000000       0.50000000000000000        0.0000000000000000     
   1.1250000000000000       0.53125000000000000        0.0000000000000000     
   1.1562500000000000       0.53125000000000000        0.0000000000000000     
   1.1875000000000000       0.53125000000000000        0.0000000000000000     
   1.2187500000000000       0.53125000000000000        0.0000000000000000     
   1.2500000000000000       0.53125000000000000        0.0000000000000000     
   1.1250000000000000       0.56250000000000000        0.0000000000000000     
   1.1562500000000000       0.56250000000000000        0.0000000000000000     
   1.1875000000000000       0.56250000000000000        0.0000000000000000     
   1.2187500000000000       0.56250000000000000        0.0000000000000000     
   1.2500000000000000       0.56250000000000000        0.0000000000000000     
   1.1250000000000000       0.59375000000000000        0.0000000000000000     
   1.1562500000000000       0.59375000000000000        0.0000000000000000     
   1.1875000000000000       0.59375000000000000        0.0000000000000000     
   1.2187500000000000       0.59375000000000000        0.0000000000000000     
   1.2500000000000000       0.59375000000000000        0.0000000000000000     
   1.1250000000000000       0.62500000000000000        0.0000000000000000     
   1.1562500000000000       0.62500000000000000        0.0000000000000000     
   1.1875000000000000       0.62500000000000000        0.0000000000000000     
   1.2187500000000000       0.62500000000000000        0.0000000000000000     
   1.2500000000000000       0.62500000000000000        0.0000000000000000     
   1.2500000000000000       0.50000000000000000        0.0000000000000000     
   1.2812500000000000       0.50000000000000000        0.0000000000000000     
   1.3125000000000000       0.50000000000000000        0.0000000000000000     
   1.3437500000000000       0.50000000000000000        0.0000000000000000     
   1.3750000000000000       0.50000000000000000        0.0000000000000000     
   1.2500000000000000       0.53125000000000000        0.0000000000000000     
   1.2812500000000000       0.53125000000000000        0.0000000000000000     
   1.3125000000000000       0.53125000000000000        0.0000000000000000     
   1.3437500000000000       0.53125000000000000        0.0000000000000000     
   1.3750000000000000       0.53125000000000000        0.0000000000000000     
   1.2500000000000000       0.56250000000000000        0.0000000000000000     
   1.2812500000000000       0.56250000000000000        0.0000000000000000     
   1.3125000000000000       0.56250000000000000        0.0000000000000000     
   1.3437500000000000       0.56250000000000000        0.0000000000000000     
   1.3750000000000000       0.56250000000000000        0.0000000000000000     
   1.2500000000000000       0.59375000000000000        0.0000000000000000     
   1.2812500000000000       0.59375000000000000        0.0000000000000000     
   1.3125000000000000       0.59375000000000000        0.0000000000000000     
   1.3437500000000000       0.59375000000000000        0.0000000000000000     
   1.3750000000000000       0.59375000000000000        0.0000000000000000     
   1.2500000000000000       0.62500000000000000        0.0000000000000000     
   1.2812500000000000       0.62500000000000000        0.0000000000000000     
   1.3125000000000000       0.62500000000000000        0.0000000000000000     
   1.3437500000000000       0.62500000000000000        0.0000000000000000     
   1.3750000000000000       0.62500000000000000        0.0000000000000000     
   1.3750000000000000       0.50000000000000000        0.0000000000000000     
   1.4062500000000000       0.50000000000000000        0.0000000000000000     
   1.4375000000000000       0.50000000000000000        0.0000000000000000     
   1.4687500000000000       0.50000000000000000        0.0000000000000000     
   1.5000000000000000       0.50000000000000000        0.0000000000000000     
   1.3750000000000000       0.53125000000000000        0.0000000000000000     
   1.4062500000000000       0.53125000000000000        0.0000000000000000     
   1.4375000000000000       0.53125000000000000        0.0000000000000000     
   1.4687500000000000       0.53125000000000000        0.0000000000000000     
   1.5000000000000000       0.53125000000000000        0.0000000000000000     
   1.3750000000000000       0.56250000000000000        0.0000000000000000     
   1.4062500000000000       0.56250000000000000        0.0000000000000000     
   1.4375000000000000       0.56250000000000000        0.0000000000000000     
   1.4687500000000000       0.56250000000000000        0.0000000000000000     
   1.5000000000000000       0.56250000000000000        0.0000000000000000     
   1.3750000000000000       0.59375000000000000        0.0000000000000000     
   1.4062500000000000       0.59375000000000000        0.0000000000000000     
   1.4375000000000000       0.59375000000000000        0.0000000000000000     
   1.4687500000000000       0.59375000000000000        0.0000000000000000     
   1.5000000000000000       0.59375000000000000        0.0000000000000000     
   1.3750000000000000       0.62500000000000000        0.0000000000000000     
   1.4062500000000000       0.62500000000000000        0.0000000000000000     
   1.4375000000000000       0.62500000000000000        0.0000000000000000     
   1.4687500000000000       0.62500000000000000        0.0000000000000000     
   1.5000000000000000       0.62500000000000000        0.0000000000000000     
  0.50000000000000000       0.62500000000000000        0.0000000000000000     
  0.53125000000000000       0.62500000000000000        0.0000000000000000     
  0.56250000000000000       0.62500000000000000        0.0000000000000000     
  0.59375000000000000       0.62500000000000000        0.0000000000000000     
  0.62500000000000000       0.62500000000000000        0.0000000000000000     
  0.50000000000000000       0.65625000000000000        0.0000000000000000     
  0.53125000000000000       0.65625000000000000        0.0000000000000000     
  0.56250000000000000       0.65625000000000000        0.0000000000000000     
  0.59375000000000000       0.65625000000000000        0.0000000000000000     
  0.62500000000000000       0.65625000000000000        0.0000000000000000     
  0.50000000000000000       0.68750000000000000        0.0000000000000000     
  0.53125000000000000       0.68750000000000000        0.0000000000000000     
  0.56250000000000000       0.68750000000000000        0.0000000000000000     
  0.59375000000000000       0.68750000000000000        0.0000000000000000     
  0.62500000000000000       0.68750000000000000        0.0000000000000000     
  0.50000000000000000       0.71875000000000000        0.0000000000000000     
  0.53125000000000000       0.71875000000000000        0.0000000000000000     
  0.56250000000000000       0.71875000000000000        0.0000000000000000     
  0.59375000000000000       0.71875000000000000        0.0000000000000000     
  0.62500000000000000       0.71875000000000000        0.0000000000000000     
  0.50000000000000000       0.75000000000000000        0.0000000000000000     
  0.53125000000000000       0.75000000000000000        0.0000000000000000     
  0.56250000000000000       0.75000000000000000        0.0000000000000000     
  0.59375000000000000       0.75000000000000000        0.0000000000000000     
  0.62500000000000000       0.75000000000000000        0.0000000000000000     
  0.62500000000000000       0.62500000000000000        0.0000000000000000     
  0.65625000000000000       0.62500000000000000        0.0000000000000000     
  0.68750000000000000       0.62500000000000000        0.0000000000000000     
  0.71875000000000000       0.62500000000000000        0.0000000000000000     
  0.75000000000000000       0.62500000000000000        0.0000000000000000     
  0.62500000000000000       0.65625000000000000        0.0000000000000000     
  0.65625000000000000       0.65625000000000000        0.0000000000000000     
  0.68750000000000000       0.65625000000000000        0.0000000000000000     
  0.71875000000000000       0.65625000000000000        0.0000000000000000     
  0.75000000000000000       0.65625000000000000        0.0000000000000000     
  0.62500000000000000       0.68750000000000000        0.0000000000000000     
  0.65625000000000000       0.68750000000000000        0.0000000000000000     
  0.68750000000000000       0.68750000000000000        0.0000000000000000     
  0.71875000000000000       0.68750000000000000        0.0000000000000000     
  0.75000000000000000       0.68750000000000000        0.0000000000000000     
  0.62500000000000000       0.71875000000000000        0.0000000000000000     
  0.65625000000000000       0.71875000000000000        0.0000000000000000     
  0.68750000000000000       0.71875000000000000        0.0000000000000000     
  0.71875000000000000       0.71875000000000000        0.0000000000000000     
  0.75000000000000000       0.71875000000000000        0.0000000000000000     
  0.62500000000000000       0.75000000000000000        0.0000000000000000     
  0.65625000000000000       0.75000000000000000        0.0000000000000000     
  0.68750000000000000       0.75000000000000000        0.0000000000000000     
  0.71875000000000000       0.75000000000000000        0.0000000000000000     
  0.75000000000000000       0.75000000000000000        0.0000000000000000     
  0.75000000000000000       0.62500000000000000        0.0000000000000000     
  0.78125000000000000       0.62500000000000000        0.0000000000000000     
  0.81250000000000000       0.62500000000000000        0.0000000000000000     
  0.84375000000000000       0.62500000000000000        0.0000000000000000     
  0.87500000000000000       0.62500000000000000        0.0000000000000000     
  0.75000000000000000       0.65625000000000000        0.0000000000000000     
  0.78125000000000000       0.65625000000000000        0.0000000000000000     
  0.81250000000000000       0.65625000000000000        0.0000000000000000     
  0.84375000000000000       0.65625000000000000        0.0000000000000000     
  0.87500000000000000       0.65625000000000000        0.0000000000000000     
  0.75000000000000000       0.68750000000000000        0.0000000000000000     
  0.78125000000000000       0.68750000000000000        0.0000000000000000     
  0.81250000000000000       0.68750000000000000        0.0000000000000000     
  0.84375000000000000       0.68750000000000000        0.0000000000000000     
  0.87500000000000000       0.68750000000000000        0.0000000000000000     
  0.75000000000000000       0.71875000000000000        0.0000000000000000     
  0.78125000000000000       0.71875000000000000        0.0000000000000000     
  0.81250000000000000       0.71875000000000000        0.0000000000000000     
  0.84375000000000000       0.71875000000000000        0.0000000000000000     
  0.87500000000000000       0.71875000000000000        0.0000000000000000     
  0.75000000000000000       0.75000000000000000        0.0000000000000000     
  0.78125000000000000       0.75000000000000000        0.0000000000000000     
  0.81250000000000000       0.75000000000000000        0.0000000000000000     
  0.84375000000000000       0.75000000000000000        0.0000000000000000     
  0.87500000000000000       0.75000000000000000        0.0000000000000000     
  0.87500000000000000       0.62500000000000000        0.0000000000000000     
  0.90625000000000000       0.62500000000000000        0.0000000000000000     
  0.93750000000000000       0.62500000000000000        0.0000000000000000     
  0.96875000000000000       0.62500000000000000        0.0000000000000000     
   1.0000000000000000       0.62500000000000000        0.0000000000000000     
  0.87500000000000000       0.65625000000000000        0.0000000000000000     
  0.90625000000000000       0.65625000000000000        0.0000000000000000     
  0.93750000000000000       0.65625000000000000        0.0000000000000000     
  0.96875000000000000       0.65625000000000000        0.0000000000000000     
   1.0000000000000000       0.65625000000000000        0.0000000000000000     
  0.87500000000000000       0.68750000000000000        0.0000000000000000     
  0.90625000000000000       0.68750000000000000        0.0000000000000000     
  0.93750000000000000       0.68750000000000000        0.0000000000000000     
  0.96875000000000000       0.68750000000000000        0.0000000000000000     
   1.0000000000000000       0.68750000000000000        0.0000000000000000     
  0.87500000000000000       0.71875000000000000        0.0000000000000000     
  0.90625000000000000       0.71875000000000000        0.0000000000000000     
  0.93750000000000000       0.71875000000000000        0.0000000000000000     
  0.96875000000000000       0.71875000000000000        0.0000000000000000     
   1.0000000000000000       0.71875000000000000        0.0000000000000000     
  0.87500000000000000       0.75000000000000000        0.0000000000000000     
  0.90625000000000000       0.75000000000000000        0.0000000000000000     
  0.93750000000000000       0.75000000000000000        0.0000000000000000     
  0.96875000000000000       0.75000000000000000        0.0000000000000000     
   1.0000000000000000       0.75000000000000000        0.0000000000000000     
   1.0000000000000000       0.62500000000000000        0.0000000000000000     
   1.0312500000000000       0.62500000000000000        0.0000000000000000     
   1.0625000000000000       0.62500000000000000        0.0000000000000000     
   1.0937500000000000       0.62500000000000000        0.0000000000000000     
   1.1250000000000000       0.62500000000000000        0.0000000000000000     
   1.0000000000000000       0.65625000000000000        0.0000000000000000     
   1.0312500000000000       0.65625000000000000        0.0000000000000000     
   1.0625000000000000       0.65625000000000000        0.0000000000000000     
   1.0937500000000000       0.65625000000000000        0.0000000000000000     
   1.1250000000000000       0.65625000000000000        0.0000000000000000     
   1.0000000000000000       0.68750000000000000        0.0000000000000000     
   1.0312500000000000       0.68750000000000000        0.0000000000000000     
   1.0625000000000000       0.68750000000000000        0.0000000000000000     
   1.0937500000000000       0.68750000000000000        0.0000000000000000     
   1.1250000000000000       0.68750000000000000        0.0000000000000000     
   1.0000000000000000       0.71875000000000000        0.0000000000000000     
   1.0312500000000000       0.71875000000000000        0.0000000000000000     
   1.0625000000000000       0.71875000000000000        0.0000000000000000     
   1.0937500000000000       0.71875000000000000        0.0000000000000000     
   1.1250000000000000       0.71875000000000000        0.0000000000000000     
   1.0000000000000000       0.75000000000000000        0.0000000000000000     
   1.0312500000000000       0.75000000000000000        0.0000000000000000     
   1.0625000000000000       0.75000000000000000        0.0000000000000000     
   1.0937500000000000       0.75000000000000000        0.0000000000000000     
   1.1250000000000000       0.75000000000000000        0.0000000000000000     
   1.1250000000000000       0.62500000000000000        0.0000000000000000     
   1.1562500000000000       0.62500000000000000        0.0000000000000000     
   1.1875000000000000       0.62500000000000000        0.0000000000000000     
   1.2187500000000000       0.62500000000000000        0.0000000000000000     
   1.2500000000000000       0.62500000000000000        0.0000000000000000     
   1.1250000000000000       0.65625000000000000        0.0000000000000000     
   1.1562500000000000       0.65625000000000000        0.0000000000000000     
   1.1875000000000000       0.65625000000000000        0.0000000000000000     
   1.2187500000000000       0.65625000000000000        0.0000000000000000     
   1.2500000000000000       0.65625000000000000        0.0000000000000000     
   1.1250000000000000       0.68750000000000000        0.0000000000000000     
   1.1562500000000000       0.68750000000000000        0.0000000000000000     
   1.1875000000000000       0.68750000000000000        0.0000000000000000     
   1.2187500000000000       0.68750000000000000        0.0000000000000000     
   1.2500000000000000       0.68750000000000000        0.0000000000000000     
   1.1250000000000000       0.71875000000000000        0.0000000000000000     
   1.1562500000000000       0.71875000000000000        0.0000000000000000     
   1.1875000000000000       0.71875000000000000        0.0000000000000000     
   1.2187500000000000       0.71875000000000000        0.0000000000000000     
   1.2500000000000000       0.71875000000000000        0.0000000000000000     
   1.1250000000000000       0.75000000000000000        0.0000000000000000     
   1.1562500000000000       0.75000000000000000        0.0000000000000000     
   1.1875000000000000       0.75000000000000000        0.0000000000000000     
   1.2187500000000000       0.75000000000000000        0.0000000000000000     
   1.2500000000000000       0.75000000000000000        0.0000000000000000     
   1.2500000000000000       0.62500000000000000        0.0000000000000000     
   1.2812500000000000       0.62500000000000000        0.0000000000000000     
   1.3125000000000000       0.62500000000000000        0.0000000000000000     
   1.3437500000000000       0.62500000000000000        0.0000000000000000     
   1.3750000000000000       0.62500000000000000        0.0000000000000000     
   1.2500000000000000       0.65625000000000000        0.0000000000000000     
   1.2812500000000000       0.65625000000000000        0.0000000000000000     
   1.3125000000000000       0.65625000000000000        0.0000000000000000     
   1.3437500000000000       0.65625000000000000        0.0000000000000000     
   1.3750000000000000       0.65625000000000000        0.0000000000000000     
   1.2500000000000000       0.68750000000000000        0.0000000000000000     
   1.2812500000000000       0.68750000000000000        0.0000000000000000     
   1.3125000000000000       0.68750000000000000        0.0000000000000000     
   1.3437500000000000       0.68750000000000000        0.0000000000000000     
   1.3750000000000000       0.68750000000000000        0.0000000000000000     
   1.2500000000000000       0.71875000000000000        0.0000000000000000     
   1.2812500000000000       0.71875000000000000        0.0000000000000000     
   1.3125000000000000       0.71875000000000000        0.0000000000000000     
   1.3437500000000000       0.71875000000000000        0.0000000000000000     
   1.3750000000000000       0.71875000000000000        0.0000000000000000     
   1.2500000000000000       0.75000000000000000        0.0000000000000000     
   1.2812500000000000       0.75000000000000000        0.0000000000000000     
   1.3125000000000000       0.75000000000000000        0.0000000000000000     
   1.3437500000000000       0.75000000000000000        0.0000000000000000     
   1.3750000000000000       0.75000000000000000        0.0000000000000000     
   1.3750000000000000       0.62500000000000000        0.0000000000000000     
   1.4062500000000000       0.62500000000000000        0.0000000000000000     
   1.4375000000000000       0.62500000000000000        0.0000000000000000     
   1.4687500000000000       0.62500000000000000        0.0000000000000000     
   1.5000000000000000       0.62500000000000000        0.0000000000000000     
   1.3750000000000000       0.65625000000000000        0.0000000000000000     
   1.4062500000000000       0.65625000000000000        0.0000000000000000     
   1.4375000000000000       0.65625000000000000        0.0000000000000000     
   1.4687500000000000       0.65625000000000000        0.0000000000000000     
   1.5000000000000000       0.65625000000000000        0.0000000000000000     
   1.3750000000000000       0.68750000000000000        0.0000000000000000     
   1.4062500000000000       0.68750000000000000        0.0000000000000000     
   1.4375000000000000       0.68750000000000000        0.0000000000000000     
   1.4687500000000000       0.68750000000000000        0.0000000000000000     
   1.5000000000000000       0.68750000000000000        0.0000000000000000     
   1.3750000000000000       0.71875000000000000        0.0000000000000000     
   1.4062500000000000       0.71875000000000000        0.0000000000000000     
   1.4375000000000000       0.71875000000000000        0.0000000000000000     
   1.4687500000000000       0.71875000000000000        0.0000000000000000     
   1.5000000000000000       0.71875000000000000        0.0000000000000000     
   1.3750000000000000       0.75000000000000000        0.0000000000000000     
   1.4062500000000000       0.75000000000000000        0.0000000000000000     
   1.4375000000000000       0.75000000000000000        0.0000000000000000     
   1.4687500000000000       0.75000000000000000        0.0000000000000000     
   1.5000000000000000       0.75000000000000000        0.0000000000000000     
  0.50000000000000000       0.75000000000000000        0.0000000000000000     
  0.53125000000000000       0.75000000000000000        0.0000000000000000     
  0.56250000000000000       0.75000000000000000        0.0000000000000000     
  0.59375000000000000       0.75000000000000000        0.0000000000000000     
  0.62500000000000000       0.75000000000000000        0.0000000000000000     
  0.50000000000000000       0.78125000000000000        0.0000000000000000     
  0.53125000000000000       0.78125000000000000        0.0000000000000000     
  0.56250000000000000       0.78125000000000000        0.0000000000000000     
  0.59375000000000000       0.78125000000000000        0.0000000000000000     
  0.62500000000000000       0.78125000000000000        0.0000000000000000     
  0.50000000000000000       0.81250000000000000        0.0000000000000000     
  0.53125000000000000       0.81250000000000000        0.0000000000000000     
  0.56250000000000000       0.81250000000000000        0.0000000000000000     
  0.59375000000000000       0.81250000000000000        0.0000000000000000     
  0.62500000000000000       0.81250000000000000        0.0000000000000000     
  0.50000000000000000       0.84375000000000000        0.0000000000000000     
  0.53125000000000000       0.84375000000000000        0.0000000000000000     
  0.56250000000000000       0.84375000000000000        0.0000000000000000     
  0.59375000000000000       0.84375000000000000        0.0000000000000000     
  0.62500000000000000       0.84375000000000000        0.0000000000000000     
  0.50000000000000000       0.87500000000000000        0.0000000000000000     
  0.53125000000000000       0.87500000000000000        0.0000000000000000     
  0.56250000000000000       0.87500000000000000        0.0000000000000000     
  0.59375000000000000       0.87500000000000000        0.0000000000000000     
  0.62500000000000000       0.87500000000000000        0.0000000000000000     
  0.62500000000000000       0.75000000000000000        0.0000000000000000     
  0.65625000000000000       0.75000000000000000        0.0000000000000000     
  0.68750000000000000       0.75000000000000000        0.0000000000000000     
  0.71875000000000000       0.75000000000000000        0.0000000000000000     
  0.75000000000000000       0.75000000000000000        0.0000000000000000     
  0.62500000000000000       0.78125000000000000        0.0000000000000000     
  0.65625000000000000       0.78125000000000000        0.0000000000000000     
  0.68750000000000000       0.78125000000000000        0.0000000000000000     
  0.71875000000000000       0.78125000000000000        0.0000000000000000     
  0.75000000000000000       0.78125000000000000        0.0000000000000000     
  0.62500000000000000       0.81250000000000000        0.0000000000000000     
  0.65625000000000000       0.81250000000000000        0.0000000000000000     
  0.68750000000000000       0.81250000000000000        0.0000000000000000     
  0.71875000000000000       0.81250000000000000        0.0000000000000000     
  0.75000000000000000       0.81250000000000000        0.0000000000000000     
  0.62500000000000000       0.84375000000000000        0.0000000000000000     
  0.65625000000000000       0.84375000000000000        0.0000000000000000     
  0.68750000000000000       0.84375000000000000        0.0000000000000000     
  0.71875000000000000       0.84375000000000000        0.0000000000000000     
  0.75000000000000000       0.84375000000000000        0.0000000000000000     
  0.62500000000000000       0.87500000000000000        0.0000000000000000     
  0.65625000000000000       0.87500000000000000        0.0000000000000000     
  0.68750000000000000       0.87500000000000000        0.0000000000000000     
  0.71875000000000000       0.87500000000000000        0.0000000000000000     
  0.75000000000000000       0.87500000000000000        0.0000000000000000     
  0.75000000000000000       0.75000000000000000        0.0000000000000000     
  0.78125000000000000       0.75000000000000000        0.0000000000000000     
  0.81250000000000000       0.75000000000000000        0.0000000000000000     
  0.84375000000000000       0.75000000000000000        0.0000000000000000     
  0.87500000000000000       0.75000000000000000        0.0000000000000000     
  0.75000000000000000       0.78125000000000000        0.0000000000000000     
  0.78125000000000000       0.78125000000000000        0.0000000000000000     
  0.81250000000000000       0.78125000000000000        0.0000000000000000     
  0.84375000000000000       0.78125000000000000        0.0000000000000000     
  0.87500000000000000       0.78125000000000000        0.0000000000000000     
  0.75000000000000000       0.81250000000000000        0.0000000000000000     
  0.78125000000000000       0.81250000000000000        0.0000000000000000     
  0.81250000000000000       0.81250000000000000        0.0000000000000000     
  0.84375000000000000       0.81250000000000000        0.0000000000000000     
  0.87500000000000000       0.81250000000000000        0.0000000000000000     
  0.75000000000000000       0.84375000000000000        0.0000000000000000     
  0.78125000000000000       0.84375000000000000        0.0000000000000000     
  0.81250000000000000       0.84375000000000000        0.0000000000000000     
  0.84375000000000000       0.84375000000000000        0.0000000000000000     
  0.87500000000000000       0.84375000000000000        0.0000000000000000     
  0.75000000000000000       0.87500000000000000        0.0000000000000000     
  0.78125000000000000       0.87500000000000000        0.0000000000000000     
  0.81250000000000000       0.87500000000000000        0.0000000000000000     
  0.84375000000000000       0.87500000000000000        0.0000000000000000     
  0.87500000000000000       0.87500000000000000        0.0000000000000000     
  0.87500000000000000       0.75000000000000000        0.0000000000000000     
  0.90625000000000000       0.75000000000000000        0.0000000000000000     
  0.93750000000000000       0.75000000000000000        0.0000000000000000     
  0.96875000000000000       0.75000000000000000        0.0000000000000000     
   1.0000000000000000       0.75000000000000000        0.0000000000000000     
  0.87500000000000000       0.78125000000000000        0.0000000000000000     
  0.90625000000000000       0.78125000000000000        0.0000000000000000     
  0.93750000000000000       0.78125000000000000        0.0000000000000000     
  0.96875000000000000       0.78125000000000000        0.0000000000000000     
   1.0000000000000000       0.78125000000000000        0.0000000000000000     
  0.87500000000000000       0.81250000000000000        0.0000000000000000     
  0.90625000000000000       0.81250000000000000        0.0000000000000000     
  0.93750000000000000       0.81250000000000000        0.0000000000000000     
  0.96875000000000000       0.81250000000000000        0.0000000000000000     
   1.0000000000000000       0.81250000000000000        0.0000000000000000     
  0.87500000000000000       0.84375000000000000        0.0000000000000000     
  0.90625000000000000       0.84375000000000000        0.0000000000000000     
  0.93750000000000000       0.84375000000000000        0.0000000000000000     
  0.96875000000000000       0.84375000000000000        0.0000000000000000     
   1.0000000000000000       0.84375000000000000        0.0000000000000000     
  0.87500000000000000       0.87500000000000000        0.0000000000000000     
  0.90625000000000000       0.87500000000000000        0.0000000000000000     
  0.93750000000000000       0.87500000000000000        0.0000000000000000     
  0.96875000000000000       0.87500000000000000        0.0000000000000000     
   1.0000000000000000       0.87500000000000000        0.0000000000000000     
   1.0000000000000000       0.75000000000000000        0.0000000000000000     
   1.0312500000000000       0.75000000000000000        0.0000000000000000     
   1.0625000000000000       0.75000000000000000        0.0000000000000000     
   1.0937500000000000       0.75000000000000000        0.0000000000000000     
   1.1250000000000000       0.75000000000000000        0.0000000000000000     
   1.0000000000000000       0.78125000000000000        0.0000000000000000     
   1.0312500000000000       0.78125000000000000        0.0000000000000000     
   1.0625000000000000       0.78125000000000000        0.0000000000000000     
   1.0937500000000000       0.78125000000000000        0.0000000000000000     
   1.1250000000000000       0.78125000000000000        0.0000000000000000     
   1.0000000000000000       0.81250000000000000        0.0000000000000000     
   1.0312500000000000       0.81250000000000000        0.0000000000000000     
   1.0625000000000000       0.81250000000000000        0.0000000000000000     
   1.0937500000000000       0.81250000000000000        0.0000000000000000     
   1.1250000000000000       0.81250000000000000        0.0000000000000000     
   1.0000000000000000       0.84375000000000000        0.0000000000000000     
   1.0312500000000000       0.84375000000000000        0.0000000000000000     
   1.0625000000000000       0.84375000000000000        0.0000000000000000     
   1.0937500000000000       0.84375000000000000        0.0000000000000000     
   1.1250000000000000       0.84375000000000000        0.0000000000000000     
   1.0000000000000000       0.87500000000000000        0.0000000000000000     
   1.0312500000000000       0.87500000000000000        0.0000000000000000     
   1.0625000000000000       0.87500000000000000        0.0000000000000000     
   1.0937500000000000       0.87500000000000000        0.0000000000000000     
   1.1250000000000000       0.87500000000000000        0.0000000000000000     
   1.1250000000000000       0.75000000000000000        0.0000000000000000     
   1.1562500000000000       0.75000000000000000        0.0000000000000000     
   1.1875000000000000       0.75000000000000000        0.0000000000000000     
   1.2187500000000000       0.75000000000000000        0.0000000000000000     
   1.2500000000000000       0.75000000000000000        0.0000000000000000     
   1.1250000000000000       0.78125000000000000        0.0000000000000000     
   1.1562500000000000       0.78125000000000000        0.0000000000000000     
   1.1875000000000000       0.78125000000000000        0.0000000000000000     
   1.2187500000000000       0.78125000000000000        0.0000000000000000     
   1.2500000000000000       0.78125000000000000        0.0000000000000000     
   1.1250000000000000       0.81250000000000000        0.0000000000000000     
   1.1562500000000000       0.81250000000000000        0.0000000000000000     
   1.1875000000000000       0.81250000000000000        0.0000000000000000     
   1.2187500000000000       0.81250000000000000        0.0000000000000000     
   1.2500000000000000       0.81250000000000000        0.0000000000000000     
   1.1250000000000000       0.84375000000000000        0.0000000000000000     
   1.1562500000000000       0.84375000000000000        0.0000000000000000     
   1.1875000000000000       0.84375000000000000        0.0000000000000000     
   1.2187500000000000       0.84375000000000000        0.0000000000000000     
   1.2500000000000000       0.84375000000000000        0.0000000000000000     
   1.1250000000000000       0.87500000000000000        0.0000000000000000     
   1.1562500000000000       0.87500000000000000        0.0000000000000000     
   1.1875000000000000       0.87500000000000000        0.0000000000000000     
   1.2187500000000000       0.87500000000000000        0.0000000000000000     
   1.2500000000000000       0.87500000000000000        0.0000000000000000     
   1.2500000000000000       0.75000000000000000        0.0000000000000000     
   1.2812500000000000       0.75000000000000000        0.0000000000000000     
   1.3125000000000000       0.75000000000000000        0.0000000000000000     
   1.3437500000000000       0.75000000000000000        0.0000000000000000     
   1.3750000000000000       0.75000000000000000        0.0000000000000000     
   1.2500000000000000       0.78125000000000000        0.0000000000000000     
   1.2812500000000000       0.78125000000000000        0.0000000000000000     
   1.3125000000000000       0.78125000000000000        0.0000000000000000     
   1.3437500000000000       0.78125000000000000        0.0000000000000000     
   1.3750000000000000       0.78125000000000000        0.0000000000000000     
   1.2500000000000000       0.81250000000000000        0.0000000000000000     
   1.2812500000000000       0.81250000000000000        0.0000000000000000     
   1.3125000000000000       0.81250000000000000        0.0000000000000000     
   1.3437500000000000       0.81250000000000000        0.0000000000000000     
   1.3750000000000000       0.81250000000000000        0.0000000000000000     
   1.2500000000000000       0.84375000000000000        0.0000000000000000     
   1.2812500000000000       0.84375000000000000        0.0000000000000000     
   1.3125000000000000       0.84375000000000000        0.0000000000000000     
   1.3437500000000000       0.84375000000000000        0.0000000000000000     
   1.3750000000000000       0.84375000000000000        0.0000000000000000     
   1.2500000000000000       0.87500000000000000        0.0000000000000000     
   1.2812500000000000       0.87500000000000000        0.0000000000000000     
   1.3125000000000000       0.87500000000000000        0.0000000000000000     
   1.3437500000000000       0.87500000000000000        0.0000000000000000     
   1.3750000000000000       0.87500000000000000        0.0000000000000000     
   1.3750000000000000       0.75000000000000000        0.0000000000000000     
   1.4062500000000000       0.75000000000000000        0.0000000000000000     
   1.4375000000000000       0.75000000000000000        0.0000000000000000     
   1.4687500000000000       0.75000000000000000        0.0000000000000000     
   1.5000000000000000       0.75000000000000000        0.0000000000000000     
   1.3750000000000000       0.78125000000000000        0.0000000000000000     
   1.4062500000000000       0.78125000000000000        0.0000000000000000     
   1.4375000000000000       0.78125000000000000        0.0000000000000000     
   1.4687500000000000       0.78125000000000000        0.0000000000000000     
   1.5000000000000000       0.78125000000000000        0.0000000000000000     
   1.3750000000000000       0.81250000000000000        0.0000000000000000     
   1.4062500000000000       0.81250000000000000        0.0000000000000000     
   1.4375000000000000       0.81250000000000000        0.0000000000000000     
   1.4687500000000000       0.81250000000000000        0.0000000000000000     
   1.5000000000000000       0.81250000000000000        0.0000000000000000     
   1.3750000000000000       0.84375000000000000        0.0000000000000000     
   1.4062500000000000       0.84375000000000000        0.0000000000000000     
   1.4375000000000000       0.84375000000000000        0.0000000000000000     
   1.4687500000000000       0.84375000000000000        0.0000000000000000     
   1.5000000000000000       0.84375000000000000        0.0000000000000000     
   1.3750000000000000       0.87500000000000000        0.0000000000000000     
   1.4062500000000000       0.87500000000000000        0.0000000000000000     
   1.4375000000000000       0.87500000000000000        0.0000000000000000     
   1.4687500000000000       0.87500000000000000        0.0000000000000000     
   1.5000000000000000       0.87500000000000000        0.0000000000000000     
  0.50000000000000000       0.87500000000000000        0.0000000000000000     
  0.53125000000000000       0.87500000000000000        0.0000000000000000     
  0.56250000000000000       0.87500000000000000        0.0000000000000000     
  0.59375000000000000       0.87500000000000000        0.0000000000000000     
  0.62500000000000000       0.87500000000000000        0.0000000000000000     
  0.50000000000000000       0.90625000000000000        0.0000000000000000     
  0.53125000000000000       0.90625000000000000        0.0000000000000000     
  0.56250000000000000       0.90625000000000000        0.0000000000000000     
  0.59375000000000000       0.90625000000000000        0.0000000000000000     
  0.62500000000000000       0.90625000000000000        0.0000000000000000     
  0.50000000000000000       0.93750000000000000        0.0000000000000000     
  0.53125000000000000       0.93750000000000000        0.0000000000000000     
  0.56250000000000000       0.93750000000000000        0.0000000000000000     
  0.59375000000000000       0.93750000000000000        0.0000000000000000     
  0.62500000000000000       0.93750000000000000        0.0000000000000000     
  0.50000000000000000       0.96875000000000000        0.0000000000000000     
  0.53125000000000000       0.96875000000000000        0.0000000000000000     
  0.56250000000000000       0.96875000000000000        0.0000000000000000     
  0.59375000000000000       0.96875000000000000        0.0000000000000000     
  0.62500000000000000       0.96875000000000000        0.0000000000000000     
  0.50000000000000000        1.0000000000000000        0.0000000000000000     
  0.53125000000000000        1.0000000000000000        0.0000000000000000     
  0.56250000000000000        1.0000000000000000        0.0000000000000000     
  0.59375000000000000        1.0000000000000000        0.0000000000000000     
  0.62500000000000000        1.0000000000000000        0.0000000000000000     
  0.62500000000000000       0.87500000000000000        0.0000000000000000     
  0.65625000000000000       0.87500000000000000        0.0000000000000000     
  0.68750000000000000       0.87500000000000000        0.0000000000000000     
  0.71875000000000000       0.87500000000000000        0.0000000000000000     
  0.75000000000000000       0.87500000000000000        0.0000000000000000     
  0.62500000000000000       0.90625000000000000        0.0000000000000000     
  0.65625000000000000       0.90625000000000000        0.0000000000000000     
  0.68750000000000000       0.90625000000000000        0.0000000000000000     
  0.71875000000000000       0.90625000000000000        0.0000000000000000     
  0.75000000000000000       0.90625000000000000        0.0000000000000000     
  0.62500000000000000       0.93750000000000000        0.0000000000000000     
  0.65625000000000000       0.93750000000000000        0.0000000000000000     
  0.68750000000000000       0.93750000000000000        0.0000000000000000     
  0.71875000000000000       0.93750000000000000        0.0000000000000000     
  0.75000000000000000       0.93750000000000000        0.0000000000000000     
  0.62500000000000000       0.96875000000000000        0.0000000000000000     
  0.65625000000000000       0.96875000000000000        0.0000000000000000     
  0.68750000000000000       0.96875000000000000        0.0000000000000000     
  0.71875000000000000       0.96875000000000000        0.0000000000000000     
  0.75000000000000000       0.96875000000000000        0.0000000000000000     
  0.62500000000000000        1.0000000000000000        0.0000000000000000     
  0.65625000000000000        1.0000000000000000        0.0000000000000000     
  0.68750000000000000        1.0000000000000000        0.0000000000000000     
  0.71875000000000000        1.0000000000000000        0.0000000000000000     
  0.75000000000000000        1.0000000000000000        0.0000000000000000     
  0.75000000000000000       0.87500000000000000        0.0000000000000000     
  0.78125000000000000       0.87500000000000000        0.0000000000000000     
  0.81250000000000000       0.87500000000000000        0.0000000000000000     
  0.84375000000000000       0.87500000000000000        0.0000000000000000     
  0.87500000000000000       0.87500000000000000        0.0000000000000000     
  0.75000000000000000       0.90625000000000000        0.0000000000000000     
  0.78125000000000000       0.90625000000000000        0.0000000000000000     
  0.81250000000000000       0.90625000000000000        0.0000000000000000     
  0.84375000000000000       0.90625000000000000        0.0000000000000000     
  0.87500000000000000       0.90625000000000000        0.0000000000000000     
  0.75000000000000000       0.93750000000000000        0.0000000000000000     
  0.78125000000000000       0.93750000000000000        0.0000000000000000     
  0.81250000000000000       0.93750000000000000        0.0000000000000000     
  0.84375000000000000       0.93750000000000000        0.0000000000000000     
  0.87500000000000000       0.93750000000000000        0.0000000000000000     
  0.75000000000000000       0.96875000000000000        0.0000000000000000     
  0.78125000000000000       0.96875000000000000        0.0000000000000000     
  0.81250000000000000       0.96875000000000000        0.0000000000000000     
  0.84375000000000000       0.96875000000000000        0.0000000000000000     
  0.87500000000000000       0.96875000000000000        0.0000000000000000     
  0.75000000000000000        1.0000000000000000        0.0000000000000000     
  0.78125000000000000        1.0000000000000000        0.0000000000000000     
  0.81250000000000000        1.0000000000000000        0.0000000000000000     
  0.84375000000000000        1.0000000000000000        0.0000000000000000     
  0.87500000000000000        1.0000000000000000        0.0000000000000000     
  0.87500000000000000       0.87500000000000000        0.0000000000000000     
  0.90625000000000000       0.87500000000000000        0.0000000000000000     
  0.93750000000000000       0.87500000000000000        0.0000000000000000     
  0.96875000000000000       0.87500000000000000        0.0000000000000000     
   1.0000000000000000       0.87500000000000000        0.0000000000000000     
  0.87500000000000000       0.90625000000000000        0.0000000000000000     
  0.90625000000000000       0.90625000000000000        0.0000000000000000     
  0.93750000000000000       0.90625000000000000        0.0000000000000000     
  0.96875000000000000       0.90625000000000000        0.0000000000000000     
   1.0000000000000000       0.90625000000000000        0.0000000000000000     
  0.87500000000000000       0.93750000000000000        0.0000000000000000     
  0.90625000000000000       0.93750000000000000        0.0000000000000000     
  0.93750000000000000       0.93750000000000000        0.0000000000000000     
  0.96875000000000000       0.93750000000000000        0.0000000000000000     
   1.0000000000000000       0.93750000000000000        0.0000000000000000     
  0.87500000000000000       0.96875000000000000        0.0000000000000000     
  0.90625000000000000       0.96875000000000000        0.0000000000000000     
  0.93750000000000000       0.96875000000000000        0.0000000000000000     
  0.96875000000000000       0.96875000000000000        0.0000000000000000     
   1.0000000000000000       0.96875000000000000        0.0000000000000000     
  0.87500000000000000        1.0000000000000000        0.0000000000000000     
  0.90625000000000000        1.0000000000000000        0.0000000000000000     
  0.93750000000000000        1.0000000000000000        0.0000000000000000     
  0.96875000000000000        1.0000000000000000        0.0000000000000000     
   1.0000000000000000        1.0000000000000000        0.0000000000000000     
   1.0000000000000000       0.87500000000000000        0.0000000000000000     
   1.0312500000000000       0.87500000000000000        0.0000000000000000     
   1.0625000000000000       0.87500000000000000        0.0000000000000000     
   1.0937500000000000       0.87500000000000000        0.0000000000000000     
   1.1250000000000000       0.87500000000000000        0.0000000000000000     
   1.0000000000000000       0.90625000000000000        0.0000000000000000     
   1.0312500000000000       0.90625000000000000        0.0000000000000000     
   1.0625000000000000       0.90625000000000000        0.0000000000000000     
   1.0937500000000000       0.90625000000000000        0.0000000000000000     
   1.1250000000000000       0.90625000000000000        0.0000000000000000     
   1.0000000000000000       0.93750000000000000        0.0000000000000000     
   1.0312500000000000       0.93750000000000000        0.0000000000000000     
   1.0625000000000000       0.93750000000000000        0.0000000000000000     
   1.0937500000000000       0.93750000000000000        0.0000000000000000     
   1.1250000000000000       0.93750000000000000        0.0000000000000000     
   1.0000000000000000       0.96875000000000000        0.0000000000000000     
   1.0312500000000000       0.96875000000000000        0.0000000000000000     
   1.0625000000000000       0.96875000000000000        0.0000000000000000     
   1.0937500000000000       0.96875000000000000        0.0000000000000000     
   1.1250000000000000       0.96875000000000000        0.0000000000000000     
   1.0000000000000000        1.0000000000000000        0.0000000000000000     
   1.0312500000000000        1.0000000000000000        0.0000000000000000     
   1.0625000000000000        1.0000000000000000        0.0000000000000000     
   1.0937500000000000        1.0000000000000000        0.0000000000000000     
   1.1250000000000000        1.0000000000000000        0.0000000000000000     
   1.1250000000000000       0.87500000000000000        0.0000000000000000     
   1.1562500000000000       0.87500000000000000        0.0000000000000000     
   1.1875000000000000       0.87500000000000000        0.0000000000000000     
   1.2187500000000000       0.87500000000000000        0.0000000000000000     
   1.2500000000000000       0.87500000000000000        0.0000000000000000     
   1.1250000000000000       0.90625000000000000        0.0000000000000000     
   1.1562500000000000       0.90625000000000000        0.0000000000000000     
   1.1875000000000000       0.90625000000000000        0.0000000000000000     
   1.2187500000000000       0.90625000000000000        0.0000000000000000     
   1.2500000000000000       0.90625000000000000        0.0000000000000000     
   1.1250000000000000       0.93750000000000000        0.0000000000000000     
   1.1562500000000000       0.93750000000000000        0.0000000000000000     
   1.1875000000000000       0.93750000000000000        0.0000000000000000     
   1.2187500000000000       0.93750000000000000        0.0000000000000000     
   1.2500000000000000       0.93750000000000000        0.0000000000000000     
   1.1250000000000000       0.96875000000000000        0.0000000000000000     
   1.1562500000000000       0.96875000000000000        0.0000000000000000     
   1.1875000000000000       0.96875000000000000        0.0000000000000000     
   1.2187500000000000       0.96875000000000000        0.0000000000000000     
   1.2500000000000000       0.96875000000000000        0.0000000000000000     
   1.1250000000000000        1.0000000000000000        0.0000000000000000     
   1.1562500000000000        1.0000000000000000        0.0000000000000000     
   1.1875000000000000        1.0000000000000000        0.0000000000000000     
   1.2187500000000000        1.0000000000000000        0.0000000000000000     
   1.2500000000000000        1.0000000000000000        0.0000000000000000     
   1.2500000000000000       0.87500000000000000        0.0000000000000000     
   1.2812500000000000       0.87500000000000000        0.0000000000000000     
   1.3125000000000000       0.87500000000000000        0.0000000000000000     
   1.3437500000000000       0.87500000000000000        0.0000000000000000     
   1.3750000000000000       0.87500000000000000        0.0000000000000000     
   1.2500000000000000       0.90625000000000000        0.0000000000000000     
   1.2812500000000000       0.90625000000000000        0.0000000000000000     
   1.3125000000000000       0.90625000000000000        0.0000000000000000     
   1.3437500000000000       0.90625000000000000        0.0000000000000000     
   1.3750000000000000       0.90625000000000000        0.0000000000000000     
   1.2500000000000000       0.93750000000000000        0.0000000000000000     
   1.2812500000000000       0.93750000000000000        0.0000000000000000     
   1.3125000000000000       0.93750000000000000        0.0000000000000000     
   1.3437500000000000       0.93750000000000000        0.0000000000000000     
   1.3750000000000000       0.93750000000000000        0.0000000000000000     
   1.2500000000000000       0.96875000000000000        0.0000000000000000     
   1.2812500000000000       0.96875000000000000        0.0000000000000000     
   1.3125000000000000       0.96875000000000000        0.0000000000000000     
   1.3437500000000000       0.96875000000000000        0.0000000000000000     
   1.3750000000000000       0.96875000000000000        0.0000000000000000     
   1.2500000000000000        1.0000000000000000        0.0000000000000000     
   1.2812500000000000        1.0000000000000000        0.0000000000000000     
   1.3125000000000000        1.0000000000000000        0.0000000000000000     
   1.3437500000000000        1.0000000000000000        0.0000000000000000     
   1.3750000000000000        1.0000000000000000        0.0000000000000000     
   1.3750000000000000       0.87500000000000000        0.0000000000000000     
   1.4062500000000000       0.87500000000000000        0.0000000000000000     
   1.4375000000000000       0.87500000000000000        0.0000000000000000     
   1.4687500000000000       0.87500000000000000        0.0000000000000000     
   1.5000000000000000       0.87500000000000000        0.0000000000000000     
   1.3750000000000000       0.90625000000000000        0.0000000000000000     
   1.4062500000000000       0.90625000000000000        0.0000000000000000     
   1.4375000000000000       0.90625000000000000        0.0000000000000000     
   1.4687500000000000       0.90625000000000000        0.0000000000000000     
   1.5000000000000000       0.90625000000000000        0.0000000000000000     
   1.3750000000000000       0.93750000000000000        0.0000000000000000     
   1.4062500000000000       0.93750000000000000        0.0000000000000000     
   1.4375000000000000       0.93750000000000000        0.0000000000000000     
   1.4687500000000000       0.93750000000000000        0.0000000000000000     
   1.5000000000000000       0.93750000000000000        0.0000000000000000     
   1.3750000000000000       0.96875000000000000        0.0000000000000000     
   1.4062500000000000       0.96875000000000000        0.0000000000000000     
   1.4375000000000000       0.96875000000000000        0.0000000000000000     
   1.4687500000000000       0.96875000000000000        0.0000000000000000     
   1.5000000000000000       0.96875000000000000        0.0000000000000000     
   1.3750000000000000        1.0000000000000000        0.0000000000000000     
   1.4062500000000000        1.0000000000000000        0.0000000000000000     
   1.4375000000000000        1.0000000000000000        0.0000000000000000     
   1.4687500000000000        1.0000000000000000        0.0000000000000000     
   1.5000000000000000        1.0000000000000000        0.0000000000000000     
 </DataArray>
 </Points>
 <Cells>
 <DataArray  type="Int32"  Name="connectivity"  format="ascii">
           0           1           6           5
           1           2           7           6
           2           3           8           7
           3           4           9           8
           5           6          11          10
           6           7          12          11
           7           8          13          12
           8           9          14          13
          10          11          16          15
          11          12          17          16
          12          13          18          17
          13          14          19          18
          15          16          21          20
          16          17          22          21
          17          18          23          22
          18          19          24          23
          25          26          31          30
          26          27          32          31
          27          28          33          32
          28          29          34          33
          30          31          36          35
          31          32          37          36
          32          33          38          37
          33          34          39          38
          35          36          41          40
          36          37          42          41
          37          38          43          42
          38          39          44          43
          40          41          46          45
          41          42          47          46
          42          43          48          47
          43          44          49          48
          50          51          56          55
          51          52          57          56
          52          53          58          57
          53          54          59          58
          55          56          61          60
          56          57          62          61
          57          58          63          62
          58          59          64          63
          60          61          66          65
          61          62          67          66
          62          63          68          67
          63          64          69          68
          65          66          71          70
          66          67          72          71
          67          68          73          72
          68          69          74          73
          75          76          81          80
          76          77          82          81
          77          78          83          82
          78          79          84          83
          80          81          86          85
          81          82          87          86
          82          83          88          87
          83          84          89          88
          85          86          91          90
          86          87          92          91
          87          88          93          92
          88          89          94          93
          90          91          96          95
          91          92          97          96
          92          93          98          97
          93          94          99          98
         100         101         106         105
         101         102         107         106
         102         103         108         107
         103         104         109         108
         105         106         111         110
         106         107         112         111
         107         108         113         112
         108         109         114         113
         110         111         116         115
         111         112         117         116
         112         113         118         117
         113         114         119         118
         115         116         121         120
         116         117         122         121
         117         118         123         122
         118         119         124         123
         125         126         131         130
         126         127         132         131
         127         128         133         132
         128         129         134         133
         130         131         136         135
         131         132         137         136
         132         133         138         137
         133         134         139         138
         135         136         141         140
         136         137         142         141
         137         138         143         142
         138         139         144         143
         140         141         146         145
         141         142         147         146
         142         143         148         147
         143         144         149         148
         150         151         156         155
         151         152         157         156
         152         153         158         157
         153         154         159         158
         155         156         161         160
         156         157         162         161
         157         158         163         162
         158         159         164         163
         160         161         166         165
         161         162         167         166
         162         163         168         167
         163         164         169         168
         165         166         171         170
         166         167         172         171
         167         168         173         172
         168         169         174         173
         175         176         181         180
         176         177         182         181
         177         178         183         182
         178         179         184         183
         180         181         186         185
         181         182         187         186
         182         183         188         187
         183         184         189         188
         185         186         191         190
         186         187         192         191
         187         188         193         192
         188         189         194         193
         190         191         196         195
         191         192         197         196
         192         193         198         197
         193         194         199         198
         200         201         206         205
         201         202         207         206
         202         203         208         207
         203         204         209         208
         205         206         211         210
         206         207         212         211
         207         208         213         212
         208         209         214         213
         210         211         216         215
         211         212         217         216
         212         213         218         217
         213         214         219         218
         215         216         221         220
         216         217         222         221
         217         218         223         222
         218         219         224         223
         225         226         231         230
         226         227         232         231
         227         228         233         232
         228         229         234         233
         230         231         236         235
         231         232         237         236
         232         233         238         237
         233         234         239         238
         235         236         241         240
         236         237         242         241
         237         238         243         242
         238         239         244         243
         240         241         246         245
         241         242         247         246
         242         243         248         247
         243         244         249         248
         250         251         256         255
         251         252         257         256
         252         253         258         257
         253         254         259         258
         255         256         261         260
         256         257         262         261
         257         258         263         262
         258         259         264         263
         260         261         266         265
         261         262         267         266
         262         263         268         267
         263         264         269         268
         265         266         271         270
         266         267         272         271
         267         268         273         272
         268         269         274         273
         275         276         281         280
         276         277         282         281
         277         278         283         282
         278         279         284         283
         280         281         286         285
         281         282         287         286
         282         283         288         287
         283         284         289         288
         285         286         291         290
         286         287         292         291
         287         288         293         292
         288         289         294         293
         290         291         296         295
         291         292         297         296
         292         293         298         297
         293         294         299         298
         300         301         306         305
         301         302         307         306
         302         303         308         307
         303         304         309         308
         305         306         311         310
         306         307         312         311
         307         308         313         312
         308         309         314         313
         310         311         316         315
         311         312         317         316
         312         313         318         317
         313         314         319         318
         315         316         321         320
         316         317         322         321
         317         318         323         322
         318         319         324         323
         325         326         331         330
         326         327         332         331
         327         328         333         332
         328         329         334         333
         330         331         336         335
         331         332         337         336
         332         333         338         337
         333         334         339         338
         335         336         341         340
         336         337         342         341
         337         338         343         342
         338         339         344         343
         340         341         346         345
         341         342         347         346
         342         343         348         347
         343         344         349         348
         350         351         356         355
         351         352         357         356
         352         353         358         357
         353         354         359         358
         355         356         361         360
         356         357         362         361
         357         358         363         362
         358         359         364         363
         360         361         366         365
         361         362         367         366
         362         363         368         367
         363         364         369         368
         365         366         371         370
         366         367         372         371
         367         368         373         372
         368         369         374         373
         375         376         381         380
         376         377         382         381
         377         378         383         382
         378         379         384         383
         380         381         386         385
         381         382         387         386
         382         383         388         387
         383         384         389         388
         385         386         391         390
         386         387         392         391
         387         388         393         392
         388         389         394         393
         390         391         396         395
         391         392         397         396
         392         393         398         397
         393         394         399         398
         400         401         406         405
         401         402         407         406
         402         403         408         407
         403         404         409         408
         405         406         411         410
         406         407         412         411
         407         408         413         412
         408         409         414         413
         410         411         416         415
         411         412         417         416
         412         413         418         417
         413         414         419         418
         415         416         421         420
         416         417         422         421
         417         418         423         422
         418         419         424         423
         425         426         431         430
         426         427         432         431
         427         428         433         432
         428         429         434         433
         430         431         436         435
         431         432         437         436
         432         433         438         437
         433         434         439         438
         435         436         441         440
         436         437         442         441
         437         438         443         442
         438         439         444         443
         440         441         446         445
         441         442         447         446
         442         443         448         447
         443         444         449         448
         450         451         456         455
         451         452         457         456
         452         453         458         457
         453         454         459         458
         455         456         461         460
         456         457         462         461
         457         458         463         462
         458         459         464         463
         460         461         466         465
         461         462         467         466
         462         463         468         467
         463         464         469         468
         465         466         471         470
         466         467         472         471
         467         468         473         472
         468         469         474         473
         475         476         481         480
         476         477         482         481
         477         478         483         482
         478         479         484         483
         480         481         486         485
         481         482         487         486
         482         483         488         487
         483         484         489         488
         485         486         491         490
         486         487         492         491
         487         488         493         492
         488         489         494         493
         490         491         496         495
         491         492         497         496
         492         493         498         497
         493         494         499         498
         500         501         506         505
         501         502         507         506
         502         503         508         507
         503         504         509         508
         505         506         511         510
         506         507         512         511
         507         508         513         512
         508         509         514         513
         510         511         516         515
         511         512         517         516
         512         513         518         517
         513         514         519         518
         515         516         521         520
         516         517         522         521
         517         518         523         522
         518         519         524         523
         525         526         531         530
         526         527         532         531
         527         528         533         532
         528         529         534         533
         530         531         536         535
         531         532         537         536
         532         533         538         537
         533         534         539         538
         535         536         541         540
         536         537         542         541
         537         538         543         542
         538         539         544         543
         540         541         546         545
         541         542         547         546
         542         543         548         547
         543         544         549         548
         550         551         556         555
         551         552         557         556
         552         553         558         557
         553         554         559         558
         555         556         561         560
         556         557         562         561
         557         558         563         562
         558         559         564         563
         560         561         566         565
         561         562         567         566
         562         563         568         567
         563         564         569         568
         565         566         571         570
         566         567         572         571
         567         568         573         572
         568         569         574         573
         575         576         581         580
         576         577         582         581
         577         578         583         582
         578         579         584         583
         580         581         586         585
         581         582         587         586
         582         583         588         587
         583         584         589         588
         585         586         591         590
         586         587         592         591
         587         588         593         592
         588         589         594         593
         590         591         596         595
         591         592         597         596
         592         593         598         597
         593         594         599         598
         600         601         606         605
         601         602         607         606
         602         603         608         607
         603         604         609         608
         605         606         611         610
         606         607         612         611
         607         608         613         612
         608         609         614         613
         610         611         616         615
         611         612         617         616
         612         613         618         617
         613         614         619         618
         615         616         621         620
         616         617         622         621
         617         618         623         622
         618         619         624         623
         625         626         631         630
         626         627         632         631
         627         628         633         632
         628         629         634         633
         630         631         636         635
         631         632         637         636
         632         633         638         637
         633         634         639         638
         635         636         641         640
         636         637         642         641
         637         638         643         642
         638         639         644         643
         640         641         646         645
         641         642         647         646
         642         643         648         647
         643         644         649         648
         650         651         656         655
         651         652         657         656
         652         653         658         657
         653         654         659         658
         655         656         661         660
         656         657         662         661
         657         658         663         662
         658         659         664         663
         660         661         666         665
         661         662         667         666
         662         663         668         667
         663         664         669         668
         665         666         671         670
         666         667         672         671
         667         668         673         672
         668         669         674         673
         675         676         681         680
         676         677         682         681
         677         678         683         682
         678         679         684         683
         680         681         686         685
         681         682         687         686
         682         683         688         687
         683         684         689         688
         685         686         691         690
         686         687         692         691
         687         688         693         692
         688         689         694         693
         690         691         696         695
         691         692         697         696
         692         693         698         697
         693         694         699         698
         700         701         706         705
         701         702         707         706
         702         703         708         707
         703         704         709         708
         705         706         711         710
         706         707         712         711
         707         708         713         712
         708         709         714         713
         710         711         716         715
         711         712         717         716
         712         713         718         717
         713         714         719         718
         715         716         721         720
         716         717         722         721
         717         718         723         722
         718         719         724         723
         725         726         731         730
         726         727         732         731
         727         728         733         732
         728         729         734         733
         730         731         736         735
         731         732         737         736
         732         733         738         737
         733         734         739         738
         735         736         741         740
         736         737         742         741
         737         738         743         742
         738         739         744         743
         740         741         746         745
         741         742         747         746
         742         743         748         747
         743         744         749         748
         750         751         756         755
         751         752         757         756
         752         753         758         757
         753         754         759         758
         755         756         761         760
         756         757         762         761
         757         758         763         762
         758         759         764         763
         760         761         766         765
         761         762         767         766
         762         763         768         767
         763         764         769         768
         765         766         771         770
         766         767         772         771
         767         768         773         772
         768         769         774         773
         775         776         781         780
         776         777         782         781
         777         778         783         782
         778         779         784         783
         780         781         786         785
         781         782         787         786
         782         783         788         787
         783         784         789         788
         785         786         791         790
         786         787         792         791
         787         788         793         792
         788         789         794         793
         790         791         796         795
         791         792         797         796
         792         793         798         797
         793         794         799         798
         800         801         806         805
         801         802         807         806
         802         803         808         807
         803         804         809         808
         805         806         811         810
         806         807         812         811
         807         808         813         812
         808         809         814         813
         810         811         816         815
         811         812         817         816
         812         813         818         817
         813         814         819         818
         815         816         821         820
         816         817         822         821
         817         818         823         822
         818         819         824         823
         825         826         831         830
         826         827         832         831
         827         828         833         832
         828         829         834         833
         830         831         836         835
         831         832         837         836
         832         833         838         837
         833         834         839         838
         835         836         841         840
         836         837         842         841
         837         838         843         842
         838         839         844         843
         840         841         846         845
         841         842         847         846
         842         843         848         847
         843         844         849         848
         850         851         856         855
         851         852         857         856
         852         853         858         857
         853         854         859         858
         855         856         861         860
         856         857         862         861
         857         858         863         862
         858         859         864         863
         860         861         866         865
         861         862         867         866
         862         863         868         867
         863         864         869         868
         865         866         871         870
         866         867         872         871
         867         868         873         872
         868         869         874         873
         875         876         881         880
         876         877         882         881
         877         878         883         882
         878         879         884         883
         880         881         886         885
         881         882         887         886
         882         883         888         887
         883         884         889         888
         885         886         891         890
         886         887         892         891
         887         888         893         892
         888         889         894         893
         890         891         896         895
         891         892         897         896
         892         893         898         897
         893         894         899         898
         900         901         906         905
         901         902         907         906
         902         903         908         907
         903         904         909         908
         905         906         911         910
         906         907         912         911
         907         908         913         912
         908         909         914         913
         910         911         916         915
         911         912         917         916
         912         913         918         917
         913         914         919         918
         915         916         921         920
         916         917         922         921
         917         918         923         922
         918         919         924         923
         925         926         931         930
         926         927         932         931
         927         928         933         932
         928         929         934         933
         930         931         936         935
         931         932         937         936
         932         933         938         937
         933         934         939         938
         935         936         941         940
         936         937         942         941
         937         938         943         942
         938         939         944         943
         940         941         946         945
         941         942         947         946
         942         943         948         947
         943         944         949         948
         950         951         956         955
         951         952         957         956
         952         953         958         957
         953         954         959         958
         955         956         961         960
         956         957         962         961
         957         958         963         962
         958         959         964         963
         960         961         966         965
         961         962         967         966
         962         963         968         967
         963         964         969         968
         965         966         971         970
         966         967         972         971
         967         968         973         972
         968         969         974         973
         975         976         981         980
         976         977         982         981
         977         978         983         982
         978         979         984         983
         980         981         986         985
         981         982         987         986
         982         983         988         987
         983         984         989         988
         985         986         991         990
         986         987         992         991
         987         988         993         992
         988         989         994         993
         990         991         996         995
         991         992         997         996
         992         993         998         997
         993         994         999         998
        1000        1001        1006        1005
        1001        1002        1007        1006
        1002        1003        1008        1007
        1003        1004        1009        1008
        1005        1006        1011        1010
        1006        1007        1012        1011
        1007        1008        1013        1012
        1008        1009        1014        1013
        1010        1011        1016        1015
        1011        1012        1017        1016
        1012        1013        1018        1017
        1013        1014        1019        1018
        1015        1016        1021        1020
        1016        1017        1022        1021
        1017        1018        1023        1022
        1018        1019        1024        1023
        1025        1026        1031        1030
        1026        1027        1032        1031
        1027        1028        1033        1032
        1028        1029        1034        1033
        1030        1031        1036        1035
        1031        1032        1037        1036
        1032        1033        1038        1037
        1033        1034        1039        1038
        1035        1036        1041        1040
        1036        1037        1042        1041
        1037        1038        1043        1042
        1038        1039        1044        1043
        1040        1041        1046        1045
        1041        1042        1047        1046
        1042        1043        1048        1047
        1043        1044        1049        1048
        1050        1051        1056        1055
        1051        1052        1057        1056
        1052        1053        1058        1057
        1053        1054        1059        1058
        1055        1056        1061        1060
        1056        1057        1062        1061
        1057        1058        1063        1062
        1058        1059        1064        1063
        1060        1061        1066        1065
        1061        1062        1067        1066
        1062        1063        1068        1067
        1063        1064        1069        1068
        1065        1066        1071        1070
        1066        1067        1072        1071
        1067        1068        1073        1072
        1068        1069        1074        1073
        1075        1076        1081        1080
        1076        1077        1082        1081
        1077        1078        1083        1082
        1078        1079        1084        1083
        1080        1081        1086        1085
        1081        1082        1087        1086
        1082        1083        1088        1087
        1083        1084        1089        1088
        1085        1086        1091        1090
        1086        1087        1092        1091
        1087        1088        1093        1092
        1088        1089        1094        1093
        1090        1091        1096        1095
        1091        1092        1097        1096
        1092        1093        1098        1097
        1093        1094        1099        1098
        1100        1101        1106        1105
        1101        1102        1107        1106
        1102        1103        1108        1107
        1103        1104        1109        1108
        1105        1106        1111        1110
        1106        1107        1112        1111
        1107        1108        1113        1112
        1108        1109        1114        1113
        1110        1111        1116        1115
        1111        1112        1117        1116
        1112        1113        1118        1117
        1113        1114        1119        1118
        1115        1116        1121        1120
        1116        1117        1122        1121
        1117        1118        1123        1122
        1118        1119        1124        1123
        1125        1126        1131        1130
        1126        1127        1132        1131
        1127        1128        1133        1132
        1128        1129        1134        1133
        1130        1131        1136        1135
        1131        1132        1137        1136
        1132        1133        1138        1137
        1133        1134        1139        1138
        1135        1136        1141        1140
        1136        1137        1142        1141
        1137        1138        1143        1142
        1138        1139        1144        1143
        1140        1141        1146        1145
        1141        1142        1147        1146
        1142        1143        1148        1147
        1143        1144        1149        1148
        1150        1151        1156        1155
        1151        1152        1157        1156
        1152        1153        1158        1157
        1153        1154        1159        1158
        1155        1156        1161        1160
        1156        1157        1162        1161
        1157        1158        1163        1162
        1158        1159        1164        1163
        1160        1161        1166        1165
        1161        1162        1167        1166
        1162        1163        1168        1167
        1163        1164        1169        1168
        1165        1166        1171        1170
        1166        1167        1172        1171
        1167        1168        1173        1172
        1168        1169        1174        1173
        1175        1176        1181        1180
        1176        1177        1182        1181
        1177        1178        1183        1182
        1178        1179        1184        1183
        1180        1181        1186        1185
        1181        1182        1187        1186
        1182        1183        1188        1187
        1183        1184        1189        1188
        1185        1186        1191        1190
        1186        1187        1192        1191
        1187        1188        1193        1192
        1188        1189        1194        1193
        1190        1191        1196        1195
        1191        1192        1197        1196
        1192        1193        1198        1197
        1193        1194        1199        1198
        1200        1201        1206        1205
        1201        1202        1207        1206
        1202        1203        1208        1207
        1203        1204        1209        1208
        1205        1206        1211        1210
        1206        1207        1212        1211
        1207        1208        1213        1212
        1208        1209        1214        1213
        1210        1211        1216        1215
        1211        1212        1217        1216
        1212        1213        1218        1217
        1213        1214        1219        1218
        1215        1216        1221        1220
        1216        1217        1222        1221
        1217        1218        1223        1222
        1218        1219        1224        1223
        1225        1226        1231        1230
        1226        1227        1232        1231
        1227        1228        1233        1232
        1228        1229        1234        1233
        1230        1231        1236        1235
        1231        1232        1237        1236
        1232        1233        1238        1237
        1233        1234        1239        1238
        1235        1236        1241        1240
        1236        1237        1242        1241
        1237        1238        1243        1242
        1238        1239        1244        1243
        1240        1241        1246        1245
        1241        1242        1247        1246
        1242        1243        1248        1247
        1243        1244        1249        1248
        1250        1251        1256        1255
        1251        1252        1257        1256
        1252        1253        1258        1257
        1253        1254        1259        1258
        1255        1256        1261        1260
        1256        1257        1262        1261
        1257        1258        1263        1262
        1258        1259        1264        1263
        1260        1261        1266        1265
        1261        1262        1267        1266
        1262        1263        1268        1267
        1263        1264        1269        1268
        1265        1266        1271        1270
        1266        1267        1272        1271
        1267        1268        1273        1272
        1268        1269        1274        1273
        1275        1276        1281        1280
        1276        1277        1282        1281
        1277        1278        1283        1282
        1278        1279        1284        1283
        1280        1281        1286        1285
        1281        1282        1287        1286
        1282        1283        1288        1287
        1283        1284        1289        1288
        1285        1286        1291        1290
        1286        1287        1292        1291
        1287        1288        1293        1292
        1288        1289        1294        1293
        1290        1291        1296        1295
        1291        1292        1297        1296
        1292        1293        1298        1297
        1293        1294        1299        1298
        1300        1301        1306        1305
        1301        1302        1307        1306
        1302        1303        1308        1307
        1303        1304        1309        1308
        1305        1306        1311        1310
        1306        1307        1312        1311
        1307        1308        1313        1312
        1308        1309        1314        1313
        1310        1311        1316        1315
        1311        1312        1317        1316
        1312        1313        1318        1317
        1313        1314        1319        1318
        1315        1316        1321        1320
        1316        1317        1322        1321
        1317        1318        1323        1322
        1318        1319        1324        1323
        1325        1326        1331        1330
        1326        1327        1332        1331
        1327        1328        1333        1332
        1328        1329        1334        1333
        1330        1331        1336        1335
        1331        1332        1337        1336
        1332        1333        1338        1337
        1333        1334        1339        1338
        1335        1336        1341        1340
        1336        1337        1342        1341
        1337        1338        1343        1342
        1338        1339        1344        1343
        1340        1341        1346        1345
        1341        1342        1347        1346
        1342        1343        1348        1347
        1343        1344        1349        1348
        1350        1351        1356        1355
        1351        1352        1357        1356
        1352        1353        1358        1357
        1353        1354        1359        1358
        1355        1356        1361        1360
        1356        1357        1362        1361
        1357        1358        1363        1362
        1358        1359        1364        1363
        1360        1361        1366        1365
        1361        1362        1367        1366
        1362        1363        1368        1367
        1363        1364        1369        1368
        1365        1366        1371        1370
        1366        1367        1372        1371
        1367        1368        1373        1372
        1368        1369        1374        1373
        1375        1376        1381        1380
        1376        1377        1382        1381
        1377        1378        1383        1382
        1378        1379        1384        1383
        1380        1381        1386        1385
        1381        1382        1387        1386
        1382        1383        1388        1387
        1383        1384        1389        1388
        1385        1386        1391        1390
        1386        1387        1392        1391
        1387        1388        1393        1392
        1388        1389        1394        1393
        1390        1391        1396        1395
        1391        1392        1397        1396
        1392        1393        1398        1397
        1393        1394        1399        1398
        1400        1401        1406        1405
        1401        1402        1407        1406
        1402        1403        1408        1407
        1403        1404        1409        1408
        1405        1406        1411        1410
        1406        1407        1412        1411
        1407        1408        1413        1412
        1408        1409        1414        1413
        1410        1411        1416        1415
        1411        1412        1417        1416
        1412        1413        1418        1417
        1413        1414        1419        1418
        1415        1416        1421        1420
        1416        1417        1422        1421
        1417        1418        1423        1422
        1418        1419        1424        1423
        1425        1426        1431        1430
        1426        1427        1432        1431
        1427        1428        1433        1432
        1428        1429        1434        1433
        1430        1431        1436        1435
        1431        1432        1437        1436
        1432        1433        1438        1437
        1433        1434        1439        1438
        1435        1436        1441        1440
        1436        1437        1442        1441
        1437        1438        1443        1442
        1438        1439        1444        1443
        1440        1441        1446        1445
        1441        1442        1447        1446
        1442        1443        1448        1447
        1443        1444        1449        1448
        1450        1451        1456        1455
        1451        1452        1457        1456
        1452        1453        1458        1457
        1453        1454        1459        1458
        1455        1456        1461        1460
        1456        1457        1462        1461
        1457        1458        1463        1462
        1458        1459        1464        1463
        1460        1461        1466        1465
        1461        1462        1467        1466
        1462        1463        1468        1467
        1463        1464        1469        1468
        1465        1466        1471        1470
        1466        1467        1472        1471
        1467        1468        1473        1472
        1468        1469        1474        1473
        1475        1476        1481        1480
        1476        1477        1482        1481
        1477        1478        1483        1482
        1478        1479        1484        1483
        1480        1481        1486        1485
        1481        1482        1487        1486
        1482        1483        1488        1487
        1483        1484        1489        1488
        1485        1486        1491        1490
        1486        1487        1492        1491
        1487        1488        1493        1492
        1488        1489        1494        1493
        1490        1491        1496        1495
        1491        1492        1497        1496
        1492        1493        1498        1497
        1493        1494        1499        1498
        1500        1501        1506        1505
        1501        1502        1507        1506
        1502        1503        1508        1507
        1503        1504        1509        1508
        1505        1506        1511        1510
        1506        1507        1512        1511
        1507        1508        1513        1512
        1508        1509        1514        1513
        1510        1511        1516        1515
        1511        1512        1517        1516
        1512        1513        1518        1517
        1513        1514        1519        1518
        1515        1516        1521        1520
        1516        1517        1522        1521
        1517        1518        1523        1522
        1518        1519        1524        1523
        1525        1526        1531        1530
        1526        1527        1532        1531
        1527        1528        1533        1532
        1528        1529        1534        1533
        1530        1531        1536        1535
        1531        1532        1537        1536
        1532        1533        1538        1537
        1533        1534        1539        1538
        1535        1536        1541        1540
        1536        1537        1542        1541
        1537        1538        1543        1542
        1538        1539        1544        1543
        1540        1541        1546        1545
        1541        1542        1547        1546
        1542        1543        1548        1547
        1543        1544        1549        1548
        1550        1551        1556        1555
        1551        1552        1557        1556
        1552        1553        1558        1557
        1553        1554        1559        1558
        1555        1556        1561        1560
        1556        1557        1562        1561
        1557        1558        1563        1562
        1558        1559        1564        1563
        1560        1561        1566        1565
        1561        1562        1567        1566
        1562        1563        1568        1567
        1563        1564        1569        1568
        1565        1566        1571        1570
        1566        1567        1572        1571
        1567        1568        1573        1572
        1568        1569        1574        1573
        1575        1576        1581        1580
        1576        1577        1582        1581
        1577        1578        1583        1582
        1578        1579        1584        1583
        1580        1581        1586        1585
        1581        1582        1587        1586
        1582        1583        1588        1587
        1583        1584        1589        1588
        1585        1586        1591        1590
        1586        1587        1592        1591
        1587        1588        1593        1592
        1588        1589        1594        1593
        1590        1591        1596        1595
        1591        1592        1597        1596
        1592        1593        1598        1597
        1593        1594        1599        1598
 </DataArray>
 <DataArray  type="Int32"  Name="offsets"  format="ascii"> 
           4
           8
          12
          16
          20
          24
          28
          32
          36
          40
          44
          48
          52
          56
          60
          64
          68
          72
          76
          80
          84
          88
          92
          96
         100
         104
         108
         112
         116
         120
         124
         128
         132
         136
         140
         144
         148
         152
         156
         160
         164
         168
         172
         176
         180
         184
         188
         192
         196
         200
         204
         208
         212
         216
         220
         224
         228
         232
         236
         240
         244
         248
         252
         256
         260
         264
         268
         272
         276
         280
         284
         288
         292
         296
         300
         304
         308
         312
         316
         320
         324
         328
         332
         336
         340
         344
         348
         352
         356
         360
         364
         368
         372
         376
         380
         384
         388
         392
         396
         400
         404
         408
         412
         416
         420
         424
         428
         432
         436
         440
         444
         448
         452
         456
         460
         464
         468
         472
         476
         480
         484
         488
         492
         496
         500
         504
         508
         512
         516
         520
         524
         528
         532
         536
         540
         544
         548
         552
         556
         560
         564
         568
         572
         576
         580
         584
         588
         592
         596
         600
         604
         608
         612
         616
         620
         624
         628
         632
         636
         640
         644
         648
         652
         656
         660
         664
         668
         672
         676
         680
         684
         688
         692
         696
         700
         704
         708
         712
         716
         720
         724
         728
         732
         736
         740
         744
         748
         752
         756
         760
         764
         768
         772
         776
         780
         784
         788
         792
         796
         800
         804
         808
         812
         816
         820
         824
         828
         832
         836
         840
         844
         848
         852
         856
         860
         864
         868
         872
         876
         880
         884
         888
         892
         896
         900
         904
         908
         912
         916
         920
         924
         928
         932
         936
         940
         944
         948
         952
         956
         960
         964
         968
         972
         976
         980
         984
         988
         992
         996
        1000
        1004
        1008
        1012
        1016
        1020
        1024
        1028
        1032
        1036
        1040
        1044
        1048
        1052
        1056
        1060
        1064
        1068
        1072
        1076
        1080
        1084
        1088
        1092
        1096
        1100
        1104
        1108
        1112
        1116
        1120
        1124
        1128
        1132
        1136
        1140
        1144
        1148
        1152
        1156
        1160
        1164
        1168
        1172
        1176
        1180
        1184
        1188
        1192
        1196
        1200
        1204
        1208
        1212
        1216
        1220
        1224
        1228
        1232
        1236
        1240
        1244
        1248
        1252
        1256
        1260
        1264
        1268
        1272
        1276
        1280
        1284
        1288
        1292
        1296
        1300
        1304
        1308
        1312
        1316
        1320
        1324
        1328
        1332
        1336
        1340
        1344
        1348
        1352
        1356
        1360
        1364
        1368
        1372
        1376
        1380
        1384
        1388
        1392
        1396
        1400
        1404
        1408
        1412
        1416
        1420
        1424
        1428
        1432
        1436
        1440
        1444
        1448
        1452
        1456
        1460
        1464
        1468
        1472
        1476
        1480
        1484
        1488
        1492
        1496
        1500
        1504
        1508
        1512
        1516
        1520
        1524
        1528
        1532
        1536
        1540
        1544
        1548
        1552
        1556
        1560
        1564
        1568
        1572
        1576
        1580
        1584
        1588
        1592
        1596
        1600
        1604
        1608
        1612
        1616
        1620
        1624
        1628
        1632
        1636
        1640
        1644
        1648
        1652
        1656
        1660
        1664
        1668
        1672
        1676
        1680
        1684
        1688
        1692
        1696
        1700
        1704
        1708
        1712
        1716
        1720
        1724
        1728
        1732
        1736
        1740
        1744
        1748
        1752
        1756
        1760
        1764
        1768
        1772
        1776
        1780
        1784
        1788
        1792
        1796
        1800
        1804
        1808
        1812
        1816
        1820
        1824
        1828
        1832
        1836
        1840
        1844
        1848
        1852
        1856
        1860
        1864
        1868
        1872
        1876
        1880
        1884
        1888
        1892
        1896
        1900
        1904
        1908
        1912
        1916
        1920
        1924
        1928
        1932
        1936
        1940
        1944
        1948
        1952
        1956
        1960
        1964
        1968
        1972
        1976
        1980
        1984
        1988
        1992
        1996
        2000
        2004
        2008
        2012
        2016
        2020
        2024
        2028
        2032
        2036
        2040
        2044
        2048
        2052
        2056
        2060
        2064
        2068
        2072
        2076
        2080
        2084
        2088
        2092
        2096
        2100
        2104
        2108
        2112
        2116
        2120
        2124
        2128
        2132
        2136
        2140
        2144
        2148
        2152
        2156
        2160
        2164
        2168
        2172
        2176
        2180
        2184
        2188
        2192
        2196
        2200
        2204
        2208
        2212
        2216
        2220
        2224
        2228
        2232
        2236
        2240
        2244
        2248
        2252
        2256
        2260
        2264
        2268
        2272
        2276
        2280
        2284
        2288
        2292
        2296
        2300
        2304
        2308
        2312
        2316
        2320
        2324
        2328
        2332
        2336
        2340
        2344
        2348
        2352
        2356
        2360
        2364
        2368
        2372
        2376
        2380
        2384
        2388
        2392
        2396
        2400
        2404
        2408
        2412
        2416
        2420
        2424
        2428
        2432
        2436
        2440
        2444
        2448
        2452
        2456
        2460
        2464
        2468
        2472
        2476
        2480
        2484
        2488
        2492
        2496
        2500
        2504
        2508
        2512
        2516
        2520
        2524
        2528
        2532
        2536
        2540
        2544
        2548
        2552
        2556
        2560
        2564
        2568
        2572
        2576
        2580
        2584
        2588
        2592
        2596
        2600
        2604
        2608
        2612
        2616
        2620
        2624
        2628
        2632
        2636
        2640
        2644
        2648
        2652
        2656
        2660
        2664
        2668
        2672
        2676
        2680
        2684
        2688
        2692
        2696
        2700
        2704
        2708
        2712
        2716
        2720
        2724
        2728
        2732
        2736
        2740
        2744
        2748
        2752
        2756
        2760
        2764
        2768
        2772
        2776
        2780
        2784
        2788
        2792
        2796
        2800
        2804
        2808
        2812
        2816
        2820
        2824
        2828
        2832
        2836
        2840
        2844
        2848
        2852
        2856
        2860
        2864
        2868
        2872
        2876
        2880
        2884
        2888
        2892
        2896
        2900
        2904
        2908
        2912
        2916
        2920
        2924
        2928
        2932
        2936
        2940
        2944
        2948
        2952
        2956
        2960
        2964
        2968
        2972
        2976
        2980
        2984
        2988
        2992
        2996
        3000
        3004
        3008
        3012
        3016
        3020
        3024
        3028
        3032
        3036
        3040
        3044
        3048
        3052
        3056
        3060
        3064
        3068
        3072
        3076
        3080
        3084
        3088
        3092
        3096
        3100
        3104
        3108
        3112
        3116
        3120
        3124
        3128
        3132
        3136
        3140
        3144
        3148
        3152
        3156
        3160
        3164
        3168
        3172
        3176
        3180
        3184
        3188
        3192
        3196
        3200
        3204
        3208
        3212
        3216
        3220
        3224
        3228
        3232
        3236
        3240
        3244
        3248
        3252
        3256
        3260
        3264
        3268
        3272
        3276
        3280
        3284
        3288
        3292
        3296
        3300
        3304
        3308
        3312
        3316
        3320
        3324
        3328
        3332
        3336
        3340
        3344
        3348
        3352
        3356
        3360
        3364
        3368
        3372
        3376
        3380
        3384
        3388
        3392
        3396
        3400
        3404
        3408
        3412
        3416
        3420
        3424
        3428
        3432
        3436
        3440
        3444
        3448
        3452
        3456
        3460
        3464
        3468
        3472
        3476
        3480
        3484
        3488
        3492
        3496
        3500
        3504
        3508
        3512
        3516
        3520
        3524
        3528
        3532
        3536
        3540
        3544
        3548
        3552
        3556
        3560
        3564
        3568
        3572
        3576
        3580
        3584
        3588
        3592
        3596
        3600
        3604
        3608
        3612
        3616
        3620
        3624
        3628
        3632
        3636
        3640
        3644
        3648
        3652
        3656
        3660
        3664
        3668
        3672
        3676
        3680
        3684
        3688
        3692
        3696
        3700
        3704
        3708
        3712
        3716
        3720
        3724
        3728
        3732
        3736
        3740
        3744
        3748
        3752
        3756
        3760
        3764
        3768
        3772
        3776
        3780
        3784
        3788
        3792
        3796
        3800
        3804
        3808
        3812
        3816
        3820
        3824
        3828
        3832
        3836
        3840
        3844
        3848
        3852
        3856
        3860
        3864
        3868
        3872
        3876
        3880
        3884
        3888
        3892
        3896
        3900
        3904
        3908
        3912
        3916
        3920
        3924
        3928
        3932
        3936
        3940
        3944
        3948
        3952
        3956
        3960
        3964
        3968
        3972
        3976
        3980
        3984
        3988
        3992
        3996
        4000
        4004
        4008
        4012
        4016
        4020
        4024
        4028
        4032
        4036
        4040
        4044
        4048
        4052
        4056
        4060
        4064
        4068
        4072
        4076
        4080
        4084
        4088
        4092
        4096
 </DataArray>
 <DataArray  type="UInt8"  Name="types"  format="ascii">
 9
 9
 9
 9
 9
 9
 9
 9
 9
 9
 9
 9
 9
 9
 9
 9
 9
 9
 9
 9
 9
 9
 9
 9
 9
 9
 9
 9
 9
 9
 9
 9
 9
 9
 9
 9
 9
 9
 9
 9
 9
 9
 9
 9
 9
 9
 9
 9
 9
 9
 9
 9
 9
 9
 9
 9
 9
 9
 9
 9
 9
 9
 9
 9
 9
 9
 9
 9
 9
 9
 9
 9
 9
 9
 9
 9
 9
 9
 9
 9
 9
 9
 9
 9
 9
 9
 9
 9
 9
 9
 9
 9
 9
 9
 9
 9
 9
 9
 9
 9
 9
 9
 9
 9
 9
 9
 9
 9
 9
 9
 9
 9
 9
 9
 9
 9
 9
 9
 9
 9
 9
 9
 9
 9
 9
 9
 9
 9
 9
 9
 9
 9
 9
 9
 9
 9
 9
 9
 9
 9
 9
 9
 9
 9
 9
 9
 9
 9
 9
 9
 9
 9
 9
 9
 9
 9
 9
 9
 9
 9
 9
 9
 9
 9
 9
 9
 9
 9
 9
 9
 9
 9
 9
 9
 9
 9
 9
 9
 9
 9
 9
 9
 9
 9
 9
 9
 9
 9
 9
 9
 9
 9
 9
 9
 9
 9
 9
 9
 9
 9
 9
 9
 9
 9
 9
 9
 9
 9
 9
 9
 9
 9
 9
 9
 9
 9
 9
 9
 9
 9
 9
 9
 9
 9
 9
 9
 9
 9
 9
 9
 9
 9
 9
 9
 9
 9
 9
 9
 9
 9
 9
 9
 9
 9
 9
 9
 9
 9
 9
 9
 9
 9
 9
 9
 9
 9
 9
 9
 9
 9
 9
 9
 9
 9
 9
 9
 9
 9
 9
 9
 9
 9
 9
 9
 9
 9
 9
 9
 9
 9
 9
 9
 9
 9
 9
 9
 9
 9
 9
 9
 9
 9
 9
 9
 9
 9
 9
 9
 9
 9
 9
 9
 9
 9
 9
 9
 9
 9
 9
 9
 9
 9
 9
 9
 9
 9
 9
 9
 9
 9
 9
 9
 9
 9
 9
 9
 9
 9
 9
 9
 9
 9
 9
 9
 9
 9
 9
 9
 9
 9
 9
 9
 9
 9
 9
 9
 9
 9
 9
 9
 9
 9
 9
 9
 9
 9
 9
 9
 9
 9
 9
 9
 9
 9
 9
 9
 9
 9
 9
 9
 9
 9
 9
 9
 9
 9
 9
 9
 9
 9
 9
 9
 9
 9
 9
 9
 9
 9
 9
 9
 9
 9
 9
 9
 9
 9
 9
 9
 9
 9
 9
 9
 9
 9
 9
 9
 9
 9
 9
 9
 9
 9
 9
 9
 9
 9
 9
 9
 9
 9
 9
 9
 9
 9
 9
 9
 9
 9
 9
 9
 9
 9
 9
 9
 9
 9
 9
 9
 9
 9
 9
 9
 9
 9
 9
 9
 9
 9
 9
 9
 9
 9
 9
 9
 9
 9
 9
 9
 9
 9
 9
 9
 9
 9
 9
 9
 9
 9
 9
 9
 9
 9
 9
 9
 9
 9
 9
 9
 9
 9
 9
 9
 9
 9
 9
 9
 9
 9
 9
 9
 9
 9
 9
 9
 9
 9
 9
 9
 9
 9
 9
 9
 9
 9
 9
 9
 9
 9
 9
 9
 9
 9
 9
 9
 9
 9
 9
 9
 9
 9
 9
 9
 9
 9
 9
 9
 9
 9
 9
 9
 9
 9
 9
 9
 9
 9
 9
 9
 9
 9
 9
 9
 9
 9
 9
 9
 9
 9
 9
 9
 9
 9
 9
 9
 9
 9
 9
 9
 9
 9
 9
 9
 9
 9
 9
 9
 9
 9
 9
 9
 9
 9
 9
 9
 9
 9
 9
 9
 9
 9
 9
 9
 9
 9
 9
 9
 9
 9
 9
 9
 9
 9
 9
 9
 9
 9
 9
 9
 9
 9
 9
 9
 9
 9
 9
 9
 9
 9
 9
 9
 9
 9
 9
 9
 9
 9
 9
 9
 9
 9
 9
 9
 9
 9
 9
 9
 9
 9
 9
 9
 9
 9
 9
 9
 9
 9
 9
 9
 9
 9
 9
 9
 9
 9
 9
 9
 9
 9
 9
 9
 9
 9
 9
 9
 9
 9
 9
 9
 9
 9
 9
 9
 9
 9
 9
 9
 9
 9
 9
 9
 9
 9
 9
 9
 9
 9
 9
 9
 9
 9
 9
 9
 9
 9
 9
 9
 9
 9
 9
 9
 9
 9
 9
 9
 9
 9
 9
 9
 9
 9
 9
 9
 9
 9
 9
 9
 9
 9
 9
 9
 9
 9
 9
 9
 9
 9
 9
 9
 9
 9
 9
 9
 9
 9
 9
 9
 9
 9
 9
 9
 9
 9
 9
 9
 9
 9
 9
 9
 9
 9
 9
 9
 9
 9
 9
 9
 9
 9
 9
 9
 9
 9
 9
 9
 9
 9
 9
 9
 9
 9
 9
 9
 9
 9
 9
 9
 9
 9
 9
 9
 9
 9
 9
 9
 9
 9
 9
 9
 9
 9
 9
 9
 9
 9
 9
 9
 9
 9
 9
 9
 9
 9
 9
 9
 9
 9
 9
 9
 9
 9
 9
 9
 9
 9
 9
 9
 9
 9
 9
 9
 9
 9
 9
 9
 9
 9
 9
 9
 9
 9
 9
 9
 9
 9
 9
 9
 9
 9
 9
 9
 9
 9
 9
 9
 9
 9
 9
 9
 9
 9
 9
 9
 9
 9
 9
 9
 9
 9
 9
 9
 9
 9
 9
 9
 9
 9
 9
 9
 9
 9
 9
 9
 9
 9
 9
 9
 9
 9
 9
 9
 9
 9
 9
 9
 9
 9
 9
 9
 9
 9
 9
 9
 9
 9
 9
 9
 9
 9
 9
 9
 9
 9
 9
 9
 9
 9
 9
 9
 9
 9
 9
 9
 9
 9
 9
 9
 9
 9
 9
 9
 9
 9
 9
 9
 9
 9
 9
 9
 9
 9
 9
 9
 9
 9
 9
 9
 9
 9
 9
 9
 9
 9
 9
 9
 9
 9
 9
 9
 9
 9
 9
 9
 9
 9
 9
 9
 9
 9
 9
 9
 9
 9
 9
 9
 9
 9
 9
 9
 9
 9
 9
 9
 9
 9
 9
 9
 9
 9
 9
 9
 9
 9
 9
 9
 9
 9
 9
 9
 9
 9
 9
 9
 9
 9
 9
 9
 9
 9
 9
 9
 9
 9
 9
 9
 9
 9
 9
 9
 9
 9
 9
 9
 9
 9
 9
 9
 9
 9
 9
 9
 9
 9
 9
 9
 9
 9
 9
 9
 9
 9
 9
 9
 9
 9
 </DataArray>
 </Cells> 
 <PointData>
 <DataArray  type="Float64" Name="disp" NumberOfComponents="3" format="ascii">
   6.4294371595065028E-002   6.2511846609983518E-002   0.0000000000000000     
   6.7636246258422822E-002   6.7984047871126135E-002   0.0000000000000000     
   7.0820263536294906E-002   7.3616741540656783E-002   0.0000000000000000     
   7.3846423428681265E-002   7.9409927618575446E-002   0.0000000000000000     
   7.6714725935581929E-002   8.5363606104882153E-002   0.0000000000000000     
   5.9855142152752838E-002   6.1853641994491899E-002   0.0000000000000000     
   6.2811838272463338E-002   6.7274046099116275E-002   0.0000000000000000     
   6.5658941500934029E-002   7.2876123019118971E-002   0.0000000000000000     
   6.8396451838164909E-002   7.8659872754500010E-002   0.0000000000000000     
   7.1024369284155980E-002   8.4625295305259390E-002   0.0000000000000000     
   5.5309490807076117E-002   6.1096990154936852E-002   0.0000000000000000     
   5.7958535712604446E-002   6.6516092568390639E-002   0.0000000000000000     
   6.0529839966360931E-002   7.2124077113668666E-002   0.0000000000000000     
   6.3023403568345557E-002   7.7920943790771011E-002   0.0000000000000000     
   6.5439226518558338E-002   8.3906692599697602E-002   0.0000000000000000     
   5.0657417558034851E-002   6.0241891091318361E-002   0.0000000000000000     
   5.3076338578846145E-002   6.5710187278949214E-002   0.0000000000000000     
   5.5432958932575604E-002   7.1360603824305882E-002   0.0000000000000000     
   5.7727278619223207E-002   7.7193140727388407E-002   0.0000000000000000     
   5.9959297638789009E-002   8.3207797988196788E-002   0.0000000000000000     
   4.5898922405629053E-002   5.9288344803636435E-002   0.0000000000000000     
   4.8165246871188436E-002   6.4856330230792000E-002   0.0000000000000000     
   5.0368298399578043E-002   7.0585703151030604E-002   0.0000000000000000     
   5.2508076990797896E-002   7.6476463564352254E-002   0.0000000000000000     
   5.4584582644847966E-002   8.2528611470756935E-002   0.0000000000000000     
   7.6714725935581929E-002   8.5363606104882153E-002   0.0000000000000000     
   7.9450964309139574E-002   9.1474485195031874E-002   0.0000000000000000     
   8.2080931801496976E-002   9.7739273084479578E-002   0.0000000000000000     
   8.4604628412654079E-002  0.10415796977322532        0.0000000000000000     
   8.7022054142610938E-002  0.11073057526126905        0.0000000000000000     
   7.1024369284155980E-002   8.4625295305259390E-002   0.0000000000000000     
   7.3551492389835507E-002   9.0758558858017202E-002   0.0000000000000000     
   7.5986619706131714E-002   9.7045831599393506E-002   0.0000000000000000     
   7.8329751233044642E-002  0.10348711352938832        0.0000000000000000     
   8.0580886970574250E-002  0.11008240464800169        0.0000000000000000     
   6.5439226518558338E-002   8.3906692599697602E-002   0.0000000000000000     
   6.7775458152095680E-002   9.0063925880434770E-002   0.0000000000000000     
   7.0030247804054008E-002   9.6375245972968870E-002   0.0000000000000000     
   7.2203595474433266E-002  0.10284065287729985        0.0000000000000000     
   7.4295501163233524E-002  0.10946014659342772        0.0000000000000000     
   5.9959297638789009E-002   8.3207797988196788E-002   0.0000000000000000     
   6.2122861595920148E-002   8.9390586262284646E-002   0.0000000000000000     
   6.4211816095263802E-002   9.5727516205205657E-002   0.0000000000000000     
   6.6226161136820005E-002  0.10221858781695982        0.0000000000000000     
   6.8165896720588731E-002  0.10886380109754715        0.0000000000000000     
   5.4584582644847966E-002   8.2528611470756935E-002   0.0000000000000000     
   5.6593702721308849E-002   8.8738540003566790E-002   0.0000000000000000     
   5.8531324579761144E-002   9.5102642296103906E-002   0.0000000000000000     
   6.0397448220204833E-002  0.10162091834836832        0.0000000000000000     
   6.2192073642639921E-002  0.10829336816036000        0.0000000000000000     
   8.7022054142610938E-002  0.11073057526126905        0.0000000000000000     
   8.9336686103265561E-002  0.11744765994394930        0.0000000000000000     
   9.1552001406515982E-002  0.12429979421660463        0.0000000000000000     
   9.3668000052362255E-002  0.13128697807923501        0.0000000000000000     
   9.5684682040804325E-002  0.13840921153184046        0.0000000000000000     
   8.0580886970574250E-002  0.11008240464800169        0.0000000000000000     
   8.2740183505844195E-002  0.11682287771727852        0.0000000000000000     
   8.4807797425978118E-002  0.12369970549926385        0.0000000000000000     
   8.6783728730976020E-002  0.13071288799395767        0.0000000000000000     
   8.8667977420837873E-002  0.13786242520135999        0.0000000000000000     
   7.4295501163233524E-002  0.10946014659342772        0.0000000000000000     
   7.6304309046259552E-002  0.11622510831222839        0.0000000000000000     
   7.8228363299316178E-002  0.12312691922457782        0.0000000000000000     
   8.0067663922403443E-002  0.13016557933047596        0.0000000000000000     
   8.1822210915521304E-002  0.13734108862992289        0.0000000000000000     
   6.8165896720588731E-002  0.10886380109754715        0.0000000000000000     
   7.0029062724511607E-002  0.11565435172879894        0.0000000000000000     
   7.1813699026530203E-002  0.12258143539254654        0.0000000000000000     
   7.3519805626644549E-002  0.12964505208878996        0.0000000000000000     
   7.5147382524854603E-002  0.13684520181752913        0.0000000000000000     
   6.2192073642639921E-002  0.10829336816036000        0.0000000000000000     
   6.3914444540600371E-002  0.11511060796699014        0.0000000000000000     
   6.5563804607620166E-002  0.12206325400317000        0.0000000000000000     
   6.7140153843699313E-002  0.12915130626889954        0.0000000000000000     
   6.8643492248837798E-002  0.13637476476417879        0.0000000000000000     
   9.5684682040804325E-002  0.13840921153184046        0.0000000000000000     
   9.7605441942806723E-002  0.14565346534860751        0.0000000000000000     
   9.9433674329333907E-002  0.15300671030372259        0.0000000000000000     
  0.10116937920038589       0.16046894639718579        0.0000000000000000     
  0.10281255655596266       0.16804017362899709        0.0000000000000000     
   8.8667977420837873E-002  0.13786242520135999        0.0000000000000000     
   9.0462817523923933E-002  0.14513345883178963        0.0000000000000000     
   9.2170523068594384E-002  0.15251113059556545        0.0000000000000000     
   9.3791094054849228E-002  0.15999544049268744        0.0000000000000000     
   9.5324530482688491E-002  0.16758638852315560        0.0000000000000000     
   8.1822210915521304E-002  0.13734108862992289        0.0000000000000000     
   8.3493327146441546E-002  0.14463784146562836        0.0000000000000000     
   8.5082335482935964E-002  0.15204023218030227        0.0000000000000000     
   8.6589235925004546E-002  0.15954826077394468        0.0000000000000000     
   8.8014028472647290E-002  0.16716192724655551        0.0000000000000000     
   7.5147382524854603E-002  0.13684520181752913        0.0000000000000000     
   7.6696970810359588E-002  0.14416661325012370        0.0000000000000000     
   7.8169111572358660E-002  0.15159401505793316        0.0000000000000000     
   7.9563804810851832E-002  0.15912740724095756        0.0000000000000000     
   8.0881050525839104E-002  0.16676678979919682        0.0000000000000000     
   6.8643492248837798E-002  0.13637476476417879        0.0000000000000000     
   7.0073748515678047E-002  0.14371977418527562        0.0000000000000000     
   7.1430851336862486E-002  0.15117247922845808        0.0000000000000000     
   7.2714800712391101E-002  0.15873287989372598        0.0000000000000000     
   7.3925596642263905E-002  0.16640097618107949        0.0000000000000000     
  0.10281255655596266       0.16804017362899709        0.0000000000000000     
  0.10436588099724550       0.17571018343706146        0.0000000000000000     
  0.10583202712541563       0.18346876725928393        0.0000000000000000     
  0.10721099494047309       0.19131592509566447        0.0000000000000000     
  0.10850278444241784       0.19925165694620312        0.0000000000000000     
   9.5324530482688491E-002  0.16758638852315560        0.0000000000000000     
   9.6772540554113801E-002  0.17527620321920379        0.0000000000000000     
   9.8136832471126825E-002  0.18305711311306572        0.0000000000000000     
   9.9417406233727579E-002  0.19092911820474148        0.0000000000000000     
  0.10061426184191608       0.19889221849423097        0.0000000000000000     
   8.8014028472647290E-002  0.16716192724655551        0.0000000000000000     
   8.9357555584582277E-002  0.17487444250530099        0.0000000000000000     
   9.0620659719527513E-002  0.18267901745734719        0.0000000000000000     
   9.1803340877483042E-002  0.19057565210269417        0.0000000000000000     
   9.2905599058448848E-002  0.19856434644134185        0.0000000000000000     
   8.0881050525839104E-002  0.16676678979919682        0.0000000000000000     
   8.2120926088650903E-002  0.17450490129535309        0.0000000000000000     
   8.3283508870617695E-002  0.18233448029212834        0.0000000000000000     
   8.4368798871739453E-002  0.19025552678952262        0.0000000000000000     
   8.5376796092016191E-002  0.19826804078753590        0.0000000000000000     
   7.3925596642263905E-002  0.16640097618107949        0.0000000000000000     
   7.5062652066319721E-002  0.17416757958936008        0.0000000000000000     
   7.6125379924397357E-002  0.18202350161740918        0.0000000000000000     
   7.7113780216496827E-002  0.18996874226522681        0.0000000000000000     
   7.8027852942618103E-002  0.19800330153281295        0.0000000000000000     
  0.10850278444241784       0.19925165694620312        0.0000000000000000     
  0.10971293689835861       0.20727252577164110        0.0000000000000000     
  0.11084699357540403       0.21537509453271955        0.0000000000000000     
  0.11190495447355417       0.22355936322943856        0.0000000000000000     
  0.11288681959280897       0.23182533186179810        0.0000000000000000     
  0.10061426184191608       0.19889221849423097        0.0000000000000000     
  0.10173251314549585       0.20693945222589452        0.0000000000000000     
  0.10277727399427050       0.21506385764409247        0.0000000000000000     
  0.10374854438824006       0.22326543474882465        0.0000000000000000     
  0.10464632432740451       0.23154418354009121        0.0000000000000000     
   9.2905599058448848E-002  0.19856434644134185        0.0000000000000000     
   9.3931577602840877E-002  0.20663638248415234        0.0000000000000000     
   9.4885419851075126E-002  0.21478304224198735        0.0000000000000000     
   9.5767125803151554E-002  0.22300432571484713        0.0000000000000000     
   9.6576695459070175E-002  0.23130023290273147        0.0000000000000000     
   8.5376796092016191E-002  0.19826804078753590        0.0000000000000000     
   8.6310130270393706E-002  0.20636331654641446        0.0000000000000000     
   8.7171431145817879E-002  0.21453264832640437        0.0000000000000000     
   8.7960698718288627E-002  0.22277603612750591        0.0000000000000000     
   8.8677932987806005E-002  0.23109347994971882        0.0000000000000000     
   7.8027852942618103E-002  0.19800330153281295        0.0000000000000000     
   7.8868171148154365E-002  0.20612025441268081        0.0000000000000000     
   7.9635307878498762E-002  0.21431267589734351        0.0000000000000000     
   8.0329263133651296E-002  0.22258056598680098        0.0000000000000000     
   8.0950036913611967E-002  0.23092392468105327        0.0000000000000000     
  0.11288681959280897       0.23182533186179810        0.0000000000000000     
  0.11382121533405921       0.24018949980324444        0.0000000000000000     
  0.11473676809819562       0.24866836642722395        0.0000000000000000     
  0.11563347788521820       0.25726193173373657        0.0000000000000000     
  0.11651134469512694       0.26597019572278235        0.0000000000000000     
  0.10464632432740451       0.23154418354009121        0.0000000000000000     
  0.10547580284066224       0.23992375332026655        0.0000000000000000     
  0.10624216895691170       0.24842779339172513        0.0000000000000000     
  0.10694542267615285       0.25705630375446692        0.0000000000000000     
  0.10758556399838573       0.26580928440849194        0.0000000000000000     
   9.6576695459070175E-002  0.23130023290273147        0.0000000000000000     
   9.7304948319152734E-002  0.23969746012902710        0.0000000000000000     
   9.7942703883720908E-002  0.24822270371712055        0.0000000000000000     
   9.8489962152774752E-002  0.25687596366701193        0.0000000000000000     
   9.8946723126314223E-002  0.26565723997870111        0.0000000000000000     
   8.8677932987806005E-002  0.23109347994971882        0.0000000000000000     
   8.9308651769530664E-002  0.23951062022952602        0.0000000000000000     
   8.9838372878623313E-002  0.24805309740341028        0.0000000000000000     
   9.0267096315083908E-002  0.25672091147137160        0.0000000000000000     
   9.0594822078912493E-002  0.26551406243341003        0.0000000000000000     
   8.0950036913611967E-002  0.23092392468105327        0.0000000000000000     
   8.1486913191796059E-002  0.23936323362176337        0.0000000000000000     
   8.1929175941618831E-002  0.24791897445059430        0.0000000000000000     
   8.2276825163080311E-002  0.25659114716754605        0.0000000000000000     
   8.2529860856180498E-002  0.26537975177261858        0.0000000000000000     
  0.11651134469512694       0.26597019572278235        0.0000000000000000     
  0.11731056361801767       0.27495787326983129        0.0000000000000000     
  0.11797132974398621       0.28438967925035341        0.0000000000000000     
  0.11849364307303253       0.29426561366434850        0.0000000000000000     
  0.11887750360515667       0.30458567651181689        0.0000000000000000     
  0.10758556399838573       0.26580928440849194        0.0000000000000000     
  0.10814357781613573       0.27481888036544055        0.0000000000000000     
  0.10860044902192836       0.28421723663695309        0.0000000000000000     
  0.10895617761576362       0.29400435322302965        0.0000000000000000     
  0.10921076359764145       0.30418023012367018        0.0000000000000000     
   9.8946723126314223E-002  0.26565723997870111        0.0000000000000000     
   9.9324046215300749E-002  0.27466477152849011        0.0000000000000000     
   9.9632990830695642E-002  0.28399679719268073        0.0000000000000000     
   9.9873556972498959E-002  0.29365331697127300        0.0000000000000000     
  0.10004574464071067       0.30363433086426700        0.0000000000000000     
   9.0594822078912493E-002  0.26551406243341003        0.0000000000000000     
   9.0851968815512635E-002  0.27449554675898002        0.0000000000000000     
   9.1068955170288013E-002  0.28372836091753623        0.0000000000000000     
   9.1245781143238558E-002  0.29321250490907880        0.0000000000000000     
   9.1382446734364284E-002  0.30294797873360735        0.0000000000000000     
   8.2529860856180498E-002  0.26537975177261858        0.0000000000000000     
   8.2727345616771517E-002  0.27431120605691039        0.0000000000000000     
   8.2908342040705463E-002  0.28341192781151975        0.0000000000000000     
   8.3072850127982406E-002  0.29268191703644669        0.0000000000000000     
   8.3220869878602305E-002  0.30212117373169123        0.0000000000000000     
   4.5898922405629053E-002   5.9288344803636435E-002   0.0000000000000000     
   4.8165246871188436E-002   6.4856330230792000E-002   0.0000000000000000     
   5.0368298399578043E-002   7.0585703151030604E-002   0.0000000000000000     
   5.2508076990797896E-002   7.6476463564352254E-002   0.0000000000000000     
   5.4584582644847966E-002   8.2528611470756935E-002   0.0000000000000000     
   4.1242099480799030E-002   5.8425288426327798E-002   0.0000000000000000     
   4.3375491114033202E-002   6.4079791112170201E-002   0.0000000000000000     
   4.5440129246963154E-002   6.9877860730393926E-002   0.0000000000000000     
   4.7436013879588922E-002   7.5819497280998960E-002   0.0000000000000000     
   4.9363145011910477E-002   8.1904700763985344E-002   0.0000000000000000     
   3.6895042914485122E-002   5.7841659093829149E-002   0.0000000000000000     
   3.8857301831782307E-002   6.3505839611334949E-002   0.0000000000000000     
   4.0752722354325817E-002   6.9315562198946912E-002   0.0000000000000000     
   4.2581304482115639E-002   7.5270826856665002E-002   0.0000000000000000     
   4.4343048215151781E-002   8.1371633584489247E-002   0.0000000000000000     
   3.2857752706687331E-002   5.7537456806140502E-002   0.0000000000000000     
   3.4610679024435785E-002   6.3134475728286288E-002   0.0000000000000000     
   3.6306077721666018E-002   6.8898807556689590E-002   0.0000000000000000     
   3.7943948798378049E-002   7.4830452291350366E-002   0.0000000000000000     
   3.9524292254571873E-002   8.0929409932268673E-002   0.0000000000000000     
   2.9130228857405654E-002   5.7512681563261850E-002   0.0000000000000000     
   3.0635622691993603E-002   6.2965699463024202E-002   0.0000000000000000     
   3.2100195348983770E-002   6.8627596803621946E-002   0.0000000000000000     
   3.3523946828376158E-002   7.4498373585055080E-002   0.0000000000000000     
   3.4906877130170766E-002   8.0578029807323592E-002   0.0000000000000000     
   5.4584582644847966E-002   8.2528611470756935E-002   0.0000000000000000     
   5.6593702721308849E-002   8.8738540003566790E-002   0.0000000000000000     
   5.8531324579761144E-002   9.5102642296103906E-002   0.0000000000000000     
   6.0397448220204833E-002  0.10162091834836832        0.0000000000000000     
   6.2192073642639921E-002  0.10829336816036000        0.0000000000000000     
   4.9363145011910477E-002   8.1904700763985344E-002   0.0000000000000000     
   5.1221308053139694E-002   8.8138959627228369E-002   0.0000000000000000     
   5.3010288412488414E-002   9.4527762318603381E-002   0.0000000000000000     
   5.4730086089956637E-002  0.10107110883811034        0.0000000000000000     
   5.6380701085544389E-002  0.10776899918574927        0.0000000000000000     
   4.4343048215151781E-002   8.1371633584489247E-002   0.0000000000000000     
   4.6039004116290493E-002   8.7623017656216537E-002   0.0000000000000000     
   4.7670222748388016E-002   9.4030014345643745E-002   0.0000000000000000     
   4.9236704111444360E-002  0.10059262365277093        0.0000000000000000     
   5.0738448205459509E-002  0.10731084557759801        0.0000000000000000     
   3.9524292254571873E-002   8.0929409932268673E-002   0.0000000000000000     
   4.1046790910761244E-002   8.7190714090531307E-002   0.0000000000000000     
   4.2511127587459945E-002   9.3609398377225095E-002   0.0000000000000000     
   4.3917302284667954E-002  0.10018546279235009        0.0000000000000000     
   4.5265315002385273E-002  0.10691890733590623        0.0000000000000000     
   3.4906877130170766E-002   8.0578029807323592E-002   0.0000000000000000     
   3.6244668436551976E-002   8.6842048930172652E-002   0.0000000000000000     
   3.7533002929704212E-002   9.3265914413347403E-002   0.0000000000000000     
   3.8771880609627440E-002   9.9849626256847832E-002   0.0000000000000000     
   3.9961301476321681E-002  0.10659318446067392        0.0000000000000000     
   6.2192073642639921E-002  0.10829336816036000        0.0000000000000000     
   6.3914444540600371E-002  0.11511060796699014        0.0000000000000000     
   6.5563804607620166E-002  0.12206325400317000        0.0000000000000000     
   6.7140153843699313E-002  0.12915130626889954        0.0000000000000000     
   6.8643492248837798E-002  0.13637476476417879        0.0000000000000000     
   5.6380701085544389E-002  0.10776899918574927        0.0000000000000000     
   5.7962893395503361E-002  0.11461128604250692        0.0000000000000000     
   5.9477423016085287E-002  0.12158782208937000        0.0000000000000000     
   6.0924289947290156E-002  0.12869860732633848        0.0000000000000000     
   6.2303494189117965E-002  0.13594364175341242        0.0000000000000000     
   5.0738448205459509E-002  0.10731084557759801        0.0000000000000000     
   5.2176848190198112E-002  0.11417379497105409        0.0000000000000000     
   5.3553297225424755E-002  0.12117058668406826        0.0000000000000000     
   5.4867795311139472E-002  0.12830122071664049        0.0000000000000000     
   5.6120342447342229E-002  0.13556569706877075        0.0000000000000000     
   4.5265315002385273E-002  0.10691890733590623        0.0000000000000000     
   4.6556308924684597E-002  0.11379813475263173        0.0000000000000000     
   4.7791427235638582E-002  0.12081154778726481        0.0000000000000000     
   4.8970669935247242E-002  0.12795914643980547        0.0000000000000000     
   5.0094037023510583E-002  0.13524093071025362        0.0000000000000000     
   3.9961301476321681E-002  0.10659318446067392        0.0000000000000000     
   4.1101275598962816E-002  0.11348430538723983        0.0000000000000000     
   4.2191813046726756E-002  0.12051070539895971        0.0000000000000000     
   4.3232913819613493E-002  0.12767238449583349        0.0000000000000000     
   4.4224577917623020E-002  0.13496934267786120        0.0000000000000000     
   6.8643492248837798E-002  0.13637476476417879        0.0000000000000000     
   7.0073748515678047E-002  0.14371977418527562        0.0000000000000000     
   7.1430851336862486E-002  0.15117247922845808        0.0000000000000000     
   7.2714800712391101E-002  0.15873287989372598        0.0000000000000000     
   7.3925596642263905E-002  0.16640097618107949        0.0000000000000000     
   6.2303494189117965E-002  0.13594364175341242        0.0000000000000000     
   6.3614472485710297E-002  0.14331061175729989        0.0000000000000000     
   6.4856661581208744E-002  0.15078720372470897        0.0000000000000000     
   6.6030061475613286E-002  0.15837341765563967        0.0000000000000000     
   6.7134672168923909E-002  0.16606925355009194        0.0000000000000000     
   5.6120342447342229E-002  0.13556569706877075        0.0000000000000000     
   5.7309954943769781E-002  0.14295241345241216        0.0000000000000000     
   5.8435649110158812E-002  0.15044976757951797        0.0000000000000000     
   5.9497424946509322E-002  0.15805775945008813        0.0000000000000000     
   6.0495282452821340E-002  0.16577638906412265        0.0000000000000000     
   5.0094037023510583E-002  0.13524093071025362        0.0000000000000000     
   5.1160195889856437E-002  0.14264517927061249        0.0000000000000000     
   5.2167813923712655E-002  0.15016017079288504        0.0000000000000000     
   5.3116891125079238E-002  0.15778590527707137        0.0000000000000000     
   5.4007427493956178E-002  0.16552238272317144        0.0000000000000000     
   4.4224577917623020E-002  0.13496934267786120        0.0000000000000000     
   4.5165195323970307E-002  0.14238890921190081        0.0000000000000000     
   4.6053156021870302E-002  0.14991841336481021        0.0000000000000000     
   4.6888460011323012E-002  0.15755785513658943        0.0000000000000000     
   4.7671107292328443E-002  0.16530723452723844        0.0000000000000000     
   7.3925596642263905E-002  0.16640097618107949        0.0000000000000000     
   7.5062652066319721E-002  0.17416757958936008        0.0000000000000000     
   7.6125379924397357E-002  0.18202350161740918        0.0000000000000000     
   7.7113780216496827E-002  0.18996874226522681        0.0000000000000000     
   7.8027852942618103E-002  0.19800330153281295        0.0000000000000000     
   6.7134672168923909E-002  0.16606925355009194        0.0000000000000000     
   6.8169381644934329E-002  0.17386345281823998        0.0000000000000000     
   6.9133077887438291E-002  0.18174475687025776        0.0000000000000000     
   7.0025760896435724E-002  0.18971316570614535        0.0000000000000000     
   7.0847430671926642E-002  0.19776867932590275        0.0000000000000000     
   6.0495282452821340E-002  0.16577638906412265        0.0000000000000000     
   6.1427762951840437E-002  0.17359349641291086        0.0000000000000000     
   6.2293407766312252E-002  0.18149692148774232        0.0000000000000000     
   6.3092216896236730E-002  0.18948666428861696        0.0000000000000000     
   6.3824190341613907E-002  0.19756272481553480        0.0000000000000000     
   5.4007427493956178E-002  0.16552238272317144        0.0000000000000000     
   5.4837795987038002E-002  0.17335771037337275        0.0000000000000000     
   5.5606369561019227E-002  0.18127999546986279        0.0000000000000000     
   5.6313148215899861E-002  0.18928923801264161        0.0000000000000000     
   5.6958131951679897E-002  0.19738543800170916        0.0000000000000000     
   4.7671107292328443E-002  0.16530723452723844        0.0000000000000000     
   4.8399480750527031E-002  0.17315609469962562        0.0000000000000000     
   4.9071963271559257E-002  0.18109397881661921        0.0000000000000000     
   4.9688554855425109E-002  0.18912088687821921        0.0000000000000000     
   5.0249255502124585E-002  0.19723681888442571        0.0000000000000000     
   7.8027852942618103E-002  0.19800330153281295        0.0000000000000000     
   7.8868171148154365E-002  0.20612025441268081        0.0000000000000000     
   7.9635307878498762E-002  0.21431267589734351        0.0000000000000000     
   8.0329263133651296E-002  0.22258056598680098        0.0000000000000000     
   8.0950036913611967E-002  0.23092392468105327        0.0000000000000000     
   7.0847430671926642E-002  0.19776867932590275        0.0000000000000000     
   7.1596725897833682E-002  0.20590627180073151        0.0000000000000000     
   7.2272285258079397E-002  0.21412091720183329        0.0000000000000000     
   7.2874108752663799E-002  0.22241261552920807        0.0000000000000000     
   7.3402196381586890E-002  0.23078136678285588        0.0000000000000000     
   6.3824190341613907E-002  0.19756272481553480        0.0000000000000000     
   6.4486820181142532E-002  0.20572044442834642        0.0000000000000000     
   6.5077598493521349E-002  0.21395516448690244        0.0000000000000000     
   6.5596525278750373E-002  0.22226688499120287        0.0000000000000000     
   6.6043600536829575E-002  0.23065560594124770        0.0000000000000000     
   5.6958131951679897E-002  0.19738543800170916        0.0000000000000000     
   5.7538453998080948E-002  0.20556277229552553        0.0000000000000000     
   5.8051247584824661E-002  0.21381541775255092        0.0000000000000000     
   5.8496512711911010E-002  0.22214337437278533        0.0000000000000000     
   5.8874249379340007E-002  0.23054664215622878        0.0000000000000000     
   5.0249255502124585E-002  0.19723681888442571        0.0000000000000000     
   5.0751627348648909E-002  0.20543325540226881        0.0000000000000000     
   5.1193232531989291E-002  0.21370167699877873        0.0000000000000000     
   5.1574071052145717E-002  0.22204208367395548        0.0000000000000000     
   5.1894142909118209E-002  0.23045447542779901        0.0000000000000000     
   8.0950036913611967E-002  0.23092392468105327        0.0000000000000000     
   8.1486913191796059E-002  0.23936323362176337        0.0000000000000000     
   8.1929175941618831E-002  0.24791897445059430        0.0000000000000000     
   8.2276825163080311E-002  0.25659114716754605        0.0000000000000000     
   8.2529860856180498E-002  0.26537975177261858        0.0000000000000000     
   7.3402196381586890E-002  0.23078136678285588        0.0000000000000000     
   7.3853242126110233E-002  0.23924042727581440        0.0000000000000000     
   7.4223939967495420E-002  0.24780305332112154        0.0000000000000000     
   7.4514289905742395E-002  0.25646924491877704        0.0000000000000000     
   7.4724291940851201E-002  0.26523900206878120        0.0000000000000000     
   6.6043600536829575E-002  0.23065560594124770        0.0000000000000000     
   6.6421148112634554E-002  0.23912732816175450        0.0000000000000000     
   6.6731491851040853E-002  0.24768805247744086        0.0000000000000000     
   6.6974631752048527E-002  0.25633777888830672        0.0000000000000000     
   6.7150567815657536E-002  0.26507650739435212        0.0000000000000000     
   5.8874249379340007E-002  0.23054664215622878        0.0000000000000000     
   5.9190631151368980E-002  0.23902393627958363        0.0000000000000000     
   5.9451831592255221E-002  0.24757397191955230        0.0000000000000000     
   5.9657850701998735E-002  0.25619674907613493        0.0000000000000000     
   5.9808688480599517E-002  0.26489226774933139        0.0000000000000000     
   5.1894142909118209E-002  0.23045447542779901        0.0000000000000000     
   5.2161691242313526E-002  0.23893025162930168        0.0000000000000000     
   5.2384959191138468E-002  0.24746081164745592        0.0000000000000000     
   5.2563946755593005E-002  0.25604615548226167        0.0000000000000000     
   5.2698653935677159E-002  0.26468628313371900        0.0000000000000000     
   8.2529860856180498E-002  0.26537975177261858        0.0000000000000000     
   8.2727345616771517E-002  0.27431120605691039        0.0000000000000000     
   8.2908342040705463E-002  0.28341192781151975        0.0000000000000000     
   8.3072850127982406E-002  0.29268191703644669        0.0000000000000000     
   8.3220869878602305E-002  0.30212117373169123        0.0000000000000000     
   7.4724291940851201E-002  0.26523900206878120        0.0000000000000000     
   7.4894953322919469E-002  0.27410608227336269        0.0000000000000000     
   7.5067281302044792E-002  0.28306424303475053        0.0000000000000000     
   7.5241275878227237E-002  0.29211348435294465        0.0000000000000000     
   7.5416937051466779E-002  0.30125380622794512        0.0000000000000000     
   6.7150567815657536E-002  0.26507650739435212        0.0000000000000000     
   6.7299568637798679E-002  0.27387450825941867        0.0000000000000000     
   6.7461902814402772E-002  0.28270205174734808        0.0000000000000000     
   6.7637570345469786E-002  0.29155913785814030        0.0000000000000000     
   6.7826571230999749E-002  0.30044576659179528        0.0000000000000000     
   5.9808688480599517E-002  0.26489226774933139        0.0000000000000000     
   5.9941191561409209E-002  0.27361648401507832        0.0000000000000000     
   6.0092206577779375E-002  0.28232535394931241        0.0000000000000000     
   6.0261733529710051E-002  0.29101887755203354        0.0000000000000000     
   6.0449772417201224E-002  0.29969705482324188        0.0000000000000000     
   5.2698653935677159E-002  0.26468628313371900        0.0000000000000000     
   5.2819822093751009E-002  0.27333200954034170        0.0000000000000000     
   5.2958192592174630E-002  0.28193414964064356        0.0000000000000000     
   5.3113765430948021E-002  0.29049270343462458        0.0000000000000000     
   5.3286540610071181E-002  0.29900767092228481        0.0000000000000000     
   2.9130228857405654E-002   5.7512681563261850E-002   0.0000000000000000     
   3.0635622691993603E-002   6.2965699463024202E-002   0.0000000000000000     
   3.2100195348983770E-002   6.8627596803621946E-002   0.0000000000000000     
   3.3523946828376158E-002   7.4498373585055080E-002   0.0000000000000000     
   3.4906877130170766E-002   8.0578029807323592E-002   0.0000000000000000     
   2.5521882711772425E-002   5.7521720894776932E-002   0.0000000000000000     
   2.6778955897706354E-002   6.2836780690397553E-002   0.0000000000000000     
   2.8011821042295208E-002   6.8400401141199496E-002   0.0000000000000000     
   2.9220478145538988E-002   7.4212582247182746E-002   0.0000000000000000     
   3.0404927207437690E-002   8.0273324008347288E-002   0.0000000000000000     
   2.1842125614919983E-002   5.7318962330269493E-002   0.0000000000000000     
   2.2887501704824613E-002   6.2584989285255258E-002   0.0000000000000000     
   2.3917700607616471E-002   6.8115691770877757E-002   0.0000000000000000     
   2.4932722323295579E-002   7.3911069787137004E-002   0.0000000000000000     
   2.5932566851861922E-002   7.9971123334033015E-002   0.0000000000000000     
   1.8090957566848333E-002   5.6904405869739529E-002   0.0000000000000000     
   1.8961260113348363E-002   6.2210325247597259E-002   0.0000000000000000     
   1.9817834044947566E-002   6.7773468692656727E-002   0.0000000000000000     
   2.0660679361645923E-002   7.3593836204917870E-002   0.0000000000000000     
   2.1489796063443450E-002   7.9671427784380744E-002   0.0000000000000000     
   1.4268378567557468E-002   5.6278051513187037E-002   0.0000000000000000     
   1.5000231123277627E-002   6.1712788577423620E-002   0.0000000000000000     
   1.5712221354288482E-002   6.7373731906536394E-002   0.0000000000000000     
   1.6404349260590027E-002   7.3260881500525343E-002   0.0000000000000000     
   1.7076614842182272E-002   7.9374237359390504E-002   0.0000000000000000     
   3.4906877130170766E-002   8.0578029807323592E-002   0.0000000000000000     
   3.6244668436551976E-002   8.6842048930172652E-002   0.0000000000000000     
   3.7533002929704212E-002   9.3265914413347403E-002   0.0000000000000000     
   3.8771880609627440E-002   9.9849626256847832E-002   0.0000000000000000     
   3.9961301476321681E-002  0.10659318446067392        0.0000000000000000     
   3.0404927207437690E-002   8.0273324008347288E-002   0.0000000000000000     
   3.1557122507343091E-002   8.6539364351363585E-002   0.0000000000000000     
   3.2669018324606919E-002   9.2967441202902013E-002   0.0000000000000000     
   3.3740614659229187E-002   9.9557554562962600E-002   0.0000000000000000     
   3.4771911511209903E-002  0.10630970443154536        0.0000000000000000     
   2.5932566851861922E-002   7.9971123334033015E-002   0.0000000000000000     
   2.6908638936814978E-002   8.6245002530327033E-002   0.0000000000000000     
   2.7852343321654198E-002   9.2681857494780348E-002   0.0000000000000000     
   2.8763680006379574E-002   9.9281688227392959E-002   0.0000000000000000     
   2.9642648990991120E-002  0.10604449472816489        0.0000000000000000     
   2.1489796063443450E-002   7.9671427784380744E-002   0.0000000000000000     
   2.2299217724967648E-002   8.5958963467063026E-002   0.0000000000000000     
   2.3082977920846029E-002   9.2409163288982396E-002   0.0000000000000000     
   2.3841076651078586E-002   9.9022027250138867E-002   0.0000000000000000     
   2.4573513915665330E-002  0.10579755535053245        0.0000000000000000     
   1.7076614842182272E-002   7.9374237359390504E-002   0.0000000000000000     
   1.7728858871801107E-002   8.5681247161571536E-002   0.0000000000000000     
   1.8360922122182426E-002   9.2149358585508129E-002   0.0000000000000000     
   1.8972804593326235E-002   9.8778571631200324E-002   0.0000000000000000     
   1.9564506285232527E-002  0.10556888629864805        0.0000000000000000     
   3.9961301476321681E-002  0.10659318446067392        0.0000000000000000     
   4.1101275598962816E-002  0.11348430538723983        0.0000000000000000     
   4.2191813046726756E-002  0.12051070539895971        0.0000000000000000     
   4.3232913819613493E-002  0.12767238449583349        0.0000000000000000     
   4.4224577917623020E-002  0.13496934267786120        0.0000000000000000     
   3.4771911511209903E-002  0.10630970443154536        0.0000000000000000     
   3.5761532659035547E-002  0.11321110490620617        0.0000000000000000     
   3.6708101881192584E-002  0.12024897008450086        0.0000000000000000     
   3.7611619177681035E-002  0.12742329996642948        0.0000000000000000     
   3.8472084548500894E-002  0.13473409455199201        0.0000000000000000     
   2.9642648990991120E-002  0.10604449472816489        0.0000000000000000     
   3.0486864550905490E-002  0.11295733134085853        0.0000000000000000     
   3.1293940961539354E-002  0.12000725240923635        0.0000000000000000     
   3.2063878222892701E-002  0.12719425793329839        0.0000000000000000     
   3.2796676334965538E-002  0.13451834791304459        0.0000000000000000     
   2.4573513915665330E-002  0.10579755535053245        0.0000000000000000     
   2.5277271274572678E-002  0.11272298469119696        0.0000000000000000     
   2.5949330287767067E-002  0.11978555237316618        0.0000000000000000     
   2.6589690955248494E-002  0.12698525839644023        0.0000000000000000     
   2.7198353277016959E-002  0.13432210276101897        0.0000000000000000     
   1.9564506285232527E-002  0.10556888629864805        0.0000000000000000     
   2.0132752830037091E-002  0.11250806495722140        0.0000000000000000     
   2.0674269859875718E-002  0.11958386997629036        0.0000000000000000     
   2.1189057374748403E-002  0.12679630135585496        0.0000000000000000     
   2.1677115374655151E-002  0.13414535909591518        0.0000000000000000     
   4.4224577917623020E-002  0.13496934267786120        0.0000000000000000     
   4.5165195323970307E-002  0.14238890921190081        0.0000000000000000     
   4.6053156021870302E-002  0.14991841336481021        0.0000000000000000     
   4.6888460011323012E-002  0.15755785513658943        0.0000000000000000     
   4.7671107292328443E-002  0.16530723452723844        0.0000000000000000     
   3.8472084548500894E-002  0.13473409455199201        0.0000000000000000     
   3.9287773824869192E-002  0.14216764492714506        0.0000000000000000     
   4.0056962838002988E-002  0.14971024217784526        0.0000000000000000     
   4.0779651587902262E-002  0.15736188630409262        0.0000000000000000     
   4.1455840074567013E-002  0.16512257730588717        0.0000000000000000     
   3.2796676334965538E-002  0.13451834791304459        0.0000000000000000     
   3.3490751971310927E-002  0.14196542806721307        0.0000000000000000     
   3.4144521805481935E-002  0.14952140411454198        0.0000000000000000     
   3.4757985837478557E-002  0.15718627605503130        0.0000000000000000     
   3.5331144067300799E-002  0.16496004388868102        0.0000000000000000     
   2.7198353277016959E-002  0.13432210276101897        0.0000000000000000     
   2.7774129763295498E-002  0.14178225863210489        0.0000000000000000     
   2.8315832924307151E-002  0.14935189917490038        0.0000000000000000     
   2.8823462760051915E-002  0.15703102438940544        0.0000000000000000     
   2.9297019270529787E-002  0.16481963427562010        0.0000000000000000     
   2.1677115374655151E-002  0.13414535909591518        0.0000000000000000     
   2.2137907200822912E-002  0.14161813662182052        0.0000000000000000     
   2.2570896194478635E-002  0.14920172735892048        0.0000000000000000     
   2.2976082355622332E-002  0.15689613130721511        0.0000000000000000     
   2.3353465684253991E-002  0.16470134846670437        0.0000000000000000     
   4.7671107292328443E-002  0.16530723452723844        0.0000000000000000     
   4.8399480750527031E-002  0.17315609469962562        0.0000000000000000     
   4.9071963271559257E-002  0.18109397881661921        0.0000000000000000     
   4.9688554855425109E-002  0.18912088687821921        0.0000000000000000     
   5.0249255502124585E-002  0.19723681888442571        0.0000000000000000     
   4.1455840074567013E-002  0.16512257730588717        0.0000000000000000     
   4.2084014676479486E-002  0.17298334612659419        0.0000000000000000     
   4.2662661772121913E-002  0.18093522370957915        0.0000000000000000     
   4.3191781361494291E-002  0.18897821005484206        0.0000000000000000     
   4.3671373444596623E-002  0.19711230516238282        0.0000000000000000     
   3.5331144067300799E-002  0.16496004388868102        0.0000000000000000     
   3.5862595199067322E-002  0.17283416138920332        0.0000000000000000     
   3.6350937936896796E-002  0.18080008233031034        0.0000000000000000     
   3.6796172280789234E-002  0.18885780671200214        0.0000000000000000     
   3.7198298230744629E-002  0.19700733453427863        0.0000000000000000     
   2.9297019270529787E-002  0.16481963427562010        0.0000000000000000     
   2.9735222318290538E-002  0.17270854048745296        0.0000000000000000     
   3.0136791765883918E-002  0.18068855467881281        0.0000000000000000     
   3.0501727613309947E-002  0.18875967684969952        0.0000000000000000     
   3.0830029860568608E-002  0.19692190700011317        0.0000000000000000     
   2.3353465684253991E-002  0.16470134846670437        0.0000000000000000     
   2.3701896034149135E-002  0.17260648342134313        0.0000000000000000     
   2.4020223259083276E-002  0.18060064075508644        0.0000000000000000     
   2.4308447359056420E-002  0.18868382046793419        0.0000000000000000     
   2.4566568334068565E-002  0.19685602255988643        0.0000000000000000     
   5.0249255502124585E-002  0.19723681888442571        0.0000000000000000     
   5.0751627348648909E-002  0.20543325540226881        0.0000000000000000     
   5.1193232531989291E-002  0.21370167699877873        0.0000000000000000     
   5.1574071052145717E-002  0.22204208367395548        0.0000000000000000     
   5.1894142909118209E-002  0.23045447542779901        0.0000000000000000     
   4.3671373444596623E-002  0.19711230516238282        0.0000000000000000     
   4.4099819586168605E-002  0.20532593568775412        0.0000000000000000     
   4.4475501350949964E-002  0.21360752828650853        0.0000000000000000     
   4.4798418738940672E-002  0.22195708295864602        0.0000000000000000     
   4.5068571750140743E-002  0.23037459970416657        0.0000000000000000     
   3.7198298230744629E-002  0.19700733453427863        0.0000000000000000     
   3.7556510063962260E-002  0.20523485509115913        0.0000000000000000     
   3.7870002057641391E-002  0.21352655767666279        0.0000000000000000     
   3.8138774211782044E-002  0.22188244229078968        0.0000000000000000     
   3.8362826526384210E-002  0.23030250893353968        0.0000000000000000     
   3.0830029860568608E-002  0.19692190700011317        0.0000000000000000     
   3.1121698782029847E-002  0.20516001361248384        0.0000000000000000     
   3.1376734652063587E-002  0.21345876516924159        0.0000000000000000     
   3.1595137470669832E-002  0.22181816167038637        0.0000000000000000     
   3.1776907237848595E-002  0.23023820311591822        0.0000000000000000     
   2.4566568334068565E-002  0.19685602255988643        0.0000000000000000     
   2.4795385740371378E-002  0.20510141125172829        0.0000000000000000     
   2.4995699134216544E-002  0.21340415076424485        0.0000000000000000     
   2.5167508515604047E-002  0.22176424109743620        0.0000000000000000     
   2.5310813884533899E-002  0.23018168225130226        0.0000000000000000     
   5.1894142909118209E-002  0.23045447542779901        0.0000000000000000     
   5.2161691242313526E-002  0.23893025162930168        0.0000000000000000     
   5.2384959191138468E-002  0.24746081164745592        0.0000000000000000     
   5.2563946755593005E-002  0.25604615548226167        0.0000000000000000     
   5.2698653935677159E-002  0.26468628313371900        0.0000000000000000     
   4.5068571750140743E-002  0.23037459970416657        0.0000000000000000     
   4.5294949967172836E-002  0.23884480426217153        0.0000000000000000     
   4.5486542972659583E-002  0.24735242237176200        0.0000000000000000     
   4.5643350766600997E-002  0.25589745403293807        0.0000000000000000     
   4.5765373348997065E-002  0.26447989924569965        0.0000000000000000     
   3.8362826526384210E-002  0.23030250893353968        0.0000000000000000     
   3.8551028907651497E-002  0.23876612422945576        0.0000000000000000     
   3.8712251261787546E-002  0.24725265480308087        0.0000000000000000     
   3.8846493588792337E-002  0.25576210065441490        0.0000000000000000     
   3.8953755888665877E-002  0.26429446178345783        0.0000000000000000     
   3.1776907237848595E-002  0.23023820311591822        0.0000000000000000     
   3.1929928063749537E-002  0.23869421153115450        0.0000000000000000     
   3.2062084058522351E-002  0.24716150894141251        0.0000000000000000     
   3.2173375222167025E-002  0.25564009534669219        0.0000000000000000     
   3.2263801554683572E-002  0.26412997074699368        0.0000000000000000     
   2.5310813884533899E-002  0.23018168225130226        0.0000000000000000     
   2.5431647435466935E-002  0.23862906616726764        0.0000000000000000     
   2.5536041362863988E-002  0.24707898478675691        0.0000000000000000     
   2.5623995666725064E-002  0.25553143810977008        0.0000000000000000     
   2.5695510347050164E-002  0.26398642613630718        0.0000000000000000     
   5.2698653935677159E-002  0.26468628313371900        0.0000000000000000     
   5.2819822093751009E-002  0.27333200954034170        0.0000000000000000     
   5.2958192592174630E-002  0.28193414964064356        0.0000000000000000     
   5.3113765430948021E-002  0.29049270343462458        0.0000000000000000     
   5.3286540610071181E-002  0.29900767092228481        0.0000000000000000     
   4.5765373348997065E-002  0.26447989924569965        0.0000000000000000     
   4.5876605683319423E-002  0.27304978363530774        0.0000000000000000     
   4.6001042733039642E-002  0.28155713282702338        0.0000000000000000     
   4.6138684498157743E-002  0.29000194682084646        0.0000000000000000     
   4.6289530978673721E-002  0.29838422561677702        0.0000000000000000     
   3.8953755888665877E-002  0.26429446178345783        0.0000000000000000     
   3.9052687778609756E-002  0.27279850510007558        0.0000000000000000     
   3.9161938875825544E-002  0.28122299751413377        0.0000000000000000     
   3.9281509180313270E-002  0.28956793902563244        0.0000000000000000     
   3.9411398692072906E-002  0.29783332963457154        0.0000000000000000     
   3.2263801554683572E-002  0.26412997074699368        0.0000000000000000     
   3.2348068379622008E-002  0.27257817393464517        0.0000000000000000     
   3.2440881020532344E-002  0.28093174370197466        0.0000000000000000     
   3.2542239477414595E-002  0.28919068004898241        0.0000000000000000     
   3.2652143750268744E-002  0.29735498297566831        0.0000000000000000     
   2.5695510347050164E-002  0.26398642613630718        0.0000000000000000     
   2.5762747486356187E-002  0.27238879013901646        0.0000000000000000     
   2.5837869167160042E-002  0.28068337139054622        0.0000000000000000     
   2.5920875389461716E-002  0.28887016989089648        0.0000000000000000     
   2.6011766153261229E-002  0.29694918564006728        0.0000000000000000     
   1.4268378567557468E-002   5.6278051513187037E-002   0.0000000000000000     
   1.5000231123277627E-002   6.1712788577423620E-002   0.0000000000000000     
   1.5712221354288482E-002   6.7373731906536394E-002   0.0000000000000000     
   1.6404349260590027E-002   7.3260881500525343E-002   0.0000000000000000     
   1.7076614842182272E-002   7.9374237359390504E-002   0.0000000000000000     
   1.0482891551087056E-002   5.5637329871830635E-002   0.0000000000000000     
   1.1078899661192809E-002   6.1223687214396076E-002   0.0000000000000000     
   1.1648843203773665E-002   6.6998799971545189E-002   0.0000000000000000     
   1.2192722178829621E-002   7.2962668143277953E-002   0.0000000000000000     
   1.2710536586360684E-002   7.9115291729594389E-002   0.0000000000000000     
   6.8429994514767507E-003   5.5179671556888923E-002   0.0000000000000000     
   7.2717506536743217E-003   6.0874329098176423E-002   0.0000000000000000     
   7.6756802615375484E-003   6.6730991446711518E-002   0.0000000000000000     
   8.0547882750664299E-003   7.2749658602494188E-002   0.0000000000000000     
   8.4090746942609707E-003   7.8930330565524509E-002   0.0000000000000000     
   3.3487022687265569E-003   5.4905076568361917E-002   0.0000000000000000     
   3.5787841007221669E-003   6.0664714228764641E-002   0.0000000000000000     
   3.7927325275801328E-003   6.6570306332035367E-002   0.0000000000000000     
   3.9905475493004555E-003   7.2621852878174090E-002   0.0000000000000000     
   4.1722291658831340E-003   7.8819353867180850E-002   0.0000000000000000     
   2.8364741111452929E-012   5.4813544906249609E-002   0.0000000000000000     
   2.3363442257229305E-012   6.0594842606160743E-002   0.0000000000000000     
   1.9014179336931947E-012   6.6516744627516750E-002   0.0000000000000000     
   1.5316948284802706E-012   7.2579250970317630E-002   0.0000000000000000     
   1.2271748287689954E-012   7.8782361634563397E-002   0.0000000000000000     
   1.7076614842182272E-002   7.9374237359390504E-002   0.0000000000000000     
   1.7728858871801107E-002   8.5681247161571536E-002   0.0000000000000000     
   1.8360922122182426E-002   9.2149358585508129E-002   0.0000000000000000     
   1.8972804593326235E-002   9.8778571631200324E-002   0.0000000000000000     
   1.9564506285232527E-002  0.10556888629864805        0.0000000000000000     
   1.2710536586360684E-002   7.9115291729594389E-002   0.0000000000000000     
   1.3207684437004557E-002   8.5441886600810882E-002   0.0000000000000000     
   1.3689563741398958E-002   9.1927668627243844E-002   0.0000000000000000     
   1.4156174499543886E-002   9.8572637808893249E-002   0.0000000000000000     
   1.4607516711439339E-002  0.10537679414575911        0.0000000000000000     
   8.4090746942609707E-003   7.8930330565524509E-002   0.0000000000000000     
   8.7458164802672080E-003   8.5270914771739342E-002   0.0000000000000000     
   9.0722905942311888E-003   9.1769318657075730E-002   0.0000000000000000     
   9.3884970361529131E-003   9.8425542221533574E-002   0.0000000000000000     
   9.6944358060323792E-003  0.10523958546511297        0.0000000000000000     
   4.1722291658831340E-003   7.8819353867180850E-002   0.0000000000000000     
   4.3432550015890586E-003   8.5168331674356945E-002   0.0000000000000000     
   4.5091026806791199E-003   9.1674308675003785E-002   0.0000000000000000     
   4.6697722031533179E-003   9.8337284869121355E-002   0.0000000000000000     
   4.8252635690116509E-003  0.10515726025670968        0.0000000000000000     
   1.2271748287689954E-012   7.8782361634563397E-002   0.0000000000000000     
   9.7011005999181332E-013   8.5134137308663663E-002   0.0000000000000000     
   7.4275161758910468E-013   9.1642638681028038E-002   0.0000000000000000     
   5.4509973195383116E-013   9.8307865751656537E-002   0.0000000000000000     
   3.7715360348689053E-013  0.10512981852054917        0.0000000000000000     
   1.9564506285232527E-002  0.10556888629864805        0.0000000000000000     
   2.0132752830037091E-002  0.11250806495722140        0.0000000000000000     
   2.0674269859875718E-002  0.11958386997629036        0.0000000000000000     
   2.1189057374748403E-002  0.12679630135585496        0.0000000000000000     
   2.1677115374655151E-002  0.13414535909591518        0.0000000000000000     
   1.4607516711439339E-002  0.10537679414575911        0.0000000000000000     
   1.5040470006697207E-002  0.11232850946559585        0.0000000000000000     
   1.5451914014929378E-002  0.11941615559615788        0.0000000000000000     
   1.5841848736135852E-002  0.12663973253744520        0.0000000000000000     
   1.6210274170316629E-002  0.13399924028945787        0.0000000000000000     
   9.6944358060323792E-003  0.10523958546511297        0.0000000000000000     
   9.9875835939514795E-003  0.11220025554298425        0.0000000000000000     
   1.0265417089992099E-002  0.11929635961031783        0.0000000000000000     
   1.0527936294154246E-002  0.12652789766711370        0.0000000000000000     
   1.0775141206437910E-002  0.13389486971337183        0.0000000000000000     
   4.8252635690116509E-003  0.10515726025670968        0.0000000000000000     
   4.9740935917999126E-003  0.11212330318938662        0.0000000000000000     
   5.1147790850638898E-003  0.11922448201877016        0.0000000000000000     
   5.2473200488035833E-003  0.12646079674486030        0.0000000000000000     
   5.3717164830189932E-003  0.13383224736765703        0.0000000000000000     
   3.7715360348689053E-013  0.10512981852054917        0.0000000000000000     
   2.4250393360070177E-013  0.11209765240480296        0.0000000000000000     
   1.4474142370768384E-013  0.11920052282151496        0.0000000000000000     
   8.3866182228053976E-014  0.12643842977068512        0.0000000000000000     
   5.9877883901160445E-014  0.13381137325231343        0.0000000000000000     
   2.1677115374655151E-002  0.13414535909591518        0.0000000000000000     
   2.2137907200822912E-002  0.14161813662182052        0.0000000000000000     
   2.2570896194478635E-002  0.14920172735892048        0.0000000000000000     
   2.2976082355622332E-002  0.15689613130721511        0.0000000000000000     
   2.3353465684253991E-002  0.16470134846670437        0.0000000000000000     
   1.6210274170316629E-002  0.13399924028945787        0.0000000000000000     
   1.6557270945999510E-002  0.14148286311116082        0.0000000000000000     
   1.6882919691712291E-002  0.14907878526151899        0.0000000000000000     
   1.7187220407454972E-002  0.15678700674053248        0.0000000000000000     
   1.7470173093227563E-002  0.16460752754820115        0.0000000000000000     
   1.0775141206437910E-002  0.13389486971337183        0.0000000000000000     
   1.1007407660931653E-002  0.14138623917492665        0.0000000000000000     
   1.1225111491724026E-002  0.14899096947761259        0.0000000000000000     
   1.1428252698815028E-002  0.15670906062142961        0.0000000000000000     
   1.1616831282204660E-002  0.16454051260637781        0.0000000000000000     
   5.3717164830189932E-003  0.13383224736765703        0.0000000000000000     
   5.4883173456193382E-003  0.14132826481311811        0.0000000000000000     
   5.5974715945138337E-003  0.14893828000720136        0.0000000000000000     
   5.6991792297024840E-003  0.15666229294990680        0.0000000000000000     
   5.7934402511852848E-003  0.16450030364123436        0.0000000000000000     
   5.9877883901160445E-014  0.13381137325231343        0.0000000000000000     
   6.2566271608055501E-014  0.14130894002573510        0.0000000000000000     
   8.1722280852181139E-014  0.14892071685028524        0.0000000000000000     
   1.1734566768804855E-013  0.15664670372596376        0.0000000000000000     
   1.6943781447342765E-013  0.16448690065277080        0.0000000000000000     
   2.3353465684253991E-002  0.16470134846670437        0.0000000000000000     
   2.3701896034149135E-002  0.17260648342134313        0.0000000000000000     
   2.4020223259083276E-002  0.18060064075508644        0.0000000000000000     
   2.4308447359056420E-002  0.18868382046793419        0.0000000000000000     
   2.4566568334068565E-002  0.19685602255988643        0.0000000000000000     
   1.7470173093227563E-002  0.16460752754820115        0.0000000000000000     
   1.7730800292660925E-002  0.17252749266657849        0.0000000000000000     
   1.7968124549385948E-002  0.18053404707771778        0.0000000000000000     
   1.8182145863402624E-002  0.18862719078161913        0.0000000000000000     
   1.8372864234710962E-002  0.19680692377828246        0.0000000000000000     
   1.1616831282204660E-002  0.16454051260637781        0.0000000000000000     
   1.1790119039843719E-002  0.17247107069886358        0.0000000000000000     
   1.1947387769683009E-002  0.18048648016529342        0.0000000000000000     
   1.2088637471722523E-002  0.18858674100566727        0.0000000000000000     
   1.2213868145962266E-002  0.19677185321998525        0.0000000000000000     
   5.7934402511852848E-003  0.16450030364123436        0.0000000000000000     
   5.8798522756975183E-003  0.17243721751819846        0.0000000000000000     
   5.9580129199744607E-003  0.18045794001781318        0.0000000000000000     
   6.0279221840161146E-003  0.18856247114007868        0.0000000000000000     
   6.0895800678224775E-003  0.19675081088499488        0.0000000000000000     
   1.6943781447342765E-013  0.16448690065277080        0.0000000000000000     
   2.2231760703206316E-013  0.17242593312458304        0.0000000000000000     
   2.6030241330465831E-013  0.18044842663527719        0.0000000000000000     
   2.8339684115044617E-013  0.18855438118485329        0.0000000000000000     
   2.9159921005605938E-013  0.19674379677331133        0.0000000000000000     
   2.4566568334068565E-002  0.19685602255988643        0.0000000000000000     
   2.4795385740371378E-002  0.20510141125172829        0.0000000000000000     
   2.4995699134216544E-002  0.21340415076424485        0.0000000000000000     
   2.5167508515604047E-002  0.22176424109743620        0.0000000000000000     
   2.5310813884533899E-002  0.23018168225130226        0.0000000000000000     
   1.8372864234710962E-002  0.19680692377828246        0.0000000000000000     
   1.8541626190475259E-002  0.20505723880015447        0.0000000000000000     
   1.8689778257859824E-002  0.21336212857968193        0.0000000000000000     
   1.8817320436864661E-002  0.22172159311686482        0.0000000000000000     
   1.8924252727489765E-002  0.23013563241170315        0.0000000000000000     
   1.2213868145962266E-002  0.19677185321998525        0.0000000000000000     
   1.2324475383829879E-002  0.20502568704902446        0.0000000000000000     
   1.2421854776753010E-002  0.21333211273356203        0.0000000000000000     
   1.2506006324731658E-002  0.22169113027359799        0.0000000000000000     
   1.2576930027765821E-002  0.23010273966913233        0.0000000000000000     
   6.0895800678224775E-003  0.19675081088499488        0.0000000000000000     
   6.1439333204352416E-003  0.20500675599833823        0.0000000000000000     
   6.1919286908960957E-003  0.21331410322588518        0.0000000000000000     
   6.2335661792050374E-003  0.22167285256763566        0.0000000000000000     
   6.2688457853620665E-003  0.23008300402358978        0.0000000000000000     
   2.9159921005605938E-013  0.19674379677331133        0.0000000000000000     
   2.9134724147117375E-013  0.20500044564809583        0.0000000000000000     
   2.8908158419133079E-013  0.21330810005665135        0.0000000000000000     
   2.8480242795191069E-013  0.22166675999897786        0.0000000000000000     
   2.7850681830199342E-013  0.23007642547507545        0.0000000000000000     
   2.5310813884533899E-002  0.23018168225130226        0.0000000000000000     
   2.5431647435466935E-002  0.23862906616726764        0.0000000000000000     
   2.5536041362863988E-002  0.24707898478675691        0.0000000000000000     
   2.5623995666725064E-002  0.25553143810977008        0.0000000000000000     
   2.5695510347050164E-002  0.26398642613630718        0.0000000000000000     
   1.8924252727489765E-002  0.23013563241170315        0.0000000000000000     
   1.9014516580412515E-002  0.23857502468267347        0.0000000000000000     
   1.9092053446310302E-002  0.24701054814825241        0.0000000000000000     
   1.9156863325183120E-002  0.25544220280843993        0.0000000000000000     
   1.9208946217030967E-002  0.26386998866323602        0.0000000000000000     
   1.2576930027765821E-002  0.23010273966913233        0.0000000000000000     
   1.2636865056195103E-002  0.23853642362225030        0.0000000000000000     
   1.2688050580359114E-002  0.24696166483503726        0.0000000000000000     
   1.2730486600257851E-002  0.25537846330749314        0.0000000000000000     
   1.2764173115891316E-002  0.26378681903961793        0.0000000000000000     
   6.2688457853620665E-003  0.23008300402358978        0.0000000000000000     
   6.2986928628146937E-003  0.23851326298599809        0.0000000000000000     
   6.3240327650104251E-003  0.24693233484711138        0.0000000000000000     
   6.3448654919492607E-003  0.25534021960692965        0.0000000000000000     
   6.3611910436311998E-003  0.26373691726545290        0.0000000000000000     
   2.7850681830199342E-013  0.23007642547507545        0.0000000000000000     
   2.7128668235454345E-013  0.23850554277391683        0.0000000000000000     
   2.6423513984491498E-013  0.24692255818447489        0.0000000000000000     
   2.5734500793371529E-013  0.25532747170674963        0.0000000000000000     
   2.5062157210653524E-013  0.26372028334074099        0.0000000000000000     
   2.5695510347050164E-002  0.26398642613630718        0.0000000000000000     
   2.5762747486356187E-002  0.27238879013901646        0.0000000000000000     
   2.5837869167160042E-002  0.28068337139054622        0.0000000000000000     
   2.5920875389461716E-002  0.28887016989089648        0.0000000000000000     
   2.6011766153261229E-002  0.29694918564006728        0.0000000000000000     
   1.9208946217030967E-002  0.26386998866323602        0.0000000000000000     
   1.9258322038170513E-002  0.27223661879213185        0.0000000000000000     
   1.9315010704918409E-002  0.28048480627461864        0.0000000000000000     
   1.9379012217274658E-002  0.28861455111069645        0.0000000000000000     
   1.9450326575239263E-002  0.29662585330036517        0.0000000000000000     
   1.2764173115891316E-002  0.26378681903961793        0.0000000000000000     
   1.2796388974423215E-002  0.27212792497293359        0.0000000000000000     
   1.2834413023017249E-002  0.28034297404896230        0.0000000000000000     
   1.2878245261673428E-002  0.28843196626770390        0.0000000000000000     
   1.2927885690391744E-002  0.29639490162915855        0.0000000000000000     
   6.3611910436311998E-003  0.26373691726545290        0.0000000000000000     
   6.3769482951142858E-003  0.27206270868142185        0.0000000000000000     
   6.3960761214565606E-003  0.28025787471357722        0.0000000000000000     
   6.4185745226580217E-003  0.28832241536191910        0.0000000000000000     
   6.4444434987186760E-003  0.29625633062644746        0.0000000000000000     
   2.5062157210653524E-013  0.26372028334074099        0.0000000000000000     
   2.4373081677908637E-013  0.27204096991759646        0.0000000000000000     
   2.3633894320751470E-013  0.28022950826846343        0.0000000000000000     
   2.2844882452757731E-013  0.28828589839334190        0.0000000000000000     
   2.2005574445982390E-013  0.29621014029223186        0.0000000000000000     
   2.8364741111452929E-012   5.4813544906249609E-002   0.0000000000000000     
   2.3363442257229305E-012   6.0594842606160743E-002   0.0000000000000000     
   1.9014179336931947E-012   6.6516744627516750E-002   0.0000000000000000     
   1.5316948284802706E-012   7.2579250970317630E-002   0.0000000000000000     
   1.2271748287689954E-012   7.8782361634563397E-002   0.0000000000000000     
  -3.3487022629806983E-003   5.4905076570337726E-002   0.0000000000000000     
  -3.5787840959558516E-003   6.0664714230203705E-002   0.0000000000000000     
  -3.7927325236711781E-003   6.6570306333039675E-002   0.0000000000000000     
  -3.9905475461266783E-003   7.2621852878845650E-002   0.0000000000000000     
  -4.1722291633223500E-003   7.8819353867621608E-002   0.0000000000000000     
  -6.8429994455121608E-003   5.5179671560412008E-002   0.0000000000000000     
  -7.2717506486271255E-003   6.0874329100732497E-002   0.0000000000000000     
  -7.6756802573102346E-003   6.6730991448488139E-002   0.0000000000000000     
  -8.0547882715614871E-003   7.2749658603678921E-002   0.0000000000000000     
  -8.4090746913808873E-003   7.8930330566304913E-002   0.0000000000000000     
  -1.0482891544757912E-002   5.5637329876472449E-002   0.0000000000000000     
  -1.1078899655677482E-002   6.1223687217747104E-002   0.0000000000000000     
  -1.1648843199015753E-002   6.6998799973862128E-002   0.0000000000000000     
  -1.2192722174772738E-002   7.2962668144817500E-002   0.0000000000000000     
  -1.2710536582948432E-002   7.9115291730613241E-002   0.0000000000000000     
  -1.4268378560717953E-002   5.6278051518519057E-002   0.0000000000000000     
  -1.5000231117106909E-002   6.1712788581247568E-002   0.0000000000000000     
  -1.5712221348787733E-002   6.7373731909161669E-002   0.0000000000000000     
  -1.6404349255760425E-002   7.3260881502261357E-002   0.0000000000000000     
  -1.7076614838024987E-002   7.9374237360546662E-002   0.0000000000000000     
   1.2271748287689954E-012   7.8782361634563397E-002   0.0000000000000000     
   9.7011005999181332E-013   8.5134137308663663E-002   0.0000000000000000     
   7.4275161758910468E-013   9.1642638681028038E-002   0.0000000000000000     
   5.4509973195383116E-013   9.8307865751656537E-002   0.0000000000000000     
   3.7715360348689053E-013  0.10512981852054917        0.0000000000000000     
  -4.1722291633223500E-003   7.8819353867621608E-002   0.0000000000000000     
  -4.3432549995505807E-003   8.5168331674631059E-002   0.0000000000000000     
  -4.5091026791037577E-003   9.1674308675137442E-002   0.0000000000000000     
  -4.6697722019818765E-003   9.8337284869140784E-002   0.0000000000000000     
  -4.8252635681849398E-003  0.10515726025664109        0.0000000000000000     
  -8.4090746913808873E-003   7.8930330566304913E-002   0.0000000000000000     
  -8.7458164779339598E-003   8.5270914772230672E-002   0.0000000000000000     
  -9.0722905923862479E-003   9.1769318657320964E-002   0.0000000000000000     
  -9.3884970347377465E-003   9.8425542221575735E-002   0.0000000000000000     
  -9.6944358049884591E-003  0.10523958546499504        0.0000000000000000     
  -1.2710536582948432E-002   7.9115291730613241E-002   0.0000000000000000     
  -1.3207684434180026E-002   8.5441886601462527E-002   0.0000000000000000     
  -1.3689563739104722E-002   9.1927668627578576E-002   0.0000000000000000     
  -1.4156174497722511E-002   9.8572637808961389E-002   0.0000000000000000     
  -1.4607516710033399E-002  0.10537679414561095        0.0000000000000000     
  -1.7076614838024987E-002   7.9374237360546662E-002   0.0000000000000000     
  -1.7728858868288781E-002   8.5681247162326626E-002   0.0000000000000000     
  -1.8360922119259177E-002   9.2149358585910321E-002   0.0000000000000000     
  -1.8972804590936167E-002   9.8778571631297746E-002   0.0000000000000000     
  -1.9564506283319766E-002  0.10556888629848887        0.0000000000000000     
   3.7715360348689053E-013  0.10512981852054917        0.0000000000000000     
   2.4250393360070177E-013  0.11209765240480296        0.0000000000000000     
   1.4474142370768384E-013  0.11920052282151496        0.0000000000000000     
   8.3866182228053976E-014  0.12643842977068512        0.0000000000000000     
   5.9877883901160445E-014  0.13381137325231343        0.0000000000000000     
  -4.8252635681849398E-003  0.10515726025664109        0.0000000000000000     
  -4.9740935912513072E-003  0.11212330318924817        0.0000000000000000     
  -5.1147790847193330E-003  0.11922448201857182        0.0000000000000000     
  -5.2473200485890189E-003  0.12646079674461205        0.0000000000000000     
  -5.3717164828603631E-003  0.13383224736736885        0.0000000000000000     
  -9.6944358049884591E-003  0.10523958546499504        0.0000000000000000     
  -9.9875835932120849E-003  0.11220025554273717        0.0000000000000000     
  -1.0265417089482325E-002  0.11929635960996055        0.0000000000000000     
  -1.0527936293799185E-002  0.12652789766666511        0.0000000000000000     
  -1.0775141206162653E-002  0.13389486971285094        0.0000000000000000     
  -1.4607516710033399E-002  0.10537679414561095        0.0000000000000000     
  -1.5040470005639831E-002  0.11232850946526995        0.0000000000000000     
  -1.5451914014144237E-002  0.11941615559568108        0.0000000000000000     
  -1.5841848735546626E-002  0.12663973253684438        0.0000000000000000     
  -1.6210274169846998E-002  0.13399924028875976        0.0000000000000000     
  -1.9564506283319766E-002  0.10556888629848887        0.0000000000000000     
  -2.0132752828534540E-002  0.11250806495684652        0.0000000000000000     
  -2.0674269858705071E-002  0.11958386997573348        0.0000000000000000     
  -2.1189057373831349E-002  0.12679630135514974        0.0000000000000000     
  -2.1677115373913390E-002  0.13414535909509526        0.0000000000000000     
   5.9877883901160445E-014  0.13381137325231343        0.0000000000000000     
   6.2566271608055501E-014  0.14130894002573510        0.0000000000000000     
   8.1722280852181139E-014  0.14892071685028524        0.0000000000000000     
   1.1734566768804855E-013  0.15664670372596376        0.0000000000000000     
   1.6943781447342765E-013  0.16448690065277080        0.0000000000000000     
  -5.3717164828603631E-003  0.13383224736736885        0.0000000000000000     
  -5.4883173454628939E-003  0.14132826481280752        0.0000000000000000     
  -5.5974715943261349E-003  0.14893828000689349        0.0000000000000000     
  -5.6991792294500869E-003  0.15666229294962664        0.0000000000000000     
  -5.7934402508347475E-003  0.16450030364100710        0.0000000000000000     
  -1.0775141206162653E-002  0.13389486971285094        0.0000000000000000     
  -1.1007407660681272E-002  0.14138623917436527        0.0000000000000000     
  -1.1225111491463555E-002  0.14899096947705540        0.0000000000000000     
  -1.1428252698509512E-002  0.15670906062092133        0.0000000000000000     
  -1.1616831281819137E-002  0.16454051260596309        0.0000000000000000     
  -1.6210274169846998E-002  0.13399924028875976        0.0000000000000000     
  -1.6557270945592568E-002  0.14148286311040828        0.0000000000000000     
  -1.6882919691330545E-002  0.14907878526077098        0.0000000000000000     
  -1.7187220407060930E-002  0.15678700673984788        0.0000000000000000     
  -1.7470173092783734E-002  0.16460752754763891        0.0000000000000000     
  -2.1677115373913390E-002  0.13414535909509526        0.0000000000000000     
  -2.2137907200196774E-002  0.14161813662093661        0.0000000000000000     
  -2.2570896193927090E-002  0.14920172735804024        0.0000000000000000     
  -2.2976082355104347E-002  0.15689613130640620        0.0000000000000000     
  -2.3353465683728526E-002  0.16470134846603449        0.0000000000000000     
   1.6943781447342765E-013  0.16448690065277080        0.0000000000000000     
   2.2231760703206316E-013  0.17242593312458304        0.0000000000000000     
   2.6030241330465831E-013  0.18044842663527719        0.0000000000000000     
   2.8339684115044617E-013  0.18855438118485329        0.0000000000000000     
   2.9159921005605938E-013  0.19674379677331133        0.0000000000000000     
  -5.7934402508347475E-003  0.16450030364100710        0.0000000000000000     
  -5.8798522752464702E-003  0.17243721751803082        0.0000000000000000     
  -5.9580129194515960E-003  0.18045794001769397        0.0000000000000000     
  -6.0279221834501360E-003  0.18856247113999650        0.0000000000000000     
  -6.0895800672420789E-003  0.19675081088493851        0.0000000000000000     
  -1.1616831281819137E-002  0.16454051260596309        0.0000000000000000     
  -1.1790119039373428E-002  0.17247107069855516        0.0000000000000000     
  -1.1947387769153378E-002  0.18048648016507210        0.0000000000000000     
  -1.2088637471158991E-002  0.18858674100551387        0.0000000000000000     
  -1.2213868145390263E-002  0.19677185321988047        0.0000000000000000     
  -1.7470173092783734E-002  0.16460752754763891        0.0000000000000000     
  -1.7730800292158556E-002  0.17252749266615611        0.0000000000000000     
  -1.7968124548845041E-002  0.18053404707741155        0.0000000000000000     
  -1.8182145862843169E-002  0.18862719078140525        0.0000000000000000     
  -1.8372864234152957E-002  0.19680692377813713        0.0000000000000000     
  -2.3353465683728526E-002  0.16470134846603449        0.0000000000000000     
  -2.3701896033601864E-002  0.17260648342083368        0.0000000000000000     
  -2.4020223258526579E-002  0.18060064075471241        0.0000000000000000     
  -2.4308447358502679E-002  0.18868382046767071        0.0000000000000000     
  -2.4566568333530155E-002  0.19685602255970858        0.0000000000000000     
   2.9159921005605938E-013  0.19674379677331133        0.0000000000000000     
   2.9134724147117375E-013  0.20500044564809583        0.0000000000000000     
   2.8908158419133079E-013  0.21330810005665135        0.0000000000000000     
   2.8480242795191069E-013  0.22166675999897786        0.0000000000000000     
   2.7850681830199342E-013  0.23007642547507545        0.0000000000000000     
  -6.0895800672420789E-003  0.19675081088493851        0.0000000000000000     
  -6.1439333198566228E-003  0.20500675599830057        0.0000000000000000     
  -6.1919286903229596E-003  0.21331410322586322        0.0000000000000000     
  -6.2335661786410840E-003  0.22167285256762659        0.0000000000000000     
  -6.2688457848109995E-003  0.23008300402359066        0.0000000000000000     
  -1.2213868145390263E-002  0.19677185321988047        0.0000000000000000     
  -1.2324475383263487E-002  0.20502568704895568        0.0000000000000000     
  -1.2421854776194948E-002  0.21333211273352351        0.0000000000000000     
  -1.2506006324184648E-002  0.22169113027358381        0.0000000000000000     
  -1.2576930027232590E-002  0.23010273966913672        0.0000000000000000     
  -1.8372864234152957E-002  0.19680692377813713        0.0000000000000000     
  -1.8541626189929244E-002  0.20505723880006144        0.0000000000000000     
  -1.8689778257326893E-002  0.21336212857963222        0.0000000000000000     
  -1.8817320436345895E-002  0.22172159311684964        0.0000000000000000     
  -1.8924252726986262E-002  0.23013563241171353        0.0000000000000000     
  -2.4566568333530155E-002  0.19685602255970858        0.0000000000000000     
  -2.4795385739853897E-002  0.20510141125161760        0.0000000000000000     
  -2.4995699133718786E-002  0.21340415076418934        0.0000000000000000     
  -2.5167508515124826E-002  0.22176424109742390        0.0000000000000000     
  -2.5310813884072022E-002  0.23018168225132116        0.0000000000000000     
   2.7850681830199342E-013  0.23007642547507545        0.0000000000000000     
   2.7128668235454345E-013  0.23850554277391683        0.0000000000000000     
   2.6423513984491498E-013  0.24692255818447489        0.0000000000000000     
   2.5734500793371529E-013  0.25532747170674963        0.0000000000000000     
   2.5062157210653524E-013  0.26372028334074099        0.0000000000000000     
  -6.2688457848109995E-003  0.23008300402359066        0.0000000000000000     
  -6.2986928622781775E-003  0.23851326298600720        0.0000000000000000     
  -6.3240327644880816E-003  0.24693233484712784        0.0000000000000000     
  -6.3448654914407127E-003  0.25534021960695280        0.0000000000000000     
  -6.3611910431360733E-003  0.26373691726548193        0.0000000000000000     
  -1.2576930027232590E-002  0.23010273966913672        0.0000000000000000     
  -1.2636865055676754E-002  0.23853642362226968        0.0000000000000000     
  -1.2688050579855137E-002  0.24696166483507048        0.0000000000000000     
  -1.2730486599767729E-002  0.25537846330753899        0.0000000000000000     
  -1.2764173115414537E-002  0.26378681903967544        0.0000000000000000     
  -1.8924252726986262E-002  0.23013563241171353        0.0000000000000000     
  -1.9014516579924451E-002  0.23857502468270439        0.0000000000000000     
  -1.9092053445836938E-002  0.24701054814830267        0.0000000000000000     
  -1.9156863324723706E-002  0.25544220280850838        0.0000000000000000     
  -1.9208946216584775E-002  0.26386998866332151        0.0000000000000000     
  -2.5310813884072022E-002  0.23018168225132116        0.0000000000000000     
  -2.5431647435021264E-002  0.23862906616731130        0.0000000000000000     
  -2.5536041362433478E-002  0.24707898478682455        0.0000000000000000     
  -2.5623995666308651E-002  0.25553143810986079        0.0000000000000000     
  -2.5695510346646789E-002  0.26398642613642015        0.0000000000000000     
   2.5062157210653524E-013  0.26372028334074099        0.0000000000000000     
   2.4373081677908637E-013  0.27204096991759646        0.0000000000000000     
   2.3633894320751470E-013  0.28022950826846343        0.0000000000000000     
   2.2844882452757731E-013  0.28828589839334190        0.0000000000000000     
   2.2005574445982390E-013  0.29621014029223186        0.0000000000000000     
  -6.3611910431360733E-003  0.26373691726548193        0.0000000000000000     
  -6.3769482946328792E-003  0.27206270868145715        0.0000000000000000     
  -6.3960761209898541E-003  0.28025787471362040        0.0000000000000000     
  -6.4185745222069979E-003  0.28832241536197156        0.0000000000000000     
  -6.4444434982843073E-003  0.29625633062651069        0.0000000000000000     
  -1.2764173115414537E-002  0.26378681903967544        0.0000000000000000     
  -1.2796388973959977E-002  0.27212792497300359        0.0000000000000000     
  -1.2834413022568471E-002  0.28034297404904757        0.0000000000000000     
  -1.2878245261240012E-002  0.28843196626780743        0.0000000000000000     
  -1.2927885689974605E-002  0.29639490162928300        0.0000000000000000     
  -1.9208946216584775E-002  0.26386998866332151        0.0000000000000000     
  -1.9258322037737564E-002  0.27223661879223582        0.0000000000000000     
  -1.9315010704499508E-002  0.28048480627474509        0.0000000000000000     
  -1.9379012216870599E-002  0.28861455111084944        0.0000000000000000     
  -1.9450326574850841E-002  0.29662585330054864        0.0000000000000000     
  -2.5695510346646789E-002  0.26398642613642015        0.0000000000000000     
  -2.5762747485965638E-002  0.27238879013915374        0.0000000000000000     
  -2.5837869166782958E-002  0.28068337139071292        0.0000000000000000     
  -2.5920875389098753E-002  0.28887016989109754        0.0000000000000000     
  -2.6011766152913014E-002  0.29694918564030770        0.0000000000000000     
  -1.4268378560717953E-002   5.6278051518519057E-002   0.0000000000000000     
  -1.5000231117106909E-002   6.1712788581247568E-002   0.0000000000000000     
  -1.5712221348787733E-002   6.7373731909161669E-002   0.0000000000000000     
  -1.6404349255760425E-002   7.3260881502261357E-002   0.0000000000000000     
  -1.7076614838024987E-002   7.9374237360546662E-002   0.0000000000000000     
  -1.8090957559209035E-002   5.6904405875290012E-002   0.0000000000000000     
  -1.8961260106298197E-002   6.2210325251577520E-002   0.0000000000000000     
  -1.9817834038533197E-002   6.7773468695394939E-002   0.0000000000000000     
  -2.0660679355914032E-002   7.3593836206742286E-002   0.0000000000000000     
  -2.1489796058440716E-002   7.9671427785619559E-002   0.0000000000000000     
  -2.1842125606047896E-002   5.7318962335523520E-002   0.0000000000000000     
  -2.2887501696634116E-002   6.2584989289080670E-002   0.0000000000000000     
  -2.3917700600159169E-002   6.8115691773570172E-002   0.0000000000000000     
  -2.4932722316623055E-002   7.3911069788992048E-002   0.0000000000000000     
  -2.5932566846025774E-002   7.9971123335346284E-002   0.0000000000000000     
  -2.5521882701234552E-002   5.7521720899219565E-002   0.0000000000000000     
  -2.6778955888114669E-002   6.2836780693757005E-002   0.0000000000000000     
  -2.8011821033665646E-002   6.8400401143687353E-002   0.0000000000000000     
  -2.9220478137887477E-002   7.4212582249010658E-002   0.0000000000000000     
  -3.0404927200780169E-002   8.0273324009726893E-002   0.0000000000000000     
  -2.9130228844768999E-002   5.7512681566378149E-002   0.0000000000000000     
  -3.0635622680739865E-002   6.2965699465606512E-002   0.0000000000000000     
  -3.2100195339052631E-002   6.8627596805746496E-002   0.0000000000000000     
  -3.3523946819707315E-002   7.4498373586798103E-002   0.0000000000000000     
  -3.4906877122703892E-002   8.0578029808761331E-002   0.0000000000000000     
  -1.7076614838024987E-002   7.9374237360546662E-002   0.0000000000000000     
  -1.7728858868288781E-002   8.5681247162326626E-002   0.0000000000000000     
  -1.8360922119259177E-002   9.2149358585910321E-002   0.0000000000000000     
  -1.8972804590936167E-002   9.8778571631297746E-002   0.0000000000000000     
  -1.9564506283319766E-002  0.10556888629848887        0.0000000000000000     
  -2.1489796058440716E-002   7.9671427785619559E-002   0.0000000000000000     
  -2.2299217720688477E-002   8.5958963467899635E-002   0.0000000000000000     
  -2.3082977917232579E-002   9.2409163289455393E-002   0.0000000000000000     
  -2.3841076648073018E-002   9.9022027250286859E-002   0.0000000000000000     
  -2.4573513913209794E-002  0.10579755535039399        0.0000000000000000     
  -2.5932566846025774E-002   7.9971123335346284E-002   0.0000000000000000     
  -2.6908638931807373E-002   8.6245002531258191E-002   0.0000000000000000     
  -2.7852343317407904E-002   9.2681857495353015E-002   0.0000000000000000     
  -2.8763680002827363E-002   9.9281688227630796E-002   0.0000000000000000     
  -2.9642648988065744E-002  0.10604449472809151        0.0000000000000000     
  -3.0404927200780169E-002   8.0273324009726893E-002   0.0000000000000000     
  -3.1557122501645482E-002   8.6539364352402323E-002   0.0000000000000000     
  -3.2669018319785137E-002   9.2967441203603216E-002   0.0000000000000000     
  -3.3740614655199196E-002   9.9557554563329612E-002   0.0000000000000000     
  -3.4771911507887603E-002  0.10630970443158141        0.0000000000000000     
  -3.4906877122703892E-002   8.0578029808761331E-002   0.0000000000000000     
  -3.6244668430202777E-002   8.6842048931332017E-002   0.0000000000000000     
  -3.7533002924364303E-002   9.3265914414205967E-002   0.0000000000000000     
  -3.8771880605188505E-002   9.9849626257383209E-002   0.0000000000000000     
  -3.9961301472675362E-002  0.10659318446086372        0.0000000000000000     
  -1.9564506283319766E-002  0.10556888629848887        0.0000000000000000     
  -2.0132752828534540E-002  0.11250806495684652        0.0000000000000000     
  -2.0674269858705071E-002  0.11958386997573348        0.0000000000000000     
  -2.1189057373831349E-002  0.12679630135514974        0.0000000000000000     
  -2.1677115373913390E-002  0.13414535909509526        0.0000000000000000     
  -2.4573513913209794E-002  0.10579755535039399        0.0000000000000000     
  -2.5277271272597612E-002  0.11272298469081102        0.0000000000000000     
  -2.5949330286191171E-002  0.11978555237257207        0.0000000000000000     
  -2.6589690953990459E-002  0.12698525839567718        0.0000000000000000     
  -2.7198353275995492E-002  0.13432210276012632        0.0000000000000000     
  -2.9642648988065744E-002  0.10604449472809151        0.0000000000000000     
  -3.0486864548530453E-002  0.11295733134050755        0.0000000000000000     
  -3.1293940959628896E-002  0.12000725240865127        0.0000000000000000     
  -3.2063878221361065E-002  0.12719425793252270        0.0000000000000000     
  -3.2796676333726967E-002  0.13451834791212183        0.0000000000000000     
  -3.4771911507887603E-002  0.10630970443158141        0.0000000000000000     
  -3.5761532656333056E-002  0.11321110490593611        0.0000000000000000     
  -3.6708101879018247E-002  0.12024897008397108        0.0000000000000000     
  -3.7611619175943155E-002  0.12742329996568627        0.0000000000000000     
  -3.8472084547107793E-002  0.13473409455108171        0.0000000000000000     
  -3.9961301472675362E-002  0.10659318446086372        0.0000000000000000     
  -4.1101275596005425E-002  0.11348430538709674        0.0000000000000000     
  -4.2191813044359212E-002  0.12051070539853145        0.0000000000000000     
  -4.3232913817736730E-002  0.12767238449516788        0.0000000000000000     
  -4.4224577916137993E-002  0.13496934267700605        0.0000000000000000     
  -2.1677115373913390E-002  0.13414535909509526        0.0000000000000000     
  -2.2137907200196774E-002  0.14161813662093661        0.0000000000000000     
  -2.2570896193927090E-002  0.14920172735804024        0.0000000000000000     
  -2.2976082355104347E-002  0.15689613130640620        0.0000000000000000     
  -2.3353465683728526E-002  0.16470134846603449        0.0000000000000000     
  -2.7198353275995492E-002  0.13432210276012632        0.0000000000000000     
  -2.7774129762447426E-002  0.14178225863113927        0.0000000000000000     
  -2.8315832923587435E-002  0.14935189917393574        0.0000000000000000     
  -2.8823462759415500E-002  0.15703102438851568        0.0000000000000000     
  -2.9297019269931637E-002  0.16481963427487920        0.0000000000000000     
  -3.2796676333726967E-002  0.13451834791212183        0.0000000000000000     
  -3.3490751970298056E-002  0.14196542806620538        0.0000000000000000     
  -3.4144521804645785E-002  0.14952140411352996        0.0000000000000000     
  -3.4757985836770158E-002  0.15718627605409563        0.0000000000000000     
  -3.5331144066671170E-002  0.16496004388790242        0.0000000000000000     
  -3.8472084547107793E-002  0.13473409455108171        0.0000000000000000     
  -3.9287773823748630E-002  0.14216764492613479        0.0000000000000000     
  -4.0056962837102132E-002  0.14971024217682297        0.0000000000000000     
  -4.0779651587168300E-002  0.15736188630314607        0.0000000000000000     
  -4.1455840073947134E-002  0.16512257730510421        0.0000000000000000     
  -4.4224577916137993E-002  0.13496934267700605        0.0000000000000000     
  -4.5165195322799188E-002  0.14238890921092773        0.0000000000000000     
  -4.6053156020956498E-002  0.14991841336381470        0.0000000000000000     
  -4.6888460010609943E-002  0.15755785513566695        0.0000000000000000     
  -4.7671107291759510E-002  0.16530723452648455        0.0000000000000000     
  -2.3353465683728526E-002  0.16470134846603449        0.0000000000000000     
  -2.3701896033601864E-002  0.17260648342083368        0.0000000000000000     
  -2.4020223258526579E-002  0.18060064075471241        0.0000000000000000     
  -2.4308447358502679E-002  0.18868382046767071        0.0000000000000000     
  -2.4566568333530155E-002  0.19685602255970858        0.0000000000000000     
  -2.9297019269931637E-002  0.16481963427487920        0.0000000000000000     
  -2.9735222317710037E-002  0.17270854048688539        0.0000000000000000     
  -3.0136791765324911E-002  0.18068855467839334        0.0000000000000000     
  -3.0501727612776242E-002  0.18875967684940320        0.0000000000000000     
  -3.0830029860064050E-002  0.19692190699991477        0.0000000000000000     
  -3.5331144066671170E-002  0.16496004388790242        0.0000000000000000     
  -3.5862595198489777E-002  0.17283416138860880        0.0000000000000000     
  -3.6350937936366921E-002  0.18080008232987313        0.0000000000000000     
  -3.6796172280302610E-002  0.18885780671169544        0.0000000000000000     
  -3.7198298230296828E-002  0.19700733453407573        0.0000000000000000     
  -4.1455840073947134E-002  0.16512257730510421        0.0000000000000000     
  -4.2084014675941084E-002  0.17298334612600394        0.0000000000000000     
  -4.2662661771652621E-002  0.18093522370915172        0.0000000000000000     
  -4.3191781361081767E-002  0.18897821005454760        0.0000000000000000     
  -4.3671373444228487E-002  0.19711230516219158        0.0000000000000000     
  -4.7671107291759510E-002  0.16530723452648455        0.0000000000000000     
  -4.8399480750063957E-002  0.17315609469907084        0.0000000000000000     
  -4.9071963271182018E-002  0.18109397881622918        0.0000000000000000     
  -4.9688554855113712E-002  0.18912088687795958        0.0000000000000000     
  -5.0249255501859026E-002  0.19723681888426212        0.0000000000000000     
  -2.4566568333530155E-002  0.19685602255970858        0.0000000000000000     
  -2.4795385739853897E-002  0.20510141125161760        0.0000000000000000     
  -2.4995699133718786E-002  0.21340415076418934        0.0000000000000000     
  -2.5167508515124826E-002  0.22176424109742390        0.0000000000000000     
  -2.5310813884072022E-002  0.23018168225132116        0.0000000000000000     
  -3.0830029860064050E-002  0.19692190699991477        0.0000000000000000     
  -3.1121698781554602E-002  0.20516001361236372        0.0000000000000000     
  -3.1376734651614183E-002  0.21345876516918547        0.0000000000000000     
  -3.1595137470242805E-002  0.22181816167037999        0.0000000000000000     
  -3.1776907237440463E-002  0.23023820311594742        0.0000000000000000     
  -3.7198298230296828E-002  0.19700733453407573        0.0000000000000000     
  -3.7556510063548522E-002  0.20523485509103925        0.0000000000000000     
  -3.7870002057256651E-002  0.21352655767661113        0.0000000000000000     
  -3.8138774211421207E-002  0.22188244229079143        0.0000000000000000     
  -3.8362826526042178E-002  0.23030250893358012        0.0000000000000000     
  -4.3671373444228487E-002  0.19711230516219158        0.0000000000000000     
  -4.4099819585835663E-002  0.20532593568764423        0.0000000000000000     
  -4.4475501350646165E-002  0.21360752828646651        0.0000000000000000     
  -4.4798418738660008E-002  0.22195708295865815        0.0000000000000000     
  -4.5068571749877183E-002  0.23037459970421933        0.0000000000000000     
  -5.0249255501859026E-002  0.19723681888426212        0.0000000000000000     
  -5.0751627348416005E-002  0.20543325540217869        0.0000000000000000     
  -5.1193232531782748E-002  0.21370167699875139        0.0000000000000000     
  -5.1574071051959228E-002  0.22204208367398012        0.0000000000000000     
  -5.1894142908945458E-002  0.23045447542786499        0.0000000000000000     
  -2.5310813884072022E-002  0.23018168225132116        0.0000000000000000     
  -2.5431647435021264E-002  0.23862906616731130        0.0000000000000000     
  -2.5536041362433478E-002  0.24707898478682455        0.0000000000000000     
  -2.5623995666308651E-002  0.25553143810986079        0.0000000000000000     
  -2.5695510346646789E-002  0.26398642613642015        0.0000000000000000     
  -3.1776907237440463E-002  0.23023820311594742        0.0000000000000000     
  -3.1929928063357906E-002  0.23869421153121187        0.0000000000000000     
  -3.2062084058145909E-002  0.24716150894149758        0.0000000000000000     
  -3.2173375221804482E-002  0.25564009534680471        0.0000000000000000     
  -3.2263801554333602E-002  0.26412997074713312        0.0000000000000000     
  -3.8362826526042178E-002  0.23030250893358012        0.0000000000000000     
  -3.8551028907325077E-002  0.23876612422952737        0.0000000000000000     
  -3.8712251261475386E-002  0.24725265480318351        0.0000000000000000     
  -3.8846493588493118E-002  0.25576210065454846        0.0000000000000000     
  -3.8953755888378259E-002  0.26429446178362215        0.0000000000000000     
  -4.5068571749877183E-002  0.23037459970421933        0.0000000000000000     
  -4.5294949966922786E-002  0.23884480426225799        0.0000000000000000     
  -4.5486542972421912E-002  0.24735242237188221        0.0000000000000000     
  -4.5643350766374574E-002  0.25589745403309200        0.0000000000000000     
  -4.5765373348780766E-002  0.26447989924588733        0.0000000000000000     
  -5.1894142908945458E-002  0.23045447542786499        0.0000000000000000     
  -5.2161691242151018E-002  0.23893025162940362        0.0000000000000000     
  -5.2384959190985472E-002  0.24746081164759376        0.0000000000000000     
  -5.2563946755448836E-002  0.25604615548243537        0.0000000000000000     
  -5.2698653935541101E-002  0.26468628313392850        0.0000000000000000     
  -2.5695510346646789E-002  0.26398642613642015        0.0000000000000000     
  -2.5762747485965638E-002  0.27238879013915374        0.0000000000000000     
  -2.5837869166782958E-002  0.28068337139071292        0.0000000000000000     
  -2.5920875389098753E-002  0.28887016989109754        0.0000000000000000     
  -2.6011766152913014E-002  0.29694918564030770        0.0000000000000000     
  -3.2263801554333602E-002  0.26412997074713312        0.0000000000000000     
  -3.2348068379284209E-002  0.27257817393481426        0.0000000000000000     
  -3.2440881020207195E-002  0.28093174370217938        0.0000000000000000     
  -3.2542239477102580E-002  0.28919068004922854        0.0000000000000000     
  -3.2652143749970351E-002  0.29735498297596180        0.0000000000000000     
  -3.8953755888378259E-002  0.26429446178362215        0.0000000000000000     
  -3.9052687778333255E-002  0.27279850510027392        0.0000000000000000     
  -3.9161938875560583E-002  0.28122299751437291        0.0000000000000000     
  -3.9281509180060188E-002  0.28956793902591910        0.0000000000000000     
  -3.9411398691832113E-002  0.29783332963491249        0.0000000000000000     
  -4.5765373348780766E-002  0.26447989924588733        0.0000000000000000     
  -4.5876605683112810E-002  0.27304978363553295        0.0000000000000000     
  -4.6001042732843084E-002  0.28155713282729350        0.0000000000000000     
  -4.6138684497971566E-002  0.29000194682116914        0.0000000000000000     
  -4.6289530978498264E-002  0.29838422561715972        0.0000000000000000     
  -5.2698653935541101E-002  0.26468628313392850        0.0000000000000000     
  -5.2819822093622869E-002  0.27333200954059111        0.0000000000000000     
  -5.2958192592054754E-002  0.28193414964094121        0.0000000000000000     
  -5.3113765430836749E-002  0.29049270343497868        0.0000000000000000     
  -5.3286540609968833E-002  0.29900767092270364        0.0000000000000000     
  -2.9130228844768999E-002   5.7512681566378149E-002   0.0000000000000000     
  -3.0635622680739865E-002   6.2965699465606512E-002   0.0000000000000000     
  -3.2100195339052631E-002   6.8627596805746496E-002   0.0000000000000000     
  -3.3523946819707315E-002   7.4498373586798103E-002   0.0000000000000000     
  -3.4906877122703892E-002   8.0578029808761331E-002   0.0000000000000000     
  -3.2857752692769311E-002   5.7537456807677009E-002   0.0000000000000000     
  -3.4610679012222562E-002   6.3134475729929335E-002   0.0000000000000000     
  -3.6306077711035147E-002   6.8898807558359032E-002   0.0000000000000000     
  -3.7943948789207066E-002   7.4830452292966088E-002   0.0000000000000000     
  -3.9524292246738327E-002   8.0929409933750557E-002   0.0000000000000000     
  -3.6895042901353585E-002   5.7841659093793879E-002   0.0000000000000000     
  -3.8857301820275657E-002   6.3505839612025619E-002   0.0000000000000000     
  -4.0752722344328210E-002   6.9315562200136474E-002   0.0000000000000000     
  -4.2581304473511272E-002   7.5270826858126444E-002   0.0000000000000000     
  -4.4343048207824816E-002   8.1371633585995487E-002   0.0000000000000000     
  -4.1242099470521827E-002   5.8425288424728751E-002   0.0000000000000000     
  -4.3375491104899133E-002   6.4079791111895337E-002   0.0000000000000000     
  -4.5440129238931842E-002   6.9877860731078767E-002   0.0000000000000000     
  -4.7436013872619913E-002   7.5819497282279033E-002   0.0000000000000000     
  -4.9363145005963380E-002   8.1904700765496150E-002   0.0000000000000000     
  -4.5898922400274017E-002   5.9288344800481632E-002   0.0000000000000000     
  -4.8165246866093019E-002   6.4856330229538503E-002   0.0000000000000000     
  -5.0368298394846016E-002   7.0585703151185952E-002   0.0000000000000000     
  -5.2508076986533016E-002   7.6476463565423952E-002   0.0000000000000000     
  -5.4584582641154004E-002   8.2528611472252544E-002   0.0000000000000000     
  -3.4906877122703892E-002   8.0578029808761331E-002   0.0000000000000000     
  -3.6244668430202777E-002   8.6842048931332017E-002   0.0000000000000000     
  -3.7533002924364303E-002   9.3265914414205967E-002   0.0000000000000000     
  -3.8771880605188505E-002   9.9849626257383209E-002   0.0000000000000000     
  -3.9961301472675362E-002  0.10659318446086372        0.0000000000000000     
  -3.9524292246738327E-002   8.0929409933750557E-002   0.0000000000000000     
  -4.1046790904141595E-002   8.7190714091813462E-002   0.0000000000000000     
  -4.2511127581929521E-002   9.3609398378255965E-002   0.0000000000000000     
  -4.3917302280102120E-002  0.10018546279307800        0.0000000000000000     
  -4.5265314998659392E-002  0.10691890733627962        0.0000000000000000     
  -4.4343048207824816E-002   8.1371633585995487E-002   0.0000000000000000     
  -4.6039004110124251E-002   8.7623017657612906E-002   0.0000000000000000     
  -4.7670222743264927E-002   9.4030014346847837E-002   0.0000000000000000     
  -4.9236704107246849E-002  0.10059262365370032        0.0000000000000000     
  -5.0738448202070012E-002  0.10731084557817033        0.0000000000000000     
  -4.9363145005963380E-002   8.1904700765496150E-002   0.0000000000000000     
  -5.1221308048150734E-002   8.8138959628730293E-002   0.0000000000000000     
  -5.3010288408370514E-002   9.4527762319981640E-002   0.0000000000000000     
  -5.4730086086622658E-002  0.10107110883925015        0.0000000000000000     
  -5.6380701082907235E-002  0.10776899918653587        0.0000000000000000     
  -5.4584582641154004E-002   8.2528611472252544E-002   0.0000000000000000     
  -5.6593702718221076E-002   8.8738540005165678E-002   0.0000000000000000     
  -5.8531324577246260E-002   9.5102642297657330E-002   0.0000000000000000     
  -6.0397448218229587E-002  0.10162091834972750        0.0000000000000000     
  -6.2192073641171054E-002  0.10829336816137622        0.0000000000000000     
  -3.9961301472675362E-002  0.10659318446086372        0.0000000000000000     
  -4.1101275596005425E-002  0.11348430538709674        0.0000000000000000     
  -4.2191813044359212E-002  0.12051070539853145        0.0000000000000000     
  -4.3232913817736730E-002  0.12767238449516788        0.0000000000000000     
  -4.4224577916137993E-002  0.13496934267700605        0.0000000000000000     
  -4.5265314998659392E-002  0.10691890733627962        0.0000000000000000     
  -4.6556308921684803E-002  0.11379813475264892        0.0000000000000000     
  -4.7791427233261838E-002  0.12081154778697403        0.0000000000000000     
  -4.8970669933390505E-002  0.12795914643925491        0.0000000000000000     
  -5.0094037022070791E-002  0.13524093070949156        0.0000000000000000     
  -5.0738448202070012E-002  0.10731084557817033        0.0000000000000000     
  -5.2176848187508444E-002  0.11417379497125224        0.0000000000000000     
  -5.3553297223336148E-002  0.12117058668394033        0.0000000000000000     
  -5.4867795309553144E-002  0.12830122071623462        0.0000000000000000     
  -5.6120342446159398E-002  0.13556569706813515        0.0000000000000000     
  -5.6380701082907235E-002  0.10776899918653587        0.0000000000000000     
  -5.7962893393476350E-002  0.11461128604290664        0.0000000000000000     
  -5.9477423014582149E-002  0.12158782208943039        0.0000000000000000     
  -6.0924289946224640E-002  0.12869860732610705        0.0000000000000000     
  -6.2303494188403814E-002  0.13594364175293666        0.0000000000000000     
  -6.2192073641171054E-002  0.10829336816137622        0.0000000000000000     
  -6.3914444539588514E-002  0.11511060796761219        0.0000000000000000     
  -6.5563804606999829E-002  0.12206325400344420        0.0000000000000000     
  -6.7140153843405007E-002  0.12915130626887222        0.0000000000000000     
  -6.8643492248804061E-002  0.13637476476389623        0.0000000000000000     
  -4.4224577916137993E-002  0.13496934267700605        0.0000000000000000     
  -4.5165195322799188E-002  0.14238890921092773        0.0000000000000000     
  -4.6053156020956498E-002  0.14991841336381470        0.0000000000000000     
  -4.6888460010609943E-002  0.15755785513566695        0.0000000000000000     
  -4.7671107291759510E-002  0.16530723452648455        0.0000000000000000     
  -5.0094037022070791E-002  0.13524093070949156        0.0000000000000000     
  -5.1160195888752265E-002  0.14264517926971360        0.0000000000000000     
  -5.2167813922884526E-002  0.15016017079195054        0.0000000000000000     
  -5.3116891124467547E-002  0.15778590527620240        0.0000000000000000     
  -5.4007427493501348E-002  0.16552238272246916        0.0000000000000000     
  -5.6120342446159398E-002  0.13556569706813515        0.0000000000000000     
  -5.7309954942910454E-002  0.14295241345162207        0.0000000000000000     
  -5.8435649109561852E-002  0.15044976757867590        0.0000000000000000     
  -5.9497424946113590E-002  0.15805775944929648        0.0000000000000000     
  -6.0495282452565656E-002  0.16577638906348388        0.0000000000000000     
  -6.2303494188403814E-002  0.13594364175293666        0.0000000000000000     
  -6.3614472485273743E-002  0.14331061175665324        0.0000000000000000     
  -6.4856661580988503E-002  0.15078720372399074        0.0000000000000000     
  -6.6030061475548074E-002  0.15837341765494925        0.0000000000000000     
  -6.7134672168952442E-002  0.16606925354952864        0.0000000000000000     
  -6.8643492248804061E-002  0.13637476476389623        0.0000000000000000     
  -7.0073748515842138E-002  0.14371977418480694        0.0000000000000000     
  -7.1430851337164453E-002  0.15117247922789506        0.0000000000000000     
  -7.2714800712770963E-002  0.15873287989316062        0.0000000000000000     
  -7.3925596642661712E-002  0.16640097618060351        0.0000000000000000     
  -4.7671107291759510E-002  0.16530723452648455        0.0000000000000000     
  -4.8399480750063957E-002  0.17315609469907084        0.0000000000000000     
  -4.9071963271182018E-002  0.18109397881622918        0.0000000000000000     
  -4.9688554855113712E-002  0.18912088687795958        0.0000000000000000     
  -5.0249255501859026E-002  0.19723681888426212        0.0000000000000000     
  -5.4007427493501348E-002  0.16552238272246916        0.0000000000000000     
  -5.4837795986697919E-002  0.17335771037286904        0.0000000000000000     
  -5.5606369560769302E-002  0.18127999546952026        0.0000000000000000     
  -5.6313148215715488E-002  0.18928923801242278        0.0000000000000000     
  -5.6958131951536470E-002  0.19738543800157665        0.0000000000000000     
  -6.0495282452565656E-002  0.16577638906348388        0.0000000000000000     
  -6.1427762951682535E-002  0.17359349641245825        0.0000000000000000     
  -6.2293407766228701E-002  0.18149692148743973        0.0000000000000000     
  -6.3092216896204131E-002  0.18948666428842845        0.0000000000000000     
  -6.3824190341608855E-002  0.19756272481542436        0.0000000000000000     
  -6.7134672168952442E-002  0.16606925354952864        0.0000000000000000     
  -6.8169381645017790E-002  0.17386345281783835        0.0000000000000000     
  -6.9133077887560151E-002  0.18174475686998770        0.0000000000000000     
  -7.0025760896579650E-002  0.18971316570597663        0.0000000000000000     
  -7.0847430672076189E-002  0.19776867932580519        0.0000000000000000     
  -7.3925596642661712E-002  0.16640097618060351        0.0000000000000000     
  -7.5062652066703650E-002  0.17416757958900947        0.0000000000000000     
  -7.6125379924763759E-002  0.18202350161716407        0.0000000000000000     
  -7.7113780216842037E-002  0.18996874226506730        0.0000000000000000     
  -7.8027852942938486E-002  0.19800330153271925        0.0000000000000000     
  -5.0249255501859026E-002  0.19723681888426212        0.0000000000000000     
  -5.0751627348416005E-002  0.20543325540217869        0.0000000000000000     
  -5.1193232531782748E-002  0.21370167699875139        0.0000000000000000     
  -5.1574071051959228E-002  0.22204208367398012        0.0000000000000000     
  -5.1894142908945458E-002  0.23045447542786499        0.0000000000000000     
  -5.6958131951536470E-002  0.19738543800157665        0.0000000000000000     
  -5.7538453997963347E-002  0.20556277229545700        0.0000000000000000     
  -5.8051247584727225E-002  0.21381541775253879        0.0000000000000000     
  -5.8496512711828083E-002  0.22214337437282211        0.0000000000000000     
  -5.8874249379265942E-002  0.23054664215630699        0.0000000000000000     
  -6.3824190341608855E-002  0.19756272481542436        0.0000000000000000     
  -6.4486820181151441E-002  0.20572044442829340        0.0000000000000000     
  -6.5077598493540403E-002  0.21395516448690155        0.0000000000000000     
  -6.5596525278775769E-002  0.22226688499124889        0.0000000000000000     
  -6.6043600536857525E-002  0.23065560594133533        0.0000000000000000     
  -7.0847430672076189E-002  0.19776867932580519        0.0000000000000000     
  -7.1596725897980273E-002  0.20590627180068805        0.0000000000000000     
  -7.2272285258222296E-002  0.21412091720183979        0.0000000000000000     
  -7.2874108752802286E-002  0.22241261552926042        0.0000000000000000     
  -7.3402196381720214E-002  0.23078136678294991        0.0000000000000000     
  -7.8027852942938486E-002  0.19800330153271925        0.0000000000000000     
  -7.8868171148449878E-002  0.20612025441264090        0.0000000000000000     
  -7.9635307878772918E-002  0.21431267589735339        0.0000000000000000     
  -8.0329263133907633E-002  0.22258056598685669        0.0000000000000000     
  -8.0950036913854023E-002  0.23092392468115078        0.0000000000000000     
  -5.1894142908945458E-002  0.23045447542786499        0.0000000000000000     
  -5.2161691242151018E-002  0.23893025162940362        0.0000000000000000     
  -5.2384959190985472E-002  0.24746081164759376        0.0000000000000000     
  -5.2563946755448836E-002  0.25604615548243537        0.0000000000000000     
  -5.2698653935541101E-002  0.26468628313392850        0.0000000000000000     
  -5.8874249379265942E-002  0.23054664215630699        0.0000000000000000     
  -5.9190631151300868E-002  0.23902393627969959        0.0000000000000000     
  -5.9451831592192951E-002  0.24757397191970593        0.0000000000000000     
  -5.9657850701942176E-002  0.25619674907632606        0.0000000000000000     
  -5.9808688480548558E-002  0.26489226774956004        0.0000000000000000     
  -6.6043600536857525E-002  0.23065560594133533        0.0000000000000000     
  -6.6421148112663420E-002  0.23912732816188109        0.0000000000000000     
  -6.6731491851071204E-002  0.24768805247760645        0.0000000000000000     
  -6.6974631752080876E-002  0.25633777888851145        0.0000000000000000     
  -6.7150567815692397E-002  0.26507650739459598        0.0000000000000000     
  -7.3402196381720214E-002  0.23078136678294991        0.0000000000000000     
  -7.3853242126238686E-002  0.23924042727594830        0.0000000000000000     
  -7.4223939967620237E-002  0.24780305332129549        0.0000000000000000     
  -7.4514289905864908E-002  0.25646924491899148        0.0000000000000000     
  -7.4724291940972645E-002  0.26523900206903644        0.0000000000000000     
  -8.0950036913854023E-002  0.23092392468115078        0.0000000000000000     
  -8.1486913192026653E-002  0.23936323362190107        0.0000000000000000     
  -8.1929175941840071E-002  0.24791897445077293        0.0000000000000000     
  -8.2276825163294279E-002  0.25659114716776632        0.0000000000000000     
  -8.2529860856389275E-002  0.26537975177288131        0.0000000000000000     
  -5.2698653935541101E-002  0.26468628313392850        0.0000000000000000     
  -5.2819822093622869E-002  0.27333200954059111        0.0000000000000000     
  -5.2958192592054754E-002  0.28193414964094121        0.0000000000000000     
  -5.3113765430836749E-002  0.29049270343497868        0.0000000000000000     
  -5.3286540609968833E-002  0.29900767092270364        0.0000000000000000     
  -5.9808688480548558E-002  0.26489226774956004        0.0000000000000000     
  -5.9941191561363981E-002  0.27361648401534883        0.0000000000000000     
  -6.0092206577740365E-002  0.28232535394963348        0.0000000000000000     
  -6.0261733529677682E-002  0.29101887755241412        0.0000000000000000     
  -6.0449772417175959E-002  0.29969705482369058        0.0000000000000000     
  -6.7150567815692397E-002  0.26507650739459598        0.0000000000000000     
  -6.7299568637836732E-002  0.27387450825970616        0.0000000000000000     
  -6.7461902814444724E-002  0.28270205174768803        0.0000000000000000     
  -6.7637570345516415E-002  0.29155913785854165        0.0000000000000000     
  -6.7826571231051791E-002  0.30044576659226696        0.0000000000000000     
  -7.4724291940972645E-002  0.26523900206903644        0.0000000000000000     
  -7.4894953323041094E-002  0.27410608227366318        0.0000000000000000     
  -7.5067281302167874E-002  0.28306424303510491        0.0000000000000000     
  -7.5241275878352915E-002  0.29211348435336137        0.0000000000000000     
  -7.5416937051596314E-002  0.30125380622843284        0.0000000000000000     
  -8.2529860856389275E-002  0.26537975177288131        0.0000000000000000     
  -8.2727345616977088E-002  0.27431120605721981        0.0000000000000000     
  -8.2908342040909730E-002  0.28341192781188379        0.0000000000000000     
  -8.3072850128187242E-002  0.29268191703687324        0.0000000000000000     
  -8.3220869878809542E-002  0.30212117373218822        0.0000000000000000     
  -4.5898922400274017E-002   5.9288344800481632E-002   0.0000000000000000     
  -4.8165246866093019E-002   6.4856330229538503E-002   0.0000000000000000     
  -5.0368298394846016E-002   7.0585703151185952E-002   0.0000000000000000     
  -5.2508076986533016E-002   7.6476463565423952E-002   0.0000000000000000     
  -5.4584582641154004E-002   8.2528611472252544E-002   0.0000000000000000     
  -5.0657417557565476E-002   6.0241891087083957E-002   0.0000000000000000     
  -5.3076338577836030E-002   6.5710187276969659E-002   0.0000000000000000     
  -5.5432958931238993E-002   7.1360603824024663E-002   0.0000000000000000     
  -5.7727278617774352E-002   7.7193140728248941E-002   0.0000000000000000     
  -5.9959297637442122E-002   8.3207797989642493E-002   0.0000000000000000     
  -5.5309490809351512E-002   6.1096990150567167E-002   0.0000000000000000     
  -5.7958535714106925E-002   6.6516092566203375E-002   0.0000000000000000     
  -6.0529839967279009E-002   7.2124077113161572E-002   0.0000000000000000     
  -6.3023403568867750E-002   7.7920943791441724E-002   0.0000000000000000     
  -6.5439226518873142E-002   8.3906692601043859E-002   0.0000000000000000     
  -5.9855142155632125E-002   6.1853641990931241E-002   0.0000000000000000     
  -6.2811838274905704E-002   6.7274046097239623E-002   0.0000000000000000     
  -6.5658941502966084E-002   7.2876123018596667E-002   0.0000000000000000     
  -6.8396451839813188E-002   7.8659872755002330E-002   0.0000000000000000     
  -7.1024369285447086E-002   8.4625295306456655E-002   0.0000000000000000     
  -6.4294371596407301E-002   6.2511846608176200E-002   0.0000000000000000     
  -6.7636246260232388E-002   6.7984047870078418E-002   0.0000000000000000     
  -7.0820263538300204E-002   7.3616741540329947E-002   0.0000000000000000     
  -7.3846423430610708E-002   7.9409927618930759E-002   0.0000000000000000     
  -7.6714725937163927E-002   8.5363606105880868E-002   0.0000000000000000     
  -5.4584582641154004E-002   8.2528611472252544E-002   0.0000000000000000     
  -5.6593702718221076E-002   8.8738540005165678E-002   0.0000000000000000     
  -5.8531324577246260E-002   9.5102642297657330E-002   0.0000000000000000     
  -6.0397448218229587E-002  0.10162091834972750        0.0000000000000000     
  -6.2192073641171054E-002  0.10829336816137622        0.0000000000000000     
  -5.9959297637442122E-002   8.3207797989642493E-002   0.0000000000000000     
  -6.2122861594795173E-002   8.9390586263946428E-002   0.0000000000000000     
  -6.4211816094386379E-002   9.5727516206901925E-002   0.0000000000000000     
  -6.6226161136215739E-002  0.10221858781850890        0.0000000000000000     
  -6.8165896720283253E-002  0.10886380109876742        0.0000000000000000     
  -6.5439226518873142E-002   8.3906692601043859E-002   0.0000000000000000     
  -6.7775458152332976E-002   9.0063925882100049E-002   0.0000000000000000     
  -7.0030247804284990E-002   9.6375245974742396E-002   0.0000000000000000     
  -7.2203595474729224E-002  0.10284065287897090        0.0000000000000000     
  -7.4295501163665623E-002  0.10946014659478555        0.0000000000000000     
  -7.1024369285447086E-002   8.4625295306456655E-002   0.0000000000000000     
  -7.3551492390834472E-002   9.0758558859626512E-002   0.0000000000000000     
  -7.5986619706942107E-002   9.7045831601178772E-002   0.0000000000000000     
  -7.8329751233769992E-002  0.10348711353111345        0.0000000000000000     
  -8.0580886971318127E-002  0.11008240464943059        0.0000000000000000     
  -7.6714725937163927E-002   8.5363606105880868E-002   0.0000000000000000     
  -7.9450964310299660E-002   9.1474485196525790E-002   0.0000000000000000     
  -8.2080931802357718E-002   9.7739273086211040E-002   0.0000000000000000     
  -8.4604628413338101E-002  0.10415796977493662        0.0000000000000000     
  -8.7022054143240796E-002  0.11073057526270252        0.0000000000000000     
  -6.2192073641171054E-002  0.10829336816137622        0.0000000000000000     
  -6.3914444539588514E-002  0.11511060796761219        0.0000000000000000     
  -6.5563804606999829E-002  0.12206325400344420        0.0000000000000000     
  -6.7140153843405007E-002  0.12915130626887222        0.0000000000000000     
  -6.8643492248804061E-002  0.13637476476389623        0.0000000000000000     
  -6.8165896720283253E-002  0.10886380109876742        0.0000000000000000     
  -7.0029062724497590E-002  0.11565435172962173        0.0000000000000000     
  -7.1813699026767416E-002  0.12258143539301607        0.0000000000000000     
  -7.3519805627092719E-002  0.12964505208895039        0.0000000000000000     
  -7.5147382525473511E-002  0.13684520181742482        0.0000000000000000     
  -7.4295501163665623E-002  0.10946014659478555        0.0000000000000000     
  -7.6304309046856242E-002  0.11622510831318809        0.0000000000000000     
  -7.8228363300063108E-002  0.12312691922518028        0.0000000000000000     
  -8.0067663923286223E-002  0.13016557933076203        0.0000000000000000     
  -8.1822210916525570E-002  0.13734108862993347        0.0000000000000000     
  -8.0580886971318127E-002  0.11008240464943059        0.0000000000000000     
  -8.2740183506664455E-002  0.11682287771831132        0.0000000000000000     
  -8.4807797426886933E-002  0.12369970549993681        0.0000000000000000     
  -8.6783728731985532E-002  0.13071288799430711        0.0000000000000000     
  -8.8667977421960253E-002  0.13786242520142217        0.0000000000000000     
  -8.7022054143240796E-002  0.11073057526270252        0.0000000000000000     
  -8.9336686103922244E-002  0.11744765994499137        0.0000000000000000     
  -9.1552001407238848E-002  0.12429979421728571        0.0000000000000000     
  -9.3668000053190592E-002  0.13128697807958556        0.0000000000000000     
  -9.5684682041777519E-002  0.13840921153189092        0.0000000000000000     
  -6.8643492248804061E-002  0.13637476476389623        0.0000000000000000     
  -7.0073748515842138E-002  0.14371977418480694        0.0000000000000000     
  -7.1430851337164453E-002  0.15117247922789506        0.0000000000000000     
  -7.2714800712770963E-002  0.15873287989316062        0.0000000000000000     
  -7.3925596642661712E-002  0.16640097618060351        0.0000000000000000     
  -7.5147382525473511E-002  0.13684520181742482        0.0000000000000000     
  -7.6696970811099774E-002  0.14416661324981872        0.0000000000000000     
  -7.8169111573161559E-002  0.15159401505751155        0.0000000000000000     
  -7.9563804811658798E-002  0.15912740724050337        0.0000000000000000     
  -8.0881050526591544E-002  0.16676678979879409        0.0000000000000000     
  -8.1822210916525570E-002  0.13734108862993347        0.0000000000000000     
  -8.3493327147530841E-002  0.14463784146542391        0.0000000000000000     
  -8.5082335484051655E-002  0.15204023217996282        0.0000000000000000     
  -8.6589235926088068E-002  0.15954826077355011        0.0000000000000000     
  -8.8014028473640038E-002  0.16716192724618587        0.0000000000000000     
  -8.8667977421960253E-002  0.13786242520142217        0.0000000000000000     
  -9.0462817525135270E-002  0.14513345883162260        0.0000000000000000     
  -9.2170523069834767E-002  0.15251113059524884        0.0000000000000000     
  -9.3791094056058746E-002  0.15999544049230094        0.0000000000000000     
  -9.5324530483807193E-002  0.16758638852277893        0.0000000000000000     
  -9.5684682041777519E-002  0.13840921153189092        0.0000000000000000     
  -9.7605441943913102E-002  0.14565346534841467        0.0000000000000000     
  -9.9433674330510882E-002  0.15300671030336965        0.0000000000000000     
 -0.10116937920157083       0.16046894639675585        0.0000000000000000     
 -0.10281255655709298       0.16804017362857326        0.0000000000000000     
  -7.3925596642661712E-002  0.16640097618060351        0.0000000000000000     
  -7.5062652066703650E-002  0.17416757958900947        0.0000000000000000     
  -7.6125379924763759E-002  0.18202350161716407        0.0000000000000000     
  -7.7113780216842037E-002  0.18996874226506730        0.0000000000000000     
  -7.8027852942938486E-002  0.19800330153271925        0.0000000000000000     
  -8.0881050526591544E-002  0.16676678979879409        0.0000000000000000     
  -8.2120926089323740E-002  0.17450490129503937        0.0000000000000000     
  -8.3283508871219367E-002  0.18233448029189495        0.0000000000000000     
  -8.4368798872278411E-002  0.19025552678936078        0.0000000000000000     
  -8.5376796092500887E-002  0.19826804078743690        0.0000000000000000     
  -8.8014028473640038E-002  0.16716192724618587        0.0000000000000000     
  -8.9357555585461629E-002  0.17487444250499601        0.0000000000000000     
  -9.0620659720306931E-002  0.18267901745710649        0.0000000000000000     
  -9.1803340878175904E-002  0.19057565210251737        0.0000000000000000     
  -9.2905599059068575E-002  0.19856434644122864        0.0000000000000000     
  -9.5324530483807193E-002  0.16758638852277893        0.0000000000000000     
  -9.6772540555117345E-002  0.17527620321887932        0.0000000000000000     
  -9.8136832472026425E-002  0.18305711311279874        0.0000000000000000     
  -9.9417406234534531E-002  0.19092911820453712        0.0000000000000000     
 -0.10061426184264159       0.19889221849409450        0.0000000000000000     
 -0.10281255655709298       0.16804017362857326        0.0000000000000000     
 -0.10436588099829085       0.17571018343668940        0.0000000000000000     
 -0.10583202712637794       0.18346876725897163        0.0000000000000000     
 -0.10721099494135429       0.19131592509541998        0.0000000000000000     
 -0.10850278444321987       0.19925165694603444        0.0000000000000000     
  -7.8027852942938486E-002  0.19800330153271925        0.0000000000000000     
  -7.8868171148449878E-002  0.20612025441264090        0.0000000000000000     
  -7.9635307878772918E-002  0.21431267589735339        0.0000000000000000     
  -8.0329263133907633E-002  0.22258056598685669        0.0000000000000000     
  -8.0950036913854023E-002  0.23092392468115078        0.0000000000000000     
  -8.5376796092500887E-002  0.19826804078743690        0.0000000000000000     
  -8.6310130270832189E-002  0.20636331654637155        0.0000000000000000     
  -8.7171431146217740E-002  0.21453264832641303        0.0000000000000000     
  -8.7960698718657512E-002  0.22277603612756133        0.0000000000000000     
  -8.8677932988151506E-002  0.23109347994981658        0.0000000000000000     
  -9.2905599059068575E-002  0.19856434644122864        0.0000000000000000     
  -9.3931577603399263E-002  0.20663638248409952        0.0000000000000000     
  -9.4885419851582262E-002  0.21478304224198938        0.0000000000000000     
  -9.5767125803617556E-002  0.22300432571489814        0.0000000000000000     
  -9.6576695459505174E-002  0.23130023290282586        0.0000000000000000     
 -0.10061426184264159       0.19889221849409450        0.0000000000000000     
 -0.10173251314615109       0.20693945222582485        0.0000000000000000     
 -0.10277727399486648       0.21506385764408242        0.0000000000000000     
 -0.10374854438878782       0.22326543474886704        0.0000000000000000     
 -0.10464632432791510       0.23154418354017878        0.0000000000000000     
 -0.10850278444321987       0.19925165694603444        0.0000000000000000     
 -0.10971293689908761       0.20727252577154764        0.0000000000000000     
 -0.11084699357607040       0.21537509453269216        0.0000000000000000     
 -0.11190495447416826       0.22355936322946804        0.0000000000000000     
 -0.11288681959338120       0.23182533186187521        0.0000000000000000     
  -8.0950036913854023E-002  0.23092392468115078        0.0000000000000000     
  -8.1486913192026653E-002  0.23936323362190107        0.0000000000000000     
  -8.1929175941840071E-002  0.24791897445077293        0.0000000000000000     
  -8.2276825163294279E-002  0.25659114716776632        0.0000000000000000     
  -8.2529860856389275E-002  0.26537975177288131        0.0000000000000000     
  -8.8677932988151506E-002  0.23109347994981658        0.0000000000000000     
  -8.9308651769858138E-002  0.23951062022966432        0.0000000000000000     
  -8.9838372878935882E-002  0.24805309740359033        0.0000000000000000     
  -9.0267096315384709E-002  0.25672091147159459        0.0000000000000000     
  -9.0594822079204634E-002  0.26551406243367709        0.0000000000000000     
  -9.6576695459505174E-002  0.23130023290282586        0.0000000000000000     
  -9.7304948319564002E-002  0.23969746012916279        0.0000000000000000     
  -9.7942703884112928E-002  0.24822270371729918        0.0000000000000000     
  -9.8489962153151922E-002  0.25687596366723497        0.0000000000000000     
  -9.8946723126681027E-002  0.26565723997897012        0.0000000000000000     
 -0.10464632432791510       0.23154418354017878        0.0000000000000000     
 -0.10547580284114420       0.23992375332039659        0.0000000000000000     
 -0.10624216895737114       0.24842779339189949        0.0000000000000000     
 -0.10694542267659592       0.25705630375468741        0.0000000000000000     
 -0.10758556399881848       0.26580928440876045        0.0000000000000000     
 -0.11288681959338120       0.23182533186187521        0.0000000000000000     
 -0.11382121533459877       0.24018949980336562        0.0000000000000000     
 -0.11473676809871061       0.24866836642739129        0.0000000000000000     
 -0.11563347788571665       0.25726193173395207        0.0000000000000000     
 -0.11651134469561697       0.26597019572304809        0.0000000000000000     
  -8.2529860856389275E-002  0.26537975177288131        0.0000000000000000     
  -8.2727345616977088E-002  0.27431120605721981        0.0000000000000000     
  -8.2908342040909730E-002  0.28341192781188379        0.0000000000000000     
  -8.3072850128187242E-002  0.29268191703687324        0.0000000000000000     
  -8.3220869878809542E-002  0.30212117373218822        0.0000000000000000     
  -9.0594822079204634E-002  0.26551406243367709        0.0000000000000000     
  -9.0851968815798906E-002  0.27449554675929533        0.0000000000000000     
  -9.1068955170570773E-002  0.28372836091790671        0.0000000000000000     
  -9.1245781143520249E-002  0.29321250490951134        0.0000000000000000     
  -9.1382446734647335E-002  0.30294797873410906        0.0000000000000000     
  -9.8946723126681027E-002  0.26565723997897012        0.0000000000000000     
  -9.9324046215660669E-002  0.27466477152880892        0.0000000000000000     
  -9.9632990831051316E-002  0.28399679719305537        0.0000000000000000     
  -9.9873556972852967E-002  0.29365331697170960        0.0000000000000000     
 -0.10004574464106557       0.30363433086477143        0.0000000000000000     
 -0.10758556399881848       0.26580928440876045        0.0000000000000000     
 -0.10814357781656246       0.27481888036576069        0.0000000000000000     
 -0.10860044902235141       0.28421723663732978        0.0000000000000000     
 -0.10895617761618534       0.29400435322346796        0.0000000000000000     
 -0.10921076359806425       0.30418023012417522        0.0000000000000000     
 -0.11651134469561697       0.26597019572304809        0.0000000000000000     
 -0.11731056361850420       0.27495787327015031        0.0000000000000000     
 -0.11797132974447100       0.28438967925072978        0.0000000000000000     
 -0.11849364307351740       0.29426561366478649        0.0000000000000000     
 -0.11887750360564335       0.30458567651232049        0.0000000000000000     
 </DataArray>
 <DataArray  type="Float64" Name="stress" NumberOfComponents="3" format="ascii">
   6832054270.0223694        880372754.36370182        742845464.35841894     
   6450225658.6957655        617897983.71694112        548297919.74905312     
   6086225166.6034451        414850277.18444252        395451757.27007449     
   5740052793.7453966        271229634.76620364        284306976.92146760     
   5411708540.1216345        187036056.46224999        214863578.70322740     
   5906139633.3856382        413579693.17089224        618186316.01778638     
   5658105766.0067129        288194639.17593050        496530638.32936215     
   5419056778.1328936        192759183.53129482        404456523.85837299     
   5188992669.7641687        127273326.23697901        341963972.60480785     
   4967913440.9005413        91737067.293000221        309052984.56867516     
   5161113169.4520578        1053083.7890174389        535974683.21179968     
   5012245991.9838409        2369330.2347674370        476893759.42694294     
   4863520454.2915344        4157709.2668948174        435274579.94656450     
   4714936556.3751411        6418220.8854045868        411117144.77067208     
   4566494298.2346659        9150865.0902953148        404421453.89925677     
   4596974878.2216702       -357207073.78189421        496210565.94047236     
   4512646336.6271572       -239577943.10653281        489387283.04179144     
   4419616195.0793724       -150954145.60873461        487905925.53464437     
   4317884453.5783186       -91335681.288503885        491766493.41903752     
   4207451112.1239958       -60722550.145831347        500968986.69496518     
   4213724759.6944461       -661200779.54185677        498893964.20379227     
   4159306799.9366417       -437647180.84798574        534011209.17391074     
   4087344000.4963961       -272576381.09561324        562350560.62261915     
   3997836361.3736968       -165988380.28475118        583912018.54991639     
   3890783882.5685439       -117883178.41539907        598695582.95580876     
   5411708540.1216345        187036056.46224999        214863578.70322740     
   5201155575.4302082        165326480.50588942        167366938.86462021     
   4990673358.9778461        143852732.01307154        131785917.84938289     
   4780261890.7645445        122614810.98380423        108120515.65752438     
   4569921170.7903137        101612717.41807795        96370732.289033160     
   4967913440.9005413        91737067.293000221        309052984.56867516     
   4788482771.9700499        82407889.577806473        275088050.61792868     
   4609108441.0611868        73266505.268062115        250290710.37348485     
   4429790448.1739483        64312914.363733292        234660963.83533525     
   4250528793.3083382        55547116.864826679        228198811.00349468     
   4566494298.2346659        9150865.0902953148        404421453.89925677     
   4410334424.7306108        9846635.5159435272        383971413.91602796     
   4254216479.0307541        10682165.288900852        369940942.52201986     
   4098140461.1350880        11657454.409169436        362330039.71725041     
   3942106371.0436134        12772502.876744032        361138705.50171018     
   4207451112.1239958       -60722550.145831347        500968986.69496518     
   4066710533.7118969       -52357281.679711103        494017028.75890869     
   3925997472.8865547       -43900287.924387217        490736614.29501224     
   3785311929.6479726       -35351568.879870415        491127743.30327839     
   3644653903.9961472       -26711124.546164513        495190415.78369993     
   3890783882.5685439       -117883178.41539907        598695582.95580876     
   3757611098.9139085       -104203862.00913596        605224895.14658689     
   3624451422.6285977       -90480854.371791124        612677725.69245243     
   3491304853.7126050       -76714155.503384829        621054074.59341240     
   3358171392.1659369       -62903765.403896093        630353941.84945202     
   4569921170.7903137        101612717.41807795        96370732.289033160     
   4374829800.1755371        86934756.088919401        79600845.288428321     
   4180821084.0219531        75865642.963737249        68728733.661791101     
   3987895022.3295646        68405378.042542696        63754397.409103543     
   3796051615.0983801        64553961.325353146        64677836.530396402     
   4250528793.3083382        55547116.864826679        228198811.00349468     
   4072240843.1341667        48022686.488179445        215971862.49459055     
   3894522437.8272777        42396739.002450228        209122031.80775604     
   3717373577.3876514        38669274.407615185        207649318.94300944     
   3540794261.8153095        36840292.703715801        211553723.90033561     
   3942106371.0436134        12772502.876744032        361138705.50171018     
   3779134248.3046646        11955325.551004648        352856067.62493312     
   3616218560.8390670        11326265.803101063        349429890.01834333     
   3453359308.6468139        10885323.633016825        350860172.68193966     
   3290556491.7279124        10632499.040767670        357146915.61572391     
   3644653903.9961472       -26711124.546164513        495190415.78369993     
   3495510015.6870227       -21267326.722614288        490253460.67946303     
   3345909453.0573215       -17345776.634320974        489652308.29353219     
   3195852216.1070490       -14946474.281256318        493386958.62589747     
   3045338304.8361993       -14069419.663462400        501457411.67657018     
   3358171392.1659369       -62903765.403896093        630353941.84945202     
   3221368145.2812405       -51645270.332677126        628164041.65818489     
   3083595114.4820466       -43619388.309786677        629789286.63333380     
   2944852299.7683554       -38826119.335225940        635229676.77489424     
   2805139701.1401582       -37265463.409004092        644485212.08286560     
   3796051615.0983801        64553961.325353146        64677836.530396402     
   3618115129.5738487        63608441.951524258        51365868.079802707     
   3438261146.1802354        56271263.014109135        42171637.668241963     
   3256489664.9175215        42542424.513025880        37095145.295712881     
   3072800685.7857456        22421926.448383212        36136390.962206483     
   3540794261.8153095        36840292.703715801        211553723.90033561     
   3373564992.9101658        37070570.213073969        198125759.20256904     
   3205274472.6848865        33763343.321966410        188545039.19996059     
   3035922701.1394534        26918612.030370593        182811563.89249107     
   2865509678.2738705        16536376.338253498        180925333.28018993     
   3290556491.7279124        10632499.040767670        357146915.61572391     
   3133261601.3168063        11806721.995747447        344601908.97787923     
   2975761706.1344934        12297595.713384032        335633653.69130701     
   2818056806.1809421        12105120.193562150        330242149.75600141     
   2660146901.4561982        11229295.436411023        328427397.17196959     
   3045338304.8361993       -14069419.663462400        501457411.67657018     
   2897204954.7937508       -12183102.700487614        490794317.40572912     
   2749722846.5290241       -8125979.8117848635        483437481.14228535     
   2602891980.0420160       -1898050.9973473549        479386902.88623309     
   2456712355.3327317        6500683.7428371906        478642582.63757241     
   2805139701.1401582       -37265463.409004092        644485212.08286560     
   2665395053.3410025       -34898903.875637412        636702984.48612344     
   2527157893.8684993       -27507383.253445148        631956521.55289590     
   2390428222.7226496       -15090901.542405963        630245823.28318346     
   2255206039.9034581        2350541.2574946880        631570889.67698431     
   3072800685.7857456        22421926.448383212        36136390.962206483     
   2900483433.0217834        5972287.8230729103        23467299.848590493     
   2730254672.5416379       -3515709.8561605215        13414319.016336905     
   2562114404.3453102       -6042066.5893381834        5977448.4654367538     
   2396062628.4328070       -1606782.3764468431        1156688.1959066922     
   2865509678.2738705        16536376.338253498        180925333.28018993     
   2702325846.7624102        8386459.5386530161        170732003.90653741     
   2540245175.2433548        3913742.7137258053        163032952.48598295     
   2379267663.7167096        3118225.8634936810        157828179.01853165     
   2219393312.1824536        5999908.9879260063        155117683.50417581     
   2660146901.4561982        11229295.436411023        328427397.17196959     
   2505748398.8307791        11274672.752562404        319560275.19831127     
   2351467723.9063482        11712809.072021723        313065598.84948921     
   2197304876.6829128        12543704.394780397        308943368.12549216     
   2043259857.1604676        13767358.720855832        307193583.02633965     
   2456712355.3327317        6500683.7428371906        478642582.63757241     
   2310751089.2268696        14636927.464758277        469952113.72391993     
   2163922318.5306025        19881489.218669057        463512258.10684335     
   2016226043.2439115        22234369.004498839        459323015.78632975     
   1867662263.3668094        21695566.822287321        457384386.76240265     
   2255206039.9034581        2350541.2574946880        631570889.67698431     
   2117333917.9507060        18473223.675318003        621907519.48336160     
   1977608959.1161261        28419783.153709173        614372930.25805545     
   1836031163.3997138        32190219.692661285        608967122.00104964     
   1692600530.8014762        29784533.292196333        605690094.71235394     
   2396062628.4328070       -1606782.3764468431        1156688.1959066922     
   2252691549.1906519        7502605.0796934366       -6239309.3231664170     
   2105827512.3298697        4968800.4737662077       -11249406.427469812     
   1955470517.8504112       -9208196.1944383383       -13873603.117009897     
   1801620565.7523265       -35028384.924706817       -14111899.391818697     
   2219393312.1824536        5999908.9879260063        155117683.50417581     
   2080530109.3005526        13461476.800955653        144103330.83461753     
   1939427399.2346978        13458020.667499423        134550941.02198634     
   1796085181.9849465        5989540.5877013206        126460514.06628358     
   1650503457.5512497       -8943963.4385796785        119832049.96750541     
   2043259857.1604676        13767358.720855832        307193583.02633965     
   1906264709.0449951        18789160.412563443        294023234.04678077     
   1768283504.1803224        20524106.273608088        281390910.36633652     
   1629316242.5664225        18972196.303884029        269296611.98497236     
   1489362924.2033143        14133430.503483117        257740338.90271389     
   1867662263.3668094        21695566.822287321        457384386.76240265     
   1729895348.4239833        23485655.914569974        443520400.31335247     
   1592395827.1666627        26167057.291849852        429270501.60557884     
   1455163699.5948498        29739770.954158485        414634690.63906592     
   1318198965.7085466        34203796.901499689        399612967.41382951     
   1692600530.8014762        29784533.292196333        605690094.71235394     
   1551422027.4375141        27550963.306916058        592594829.63431442     
   1411764368.1937587        30386873.722336531        578189714.73971903     
   1273627553.0702374        38292264.538542151        562474750.02856398     
   1137011582.0669339        51267135.755462706        545449935.50085580     
   1801620565.7523265       -35028384.924706817       -14111899.391818697     
   1770898948.3024802       -16838722.895689845       -8251714.4328113459     
   1748332717.2832208        28535560.568650603       -41317078.216198161     
   1733921872.6946063        101094465.46844608       -113307990.74197274     
   1727666414.5365930        200837991.80360097       -224224452.01014405     
   1650503457.5512497       -8943963.4385796785        119832049.96750541     
   1527805954.0135236       -14016301.044590533        135634278.17626905     
   1409323276.4408896       -5039218.7669896483        124979527.28331429     
   1295055424.8333590        17987283.394309878        87867797.288620606     
   1185002399.1909304        55063205.439270854        24299088.192195702     
   1489362924.2033143        14133430.503483117        257740338.90271389     
   1310314019.2653165       -3513561.3313130736        278887289.81816208     
   1131539379.8268945       -20246334.834170640        286045831.27253622     
   953039005.88807154       -36064890.005038798        279215963.26583183     
   774812897.44882894       -50969226.843977600        258397685.79806358     
   1318198965.7085466        34203796.901499689        399612967.41382951     
   1118423144.0578625        14669496.244193673        421507320.49285334     
   914981027.44126165       -17085787.632842183        441881833.75145686     
   707872615.85874271       -61062054.729612976        460736507.18964761     
   497097909.31029803       -117259305.04613495        478071340.80742884     
   1137011582.0669339        51267135.755462706        545449935.50085580     
   952133328.39119005        40532871.681978166        563494370.20034242     
   759648219.28399765        4442422.8370203376        592487534.72008288     
   559556254.74538267       -57004210.779360712        632429429.06007051     
   351857434.77531600       -143807029.16724098        683320053.22031713     
   1727666414.5365930        200837991.80360097       -224224452.01014405     
   1457010024.7834895        184747926.26199669       -96717148.519316509     
   1154123537.1284287        61224201.047201514        60020831.843638361     
   819006951.57145190       -169733183.84063548        245989489.07867956     
   451660268.11250556       -508124228.40172696        461188823.18584299     
   1185002399.1909304        55063205.439270854        24299088.192195702     
   977886067.13701689        11988148.453552425        155606704.89018682     
   732907445.09124720       -157294541.83836514        312787917.89486420     
   450066533.05363929       -452784865.43640387        495842727.20622021     
   129363331.02416241       -874482822.34065032        704771132.82426250     
   774812897.44882894       -50969226.843977600        258397685.79806358     
   621644964.33576190       -123906772.90129995        386934724.93164068     
   424982549.14092869       -341825925.89785957        537988279.80648088     
   184825651.86434910       -704726685.83358216        711558350.42259645     
  -98825727.494001746       -1212609052.7085202        907644936.77995849     
   497097909.31029803       -117259305.04613495        478071340.80742884     
   388286716.37970614       -222936837.80264586        597266911.60505939     
   230348849.27746165       -492369951.13133186        735621917.57852077     
   23284308.003553748       -925558645.03222859        893136358.72781527     
  -232906907.44200382       -1522502919.5053146        1069810235.0529708     
   351857434.77531600       -143807029.16724098        683320053.22031713     
   277811323.26886523       -285102046.25038064        786603264.91042805     
   149006345.50084785       -608926617.53873158        905688831.21095836     
  -34557498.528730154       -1115280743.0323174        1040576752.1219146     
  -272880208.81987965       -1804164422.7310977        1191267027.6432621     
   4213724759.6944461       -661200779.54185677        498893964.20379227     
   4159306799.9366417       -437647180.84798574        534011209.17391074     
   4087344000.4963961       -272576381.09561324        562350560.62261915     
   3997836361.3736968       -165988380.28475118        583912018.54991639     
   3890783882.5685439       -117883178.41539907        598695582.95580876     
   4115900891.9528985       -154048013.82912445        798114073.16660500     
   4001282722.1032286       -96086178.047792196        791862374.64369559     
   3881649737.0696621       -54840392.879444599        784294199.47441590     
   3757001936.8521948       -30310658.324099779        775409547.65877295     
   3627339321.4508319       -22496974.381732225        765208419.19675517     
   3929677443.4727445        326584877.66202259        1033282039.6777059     
   3770463111.7456074        223636164.99514091        1000279759.5767449     
   3618763989.3331289        145738150.04378021        971422419.70445979     
   3474580076.2353067        92890832.807945728        946710020.06084883     
   3337911372.4521475        65094213.287639618        926142560.64591718     
   3655054414.2539783        780697894.93158758        1204397863.7370889     
   3466847968.8637834        521519848.28080869        1159263363.9730623     
   3298686757.2867999        329159247.67406976        1123735221.3127515     
   3150570779.5230331        203616093.11137199        1097813435.7561588     
   3022500035.5724730        144890384.59271634        1081498007.3032856     
   3292031804.2966070        1208291037.9795711        1311461545.3447642     
   3090437293.4577608        797564871.80922019        1268813187.8326488     
   2921418040.9306803        495422900.01142222        1241232604.2992916     
   2784974046.7153668        301865122.58617675        1228719794.7446978     
   2681105310.8118229        216891539.53350031        1231274759.1688621     
   3890783882.5685439       -117883178.41539907        598695582.95580876     
   3757611098.9139085       -104203862.00913596        605224895.14658689     
   3624451422.6285977       -90480854.371791124        612677725.69245243     
   3491304853.7126050       -76714155.503384829        621054074.59341240     
   3358171392.1659369       -62903765.403896093        630353941.84945202     
   3627339321.4508319       -22496974.381732225        765208419.19675517     
   3494491459.9098253       -22554015.483297348        763703242.92910266     
   3362098973.1997271       -21093140.481836557        764694417.04941320     
   3230161861.3205380       -18114349.377346516        768181941.55769467     
   3098680124.2722569       -13617642.169814348        774165816.45394862     
   3337911372.4521475        65094213.287639618        926142560.64591718     
   3209882238.8329973        52648956.420715451        917118874.62500989     
   3082750747.5063462        43195840.528781533        912164371.02495253     
   2956516898.4721837        36734865.611819029        911279049.84574854     
   2831180691.7305207        33266031.669844031        914462911.08739126     
   3022500035.5724730        144890384.59271634        1081498007.3032856     
   2903783435.6834154        121405053.70290494        1065471790.2343112     
   2786406745.5484385        102386088.66003180        1055087587.6190660     
   2670369965.1675444        87833489.464089036        1050345399.4575595     
   2555673094.5407305        77747256.115096211        1051245225.7497814     
   2681105310.8118229        216891539.53350031        1231274759.1688621     
   2576195050.4610868        183714276.36326718        1208761989.7570047     
   2473066967.3260188        156477603.91193140        1193464066.8317618     
   2371721061.4066176        135181522.17947948        1185380990.3931344     
   2272157332.7028823        119826031.16592097        1184512760.4411147     
   3358171392.1659369       -62903765.403896093        630353941.84945202     
   3221368145.2812405       -51645270.332677126        628164041.65818489     
   3083595114.4820466       -43619388.309786677        629789286.63333380     
   2944852299.7683554       -38826119.335225940        635229676.77489424     
   2805139701.1401582       -37265463.409004092        644485212.08286560     
   3098680124.2722569       -13617642.169814348        774165816.45394862     
   2970385615.9227238       -8224791.3217835426        768452881.18834960     
   2841596155.8395767       -4481779.5858019590        766823594.45027864     
   2712311744.0228128       -2388606.9618755579        769277956.23973227     
   2582532380.4724278       -1945273.4500235319        775815966.55670071     
   2831180691.7305207        33266031.669844031        914462911.08739126     
   2712162074.3764758        33023384.032794833        905780911.62515867     
   2593123337.4696922        32713671.219957471        901451064.05156136     
   2474064481.0101800        32336893.231347799        901473368.36660194     
   2354985504.9979272        31893050.066945791        905847824.57027769     
   2555673094.5407305        77747256.115096211        1051245225.7497814     
   2446697520.6424913        72099255.731055260        1040148132.9686064     
   2338176659.3723941        67966964.107486606        1033671695.4371829     
   2230110510.7304535        65350381.244436502        1031815913.1555129     
   2122499074.7166595        64249507.141881704        1034580786.1235876     
   2272157332.7028823        119826031.16592097        1184512760.4411147     
   2173991954.7207713        109002823.77298641        1171554545.2186995     
   2076756121.5476856        101278099.07680440        1163485488.6071424     
   1980449833.1836383        96651857.077409744        1160305590.6064546     
   1885073089.6286151        95124097.774774611        1162014851.2166250     
   2805139701.1401582       -37265463.409004092        644485212.08286560     
   2665395053.3410025       -34898903.875637412        636702984.48612344     
   2527157893.8684993       -27507383.253445148        631956521.55289590     
   2390428222.7226496       -15090901.542405963        630245823.28318346     
   2255206039.9034581        2350541.2574946880        631570889.67698431     
   2582532380.4724278       -1945273.4500235319        775815966.55670071     
   2450594291.5851216       -1488016.0734025240        767914485.92797470     
   2319587335.6177101        2073017.7028481960        763422894.14256144     
   2189511512.5701656        8737827.8786776066        762341191.20044875     
   2060366822.4425113        18506414.454124331        764669377.10166812     
   2354985504.9979272        31893050.066945791        905847824.57027769     
   2231922901.2504745        30761683.155229092        897154676.26832783     
   2109215075.0161340        30812907.953873038        892245540.98948562     
   1986862026.2949061        32046724.462915182        891120418.73375785     
   1864863755.0867963        34463132.682330132        893779309.50114107     
   2122499074.7166595        64249507.141881704        1034580786.1235876     
   2009380882.3370516        61850193.810207963        1024423555.5071814     
   1896041112.0637925        58712287.499682903        1018424462.0936866     
   1782479763.8968759        54835788.210314870        1016583505.8831053     
   1668696837.8363092        50220695.942097723        1018900686.8754365     
   1885073089.6286151        95124097.774774611        1162014851.2166250     
   1782968234.8448615        91777515.891570091        1149721123.6445327     
   1680065446.7606802        85771156.340270758        1141959657.4551551     
   1576364725.3760784        77105019.120899260        1138730452.6484907     
   1471866070.6910481        65779104.233433127        1140033509.2245388     
   2255206039.9034581        2350541.2574946880        631570889.67698431     
   2117333917.9507060        18473223.675318003        621907519.48336160     
   1977608959.1161261        28419783.153709173        614372930.25805545     
   1836031163.3997138        32190219.692661285        608967122.00104964     
   1692600530.8014762        29784533.292196333        605690094.71235394     
   2060366822.4425113        18506414.454124331        764669377.10166812     
   1926520368.0839853        26836261.033975124        753457552.86887765     
   1791724180.3266630        32000329.617829084        745011961.77979100     
   1655978259.1705484        33998620.205717802        739332603.83441305     
   1519282604.6156373        32831132.797625721        736419479.03274393     
   1864863755.0867963        34463132.682330132        893779309.50114107     
   1736864260.2522044        35546531.003120720        882072651.95939600     
   1608818135.5018475        36474496.271370649        873769679.73675060     
   1480725380.8357327        37247028.487086058        868870392.83320773     
   1352585996.2538576        37864127.650276065        867374791.24876356     
   1668696837.8363092        50220695.942097723        1018900686.8754365     
   1548365594.4553542        44604033.582742155        1007752816.7549348     
   1428890824.6416731        41842283.114304245        1000646084.1289251     
   1310272528.3952644        41935444.536775053        997580488.99742091     
   1192510705.7161245        44883517.850135505        998556031.36041129     
   1471866070.6910481        65779104.233433127        1140033509.2245388     
   1361024370.6934338        54008768.772836030        1130498047.2554793     
   1251942247.7461309        48103690.146605790        1125641174.9563248     
   1144619701.8491371        48063868.354737699        1125462892.3270595     
   1039056733.0024513        53889303.397219539        1129963199.3676956     
   1692600530.8014762        29784533.292196333        605690094.71235394     
   1551422027.4375141        27550963.306916058        592594829.63431442     
   1411764368.1937587        30386873.722336531        578189714.73971903     
   1273627553.0702374        38292264.538542151        562474750.02856398     
   1137011582.0669339        51267135.755462706        545449935.50085580     
   1519282604.6156373        32831132.797625721        736419479.03274393     
   1376610029.9102454        29165424.012036562        727712089.44691443     
   1234422257.6152585        27115723.261149108        719495757.59968758     
   1092719287.7307105        26682030.545035601        711770483.49106693     
   951501120.25656986        27864345.863639474        704536267.12106252     
   1352585996.2538576        37864127.650276065        867374791.24876356     
   1213564800.3646364        34309915.111633420        861846561.82705092     
   1073992365.1760311        28918238.241724312        858610297.69909739     
   933868690.68806112        21689097.040585876        857665998.86491716     
   793193776.90070295        12622491.508165300        859013665.32451034     
   1192510705.7161245        44883517.850135505        998556031.36041129     
   1062286338.8006920        42984436.605737090        994998246.77470839     
   930474690.87608147        35794418.664089084        995533335.03793991     
   797075761.94230366        23313464.025200367        1000161296.1500955     
   662089551.99933767        5541572.6890284121        1008882130.1111931     
   1039056733.0024513        53889303.397219539        1129963199.3676956     
   922774645.21841598        55188988.494347960        1127167144.2899029     
   803869234.71540987        47744264.528237253        1130264869.6162090     
   682340501.49343300        31555131.498892486        1139256375.3466125     
   558188445.55247450        6621589.4062753618        1154141661.4811144     
   1137011582.0669339        51267135.755462706        545449935.50085580     
   952133328.39119005        40532871.681978166        563494370.20034242     
   759648219.28399765        4442422.8370203376        592487534.72008288     
   559556254.74538267       -57004210.779360712        632429429.06007051     
   351857434.77531600       -143807029.16724098        683320053.22031713     
   951501120.25656986        27864345.863639474        704536267.12106252     
   792234142.84573579        11201001.245212823        722186384.89998484     
   624286088.10843706       -34399267.794759631        749957003.95742249     
   447656956.04465473       -108936461.25634032        787848124.29337251     
   262346746.65440571       -212410579.13948745        835859745.90784347     
   793193776.90070295        12622491.508165300        859013665.32451034     
   657171708.49270129       -10679843.833788276        875016207.30531549     
   511394340.86318624       -66499843.247451693        900311022.02289999     
   355861674.01215810       -154837506.73282349        934898109.47727633     
   190573707.93961549       -275692834.28990459        978777469.66843522     
   662089551.99933767        5541572.6890284121        1008882130.1111931     
   546946025.33206820       -25109663.555094779        1021983837.4163325     
   420972977.54825360       -91859303.521045715        1043549588.9165289     
   284170408.64787966       -194707347.20886138        1073579384.6117731     
   136538318.63096231       -333653794.61847723        1112073224.5020709     
   558188445.55247450        6621589.4062753618        1154141661.4811144     
   461557093.36385036       -32088457.918656737        1163089275.2330492     
   353021998.16363811       -110477648.61553799        1179672704.6383083     
   232583159.95182586       -228545982.68441361        1203891949.6968827     
   100240578.72843835       -386293460.12521780        1235747010.4087789     
   351857434.77531600       -143807029.16724098        683320053.22031713     
   277811323.26886523       -285102046.25038064        786603264.91042805     
   149006345.50084785       -608926617.53873158        905688831.21095836     
  -34557498.528730154       -1115280743.0323174        1040576752.1219146     
  -272880208.81987965       -1804164422.7310977        1191267027.6432621     
   262346746.65440571       -212410579.13948745        835859745.90784347     
   223627275.89919630       -352141702.82223070        885217472.12179005     
   140687194.08136851       -639274863.38038230        945586284.28772283     
   13526501.200940967       -1073810060.8138816        1016966182.4056540     
  -157854802.74211198       -1655747295.1227548        1099357166.4755650     
   190573707.93961549       -275692834.28990459        978777469.66843522     
   173491538.91158164       -417966866.27948773        986504341.47164881     
   122727014.01988715       -672515417.81459546        1000451030.5684314     
   38280133.264520586       -1039338488.8952571        1020617536.9587656     
  -79849103.354487836       -1518436079.5214417        1047003860.6426804     
   136538318.63096231       -333653794.61847723        1112073224.5020709     
   127404112.30602488       -482577536.62210250        1090463872.9600101     
   95125805.316388667       -708648280.84141290        1070283070.0530810     
   39703397.662031472       -1011866027.2764544        1051530815.7812878     
  -38863110.657036662       -1392230775.9271872        1034207110.1446489     
   100240578.72843835       -386293460.12521780        1235747010.4087789     
   85364996.082529992       -545973713.85011864        1197096066.5868616     
   57883567.970868677       -747673452.46086836        1155082402.7416682     
   17796294.393441260       -991392675.95749366        1109706018.8731887     
  -34896824.649739027       -1277131384.3399787        1060966914.9814214     
   3292031804.2966070        1208291037.9795711        1311461545.3447642     
   3090437293.4577608        797564871.80922019        1268813187.8326488     
   2921418040.9306803        495422900.01142222        1241232604.2992916     
   2784974046.7153668        301865122.58617675        1228719794.7446978     
   2681105310.8118229        216891539.53350031        1231274759.1688621     
   2616515491.8490281        598984183.88204956        1142199025.3197303     
   2506259633.0817742        386396119.26633865        1155898803.4167020     
   2413662317.0208817        232669863.67184031        1179067131.8465996     
   2338723543.6663580        137805417.09855855        1211704010.6094327     
   2281443313.0181952        101802779.54649067        1253809439.7051959     
   2026269741.7959909        15258498.502887249        1047305809.6285527     
   1991354753.2551026       -3990799.1117484570        1099950888.4616380     
   1959181591.8151784       -14100673.056509852        1156465293.9818258     
   1929750257.4762156       -15071123.331402898        1216849026.1891172     
   1903060750.2382162       -6902149.9364178181        1281102085.0835114     
   1521294554.1374922       -542886018.15791368        1026781898.2712328     
   1545722653.9777510       -373595883.32503545        1100969442.9674590     
   1557975865.3135664       -244888710.17363417        1173427090.7049673     
   1558054188.1449418       -156764498.70370215        1244154841.4837472     
   1545957622.4718797       -109223248.91523165        1313152695.3038032     
   1101589928.8735335       -1075449366.1003492        1080627291.2477677     
   1169363335.2497122       -722419133.37353373        1158954466.9341733     
   1210045137.5160470       -459694247.67953080        1229952522.0160239     
   1223635335.6725383       -287274709.01834041        1293621456.4933228     
   1210133929.7191868       -205160517.38995904        1349961270.3660679     
   2681105310.8118229        216891539.53350031        1231274759.1688621     
   2576195050.4610868        183714276.36326718        1208761989.7570047     
   2473066967.3260188        156477603.91193140        1193464066.8317618     
   2371721061.4066176        135181522.17947948        1185380990.3931344     
   2272157332.7028823        119826031.16592097        1184512760.4411147     
   2281443313.0181952        101802779.54649067        1253809439.7051959     
   2199536383.8757300        86696371.310921550        1239909302.7019312     
   2118619860.7289584        74891316.394327760        1232318992.0796418     
   2038693743.5778813        66387614.796716213        1231038507.8383358     
   1959758032.4224901        61185266.518067598        1236067849.9780109     
   1903060750.2382162       -6902149.9364178181        1281102085.0835114     
   1841571380.5736446       -4713434.7564424276        1274890847.3988593     
   1780280645.6847913       -1862603.6574044228        1274084415.9895556     
   1719188545.5716577        1650343.3606969118        1278682790.8556037     
   1658295080.2342403        5825406.2978553772        1288685971.9970014     
   1545957622.4718797       -109223248.91523165        1313152695.3038032     
   1502300040.5548272       -90515141.838826060        1313706623.8477955     
   1458049322.1935203       -73784156.243266106        1318760338.5615087     
   1413205467.3879571       -59030292.128565609        1328313839.4449384     
   1367768476.1381378       -46253549.494710326        1342367126.4980907     
   1210133929.7191868       -205160517.38995904        1349961270.3660679     
   1181722363.8192799       -170708749.93622702        1356356632.0487375     
   1151925890.2551444       -140873341.36325771        1366346759.7954953     
   1120744509.0267761       -115654291.67106342        1379931653.6063418     
   1088178220.1341774       -95051600.859639883        1397111313.4812725     
   2272157332.7028823        119826031.16592097        1184512760.4411147     
   2173991954.7207713        109002823.77298641        1171554545.2186995     
   2076756121.5476856        101278099.07680440        1163485488.6071424     
   1980449833.1836383        96651857.077409744        1160305590.6064546     
   1885073089.6286151        95124097.774774611        1162014851.2166250     
   1959758032.4224901        61185266.518067598        1236067849.9780109     
   1875795856.9511628        56843672.559303164        1227638623.3470147     
   1792405051.4938021        54406645.313754737        1223750021.5517175     
   1709585616.0504103        53874184.781438112        1224402044.5921216     
   1627337550.6209812        55246290.962333083        1229594692.4682329     
   1658295080.2342403        5825406.2978553772        1288685971.9970014     
   1587540296.4875247        7666682.5374067426        1284367863.3631868     
   1516998707.9597111        10218609.506633580        1284241845.7899075     
   1446670314.6508026        13481187.205546081        1288307919.2771723     
   1376555116.5607991        17454415.634138763        1296566083.8249776     
   1367768476.1381378       -46253549.494710326        1342367126.4980907     
   1309225273.3298583       -38528146.292692780        1341742265.2672088     
   1250537090.9454191       -31286008.344544768        1344960961.3217120     
   1191703928.9848223       -24527135.650251150        1352023214.6615908     
   1132725787.4480669       -18251528.209823072        1362929025.2868521     
   1088178220.1341774       -95051600.859639883        1397111313.4812725     
   1040850787.4781616       -81740813.931009829        1399761829.0590904     
   993020200.45092487       -70107208.239781499        1405907368.1471295     
   944686459.05246353       -60150783.785968840        1415547930.7453890     
   895849563.28278387       -51871540.569550216        1428683516.8538637     
   1885073089.6286151        95124097.774774611        1162014851.2166250     
   1782968234.8448615        91777515.891570091        1149721123.6445327     
   1680065446.7606802        85771156.340270758        1141959657.4551551     
   1576364725.3760784        77105019.120899260        1138730452.6484907     
   1471866070.6910481        65779104.233433127        1140033509.2245388     
   1627337550.6209812        55246290.962333083        1229594692.4682329     
   1537934712.3647723        54838514.809218824        1219090808.5638959     
   1448202185.0928411        53331775.270352364        1213147259.2833960     
   1358139968.8051894        50726072.345755935        1211764044.6267455     
   1267748063.5018160        47021406.035422146        1214941164.5939267     
   1376555116.5607991        17454415.634138763        1296566083.8249776     
   1299934504.0925024        20009507.989210069        1288398328.5872133     
   1223452446.8931894        23026451.240890622        1284818981.2144198     
   1147108944.9628620        26505245.389184654        1285828041.7065961     
   1070903998.3015152        30445890.434093952        1291425510.0637434     
   1132725787.4480669       -18251528.209823072        1362929025.2868521     
   1068967610.0280470       -12709504.568459392        1357643683.7144871     
   1005816232.1617227       -5144815.7481158376        1356974823.2482207     
   943271653.84908366        4442538.2511796951        1360922443.8880551     
   881333875.09013140        16052557.429435849        1369486545.6339848     
   895849563.28278387       -51871540.569550216        1428683516.8538637     
   845034030.17141557       -43318522.863768339        1426826873.9457161     
   795293540.89844644       -31182025.696655124        1429614785.3848004     
   746628095.46386242       -15462049.068259001        1437047251.1711109     
   699037693.86767602        3841407.0214629471        1449124271.3046522     
   1471866070.6910481        65779104.233433127        1140033509.2245388     
   1361024370.6934338        54008768.772836030        1130498047.2554793     
   1251942247.7461309        48103690.146605790        1125641174.9563248     
   1144619701.8491371        48063868.354737699        1125462892.3270595     
   1039056733.0024513        53889303.397219539        1129963199.3676956     
   1267748063.5018160        47021406.035422146        1214941164.5939267     
   1171243995.8803182        42317220.758718491        1209511699.2857792     
   1075619592.9200783        40545251.019554913        1208801942.2469127     
   980874854.62109828        41705496.817917049        1212811893.4773383     
   887009780.98338389        45797958.153831661        1221541552.9770563     
   1070903998.3015152        30445890.434093952        1291425510.0637434     
   988855044.76867068        32843099.855024695        1289075476.9626029     
   906805843.50804830        35239483.516691774        1291486270.7301469     
   824756394.51964033        37635041.419077605        1298657891.3663747     
   742706697.80344701        40029773.562176347        1310590338.8712862     
   881333875.09013140        16052557.429435849        1369486545.6339848     
   813857517.35850048        25586406.061772406        1369189380.2859769     
   745500999.51005149        32186387.638054758        1373694160.4060395     
   676264321.54476428        35852502.158202618        1383000885.9941835     
   606147483.46264493        36584749.622251421        1397109557.0504026     
   699037693.86767602        3841407.0214629471        1449124271.3046522     
   646251413.64981282        20547139.378988236        1449853409.2558737     
   591705060.92607737        31385963.383602917        1455425611.2745812     
   535398635.69646865        36357879.035309643        1465840877.3607526     
   477332137.96098453        35462886.334095716        1481099207.5143931     
   1039056733.0024513        53889303.397219539        1129963199.3676956     
   922774645.21841598        55188988.494347960        1127167144.2899029     
   803869234.71540987        47744264.528237253        1130264869.6162090     
   682340501.49343300        31555131.498892486        1139256375.3466125     
   558188445.55247450        6621589.4062753618        1154141661.4811144     
   887009780.98338389        45797958.153831661        1221541552.9770563     
   785520330.21935785        45191800.400503576        1218500617.6390276     
   681561342.73822296        36353853.590140045        1221384663.3393188     
   575132818.53999066        19284117.722788274        1230193690.0779357     
   466234757.62466168       -6017407.2015528679        1244927697.8548763     
   742706697.80344701        40029773.562176347        1310590338.8712862     
   656099028.72863042        37544516.359118462        1307483940.2752135     
   567175608.93859231        27340090.105316371        1310333723.3516824     
   475936438.43332380        9416494.8007432818        1319139688.1006966     
   382381517.21282494       -16226269.554591596        1333901834.5222626     
   606147483.46264493        36584749.622251421        1397109557.0504026     
   534510740.74626023        32247136.370267123        1394117112.1984618     
   460712033.31651539        20702974.073748812        1397112049.6532896     
   384751361.17341602        1952262.7327127308        1406094369.4148881     
   306628724.31696379       -24004997.652832672        1421064071.4832554     
   477332137.96098453        35462886.334095716        1481099207.5143931     
   420755466.27222824        29299660.433900654        1478400133.4087791     
   362170615.87200195        16442505.495471939        1481719642.2441506     
   301577586.76027822       -3108578.4812814295        1491057734.0205195     
   238976378.93708077       -29353591.496280313        1506414408.7378814     
   558188445.55247450        6621589.4062753618        1154141661.4811144     
   461557093.36385036       -32088457.918656737        1163089275.2330492     
   353021998.16363811       -110477648.61553799        1179672704.6383083     
   232583159.95182586       -228545982.68441361        1203891949.6968827     
   100240578.72843835       -386293460.12521780        1235747010.4087789     
   466234757.62466168       -6017407.2015528679        1244927697.8548763     
   388993057.65105069       -40864386.556768268        1243259199.8523209     
   301665490.40770614       -109330923.47776787        1247978526.0611451     
   204252055.89462179       -211417017.96456805        1259085676.4813397     
   96752754.111790165       -347122670.01718408        1276580651.1129215     
   382381517.21282494       -16226269.554591596        1333901834.5222626     
   320963779.62010789       -48279887.890312746        1323738079.7973740     
   251278050.49949929       -107893477.98567353        1318714157.8419175     
   173324329.85099673       -195067039.84067547        1318830068.6558948     
   87102617.674608186       -309800573.45530707        1324085812.2393010     
   306628724.31696379       -24004997.652832672        1421064071.4832554     
   257469259.27100831       -54334961.919309258        1404525915.0681930     
   201859678.43901411       -106165312.13925605        1391879599.9806256     
   139799981.82097146       -179496048.31269631        1383125126.2205360     
   71290169.416890472       -274327170.43959248        1378262493.7879319     
   238976378.93708077       -29353591.496280313        1506414408.7378814     
   198509496.60376105       -59029608.643750072        1485622705.6648018     
   153410374.22624594       -104146425.93853511        1467474852.4772625     
   103679011.80453894       -164704043.38063055        1451970849.1752677     
   49315409.338636443       -240702460.97003877        1439110695.7588043     
   100240578.72843835       -386293460.12521780        1235747010.4087789     
   85364996.082529992       -545973713.85011864        1197096066.5868616     
   57883567.970868677       -747673452.46086836        1155082402.7416682     
   17796294.393441260       -991392675.95749366        1109706018.8731887     
  -34896824.649739027       -1277131384.3399787        1060966914.9814214     
   96752754.111790165       -347122670.01718408        1276580651.1129215     
   79772889.982653975       -488232395.66071165        1222190498.2827666     
   51410823.966990173       -667282794.25933969        1165258880.9315557     
   11666556.064796448       -884273865.81306732        1105785799.0592957     
  -39459913.723937690       -1139205610.3219159        1043771252.6659806     
   87102617.674608186       -309800573.45530707        1324085812.2393010     
   70364916.354337990       -431635837.72982663        1255384034.5766644     
   43468656.726763666       -587332963.02870297        1184962047.8952115     
   6413838.7918824553       -776891949.35192204        1112819852.1949472     
  -40799537.450302005       -1000312796.6995032        1038957447.4758463     
   71290169.416890472       -274327170.43959248        1378262493.7879319     
   57141075.197575539       -376184040.05750060        1296676675.4685864     
   34057066.250187844       -507823958.76898420        1214191903.6326542     
   2038142.5747225285       -669246926.57405698        1130808178.2801428     
  -38915695.828823149       -860452943.47273719        1046525499.4110267     
   49315409.338636443       -240702460.97003877        1439110695.7588043     
   40101366.512371451       -321877002.64369363        1346068420.9585161     
   23176052.537261933       -428755781.48016357        1252948448.1438723     
  -1460532.5866999924       -561338797.47946918        1159750777.3148701     
  -33808388.859516263       -719626050.64162278        1066475408.4715173     
   1101589928.8735335       -1075449366.1003492        1080627291.2477677     
   1169363335.2497122       -722419133.37353373        1158954466.9341733     
   1210045137.5160470       -459694247.67953080        1229952522.0160239     
   1223635335.6725383       -287274709.01834041        1293621456.4933228     
   1210133929.7191868       -205160517.38995904        1349961270.3660679     
   937389152.54186082       -773228012.28363085        1313937287.8030207     
   964656325.88566148       -515524202.31161582        1341411555.7333829     
   971604796.15579855       -325549402.58514410        1367054708.7252736     
   958234563.35227060       -203303613.10422266        1390866746.7786834     
   924545627.47508013       -148786833.86884242        1412847669.8936207     
   699057238.88056815       -493245999.66579676        1511306212.7877753     
   701526766.80935407       -326156036.16337341        1495829290.8376410     
   690450492.70065665       -204218746.11922893        1484019259.6151106     
   665828416.55447578       -127434129.53335977        1475876119.1201811     
   627660538.37081182       -95802186.405769348        1471399869.3528535     
   386594187.88965416       -235503328.24684912        1672734066.2020311     
   379974658.02079010       -154314634.92880884        1622207672.2469463     
   366582227.15062344       -95702278.281777754        1580846174.6855366     
   346416895.27915257       -59666258.305760399        1548649573.5178077     
   319478662.40638089       -46206575.000745848        1525617868.7437613     
 -0.43088161244115164        1.9732103771443232        1798220848.0457907     
 -0.48003094173624694        1.3920769756705862        1720546699.9612951     
 -0.49430235545736645       0.92720398666615933        1657535453.9365540     
 -0.47369756926509055       0.57858465042835505        1609187109.9715712     
 -0.41821514200453164       0.34622481164088453        1575501668.0663443     
   1210133929.7191868       -205160517.38995904        1349961270.3660679     
   1181722363.8192799       -170708749.93622702        1356356632.0487375     
   1151925890.2551444       -140873341.36325771        1366346759.7954953     
   1120744509.0267761       -115654291.67106342        1379931653.6063418     
   1088178220.1341774       -95051600.859639883        1397111313.4812725     
   924545627.47508013       -148786833.86884242        1412847669.8936207     
   902956418.20337832       -123032168.77788574        1413908125.3349707     
   880328528.18595266       -100739772.83934104        1418628804.9714894     
   856661957.42280316       -81909646.053208053        1427009708.8031816     
   831956705.91392696       -66541788.419497609        1439050836.8300450     
   627660538.37081182       -95802186.405769348        1471399869.3528535     
   613080708.95898187       -78688516.708093792        1467529349.9578030     
   597808425.71993625       -63883026.434468538        1467384512.8890092     
   581843688.65367055       -51385715.584910482        1470965358.1464710     
   565186497.76018834       -41196584.159406751        1478271885.7301879     
   319478662.40638089       -46206575.000745848        1525617868.7437613     
   312095236.08609194       -37677793.726849407        1517220305.9172361     
   304365582.85709512       -30303102.148645043        1512613883.5480528     
   296289702.71938509       -24082500.266150460        1511798601.6362100     
   287867595.67296571       -19015988.079355255        1514774460.1817055     
 -0.41821514200453164       0.34622481164088453        1575501668.0663443     
 -0.41529289165074518       0.16584481041218041        1562980993.2132711     
 -0.40257090243773574        1.8130952325581845E-002   1554316916.9486227     
 -0.38005570531344685       -9.6938705917737594E-002   1549509439.2723999     
 -0.34774481828890513      -0.17935675838293813        1548558560.1846004     
   1088178220.1341774       -95051600.859639883        1397111313.4812725     
   1040850787.4781616       -81740813.931009829        1399761829.0590904     
   993020200.45092487       -70107208.239781499        1405907368.1471295     
   944686459.05246353       -60150783.785968840        1415547930.7453890     
   895849563.28278387       -51871540.569550216        1428683516.8538637     
   831956705.91392696       -66541788.419497609        1439050836.8300450     
   793376153.90125525       -57484191.497274727        1437855586.8233247     
   754418236.11100149       -49684480.500327080        1440875188.4181290     
   715082952.54316139       -43142655.428665280        1448109641.6144614     
   675370303.19773531       -37858716.282292783        1459558946.4123127     
   565186497.76018834       -41196584.159406751        1478271885.7301879     
   537409478.08030581       -35775181.736758530        1473377623.4981773     
   509380881.21647871       -31192369.927255452        1473418040.9589922     
   481100707.16870153       -27448148.730918944        1478393138.1126375     
   452568955.93698031       -24542518.147730619        1488302914.9591143     
   287867595.67296571       -19015988.079355255        1514774460.1817055     
   272950760.01531476       -16613784.649445146        1506327939.0836456     
   257908135.76735267       -14630876.520571664        1503535925.7697165     
   242739722.92908442       -13067263.692718193        1506398420.2399197     
   227445521.50050524       -11922946.165902823        1514915422.4942639     
 -0.34774481828890513      -0.17935675838293813        1548558560.1846004     
 -0.29372246393341661      -0.23535729226337482        1536706533.5797291     
 -0.23636793072274170      -0.28025125718258048        1531228842.8503015     
 -0.17568519898942742      -0.31405192091571199        1532125487.9963136     
 -0.11167751705083977      -0.33676733562976119        1539396469.0177603     
   895849563.28278387       -51871540.569550216        1428683516.8538637     
   845034030.17141557       -43318522.863768339        1426826873.9457161     
   795293540.89844644       -31182025.696655124        1429614785.3848004     
   746628095.46386242       -15462049.068259001        1437047251.1711109     
   699037693.86767602        3841407.0214629471        1449124271.3046522     
   675370303.19773531       -37858716.282292783        1459558946.4123127     
   636212347.07077634       -31757844.896863133        1458109082.6473305     
   597860673.82481027       -22969363.908123970        1461547911.3662879     
   560315283.45983458       -11493273.316080809        1469875432.5691805     
   523576175.97585309        2670426.8792735040        1483091646.2560072     
   452568955.93698031       -24542518.147730619        1488302914.9591143     
   425766114.32787907       -20684531.822635412        1486946275.8869939     
   399500794.64237303       -15034805.752219841        1490722467.4355221     
   373772996.88046080       -7593339.9364930987        1499631489.6046984     
   348582721.04213953        1639865.6245368719        1513673342.3945141     
   227445521.50050524       -11922946.165902823        1514915422.4942639     
   213695331.94272467       -10098583.641078115        1513338453.6647081     
   200213903.35113192       -7378351.2289601862        1517138453.5925081     
   187001235.72573784       -3762248.9295134544        1526315422.2776654     
   174057329.06653029        749723.25722153485        1540869359.7201774     
 -0.11167751705083977      -0.33676733562976119        1539396469.0177603     
  -8.4692143408228282E-002 -0.35220956188205566        1537285615.9804718     
  -4.8914352421971369E-002 -0.33834373032219872        1540795869.8372457     
  -4.3369383176303372E-003 -0.29514478086797585        1549927230.5880797     
   4.9028363786423265E-002 -0.22265495308288225        1564679698.2329822     
   699037693.86767602        3841407.0214629471        1449124271.3046522     
   646251413.64981282        20547139.378988236        1449853409.2558737     
   591705060.92607737        31385963.383602917        1455425611.2745812     
   535398635.69646865        36357879.035309643        1465840877.3607526     
   477332137.96098453        35462886.334095716        1481099207.5143931     
   523576175.97585309        2670426.8792735040        1483091646.2560072     
   482455531.69003260        14740445.926601976        1482366474.5395417     
   440014833.02377009        22410283.705793262        1486841584.8518314     
   396254079.97707927        25679940.216887280        1496516977.1928866     
   351173272.54995137        24549415.459860578        1511392651.5626976     
   348582721.04213953        1639865.6245368719        1513673342.3945141     
   320148335.43489754        9380358.1856076121        1512007215.4900291     
   290833913.57265788        14187396.563356265        1515898588.5755935     
   260639455.45542216        16060980.757784799        1525347461.6512055     
   229564961.08319306        15001110.768901259        1540353834.7168727     
   174057329.06653029        749723.25722153485        1540869359.7201774     
   159329824.88441148        4466876.1560087800        1538775632.1073506     
   144162302.57273418        6717301.9562721029        1542596622.4458652     
   128554762.13149792        7501000.6580020711        1552332330.7357168     
   112507203.56070739        6817972.2612203918        1567982756.9769123     
   4.9028363786423265E-002 -0.22265495308288225        1564679698.2329822     
   3.8568964871682668E-002 -0.16220696946794783        1562671724.3915024     
   2.3994085107060303E-002 -0.11547864313140015        1566935686.4626436     
   5.3036787416073337E-003  -8.2468738797621136E-002   1577471584.4464185     
  -1.7498456895924434E-002  -6.3163210925323995E-002   1594279418.3428247     
   477332137.96098453        35462886.334095716        1481099207.5143931     
   420755466.27222824        29299660.433900654        1478400133.4087791     
   362170615.87200195        16442505.495471939        1481719642.2441506     
   301577586.76027822       -3108578.4812814295        1491057734.0205195     
   238976378.93708077       -29353591.496280313        1506414408.7378814     
   351173272.54995137        24549415.459860578        1511392651.5626976     
   310361419.60902137        20413191.287040889        1508047179.6398666     
   268043432.63424960        11256520.334750235        1510342138.7988291     
   224219311.62564504       -2920597.3969845772        1518277529.0395699     
   178889056.58320481       -22118161.908170231        1531853350.3621087     
   229564961.08319306        15001110.768901259        1540353834.7168727     
   203437493.00663969        12567758.158417076        1536947683.7674170     
   176305935.57389230        6787441.0272861570        1538803812.0405447     
   148170288.78494731       -2339840.6245006695        1545922219.5362499     
   119030552.63981180       -14814086.796925269        1558302906.2545381     
   112507203.56070739        6817972.2612203918        1567982756.9769123     
   99983686.465078294        5763361.0480218381        1565101645.7914200     
   86958124.690902114        3035267.5729993284        1567104661.9692976     
   73430518.238181308       -1366308.1638404652        1573991805.5105481     
   59400867.106907740       -7441366.1625186168        1585763076.4151692     
  -1.7498456895924434E-002  -6.3163210925323995E-002   1594279418.3428247     
  -1.5640602366364883E-002  -4.4080673177560772E-002   1592509065.7118735     
  -1.4696348533731425E-002  -2.8040001639265885E-002   1595244688.5850847     
  -1.4650940717030580E-002  -1.4999299879060200E-002   1602486286.9624665     
  -1.5517715317842500E-002  -4.9950428408880474E-003   1614233860.8440156     
   238976378.93708077       -29353591.496280313        1506414408.7378814     
   198509496.60376105       -59029608.643750072        1485622705.6648018     
   153410374.22624594       -104146425.93853511        1467474852.4772625     
   103679011.80453894       -164704043.38063055        1451970849.1752677     
   49315409.338636443       -240702460.97003877        1439110695.7588043     
   178889056.58320481       -22118161.908170231        1531853350.3621087     
   147700700.11288688       -44626633.182767689        1506510778.0716677     
   113038163.60934848       -78715704.568101496        1484007634.4350319     
   74901447.072604060       -124385376.06412065        1464343919.4521925     
   33290550.502628140       -181635647.67091280        1447519633.1231534     
   119030552.63981180       -14814086.796925269        1558302906.2545381     
   97679518.513238385       -29987373.254417591        1529760534.7595470     
   74012364.364425227       -52881059.786043137        1504253170.6866159     
   48029090.193365753       -83495146.391821980        1481780814.0357373     
   19729696.000060588       -121829633.07175457        1462343464.8069208     
   59400867.106907740       -7441366.1625186168        1585763076.4151692     
   48445951.804809719       -15111828.858711537        1555371975.7284338     
   36332976.491454847       -26642491.592428487        1528211461.2320087     
   23061941.166830759       -42033354.363708884        1504281532.9259067     
   8632845.8309430368       -61284417.172534719        1483582190.8101068     
  -1.5517715317842500E-002  -4.9950428408880474E-003   1614233860.8440156     
  -1.2388899430147506E-002   4.3768560204731398E-003   1583345100.9783318     
  -9.5455694630704087E-003   1.2797135146441334E-002   1555882506.0712206     
  -6.9974017422859977E-003   2.0234580952186162E-002   1531846076.1226914     
  -4.7505040194613397E-003   2.6665711763227309E-002   1511235811.1327248     
   49315409.338636443       -240702460.97003877        1439110695.7588043     
   40101366.512371451       -321877002.64369363        1346068420.9585161     
   23176052.537261933       -428755781.48016357        1252948448.1438723     
  -1460532.5866999924       -561338797.47946918        1159750777.3148701     
  -33808388.859516263       -719626050.64162278        1066475408.4715173     
   33290550.502628140       -181635647.67091280        1447519633.1231534     
   29332681.912192881       -241630754.86582616        1347123359.7968051     
   19591359.960237309       -320904039.93247378        1245960433.6326599     
   4066584.6467746794       -419455502.87080884        1144030854.6307182     
  -17241644.028195322       -537285143.68084359        1041334622.7909988     
   19729696.000060588       -121829633.07175457        1462343464.8069208     
   19059559.292766303       -161235838.49376634        1356842313.7064142     
   14533787.011299655       -213494162.49635124        1249885554.9446669     
   6152379.1556594521       -278604605.07951880        1141473188.5216999     
  -6084664.2741501778       -356567166.24324703        1031605214.4374870     
   8632845.8309430368       -61284417.172534719        1483582190.8101068     
   9281998.6541017368       -80692253.527481258        1375225282.6873381     
   8003333.6904499084       -106526149.17179902        1264723812.0798864     
   4796850.9399523064       -138786104.10559639        1152077778.9877741     
  -337449.59737447649       -177472118.32883137        1037287183.4109932     
  -4.7505040194613397E-003   2.6665711763227309E-002   1511235811.1327248     
  -3.7887275734309802E-003   3.3076014454819530E-002   1402272266.7395742     
  -2.3258867359571573E-003   4.1153756226995068E-002   1290475205.0383222     
  -3.5887044252031625E-004   5.0912776741771054E-002   1175844626.0289655     
   2.1272361161938716E-003   6.2402098140804871E-002   1058380529.7115086     
 -0.43088161244115164        1.9732103771443232        1798220848.0457907     
 -0.48003094173624694        1.3920769756705862        1720546699.9612951     
 -0.49430235545736645       0.92720398666615933        1657535453.9365540     
 -0.47369756926509055       0.57858465042835505        1609187109.9715712     
 -0.41821514200453164       0.34622481164088453        1575501668.0663443     
  -386594188.97028166        235503331.30482209        1672734065.8756895     
  -379974659.14966714        154314637.04397869        1622207672.0265176     
  -366582228.26839024        95702279.652010053        1580846174.5588725     
  -346416896.32645375        59666259.128904864        1548649573.4727671     
  -319478663.32385635        46206575.474671423        1525617868.7681918     
  -699057240.07529056        493246001.86674941        1511306212.2197931     
  -701526768.03697741        326156037.63057995        1495829290.4693534     
  -690450493.91222036        204218747.01589262        1484019259.4222274     
  -665828417.70101857        127434130.02268556        1475876119.0784090     
  -627660539.40337288        95802186.650958776        1471399869.4379003     
  -937389153.74590921        773228013.65899396        1313937287.0780931     
  -964656327.14196289        515524203.15188181        1341411555.2898073     
  -971604797.42579269        325549403.01885456        1367054708.5266061     
  -958234564.59739375        203303613.25992167        1390866746.7884946     
  -924545628.65676725        148786833.87507939        1412847670.0754659     
  -1101589929.9821341        1075449366.6815581        1080627290.4506001     
  -1169363336.4646263        722419133.60787535        1158954466.4878778     
  -1210045138.8091078        459694247.66089290        1229952521.8720193     
  -1223635337.0155780        287274708.84061563        1293621456.6030233     
  -1210133931.0840373        205160517.14704072        1349961270.6808906     
 -0.41821514200453164       0.34622481164088453        1575501668.0663443     
 -0.41529289165074518       0.16584481041218041        1562980993.2132711     
 -0.40257090243773574        1.8130952325581845E-002   1554316916.9486227     
 -0.38005570531344685       -9.6938705917737594E-002   1549509439.2723999     
 -0.34774481828890513      -0.17935675838293813        1548558560.1846004     
  -319478663.32385635        46206575.474671423        1525617868.7681918     
  -312095236.97016501        37677793.933285639        1517220305.9489586     
  -304365583.69415629        30303102.132957116        1512613883.5867388     
  -296289703.49583185        24082500.073680848        1511798601.6815333     
  -287867596.37519306        19015987.755453438        1514774460.2333412     
  -627660539.40337288        95802186.650958776        1471399869.4379003     
  -613080709.93151617        78688516.778773546        1467529350.0504439     
  -597808426.62482035        63883026.356049687        1467384512.9885926     
  -581843689.48328674        51385715.382786751        1470965358.2523456     
  -565186498.50691497        41196583.858981520        1478271885.8417034     
  -924545628.65676725        148786833.87507939        1412847670.0754659     
  -902956419.29934132        123032168.70232391        1413908125.5177290     
  -880328529.19455886        100739772.68742156        1418628805.1541882     
  -856661958.34241199        81909645.830399871        1427009708.9848425     
  -831956706.74291205        66541788.131222129        1439050837.0096922     
  -1210133931.0840373        205160517.14704072        1349961270.6808906     
  -1181722365.0736434        170708749.70392942        1356356632.3508143     
  -1151925891.4033709        140873341.12707728        1366346760.0835238     
  -1120744510.0732157        115654291.41650259        1379931653.8790188     
  -1088178221.0831823        95051600.572187364        1397111313.7372985     
 -0.34774481828890513      -0.17935675838293813        1548558560.1846004     
 -0.29372246393341661      -0.23535729226337482        1536706533.5797291     
 -0.23636793072274170      -0.28025125718258048        1531228842.8503015     
 -0.17568519898942742      -0.31405192091571199        1532125487.9963136     
 -0.11167751705083977      -0.33676733562976119        1539396469.0177603     
  -287867596.37519306        19015987.755453438        1514774460.2333412     
  -272950760.60215962        16613784.236187667        1506327939.1296501     
  -257908136.23282567        14630876.037923932        1503535925.8105125     
  -242739723.26718748        13067263.160674989        1506398420.2759259     
  -227445521.70524922        11922945.604424626        1514915422.5258958     
  -565186498.50691497        41196583.858981520        1478271885.8417034     
  -537409478.70312059        35775181.369971335        1473377623.5976589     
  -509380881.71004945        31192369.511883467        1473418041.0472813     
  -481100707.52770281        27448148.284711540        1478393138.1905718     
  -452568956.15608382        24542517.688451022        1488302915.0275238     
  -831956706.74291205        66541788.131222129        1439050837.0096922     
  -793376154.59660435        57484191.165996879        1437855586.9837623     
  -754418236.66804659        49684480.141602278        1440875188.5606143     
  -715082952.95723951        43142655.058038294        1448109641.7402453     
  -675370303.46418500        37858715.915300816        1459558946.5226526     
  -1088178221.0831823        95051600.572187364        1397111313.7372985     
  -1040850788.2826086        81740813.624269664        1399761829.2879574     
  -993020201.10681236        70107207.927096248        1405907368.3505039     
  -944686459.55579472        60150783.480658352        1415547930.9249454     
  -895849563.62955666        51871540.284956098        1428683517.0112815     
 -0.11167751705083977      -0.33676733562976119        1539396469.0177603     
  -8.4692143408228282E-002 -0.35220956188205566        1537285615.9804718     
  -4.8914352421971369E-002 -0.33834373032219872        1540795869.8372457     
  -4.3369383176303372E-003 -0.29514478086797585        1549927230.5880797     
   4.9028363786423265E-002 -0.22265495308288225        1564679698.2329822     
  -227445521.70524922        11922945.604424626        1514915422.5258958     
  -213695332.08972678        10098583.058046922        1513338453.7036798     
  -200213903.42625588        7378350.6714967266        1517138453.6395712     
  -187001235.71482447        3762248.4448134378        1526315422.3335633     
  -174057328.95544276       -749723.62203346193        1540869359.7856584     
  -452568956.15608382        24542517.688451022        1488302915.0275238     
  -425766114.48334825        20684531.351722360        1486946275.9660740     
  -399500794.72350150        15034805.305366784        1490722467.5267694     
  -373772996.87653613        7593339.5494046062        1499631489.7096057     
  -348582720.94245833       -1639865.9161786437        1513673342.5145833     
  -675370303.46418500        37858715.915300816        1459558946.5226526     
  -636212347.26555693        31757844.528820813        1458109082.7676604     
  -597860673.94064856        22969363.563275963        1461547911.4988449     
  -560315283.48946846        11493273.018636197        1469875432.7162094     
  -523576175.91201150       -2670427.1050801277        1483091646.4197564     
  -895849563.62955666        51871540.284956098        1428683517.0112815     
  -845034030.43635082        43318522.589343727        1426826874.1084256     
  -795293541.07770658        31182025.445191860        1429614785.5557919     
  -746628095.55362844        15462048.852486104        1437047251.3533778     
  -699037693.86411023       -3841407.1887519062        1449124271.5011795     
   4.9028363786423265E-002 -0.22265495308288225        1564679698.2329822     
   3.8568964871682668E-002 -0.16220696946794783        1562671724.3915024     
   2.3994085107060303E-002 -0.11547864313140015        1566935686.4626436     
   5.3036787416073337E-003  -8.2468738797621136E-002   1577471584.4464185     
  -1.7498456895924434E-002  -6.3163210925323995E-002   1594279418.3428247     
  -174057328.95544276       -749723.62203346193        1540869359.7856584     
  -159329824.80021441       -4466876.4267953560        1538775632.1567307     
  -144162302.52152592       -6717302.1533567607        1542596622.4807520     
  -128554762.11935899       -7501000.8016576692        1552332330.7577202     
  -112507203.59372473       -6817972.3717351072        1567982756.9876344     
  -348582720.94245833       -1639865.9161786437        1513673342.5145833     
  -320148335.36349493       -9380358.4087412208        1512007215.5803933     
  -290833913.53347826       -14187396.731123775        1515898588.6394725     
  -260639455.45241344       -16060980.883347273        1525347461.6918116     
  -229564961.12029886       -15001110.865404703        1540353834.7374177     
  -523576175.91201150       -2670427.1050801277        1483091646.4197564     
  -482455531.65126818       -14740446.108034074        1482366474.6624901     
  -440014833.01188457       -22410283.848854065        1486841584.9388013     
  -396254079.99387127       -25679940.327572972        1496516977.2486911     
  -351173272.59722078       -24549415.544171974        1511392651.5921721     
  -699037693.86411023       -3841407.1887519062        1449124271.5011795     
  -646251413.66353106       -20547139.524660438        1449853409.4030125     
  -591705060.95673263       -31385963.506501853        1455425611.3787403     
  -535398635.74372411       -36357879.134313434        1465840877.4283650     
  -477332138.02449709       -35462886.408058867        1481099207.5518887     
  -1.7498456895924434E-002  -6.3163210925323995E-002   1594279418.3428247     
  -1.5640602366364883E-002  -4.4080673177560772E-002   1592509065.7118735     
  -1.4696348533731425E-002  -2.8040001639265885E-002   1595244688.5850847     
  -1.4650940717030580E-002  -1.4999299879060200E-002   1602486286.9624665     
  -1.5517715317842500E-002  -4.9950428408880474E-003   1614233860.8440156     
  -112507203.59372473       -6817972.3717351072        1567982756.9876344     
  -99983686.494488686       -5763361.1228163466        1565101645.7981150     
  -86958124.718561530       -3035267.6182655022        1567104661.9724486     
  -73430518.265930578        1366308.1419653744        1573991805.5106328     
  -59400867.136616237        7441366.1578110419        1585763076.4126778     
  -229564961.12029886       -15001110.865404703        1540353834.7374177     
  -203437493.03886101       -12567758.221212633        1536947683.7798610     
  -176305935.60312438       -6787441.0626953021        1538803812.0458536     
  -148170288.81309199        2339840.6101451144        1545922219.5353868     
  -119030552.66876228        14814086.797306202        1558302906.2484667     
  -351173272.59722078       -24549415.544171974        1511392651.5921721     
  -310361419.64875448       -20413191.339253604        1508047179.6571171     
  -268043432.66839087       -11256520.361345366        1510342138.8052969     
  -224219311.65612745        2920597.3895628452        1518277529.0367081     
  -178889056.61196235        22118161.913476840        1531853350.3513563     
  -477332138.02449709       -35462886.408058867        1481099207.5518887     
  -420755466.32417774       -29299660.476966813        1478400133.4298751     
  -362170615.91435170       -16442505.514188737        1481719642.2507839     
  -301577586.79503429        3108578.4802295864        1491057734.0146158     
  -238976378.96620658        29353591.506347537        1506414408.7213640     
  -1.5517715317842500E-002  -4.9950428408880474E-003   1614233860.8440156     
  -1.2388899430147506E-002   4.3768560204731398E-003   1583345100.9783318     
  -9.5455694630704087E-003   1.2797135146441334E-002   1555882506.0712206     
  -6.9974017422859977E-003   2.0234580952186162E-002   1531846076.1226914     
  -4.7505040194613397E-003   2.6665711763227309E-002   1511235811.1327248     
  -59400867.136616237        7441366.1578110419        1585763076.4126778     
  -48445951.828989327        15111828.870026134        1555371975.7252262     
  -36332976.510453537        26642491.618603803        1528211461.2281551     
  -23061941.181005515        42033354.403557122        1504281532.9214685     
  -8632845.8406568803        61284417.224843055        1483582190.8051653     
  -119030552.66876228        14814086.797306202        1558302906.2484667     
  -97679518.537188590        29987373.268185765        1529760534.7523105     
  -74012364.383500800        52881059.812782004        1504253170.6783414     
  -48029090.207708672        83495146.431057826        1481780814.0265667     
  -19729696.009799637        121829633.12305948        1462343464.7969820     
  -178889056.61196235        22118161.913476840        1531853350.3513563     
  -147700700.13698378        44626633.198871620        1506510778.0595682     
  -113038163.62869674        78715704.595298946        1484007634.4217787     
  -74901447.087097257        124385376.10276625        1464343919.4379866     
  -33290550.512183860        181635647.72127849        1447519633.1081970     
  -238976378.96620658        29353591.506347537        1506414408.7213640     
  -198509496.62837645        59029608.662078232        1485622705.6470110     
  -153410374.24603173        104146425.96618751        1467474852.4584634     
  -103679011.81917697        164704043.41866565        1451970849.1557276     
  -49315409.347798631        240702461.01955497        1439110695.7388048     
  -4.7505040194613397E-003   2.6665711763227309E-002   1511235811.1327248     
  -3.7887275734309802E-003   3.3076014454819530E-002   1402272266.7395742     
  -2.3258867359571573E-003   4.1153756226995068E-002   1290475205.0383222     
  -3.5887044252031625E-004   5.0912776741771054E-002   1175844626.0289655     
   2.1272361161938716E-003   6.2402098140804871E-002   1058380529.7115086     
  -8632845.8406568803        61284417.224843055        1483582190.8051653     
  -9281998.6619488709        80692253.592276752        1375225282.6835935     
  -8003333.6955053806        106526149.25215855        1264723812.0773849     
  -4796850.9413317963        138786104.20447439        1152077778.9865499     
   337449.60058564693        177472118.44927248        1037287183.4110764     
  -19729696.009799637        121829633.12305948        1462343464.7969820     
  -19059559.300575443        161235838.55733085        1356842313.6987596     
  -14533787.016382605        213494162.57483485        1249885554.9393709     
  -6152379.1572272778        278604605.17554945        1141473188.5188141     
   6084664.2768960595        356567166.35948521        1031605214.4371103     
  -33290550.512183860        181635647.72127849        1447519633.1081970     
  -29332681.919664800        241630754.92824951        1347123359.7850864     
  -19591359.964943156        320904040.00922912        1245960433.6242788     
  -4066584.6480348110        419455502.96416241        1144030854.6257706     
   17241644.031060725        537285143.79305410        1041334622.7895801     
  -49315409.347798631        240702461.01955497        1439110695.7388048     
  -40101366.519215986        321877002.70503622        1346068420.9425647     
  -23176052.541203767        428755781.55528331        1252948448.1321023     
   1460532.5862275064        561338797.57026565        1159750777.3074236     
   33808388.863085955        719626050.74999452        1066475408.4685248     
  -1101589929.9821341        1075449366.6815581        1080627290.4506001     
  -1169363336.4646263        722419133.60787535        1158954466.4878778     
  -1210045138.8091078        459694247.66089290        1229952521.8720193     
  -1223635337.0155780        287274708.84061563        1293621456.6030233     
  -1210133931.0840373        205160517.14704072        1349961270.6808906     
  -1521294555.3559387        542886017.71749973        1026781897.7409747     
  -1545722655.2695191        373595882.93892312        1100969442.6748528     
  -1557975866.6830282        244888709.82725990        1173427090.6313865     
  -1558054189.5964587        156764498.38252091        1244154841.6105800     
  -1545957624.0098147        109223248.60469872        1313152695.6124308     
  -2026269743.5302713       -15258500.086717248        1047305809.5346730     
  -1991354754.9440975        3990798.0090643167        1099950888.4542229     
  -1959181593.4957848        14100672.311982989        1156465294.0722246     
  -1929750259.1853349        15071122.822027564        1216849026.3886824     
  -1903060752.0127411        6902149.5392153263        1281102085.4035923     
  -2616515494.5051250       -598984186.73108947        1142199025.8316908     
  -2506259635.4883552       -386396121.18169951        1155898803.8259890     
  -2413662319.2473836       -232669864.88495660        1179067132.1945355     
  -2338723545.7821994       -137805417.84085715        1211704010.9373331     
  -2281443315.0928164       -101802780.04941750        1253809440.0543778     
  -3292031808.2805109       -1208291042.2156231        1311461546.6320307     
  -3090437296.9022975       -797564874.63336205        1268813188.7901535     
  -2921418043.9378133       -495422901.76353467        1241232604.9983189     
  -2784974049.3870625       -301865123.60614872        1228719795.2565291     
  -2681105313.2500377       -216891540.16118765        1231274759.5647891     
  -1210133931.0840373        205160517.14704072        1349961270.6808906     
  -1181722365.0736434        170708749.70392942        1356356632.3508143     
  -1151925891.4033709        140873341.12707728        1366346760.0835238     
  -1120744510.0732157        115654291.41650259        1379931653.8790188     
  -1088178221.0831823        95051600.572187364        1397111313.7372985     
  -1545957624.0098147        109223248.60469872        1313152695.6124308     
  -1502300041.9647295        90515141.584878504        1313706624.1171343     
  -1458049323.4831460        73784156.020048320        1318760338.7957494     
  -1413205468.5650625        59030291.910219312        1328313839.6482756     
  -1367768477.2104812        46253549.255383849        1342367126.6747081     
  -1903060752.0127411        6902149.5392153263        1281102085.4035923     
  -1841571382.1868877        4713434.4665201902        1274890847.6491320     
  -1780280647.1479244        1862603.4375354052        1274084416.1797075     
  -1719188546.8958414       -1650343.5477236509        1278682790.9953172     
  -1658295081.4306436       -5825406.4892636538        1288685972.0959623     
  -2281443315.0928164       -101802780.04941750        1253809440.0543778     
  -2199536385.7401295       -86696371.651170492        1239909302.9468067     
  -2118619862.3977103       -74891316.620483160        1232318992.2353950     
  -2038693745.0655575       -66387614.957349300        1231038507.9201427     
  -1959758033.7436717       -61185266.661774993        1236067850.0010483     
  -2681105313.2500377       -216891540.16118765        1231274759.5647891     
  -2576195052.6244483       -183714276.76818585        1208761990.0101593     
  -2473066969.2325082       -156477604.15401375        1193464066.9628141     
  -2371721063.0742183       -135181522.31867313        1185380990.4227538     
  -2272157334.1495724       -119826031.26215148        1184512760.3899748     
  -1088178221.0831823        95051600.572187364        1397111313.7372985     
  -1040850788.2826086        81740813.624269664        1399761829.2879574     
  -993020201.10681236        70107207.927096248        1405907368.3505039     
  -944686459.55579472        60150783.480658352        1415547930.9249454     
  -895849563.62955666        51871540.284956098        1428683517.0112815     
  -1367768477.2104812        46253549.255383849        1342367126.6747081     
  -1309225274.2502651        38528146.039499521        1341742265.4211049     
  -1250537091.7107787        31286008.087849855        1344960961.4556353     
  -1191703929.5920162        24527135.400459051        1352023214.7782984     
  -1132725787.8939812        18251527.977305353        1362929025.3890941     
  -1658295081.4306436       -5825406.4892636538        1288685972.0959623     
  -1587540297.5215321       -7666682.7363587618        1284367863.4428248     
  -1516998708.8290949       -10218609.705697715        1284241845.8540621     
  -1446670315.3533299       -13481187.397277713        1288307919.3296738     
  -1376555117.0942364       -17454415.811097980        1296566083.8696582     
  -1959758033.7436717       -61185266.661774993        1236067850.0010483     
  -1875795858.0964055       -56843672.703296423        1227638623.3531091     
  -1792405052.4617639       -54406645.453564763        1223750021.5457845     
  -1709585616.8397324       -53874184.912536204        1224402044.5790758     
  -1627337551.2303245       -55246291.080249608        1229594692.4529796     
  -2272157334.1495724       -119826031.26215148        1184512760.3899748     
  -2173991955.9748898       -109002823.86131907        1171554545.1519644     
  -2076756122.6087749       -101278099.15570939        1163485488.5308053     
  -1980449834.0512257       -96651857.145319819        1160305590.5265000     
  -1885073090.3022435       -95124097.830153704        1162014851.1390512     
  -895849563.62955666        51871540.284956098        1428683517.0112815     
  -845034030.43635082        43318522.589343727        1426826874.1084256     
  -795293541.07770658        31182025.445191860        1429614785.5557919     
  -746628095.55362844        15462048.852486104        1437047251.3533778     
  -699037693.86411023       -3841407.1887519062        1449124271.5011795     
  -1132725787.8939812        18251527.977305353        1362929025.3890941     
  -1068967610.3855665        12709504.342313588        1357643683.8306909     
  -1005816232.4267182        5144815.5420998335        1356974823.3813226     
  -943271654.01744723       -4442538.4233727455        1360922444.0409818     
  -881333875.15774131       -16052557.554053724        1369486545.8096685     
  -1376555117.0942364       -17454415.811097980        1296566083.8696582     
  -1299934504.5311499       -20009508.163620055        1288398328.6548691     
  -1223452447.2326386       -23026451.398064911        1284818981.3079200     
  -1147108945.1987145       -26505245.514462709        1285828041.8288095     
  -1070903998.4293640       -30445890.512772977        1291425510.2175426     
  -1627337551.2303245       -55246291.080249608        1229594692.4529796     
  -1537934712.8731072       -54838514.928472579        1219090808.5809503     
  -1448202185.4954722       -53331775.375306904        1213147259.3355818     
  -1358139969.0974312       -50726072.420782566        1211764044.7168629     
  -1267748063.6789780       -47021406.064886332        1214941164.7247958     
  -1885073090.3022435       -95124097.830153704        1162014851.1390512     
  -1782968235.4114323       -91777515.952228725        1149721123.6089485     
  -1680065447.2152135       -85771156.389618754        1141959657.4643133     
  -1576364725.7135987       -77105019.142355502        1138730452.7051394     
  -1471866070.9065752       -65779104.210387945        1140033509.3314276     
  -699037693.86411023       -3841407.1887519062        1449124271.5011795     
  -646251413.66353106       -20547139.524660438        1449853409.4030125     
  -591705060.95673263       -31385963.506501853        1455425611.3787403     
  -535398635.74372411       -36357879.134313434        1465840877.4283650     
  -477332138.02449709       -35462886.408058867        1481099207.5518887     
  -881333875.15774131       -16052557.554053724        1369486545.8096685     
  -813857517.42670918       -25586406.163894713        1369189380.4158378     
  -745500999.57942188       -32186387.719544411        1373694160.4962866     
  -676264321.61588705       -35852502.221037179        1383000886.0510149     
  -606147483.53609085       -36584749.668329298        1397109557.0800250     
  -1070903998.4293640       -30445890.512772977        1291425510.2175426     
  -988855044.88106799       -32843099.910486460        1289075477.0730882     
  -906805843.60648096       -35239483.553892076        1291486270.8032980     
  -824756394.60560858       -37635041.443015397        1298657891.4081709     
  -742706697.87844384       -40029773.577830881        1310590338.8877032     
  -1267748063.6789780       -47021406.064886332        1214941164.7247958     
  -1171243996.0266073       -42317220.764427364        1209511699.3747611     
  -1075619593.0379157       -40545251.009555340        1208801942.2997737     
  -980874854.71290112       -41705496.800278127        1212811893.4998312     
  -887009781.05155945       -45797958.136576146        1221541552.9749327     
  -1471866070.9065752       -65779104.210387945        1140033509.3314276     
  -1361024370.8633299       -54008768.725730002        1130498047.3208551     
  -1251942247.8737249       -48103690.086537659        1125641174.9857116     
  -1144619701.9377539       -48063868.292793989        1125462892.3259969     
  -1039056733.0554247       -53889303.344519734        1129963199.3417110     
  -477332138.02449709       -35462886.408058867        1481099207.5518887     
  -420755466.32417774       -29299660.476966813        1478400133.4298751     
  -362170615.91435170       -16442505.514188737        1481719642.2507839     
  -301577586.79503429        3108578.4802295864        1491057734.0146158     
  -238976378.96620658        29353591.506347537        1506414408.7213640     
  -606147483.53609085       -36584749.668329298        1397109557.0800250     
  -534510740.80735689       -32247136.397405744        1394117112.2127006     
  -460712033.36614054       -20702974.084879354        1397112049.6535828     
  -384751361.21247864       -1952262.7308665365        1406094369.4026701     
  -306628724.34634566        24004997.664719880        1421064071.4599671     
  -742706697.87844384       -40029773.577830881        1310590338.8877032     
  -656099028.79190552       -37544516.368245542        1307483940.2785308     
  -567175608.98993301       -27340090.107205212        1310333723.3428438     
  -475936438.47253883       -9416494.7947676182        1319139688.0806487     
  -382381517.23970693        16226269.569132268        1333901834.4919407     
  -887009781.05155945       -45797958.136576146        1221541552.9749327     
  -785520330.27782834       -45191800.389489263        1218500617.6273618     
  -681561342.78571117       -36353853.581119686        1221384663.3185692     
  -575132818.57519865       -19284117.711431861        1230193690.0485430     
  -466234757.64629185        6017407.2195742130        1244927697.8172975     
  -1039056733.0554247       -53889303.344519734        1129963199.3417110     
  -922774645.26513350       -55188988.461174309        1127167144.2592018     
  -803869234.75347567       -47744264.506611764        1130264869.5807552     
  -682340501.52047229       -31555131.480890602        1139256375.3063631     
  -558188445.56610096       -6621589.3839511275        1154141661.4360323     
  -238976378.96620658        29353591.506347537        1506414408.7213640     
  -198509496.62837645        59029608.662078232        1485622705.6470110     
  -153410374.24603173        104146425.96618751        1467474852.4584634     
  -103679011.81917697        164704043.41866565        1451970849.1557276     
  -49315409.347798631        240702461.01955497        1439110695.7388048     
  -306628724.34634566        24004997.664719880        1421064071.4599671     
  -257469259.29560345        54334961.938770920        1404525915.0448275     
  -201859678.45860595        106165312.16701157        1391879599.9572742     
  -139799981.83533078        179496048.34950560        1383125126.1973062     
  -71290169.425795197        274327170.48620659        1378262493.7649307     
  -382381517.23970693        16226269.569132268        1333901834.4919407     
  -320963779.64241058        48279887.911576241        1323738079.7680609     
  -251278050.51709372        107893478.01408824        1318714157.8135486     
  -173324329.86375612        195067039.87666416        1318830068.6284027     
  -87102617.682403624        309800573.49929476        1324085812.2126126     
  -466234757.64629185        6017407.2195742130        1244927697.8172975     
  -388993057.66878515        40864386.580524653        1243259199.8167245     
  -301665490.42150736        109330923.50737049        1247978526.0272932     
  -204252055.90444994        211417018.00014883        1259085676.4490001     
  -96752754.117635339        347122670.05879247        1276580651.0818586     
  -558188445.56610096       -6621589.3839511275        1154141661.4360323     
  -461557093.37473178        32088457.945601493        1163089275.1908062     
  -353021998.17183906        110477648.64689066        1179672704.5984991     
  -232583159.95742512        228545982.71992406        1203891949.6591103     
  -100240578.73148537        386293460.16470480        1235747010.3726513     
  -49315409.347798631        240702461.01955497        1439110695.7388048     
  -40101366.519215986        321877002.70503622        1346068420.9425647     
  -23176052.541203767        428755781.55528331        1252948448.1321023     
   1460532.5862275064        561338797.57026565        1159750777.3074236     
   33808388.863085955        719626050.74999452        1066475408.4685248     
  -71290169.425795197        274327170.48620659        1378262493.7649307     
  -57141075.204436675        376184040.11404365        1296676675.4505737     
  -34057066.254455388        507823958.83728361        1214191903.6197124     
  -2038142.5758602917        669246926.65590882        1130808178.2723691     
   38915695.831367642        860452943.56997001        1046525499.4085178     
  -87102617.682403624        309800573.49929476        1324085812.2126126     
  -70364916.360483676        431635837.78178656        1255384034.5558598     
  -43468656.730741382        587332963.09035540        1184962047.8803391     
  -6413838.7931747735        776891949.42500114        1112819852.1860471     
   40799537.452209890        1000312796.7857002        1038957447.4730024     
  -96752754.117635339        347122670.05879247        1276580651.0818586     
  -79772889.987346053        488232395.70830655        1222190498.2584383     
  -51410823.970041245        667282794.31453872        1165258880.9139843     
  -11666556.065720975        884273865.87748885        1105785799.0484910     
   39459913.725632846        1139205610.3972180        1043771252.6619697     
  -100240578.73148537        386293460.16470480        1235747010.3726513     
  -85364996.085037887        545973713.89355087        1197096066.5583024     
  -57883567.972378433        747673452.50978422        1155082402.7206554     
  -17796294.393484116        991392676.01347160        1109706018.8596926     
   34896824.651616633        1277131384.4044907        1060966914.9754363     
  -3292031808.2805109       -1208291042.2156231        1311461546.6320307     
  -3090437296.9022975       -797564874.63336205        1268813188.7901535     
  -2921418043.9378133       -495422901.76353467        1241232604.9983189     
  -2784974049.3870625       -301865123.60614872        1228719795.2565291     
  -2681105313.2500377       -216891540.16118765        1231274759.5647891     
  -3655054418.9775186       -780697899.37415445        1204397864.0280685     
  -3466847972.9302130       -521519851.31672227        1159263364.1155326     
  -3298686760.7921033       -329159249.62325740        1123735221.3272078     
  -3150570782.5631833       -203616094.29376650        1097813435.6630993     
  -3022500038.2434502       -144890385.32823050        1081498007.1232047     
  -3929677448.0155902       -326584882.03500330        1033282038.9532946     
  -3770463115.6587186       -223636168.01025653        1000279758.8920612     
  -3618763992.7064934       -145738152.00101030        971422419.02921224     
  -3474580079.1589222       -92890834.007264376        946710019.36474621     
  -3337911375.0159979       -65094214.029020309        926142559.89866197     
  -4115900895.3947268        154048009.80182719        798114071.40771163     
  -4001282725.0878005        96086175.286034822        791862373.11974716     
  -3881649739.6809874        54840391.103205442        784294198.10433364     
  -3757001939.1742783        30310657.253348589        775409546.36147583     
  -3627339323.5676837        22496973.736453056        765208417.89116418     
  -4213724761.1149287        661200776.13633847        498893961.39131635     
  -4159306801.2174664        437647178.57215786        534011206.79858255     
  -4087344001.7155752        272576379.68939590        562350558.55257058     
  -3997836362.6092534        165988379.48807454        583912016.65327752     
  -3890783883.8985023        117883177.96818376        598695581.10070813     
  -2681105313.2500377       -216891540.16118765        1231274759.5647891     
  -2576195052.6244483       -183714276.76818585        1208761990.0101593     
  -2473066969.2325082       -156477604.15401375        1193464066.9628141     
  -2371721063.0742183       -135181522.31867313        1185380990.4227538     
  -2272157334.1495724       -119826031.26215148        1184512760.3899748     
  -3022500038.2434502       -144890385.32823050        1081498007.1232047     
  -2903783438.0380759       -121405054.18176961        1065471790.0002186     
  -2786406747.6057701       -102386088.94553888        1055087587.3343719     
  -2670369966.9465332       -87833489.619534731        1050345399.1256618     
  -2555673096.0603623       -77747256.203756094        1051245225.3740895     
  -3337911375.0159979       -65094214.029020309        926142559.89866197     
  -3209882241.0884027       -52648956.886367440        917118873.91133296     
  -3082750749.4732914       -43195840.785338402        912164370.33099449     
  -2956516900.1706705       -36734865.725939512        911279049.15764582     
  -2831180693.1805363       -33266031.708164334        914462910.39128911     
  -3627339323.5676837        22496973.736453056        765208417.89116418     
  -3494491461.7754230        22554015.118031979        763703241.74349880     
  -3362098974.8350735        21093140.326575279        764694415.95267928     
  -3230161862.7466302        18114349.362106919        768181940.51870501     
  -3098680125.5100927        13617642.224610209        774165815.44156945     
  -3890783883.8985023        117883177.96818376        598695581.10070813     
  -3757611100.0991435        104203861.83141851        605224893.49672139     
  -3624451423.6911149        90480854.390226126        612677724.19942939     
  -3491304854.6744127        76714155.644607067        621054073.20883560     
  -3358171393.0490375        62903765.594564915        630353940.52493715     
  -2272157334.1495724       -119826031.26215148        1184512760.3899748     
  -2173991955.9748898       -109002823.86131907        1171554545.1519644     
  -2076756122.6087749       -101278099.15570939        1163485488.5308053     
  -1980449834.0512257       -96651857.145319819        1160305590.5265000     
  -1885073090.3022435       -95124097.830153704        1162014851.1390512     
  -2555673096.0603623       -77747256.203756094        1051245225.3740895     
  -2446697521.9577670       -72099255.798047185        1040148132.6245047     
  -2338176660.4832048       -67966964.152445078        1033671695.1245667     
  -2230110511.6366720       -65350381.266947627        1031815912.8742775     
  -2122499075.4181678       -64249507.141546011        1034580785.8736285     
  -2831180693.1805363       -33266031.708164334        914462910.39128911     
  -2712162075.6277657       -33023384.040907383        905780911.00742292     
  -2593123338.5224943       -32713671.198636174        901451063.50599945     
  -2474064481.8647175       -32336893.181348681        901473367.88701129     
  -2354985505.6544309       -31893049.989038229        905847824.15045679     
  -3098680125.5100927        13617642.224610209        774165815.44156945     
  -2970385616.9848886        8224791.4100947380        768452880.30071592     
  -2841596156.7266474        4481779.7057090998        766823593.67509615     
  -2712311744.7353659        2388607.1114660501        769277955.56470203     
  -2582532381.0110369        1945273.6273590326        775815965.96953666     
  -3358171393.0490375        62903765.594564915        630353940.52493715     
  -3221368146.0291362        51645270.554957747        628164040.50438726     
  -3083595115.0956602        43619388.560604811        629789285.63186181     
  -2944852300.2486095        38826119.611501098        635229675.90735483     
  -2805139701.4879761        37265463.707666278        644485211.33086836     
  -1885073090.3022435       -95124097.830153704        1162014851.1390512     
  -1782968235.4114323       -91777515.952228725        1149721123.6089485     
  -1680065447.2152135       -85771156.389618754        1141959657.4643133     
  -1576364725.7135987       -77105019.142355502        1138730452.7051394     
  -1471866070.9065752       -65779104.210387945        1140033509.3314276     
  -2122499075.4181678       -64249507.141546011        1034580785.8736285     
  -2009380882.9243984       -61850193.810710907        1024423555.3283807     
  -1896041112.5347712       -58712287.493669868        1018424461.9877318     
  -1782479764.2492857       -54835788.190449238        1016583505.8516811     
  -1668696838.0679491       -50220695.901044846        1018900686.9202338     
  -2354985505.6544309       -31893049.989038229        905847824.15045679     
  -2231922901.7887387       -30761683.074585319        897154675.94558859     
  -2109215075.4367340       -30812907.872428894        892245540.76445270     
  -1986862026.5984244       -32046724.382578492        891120418.60705864     
  -1864863755.2738059       -34463132.605036378        893779309.47339916     
  -2582532381.0110369        1945273.6273590326        775815965.96953666     
  -2450594292.0044556        1488016.2561237812        767914485.46057391     
  -2319587335.9211178       -2073017.5259176493        763422893.79448545     
  -2189511512.7610111       -8737827.7187386751        762341190.97126782     
  -2060366822.5241566       -18506414.322384477        764669376.99093103     
  -2805139701.4879761        37265463.707666278        644485211.33086836     
  -2665395053.5715475        34898904.181417346        636702983.87333798     
  -2527157893.9879112        27507383.545869827        631956521.07782149     
  -2390428222.7370520        15090901.801055908        630245822.94431257     
  -2255206039.8189869       -2350541.0530633926        631570889.47281682     
  -1471866070.9065752       -65779104.210387945        1140033509.3314276     
  -1361024370.8633299       -54008768.725730002        1130498047.3208551     
  -1251942247.8737249       -48103690.086537659        1125641174.9857116     
  -1144619701.9377539       -48063868.292793989        1125462892.3259969     
  -1039056733.0554247       -53889303.344519734        1129963199.3417110     
  -1668696838.0679491       -50220695.901044846        1018900686.9202338     
  -1548365594.6392028       -44604033.539855301        1007752816.7750833     
  -1428890824.7782531       -41842283.071310759        1000646084.1256905     
  -1310272528.4850988       -41935444.495421469        997580488.97205365     
  -1192510705.7597332       -44883517.812163949        998556031.31416833     
  -1864863755.2738059       -34463132.605036378        893779309.47339916     
  -1736864260.4014888       -35546530.949904323        882072651.92715776     
  -1608818135.6111178       -36474496.234591544        873769679.69700515     
  -1480725380.9026978       -37247028.459105134        868870392.78293085     
  -1352585996.2762234       -37864127.623445928        867374791.18494403     
  -2060366822.5241566       -18506414.322384477        764669376.99093103     
  -1926520368.1501780       -26836260.955854535        753457552.77708745     
  -1791724180.3723145       -32000329.576368570        745011961.69965470     
  -1655978259.1905484       -33998620.183870852        739332603.75863445     
  -1519282604.6048884       -32831132.778392136        736419478.95401669     
  -2255206039.8189869       -2350541.0530633926        631570889.47281682     
  -2117333917.8852940       -18473223.557779193        621907519.32486272     
  -1977608959.0618494       -28419783.096653700        614372930.13364077     
  -1836031163.3486652       -32190219.669728160        608967121.89915931     
  -1692600530.7457316       -29784533.276978493        605690094.62141132     
  -1039056733.0554247       -53889303.344519734        1129963199.3417110     
  -922774645.26513350       -55188988.461174309        1127167144.2592018     
  -803869234.75347567       -47744264.506611764        1130264869.5807552     
  -682340501.52047229       -31555131.480890602        1139256375.3063631     
  -558188445.56610096       -6621589.3839511275        1154141661.4360323     
  -1192510705.7597332       -44883517.812163949        998556031.31416833     
  -1062286338.8374579       -42984436.581131220        994998246.72985613     
  -930474690.90427363       -35794418.647097498        995533334.99354696     
  -797075761.96019614       -23313464.010070443        1000161296.1052446     
  -662089552.00521374       -5541572.6700411439        1008882130.0649467     
  -1352585996.2762234       -37864127.623445928        867374791.18494403     
  -1213564800.3821051       -34309915.092778265        861846561.76995301     
  -1073992365.1875498       -28918238.227305889        858610297.64691532     
  -933868690.69255161       -21689097.027026296        857665998.81583118     
  -793193776.89711344       -12622491.491953939        859013665.27669728     
  -1519282604.6048884       -32831132.778392136        736419478.95401669     
  -1376610029.8990946       -29165423.996141493        727712089.37949347     
  -1234422257.6033056       -27115723.247261882        719495757.54086185     
  -1092719287.7175391       -26682030.531775117        711770483.43812788     
  -951501120.24179387       -27864345.849700987        704536267.07130098     
  -1692600530.7457316       -29784533.276978493        605690094.62141132     
  -1551422027.3884068       -27550963.291184664        592594829.55847764     
  -1411764368.1515527       -30386873.706976831        578189714.67538202     
  -1273627553.0351710       -38292264.524330199        562474749.97213674     
  -1137011582.0392687       -51267135.743292928        545449935.44873345     
  -558188445.56610096       -6621589.3839511275        1154141661.4360323     
  -461557093.37473178        32088457.945601493        1163089275.1908062     
  -353021998.17183906        110477648.64689066        1179672704.5984991     
  -232583159.95742512        228545982.71992406        1203891949.6591103     
  -100240578.73148537        386293460.16470480        1235747010.3726513     
  -662089552.00521374       -5541572.6700411439        1008882130.0649467     
  -546946025.33671510        25109663.577382594        1021983837.3734713     
  -420972977.55163133        91859303.546748549        1043549588.8765916     
  -284170408.64997536        194707347.23802239        1073579384.5743051     
  -136538318.63173640        333653794.65123528        1112073224.4666116     
  -793193776.89711344       -12622491.491953939        859013665.27669728     
  -657171708.48955810        10679843.851919144        875016207.26154220     
  -511394340.86037523        66499843.267894298        900311021.98265457     
  -355861674.00955445        154837506.75598541        934898109.44003594     
  -190573707.93709558        275692834.31621349        978777469.63367975     
  -951501120.24179387       -27864345.849700987        704536267.07130098     
  -792234142.83327115       -11201001.230818659        722186384.85502410     
  -624286088.09804809        34399267.810381353        749957003.91669703     
  -447656956.03614604        108936461.27385804        787848124.25630641     
  -262346746.64754462        212410579.15965462        835859745.87385535     
  -1137011582.0392687       -51267135.743292928        545449935.44873345     
  -952133328.36783814       -40532871.670795918        563494370.15391552     
  -759648219.26467001       -4442422.8258296549        592487534.67870951     
  -559556254.72975850        57004210.791614383        632429429.02312124     
  -351857434.76308036        143807029.18160313        683320053.18714106     
  -100240578.73148537        386293460.16470480        1235747010.3726513     
  -85364996.085037887        545973713.89355087        1197096066.5583024     
  -57883567.972378433        747673452.50978422        1155082402.7206554     
  -17796294.393484116        991392676.01347160        1109706018.8596926     
   34896824.651616633        1277131384.4044907        1060966914.9754363     
  -136538318.63173640        333653794.65123528        1112073224.4666116     
  -127404112.30659544        482577536.65844381        1090463872.9327915     
  -95125805.316557348        708648280.88199377        1070283070.0339577     
  -39703397.661585689        1011866027.3219631        1051530815.7701118     
   38863110.658290029        1392230775.9783025        1034207110.1412472     
  -190573707.93709558        275692834.31621349        978777469.63367975     
  -173491538.90955836        417966866.30890840        986504341.44552612     
  -122727014.01842749        672515417.84691620        1000451030.5506539     
  -38280133.263688803        1039338488.9302843        1020617536.9490532     
   79849103.354653478        1518436079.5589948        1047003860.6407486     
  -262346746.64754462        212410579.15965462        835859745.87385535     
  -223627275.89391887        352141702.84493703        885217472.09650838     
  -140687194.07801053        639274863.40450120        945586284.27072394     
  -13526501.199793994        1073810060.8384230        1016966182.3965265     
   157854802.74069947        1655747295.1466117        1099357166.4738901     
  -351857434.76308036        143807029.18160313        683320053.18714106     
  -277811323.25966674        285102046.26657611        786603264.88572979     
  -149006345.49528214        608926617.55480790        905688831.19418848     
   34557498.530079842        1115280743.0463061        1040576752.1125228     
   272880208.81644648        1804164422.7411256        1191267027.6407104     
  -4213724761.1149287        661200776.13633847        498893961.39131635     
  -4159306801.2174664        437647178.57215786        534011206.79858255     
  -4087344001.7155752        272576379.68939590        562350558.55257058     
  -3997836362.6092534        165988379.48807454        583912016.65327752     
  -3890783883.8985023        117883177.96818376        598695581.10070813     
  -4596974877.2392530        357207072.91032743        496210564.99371499     
  -4512646336.0077848        239577942.39593816        489387282.06527400     
  -4419616194.8261652        150954145.04874539        487905924.49708170     
  -4317884453.6943836        91335680.868741512        491766492.28914088     
  -4207451112.6124492        60722549.855931759        500968985.44144547     
  -5161113167.4092216       -1053082.5293760300        535974683.77248806     
  -5012245990.5193939       -2369329.6966574192        476893759.57835805     
  -4863520453.3336792       -4157709.2109818459        435274579.75800526     
  -4714936555.8520803       -6418221.0723619461        411117144.31142718     
  -4566494298.0745945       -9150865.2807831764        404421453.23862398     
  -5906139631.6248522       -413579690.18278146        618186317.72763264     
  -5658105764.7522955       -288194637.70564508        496530639.33783066     
  -5419056777.2381268       -192759183.08980250        404456524.33532876     
  -5188992669.0823307       -127273326.33522844        341963972.72013474     
  -4967913440.2849312       -91737067.441956997        309052984.49224669     
  -6832054269.8861361       -880372750.04987669        742845466.85915959     
  -6450225658.7064886       -617897981.63102961        548297921.34370065     
  -6086225166.5394831       -414850276.58767605        395451758.22906828     
  -5740052793.3851414       -271229634.91985583        284306977.51526940     
  -5411708539.2434597       -187036056.62757492        214863579.20230639     
  -3890783883.8985023        117883177.96818376        598695581.10070813     
  -3757611100.0991435        104203861.83141851        605224893.49672139     
  -3624451423.6911149        90480854.390226126        612677724.19942939     
  -3491304854.6744127        76714155.644607067        621054073.20883560     
  -3358171393.0490375        62903765.594564915        630353940.52493715     
  -4207451112.6124492        60722549.855931759        500968985.44144547     
  -4066710534.1861358        52357281.601164103        494017027.62370342     
  -3925997473.3662019        43900287.991806984        490736613.23953605     
  -3785311930.1526413        35351569.027861118        491127742.28894877     
  -3644653904.5454655        26711124.709313393        495190414.77193522     
  -4566494298.0745945       -9150865.2807831764        404421453.23862398     
  -4410334424.6588058       -9846635.5447797775        383971413.28956550     
  -4254216479.0644474       -10682165.213546276        369940941.90096790     
  -4098140461.2915177       -11657454.287079334        362330039.07282054     
  -3942106371.3400183       -12772502.765383720        361138704.80513632     
  -4967913440.2849312       -91737067.441956997        309052984.49224669     
  -4788482771.5171585       -82407889.606440306        275088050.49431527     
  -4609108440.7858639       -73266505.225869179        250290710.18371606     
  -4429790448.0910397       -64312914.300203800        234660963.56046265     
  -4250528793.4327116       -55547116.829502583        228198810.62453961     
  -5411708539.2434597       -187036056.62757492        214863579.20230639     
  -5201155574.7611856       -165326480.58379984        167366939.23794210     
  -4990673358.5304365       -143852732.04512072        131785918.08778867     
  -4780261890.5512190       -122614811.01154757        108120515.75186054     
  -4569921170.8235388       -101612717.48308825        96370732.230144367     
  -3358171393.0490375        62903765.594564915        630353940.52493715     
  -3221368146.0291362        51645270.554957747        628164040.50438726     
  -3083595115.0956602        43619388.560604811        629789285.63186181     
  -2944852300.2486095        38826119.611501098        635229675.90735483     
  -2805139701.4879761        37265463.707666278        644485211.33086836     
  -3644653904.5454655        26711124.709313393        495190414.77193522     
  -3495510016.1526761        21267326.907051563        490253459.80833167     
  -3345909453.4410291        17345776.834317207        489652307.54415566     
  -3195852216.4105301        14946474.491089940        493386957.97941178     
  -3045338305.0611691        14069419.877403021        501457411.11409575     
  -3942106371.3400183       -12772502.765383720        361138704.80513632     
  -3779134248.5703220       -11955325.429090738        352856067.03797251     
  -3616218561.0764837       -11326265.679016590        349429889.52164674     
  -3453359308.8585067       -10885323.515138149        350860172.25615537     
  -3290556491.9163957       -10632498.937468648        357146915.24150372     
  -4250528793.4327116       -55547116.829502583        228198810.62453961     
  -4072240843.2820792       -48022686.453479290        215971862.19331104     
  -3894522438.0020280       -42396738.979380369        209122031.56432825     
  -3717373577.5925498       -38669274.407192945        207649318.73759452     
  -3540794262.0536485       -36840292.736935854        211553723.71310967     
  -4569921170.8235388       -101612717.48308825        96370732.230144367     
  -4374829800.2879457       -86934756.166087151        79600845.274347275     
  -4180821084.2176476       -75865643.066745043        68728733.672212243     
  -3987895022.6126533       -68405378.185073614        63754397.423724860     
  -3796051615.4729438       -64553961.521028996        64677836.528892472     
  -2805139701.4879761        37265463.707666278        644485211.33086836     
  -2665395053.5715475        34898904.181417346        636702983.87333798     
  -2527157893.9879112        27507383.545869827        631956521.07782149     
  -2390428222.7370520        15090901.801055908        630245822.94431257     
  -2255206039.8189869       -2350541.0530633926        631570889.47281682     
  -3045338305.0611691        14069419.877403021        501457411.11409575     
  -2897204954.9042130        12183102.921022654        490794316.94697076     
  -2749722846.5287342        8125980.0263944864        483437480.78673351     
  -2602891979.9347296        1898051.1935247183        479386902.63338119     
  -2456712355.1221976       -6500683.5775986910        478642582.48691601     
  -3290556491.9163957       -10632498.937468648        357146915.24150372     
  -3133261601.3906946       -11806721.885501623        344601908.67465353     
  -2975761706.0951667       -12297595.600750208        335633653.45956016     
  -2818056806.0297995       -12105120.083217382        330242149.59623283     
  -2660146901.1945968       -11229295.332900763        328427397.08465993     
  -3540794262.0536485       -36840292.736935854        211553723.71310967     
  -3373564993.0310130       -37070570.238211274        198125759.05639303     
  -3205274472.6872029       -33763343.335583091        188545039.09630117     
  -3035922701.0222721       -26918612.029210329        182811563.83285919     
  -2865509678.0361753       -16536376.318954706        180925333.26604244     
  -3796051615.4729438       -64553961.521028996        64677836.528892472     
  -3618115129.8251352       -63608442.137021780        51365868.092177428     
  -3438261146.3048596       -56271263.178125024        42171637.696967699     
  -3256489664.9121222       -42542424.644358873        37095145.343270026     
  -3072800685.6469364       -22421926.535757303        36136391.031079598     
  -2255206039.8189869       -2350541.0530633926        631570889.47281682     
  -2117333917.8852940       -18473223.557779193        621907519.32486272     
  -1977608959.0618494       -28419783.096653700        614372930.13364077     
  -1836031163.3486652       -32190219.669728160        608967121.89915931     
  -1692600530.7457316       -29784533.276978493        605690094.62141132     
  -2456712355.1221976       -6500683.5775986910        478642582.48691601     
  -2310751089.0533757       -14636927.368915200        469952113.60353595     
  -2163922318.3879700       -19881489.171619534        463512258.01042640     
  -2016226043.1259840       -22234368.985716343        459323015.70758474     
  -1867662263.2674155       -21695566.811204076        457384386.69501489     
  -2660146901.1945968       -11229295.332900763        328427397.08465993     
  -2505748398.6091280       -11274672.696368814        319560275.12383878     
  -2351467723.7202368       -11712809.048435807        313065598.78681368     
  -2197304876.5279303       -12543704.389109492        308943368.07358783     
  -2043259857.0321913       -13767358.718354225        307193582.98417336     
  -2865509678.0361753       -16536376.318954706        180925333.26604244     
  -2702325846.5525374       -8386459.5401246548        170732003.88576382     
  -2540245175.0586443       -3913742.7271043062        163032952.46280855     
  -2379267663.5544839       -3118225.8798632622        157828178.99719048     
  -2219393312.0400672       -5999908.9984325171        155117683.48890069     
  -3072800685.6469364       -22421926.535757303        36136391.031079598     
  -2900483432.8836007       -5972287.9001431465        23467299.889301520     
  -2730254672.4031811        3515709.7924151421        13414319.038389137     
  -2562114404.2056623        6042066.5419758558        5977448.4783394132     
  -2396062628.2910342        1606782.3485549688        1156688.2091755655     
  -1692600530.7457316       -29784533.276978493        605690094.62141132     
  -1551422027.3884068       -27550963.291184664        592594829.55847764     
  -1411764368.1515527       -30386873.706976831        578189714.67538202     
  -1273627553.0351710       -38292264.524330199        562474749.97213674     
  -1137011582.0392687       -51267135.743292928        545449935.44873345     
  -1867662263.2674155       -21695566.811204076        457384386.69501489     
  -1729895348.3385630       -23485655.901299000        443520400.25602555     
  -1592395827.0957439       -26167057.278174698        429270501.55587435     
  -1455163699.5389690       -29739770.941860676        414634690.59456515     
  -1318198965.6682348       -34203796.892353833        399612967.37209785     
  -2043259857.0321913       -13767358.718354225        307193582.98417336     
  -1906264708.9346671       -18789160.405142784        294023234.00930113     
  -1768283504.0887725       -20524106.264024615        281390910.33226347     
  -1629316242.4944677       -18972196.294874966        269296611.95306474     
  -1489362924.1517835       -14133430.497806072        257740338.87169513     
  -2219393312.0400672       -5999908.9984325171        155117683.48890069     
  -2080530109.1767523       -13461476.802811861        144103330.81830910     
  -1939427399.1306286       -13458020.664492369        134550941.00454870     
  -1796085181.9016714       -5989540.5833972692        126460514.04762629     
  -1650503457.4899187        8943963.4403539896        119832049.94752796     
  -2396062628.2910342        1606782.3485549688        1156688.2091755655     
  -2252691549.0648108       -7502605.0942993164       -6239309.3169508763     
  -2105827512.2213342       -4968800.4796549082       -11249406.427265488     
  -1955470517.7606025        9208196.1925239563       -13873603.121742168     
  -1801620565.6826241        35028384.922169685       -14111899.400401575     
  -1137011582.0392687       -51267135.743292928        545449935.44873345     
  -952133328.36783814       -40532871.670795918        563494370.15391552     
  -759648219.26467001       -4442422.8258296549        592487534.67870951     
  -559556254.72975850        57004210.791614383        632429429.02312124     
  -351857434.76308036        143807029.18160313        683320053.18714106     
  -1318198965.6682348       -34203796.892353833        399612967.37209785     
  -1118423144.0237784       -14669496.235863566        421507320.45652246     
  -914981027.41312885        17085787.641256154        441881833.71966356     
  -707872615.83630598        61062054.738955438        460736507.16152787     
  -497097909.29328895        117259305.05731282        478071340.78210807     
  -1489362924.1517835       -14133430.497806072        257740338.87169513     
  -1310314019.2225609        3513561.3362144828        278887289.79220462     
  -1131539379.7927101        20246334.838998556        286045831.25053459     
  -953039005.86224723        36064890.010478258        279215963.24669260     
  -774812897.43116856        50969226.850697935        258397685.78067300     
  -1650503457.4899187        8943963.4403539896        119832049.94752796     
  -1527805953.9641945        14016301.045444608        135634278.16096559     
  -1409323276.4034069        5039218.7674098611        124979527.27132197     
  -1295055424.8075829       -17987283.393823743        87867797.278618604     
  -1185002399.1766872       -55063205.438177049        24299088.182842128     
  -1801620565.6826241        35028384.922169685       -14111899.400401575     
  -1770898948.2486808        16838722.891812444       -8251714.4372014245     
  -1748332717.2452343       -28535560.573534966       -41317078.217964701     
  -1733921872.6723032       -101094465.47393870       -113307990.74269749     
  -1727666414.5298920       -200837991.80939782       -224224452.01139179     
  -351857434.76308036        143807029.18160313        683320053.18714106     
  -277811323.25966674        285102046.26657611        786603264.88572979     
  -149006345.49528214        608926617.55480790        905688831.19418848     
   34557498.530079842        1115280743.0463061        1040576752.1125228     
   272880208.81644648        1804164422.7411256        1191267027.6407104     
  -497097909.29328895        117259305.05731282        478071340.78210807     
  -388286716.36684477        222936837.81549370        597266911.58623052     
  -230348849.26931965        492369951.14392793        735621917.56593430     
  -23284308.000722051        925558645.04260921        893136358.72120464     
   232906907.43893960        1522502919.5115094        1069810235.0520446     
  -774812897.43116856        50969226.850697935        258397685.78067300     
  -621644964.32251287        123906772.90987763        386934724.91877210     
  -424982549.13269931        341825925.90626442        537988279.79814684     
  -184825651.86172894        704726685.83983397        711558350.41879869     
   98825727.490396917        1212609052.7106094        907644936.78073478     
  -1185002399.1766872       -55063205.438177049        24299088.182842128     
  -977886067.12668550       -11988148.450276494        155606704.88334566     
  -732907445.08542717        157294541.84181350        312787917.89083195     
  -450066533.05292630        452784865.43803668        495842727.20530409     
  -129363331.02919114        874482822.33838904        704771132.82675278     
  -1727666414.5298920       -200837991.80939782       -224224452.01139179     
  -1457010024.7793593       -184747926.26499426       -96717148.520044133     
  -1154123537.1274996       -61224201.049467444        60020831.843990639     
  -819006951.57432246        169733183.83710647        245989489.08070391     
  -451660268.11979055        508124228.39485192        461188823.19010621     
 </DataArray>
 <DataArray  type="Float64" Name="VM" NumberOfComponents="1" format="ascii">
   6564504966.1987896     
   6237268581.9799929     
   5929461325.5074644     
   5630931587.0779428     
   5333655993.5877399     
   5810106460.1422596     
   5586251809.9450092     
   5371174428.9750891     
   5160643481.7003679     
   4951704663.8480473     
   5243420806.6296625     
   5078683176.3019075     
   4919554783.8843012     
   4765234342.6211157     
   4615391281.1380177     
   4862151956.3164930     
   4713916080.7128401     
   4575708735.1629486     
   4446610859.0218859     
   4326052360.6450129     
   4661058514.9481325     
   4490788452.0145960     
   4340910821.1262484     
   4206744802.4809222     
   4084857750.0771604     
   5333655993.5877399     
   5128693644.1759205     
   4925616181.9284334     
   4723862547.2908697     
   4523052564.0494127     
   4951704663.8480473     
   4771663217.8915577     
   4593418297.2461138     
   4416727763.3774080     
   4241485586.1297288     
   4615391281.1380177     
   4455336337.3291082     
   4296928742.5288486     
   4140165023.6303711     
   3985132206.8812408     
   4326052360.6450129     
   4181621244.5632772     
   4038589244.4851069     
   3897085094.5670648     
   3757287454.0149684     
   4084857750.0771604     
   3952334591.7431412     
   3820850736.1620178     
   3690535413.3752007     
   3561537853.8375812     
   4523052564.0494127     
   4334210141.9316616     
   4145118908.9363151     
   3955677743.1733017     
   3765856420.1093049     
   4241485586.1297288     
   4065688533.7863212     
   3890396319.5855284     
   3715638330.9837818     
   3541525412.7212052     
   3985132206.8812408     
   3822347450.1486721     
   3660943929.5824428     
   3501075071.1054006     
   3342985192.0922627     
   3757287454.0149684     
   3607551536.6581492     
   3460162783.9002523     
   3315381362.6897969     
   3173563941.2616749     
   3561537853.8375812     
   3424911470.3568025     
   3291636318.0730023     
   3162048378.5950580     
   3036579630.8258171     
   3765856420.1093049     
   3587837205.8603821     
   3411255811.0140014     
   3236066127.1464162     
   3062291005.5445571     
   3541525412.7212052     
   3372686831.0007129     
   3205206907.7605586     
   3039093390.6841040     
   2874410539.6151085     
   3342985192.0922627     
   3183822472.9588075     
   3025998033.1497107     
   2869609278.7822042     
   2714816701.8385921     
   3173563941.2616749     
   3025207283.7368932     
   2878284445.8340235     
   2733025080.7593966     
   2589749739.1459231     
   3036579630.8258171     
   2900817154.0074987     
   2766750135.5929556     
   2634782331.3414941     
   2505454892.5659051     
   3062291005.5445571     
   2897786989.0753117     
   2732113019.6749434     
   2565161668.0110869     
   2396867260.8446450     
   2874410539.6151085     
   2714299287.0874553     
   2553949536.0073924     
   2393373027.1840715     
   2232624241.1999526     
   2714816701.8385921     
   2560665337.7093377     
   2407493626.4774394     
   2255455993.1203055     
   2104774046.0661788     
   2589749739.1459231     
   2443057000.4622054     
   2298796188.4970188     
   2157258725.6217575     
   2018839881.7018383     
   2505454892.5659051     
   2367411473.6153593     
   2233361581.5115042     
   2103679458.4111626     
   1978876406.1787205     
   2396867260.8446450     
   2248975597.1909771     
   2103437760.2766221     
   1960238129.3685880     
   1819551853.1965342     
   2232624241.1999526     
   2088797991.4622395     
   1946733358.3185554     
   1806426559.6197395     
   1667957691.6242368     
   2104774046.0661788     
   1964110497.5459852     
   1824417135.6472435     
   1685728818.8223028     
   1548109205.8891096     
   2018839881.7018383     
   1882177675.4848945     
   1745726313.9078984     
   1609619641.8757696     
   1474042935.0580525     
   1978876406.1787205     
   1848900237.3773334     
   1718724214.7903004     
   1588696601.4744649     
   1459342052.5165527     
   1819551853.1965342     
   1779435465.7383797     
   1735716917.3712280     
   1697036048.2237737     
   1681967865.4198840     
   1667957691.6242368     
   1552736825.8183706     
   1428348356.0627441     
   1295129266.2191932     
   1159216955.1855879     
   1548109205.8891096     
   1398167874.0883670     
   1244655558.8195734     
   1085283341.9805462     
   918004681.11399925     
   1474042935.0580525     
   1329542809.7133057     
   1199539095.3354096     
   1088517688.5993221     
   1002398150.5122714     
   1459342052.5165527     
   1349883626.9985278     
   1275474386.2503107     
   1244247038.6476367     
   1263274544.1229587     
   1681967865.4198840     
   1384157884.2058175     
   1129555997.3028572     
   1010013308.8768914     
   1153157468.1756706     
   1159216955.1855879     
   1008623900.4112945     
   985234023.71765876     
   1161437627.9074190     
   1544243548.7289939     
   918004681.11399925     
   963315532.70451653     
   1144997533.4769025     
   1476481510.4080513     
   1957500513.6940644     
   1002398150.5122714     
   1164995326.8453825     
   1425596166.4048214     
   1808819953.1197469     
   2334767898.0907879     
   1263274544.1229587     
   1447031780.5602152     
   1715967722.1454759     
   2110664344.4699109     
   2663550919.6641979     
   4661058514.9481325     
   4490788452.0145960     
   4340910821.1262484     
   4206744802.4809222     
   4084857750.0771604     
   4416941874.3997526     
   4276108277.5110221     
   4138651413.2713675     
   4004202716.0661135     
   3872509858.0916529     
   4179553156.1986156     
   4052761045.6352344     
   3926867072.1244621     
   3800968082.2525392     
   3674483773.2740917     
   3932828667.7356038     
   3809811334.6702261     
   3700301261.3224044     
   3597447964.3410001     
   3496781708.2855434     
   3671444165.6984310     
   3542844744.3546915     
   3457566334.2406349     
   3396435405.4057078     
   3346934592.5443735     
   4084857750.0771604     
   3952334591.7431412     
   3820850736.1620178     
   3690535413.3752007     
   3561537853.8375812     
   3872509858.0916529     
   3747068452.9737997     
   3623443708.2037315     
   3501870435.4231205     
   3382631934.4508462     
   3674483773.2740917     
   3558151210.9886661     
   3445023593.7526903     
   3335419447.4491453     
   3229742379.6333799     
   3496781708.2855434     
   3391143443.1204114     
   3290727218.6159348     
   3195890945.4210992     
   3107114836.2025867     
   3346934592.5443735     
   3252777998.5018544     
   3166486271.6424389     
   3088382465.1342392     
   3018941050.4151301     
   3561537853.8375812     
   3424911470.3568025     
   3291636318.0730023     
   3162048378.5950580     
   3036579630.8258171     
   3382631934.4508462     
   3258718866.0774536     
   3138706657.5087562     
   3022992734.1611290     
   2912073531.6684332     
   3229742379.6333799     
   3119080965.8345327     
   3013033406.0476227     
   2912043933.9942679     
   2816655298.1526155     
   3107114836.2025867     
   3010123985.0730362     
   2918595955.4901137     
   2832994392.1985822     
   2753875997.7402225     
   3018941050.4151301     
   2935774434.4762917     
   2859010104.2319059     
   2789092354.1155009     
   2726548883.4189267     
   3036579630.8258171     
   2900817154.0074987     
   2766750135.5929556     
   2634782331.3414941     
   2505454892.5659051     
   2912073531.6684332     
   2788931532.4924636     
   2669105600.2439170     
   2553115295.8652039     
   2441614567.6345625     
   2816655298.1526155     
   2707106934.0925736     
   2602508969.1021924     
   2503450036.6956964     
   2410634739.6073284     
   2753875997.7402225     
   2658098426.1307631     
   2568786342.8921614     
   2486528395.7455711     
   2411999993.2709365     
   2726548883.4189267     
   2643735695.9130254     
   2568674953.8095317     
   2501888572.7504153     
   2443957404.5772705     
   2505454892.5659051     
   2367411473.6153593     
   2233361581.5115042     
   2103679458.4111626     
   1978876406.1787205     
   2441614567.6345625     
   2315943687.1368523     
   2195243099.2245784     
   2080133895.3049793     
   1971384968.5730500     
   2410634739.6073284     
   2300082173.5617557     
   2195760850.0460625     
   2098473171.8006551     
   2009160313.6848321     
   2411999993.2709365     
   2318848723.3892598     
   2233286696.3345628     
   2156183274.9834223     
   2088519734.4469719     
   2443957404.5772705     
   2369783648.0869293     
   2304485729.8324709     
   2248877433.8883133     
   2203860114.3590097     
   1978876406.1787205     
   1848900237.3773334     
   1718724214.7903004     
   1588696601.4744649     
   1459342052.5165527     
   1971384968.5730500     
   1855923230.2461534     
   1744730281.6856461     
   1638732152.1919496     
   1539068517.7671883     
   2009160313.6848321     
   1913274125.1779308     
   1826163417.6103339     
   1749028094.8427441     
   1683156868.7841804     
   2088519734.4469719     
   2013629231.2289774     
   1951158233.8811405     
   1902172059.9696741     
   1867686730.6613805     
   2203860114.3590097     
   2148289827.8703299     
   2107747883.9734499     
   2082971005.1640854     
   2074620692.0292537     
   1459342052.5165527     
   1349883626.9985278     
   1275474386.2503107     
   1244247038.6476367     
   1263274544.1229587     
   1539068517.7671883     
   1477682681.6010349     
   1449033449.2724161     
   1457101255.3670614     
   1505208901.9435542     
   1683156868.7841804     
   1654075963.7535250     
   1652765516.8388588     
   1681611234.5546281     
   1743238563.1666417     
   1867686730.6613805     
   1856573987.8415618     
   1868505792.7583599     
   1905705098.8601260     
   1971203861.9085612     
   2074620692.0292537     
   2070556751.5574081     
   2085836511.4513955     
   2123099531.1045315     
   2186139316.7325802     
   1263274544.1229587     
   1447031780.5602152     
   1715967722.1454759     
   2110664344.4699109     
   2663550919.6641979     
   1505208901.9435542     
   1613564794.4766121     
   1789078893.5660210     
   2066503461.0392556     
   2476046873.5135508     
   1743238563.1666417     
   1787982599.8743718     
   1884829305.2623117     
   2060693172.0193119     
   2340818126.2221341     
   1971203861.9085612     
   1969245953.1632268     
   2003786314.2821493     
   2093507799.3207436     
   2257091822.7057147     
   2186139316.7325802     
   2156640558.9779325     
   2146692846.5506475     
   2166832159.3808980     
   2228153252.2064943     
   3671444165.6984310     
   3542844744.3546915     
   3457566334.2406349     
   3396435405.4057078     
   3346934592.5443735     
   3090556554.3200955     
   3077423669.9751129     
   3080407841.1826372     
   3093704769.5681672     
   3114354581.4626493     
   2713969865.5508447     
   2757377857.2499542     
   2806858216.2848973     
   2862762888.6670704     
   2925489826.7851152     
   2568617350.2398520     
   2596672711.4501748     
   2645672577.8163338     
   2709265463.8794456     
   2782782637.2796493     
   2656701324.7482810     
   2600691606.2117786     
   2601947048.7627773     
   2636607497.5710025     
   2687372873.8957596     
   3346934592.5443735     
   3252777998.5018544     
   3166486271.6424389     
   3088382465.1342392     
   3018941050.4151301     
   3114354581.4626493     
   3044159979.1278381     
   2981832136.1132755     
   2927747069.6607962     
   2882373683.9983897     
   2925489826.7851152     
   2876825943.8330522     
   2835946385.4481525     
   2803188143.2302856     
   2778929806.4451160     
   2782782637.2796493     
   2752917467.8208485     
   2730626184.2934899     
   2716120241.8531575     
   2709620388.3523402     
   2687372873.8957596     
   2673284404.9712467     
   2666414185.4034963     
   2666776553.8015232     
   2674389611.5220037     
   3018941050.4151301     
   2935774434.4762917     
   2859010104.2319059     
   2789092354.1155009     
   2726548883.4189267     
   2882373683.9983897     
   2817180140.3503838     
   2758776821.6227784     
   2707575294.5057020     
   2664035400.6185422     
   2778929806.4451160     
   2730746093.8074546     
   2689557442.7675977     
   2655700621.8662229     
   2629530853.5141416     
   2709620388.3523402     
   2677090617.9015455     
   2651547869.9146876     
   2633227912.2046771     
   2622365609.2169042     
   2674389611.5220037     
   2655773229.6409950     
   2643926738.1229115     
   2638977469.8477068     
   2641044484.2355123     
   2726548883.4189267     
   2643735695.9130254     
   2568674953.8095317     
   2501888572.7504153     
   2443957404.5772705     
   2664035400.6185422     
   2596624652.3666625     
   2537336688.6954927     
   2486632361.7533450     
   2445001220.6475797     
   2629530853.5141416     
   2577620958.3284497     
   2534062702.9768476     
   2499243548.3741159     
   2473559630.1999626     
   2622365609.2169042     
   2585735571.8070178     
   2557539738.4964795     
   2538093836.6286874     
   2527714306.9094129     
   2641044484.2355123     
   2619173422.5072989     
   2605697277.5674658     
   2600875120.8853769     
   2604969601.8577590     
   2443957404.5772705     
   2369783648.0869293     
   2304485729.8324709     
   2248877433.8883133     
   2203860114.3590097     
   2445001220.6475797     
   2390145415.3356371     
   2344908647.7722373     
   2309910176.3152771     
   2285771612.5301166     
   2473559630.1999626     
   2435484070.9218655     
   2407362384.8305664     
   2389589237.0865192     
   2382525204.4470830     
   2527714306.9094129     
   2503244636.6834044     
   2488758658.1799865     
   2484441067.6125517     
   2490446306.3678160     
   2604969601.8577590     
   2590561557.2117853     
   2585985277.2799954     
   2591249904.7499232     
   2606365400.0129600     
   2203860114.3590097     
   2148289827.8703299     
   2107747883.9734499     
   2082971005.1640854     
   2074620692.0292537     
   2285771612.5301166     
   2244508114.3978143     
   2217298259.7839384     
   2204583464.6258779     
   2206751345.6331296     
   2382525204.4470830     
   2352824976.0070939     
   2336204704.0672531     
   2332919000.0881186     
   2343195650.0741038     
   2490446306.3678160     
   2469856825.1222005     
   2461485795.0750332     
   2465479753.0321660     
   2481980524.1133099     
   2606365400.0129600     
   2592791257.2363605     
   2590745493.7300768     
   2600318380.5526938     
   2621610053.1138287     
   2074620692.0292537     
   2070556751.5574081     
   2085836511.4513955     
   2123099531.1045315     
   2186139316.7325802     
   2206751345.6331296     
   2192250390.2878947     
   2192780857.7485156     
   2210314149.7429729     
   2247757725.8669462     
   2343195650.0741038     
   2318985188.0545835     
   2306277089.6712904     
   2306477961.5855079     
   2321671255.0971308     
   2481980524.1133099     
   2449757422.3274946     
   2425991624.3832364     
   2411630517.9101939     
   2408052536.9062786     
   2621610053.1138287     
   2583763325.7702842     
   2551628047.1677399     
   2525789213.7739549     
   2507061787.9599605     
   2186139316.7325802     
   2156640558.9779325     
   2146692846.5506475     
   2166832159.3808980     
   2228153252.2064943     
   2247757725.8669462     
   2182872222.0074687     
   2134408521.6698725     
   2112032080.5153878     
   2126680238.2959764     
   2321671255.0971308     
   2224769642.0738993     
   2141211169.7326708     
   2079348255.6645687     
   2049335435.4723291     
   2408052536.9062786     
   2282627060.4508677     
   2167746753.5692139     
   2070130679.8373368     
   1998513306.6962638     
   2507061787.9599605     
   2356654665.7894588     
   2214485257.8419952     
   2085509319.4595349     
   1976558790.7242413     
   2656701324.7482810     
   2600691606.2117786     
   2601947048.7627773     
   2636607497.5710025     
   2687372873.8957596     
   2716742373.1883183     
   2663040667.8668046     
   2640609661.4830647     
   2637781133.5133867     
   2646298919.4092956     
   2815833665.6247430     
   2745877010.3528590     
   2695620448.3828144     
   2660647883.3756452     
   2637862731.2351551     
   2947893972.0337043     
   2849825011.0518141     
   2770532095.7716117     
   2709092215.5476594     
   2664862721.1120386     
   3114609872.0449033     
   2980074301.1279278     
   2870935621.5648541     
   2787193833.3556876     
   2728848936.5004249     
   2687372873.8957596     
   2673284404.9712467     
   2666414185.4034963     
   2666776553.8015232     
   2674389611.5220037     
   2646298919.4092956     
   2634192182.5935726     
   2628941607.2267032     
   2630554676.1448250     
   2639041793.9403844     
   2637862731.2351551     
   2625115126.7958541     
   2619026096.1645141     
   2619598877.4415908     
   2626838402.5932059     
   2664862721.1120386     
   2648859090.7254610     
   2639466269.8133855     
   2636685037.5668325     
   2640516699.9784818     
   2728848936.5004249     
   2707162491.5098519     
   2692155871.2188296     
   2683829075.6273584     
   2682182104.7354350     
   2674389611.5220037     
   2655773229.6409950     
   2643926738.1229115     
   2638977469.8477068     
   2641044484.2355123     
   2639041793.9403844     
   2623097940.6588340     
   2614854150.1425095     
   2614406261.0026879     
   2621843613.8890615     
   2626838402.5932059     
   2611865156.6992569     
   2605611792.5050988     
   2608132555.5898213     
   2619477977.9407372     
   2640516699.9784818     
   2624192153.8965211     
   2617702223.5868254     
   2621063500.1732202     
   2634291490.0476294     
   2682182104.7354350     
   2661653792.4831400     
   2652166153.8316221     
   2653719188.7808752     
   2666312897.3308897     
   2641044484.2355123     
   2619173422.5072989     
   2605697277.5674658     
   2600875120.8853769     
   2604969601.8577590     
   2621843613.8890615     
   2608491083.9436393     
   2603855669.5841484     
   2608088673.8601279     
   2621340013.2219787     
   2619477977.9407372     
   2612190477.1340847     
   2613923061.5877647     
   2624744923.0877290     
   2644723413.9270978     
   2634291490.0476294     
   2630305214.7022538     
   2635667763.1615486     
   2650396850.7992969     
   2674509519.9367776     
   2666312897.3308897     
   2662656792.6229954     
   2668736730.6503921     
   2684552711.4130769     
   2710104734.9110641     
   2604969601.8577590     
   2590561557.2117853     
   2585985277.2799954     
   2591249904.7499232     
   2606365400.0129600     
   2621340013.2219787     
   2611149192.5288239     
   2610813687.7586665     
   2620341611.9321389     
   2639740041.0229416     
   2644723413.9270978     
   2637816767.8639574     
   2640928825.9958339     
   2654064692.4786029     
   2677228265.1377501     
   2674509519.9367776     
   2669866209.6417308     
   2675569570.8868651     
   2691621313.9415374     
   2718022638.4518023     
   2710104734.9110641     
   2706626822.1973515     
   2714012221.1461148     
   2732260931.7573757     
   2761372954.0311294     
   2606365400.0129600     
   2592791257.2363605     
   2590745493.7300768     
   2600318380.5526938     
   2621610053.1138287     
   2639740041.0229416     
   2629263077.4026628     
   2629136147.7437067     
   2639401002.0253510     
   2660107378.6250405     
   2677228265.1377501     
   2669384302.9447026     
   2670895861.3142056     
   2681777979.3937941     
   2702050129.3446937     
   2718022638.4518023     
   2712578698.7261295     
   2715650576.1641417     
   2727241252.2485676     
   2747354994.1918750     
   2761372954.0311294     
   2758306613.3270087     
   2763044851.1337581     
   2775587667.4513917     
   2795935062.2799039     
   2621610053.1138287     
   2583763325.7702842     
   2551628047.1677399     
   2525789213.7739549     
   2507061787.9599605     
   2660107378.6250405     
   2615171617.9834442     
   2575792624.5048919     
   2542303667.2521801     
   2515171124.3552461     
   2702050129.3446937     
   2652144710.2667856     
   2607780836.9167032     
   2569107154.5238810     
   2536332117.2932949     
   2747354994.1918750     
   2694597081.7905993     
   2647506132.0575438     
   2606119110.4131398     
   2570487836.0745759     
   2795935062.2799039     
   2742434160.8097453     
   2694867551.1229463     
   2653235233.2195234     
   2617537207.0994434     
   2507061787.9599605     
   2356654665.7894588     
   2214485257.8419952     
   2085509319.4595349     
   1976558790.7242413     
   2515171124.3552461     
   2347457677.0473566     
   2183323699.6202245     
   2025854139.9490108     
   1879585675.2459495     
   2536332117.2932949     
   2356373599.2477164     
   2176128573.5104895     
   1997061736.4637077     
   1821437764.8023369     
   2570487836.0745759     
   2383501649.9038563     
   2193363490.3161292     
   2000449938.1983767     
   1805361648.3595779     
   2617537207.0994434     
   2428806812.0377192     
   2235168621.0342388     
   2036622634.0889940     
   1833168851.2019947     
   3114609872.0449033     
   2980074301.1279278     
   2870935621.5648541     
   2787193833.3556876     
   2728848936.5004249     
   2947893972.1078658     
   2849825011.1120143     
   2770532095.8599763     
   2709092215.6866283     
   2664862721.3085694     
   2815833665.7701874     
   2745877010.4992251     
   2695620448.6032372     
   2660647883.7051754     
   2637862731.6799889     
   2716742373.3520184     
   2663040668.0880308     
   2640609661.8533497     
   2637781134.0694900     
   2646298920.1480641     
   2656701324.8153605     
   2600691606.4479136     
   2601947049.2665029     
   2636607498.3683310     
   2687372874.9636555     
   2728848936.5004249     
   2707162491.5098519     
   2692155871.2188296     
   2683829075.6273584     
   2682182104.7354350     
   2664862721.3085694     
   2648859090.9055204     
   2639466269.9801402     
   2636685037.7230182     
   2640516700.1264429     
   2637862731.6799889     
   2625115127.2033000     
   2619026096.5386162     
   2619598877.7859364     
   2626838402.9109631     
   2646298920.1480641     
   2634192183.2726526     
   2628941607.8482761     
   2630554676.7110424     
   2639041794.4533463     
   2687372874.9636555     
   2673284405.9594073     
   2666414186.3091645     
   2666776554.6227551     
   2674389612.2575569     
   2682182104.7354350     
   2661653792.4831400     
   2652166153.8316221     
   2653719188.7808752     
   2666312897.3308897     
   2640516700.1264429     
   2624192154.0145316     
   2617702223.6778092     
   2621063500.2401671     
   2634291490.0935626     
   2626838402.9109631     
   2611865156.9572682     
   2605611792.7087460     
   2608132555.7446113     
   2619477978.0522442     
   2639041794.4533463     
   2623097941.0832405     
   2614854150.4854951     
   2614406261.2715731     
   2621843614.0913301     
   2674389612.2575569     
   2655773230.2609863     
   2643926738.6353707     
   2638977470.2609591     
   2641044484.5581541     
   2666312897.3308897     
   2662656792.6229954     
   2668736730.6503921     
   2684552711.4130769     
   2710104734.9110641     
   2634291490.0935626     
   2630305214.7558236     
   2635667763.2258973     
   2650396850.8773041     
   2674509520.0309720     
   2619477978.0522442     
   2612190477.2529793     
   2613923061.7197948     
   2624744923.2382975     
   2644723414.1011124     
   2621843614.0913301     
   2608491084.1447563     
   2603855669.7918382     
   2608088674.0818868     
   2621340013.4648747     
   2641044484.5581541     
   2619173422.8120732     
   2605697277.8633094     
   2600875121.1812801     
   2604969602.1625853     
   2710104734.9110641     
   2706626822.1973515     
   2714012221.1461148     
   2732260931.7573757     
   2761372954.0311294     
   2674509520.0309720     
   2669866209.7145305     
   2675569570.9396977     
   2691621313.9760141     
   2718022638.4696741     
   2644723414.1011124     
   2637816767.9980621     
   2640928826.0932884     
   2654064692.5429225     
   2677228265.1726928     
   2621340013.4648747     
   2611149192.7154298     
   2610813687.8944731     
   2620341612.0229239     
   2639740041.0748134     
   2604969602.1625853     
   2590561557.4451852     
   2585985277.4501214     
   2591249904.8652596     
   2606365400.0823154     
   2761372954.0311294     
   2758306613.3270087     
   2763044851.1337581     
   2775587667.4513917     
   2795935062.2799039     
   2718022638.4696741     
   2712578698.7375512     
   2715650576.1697927     
   2727241252.2491632     
   2747354994.1881795     
   2677228265.1726928     
   2669384302.9664798     
   2670895861.3241954     
   2681777979.3934598     
   2702050129.3355551     
   2639740041.0748134     
   2629263077.4342051     
   2629136147.7570195     
   2639401002.0226955     
   2660107378.6087408     
   2606365400.0823154     
   2592791257.2775760     
   2590745493.7460546     
   2600318380.5465279     
   2621610053.0887446     
   2795935062.2799039     
   2742434160.8097453     
   2694867551.1229463     
   2653235233.2195234     
   2617537207.0994434     
   2747354994.1881795     
   2694597081.7857127     
   2647506132.0516701     
   2606119110.4065132     
   2570487836.0675030     
   2702050129.3355551     
   2652144710.2556901     
   2607780836.9040408     
   2569107154.5101562     
   2536332117.2790775     
   2660107378.6087408     
   2615171617.9648304     
   2575792624.4845576     
   2542303667.2308741     
   2515171124.3338647     
   2621610053.0887446     
   2583763325.7428913     
   2551628047.1388588     
   2525789213.7445960     
   2507061787.9313812     
   2617537207.0994434     
   2428806812.0377192     
   2235168621.0342388     
   2036622634.0889940     
   1833168851.2019947     
   2570487836.0675030     
   2383501649.8998575     
   2193363490.3159928     
   2000449938.2032909     
   1805361648.3713927     
   2536332117.2790775     
   2356373599.2394304     
   2176128573.5096097     
   1997061736.4724185     
   1821437764.8239982     
   2515171124.3338647     
   2347457677.0344748     
   2183323699.6178899     
   2025854139.9601843     
   1879585675.2747693     
   2507061787.9313812     
   2356654665.7716093     
   2214485257.8373771     
   2085509319.4715822     
   1976558790.7573378     
   2656701324.8153605     
   2600691606.4479136     
   2601947049.2665029     
   2636607498.3683310     
   2687372874.9636555     
   2568617350.2308517     
   2596672711.7693915     
   2645672578.4542060     
   2709265464.8199792     
   2782782638.5026855     
   2713969866.1497679     
   2757377858.0623097     
   2806858217.3103356     
   2862762889.9037828     
   2925489828.2319264     
   3090556556.2251806     
   3077423671.7056985     
   3080407842.8590231     
   3093704771.2583132     
   3114354583.2024808     
   3671444169.4894886     
   3542844747.4044180     
   3457566336.8297009     
   3396435407.7056623     
   3346934594.6447649     
   2687372874.9636555     
   2673284405.9594073     
   2666414186.3091645     
   2666776554.6227551     
   2674389612.2575569     
   2782782638.5026855     
   2752917468.9213767     
   2730626185.2732787     
   2716120242.7151771     
   2709620389.1007962     
   2925489828.2319264     
   2876825945.1065369     
   2835946386.5542507     
   2803188144.1759653     
   2778929807.2387681     
   3114354583.2024808     
   3044159980.6343851     
   2981832137.3964276     
   2927747070.7307587     
   2882373684.8664880     
   3346934594.6447649     
   3252778000.2988868     
   3166486273.1499367     
   3088382466.3651271     
   3018941051.3826580     
   2674389612.2575569     
   2655773230.2609863     
   2643926738.6353707     
   2638977470.2609591     
   2641044484.5581541     
   2709620389.1007962     
   2677090618.5241318     
   2651547870.4203978     
   2633227912.6032186     
   2622365609.5186477     
   2778929807.2387681     
   2730746094.4622283     
   2689557443.2928238     
   2655700622.2722931     
   2629530853.8125734     
   2882373684.8664880     
   2817180141.0643144     
   2758776822.1915717     
   2707575294.9397559     
   2664035400.9297538     
   3018941051.3826580     
   2935774435.2723851     
   2859010104.8648167     
   2789092354.5949717     
   2726548883.7565122     
   2641044484.5581541     
   2619173422.8120732     
   2605697277.8633094     
   2600875121.1812801     
   2604969602.1625853     
   2622365609.5186477     
   2585735572.0908799     
   2557539738.7719002     
   2538093836.9054127     
   2527714307.1973882     
   2629530853.8125734     
   2577620958.6067905     
   2534062703.2448974     
   2499243548.6423273     
   2473559630.4793553     
   2664035400.9297538     
   2596624652.6535954     
   2537336688.9681730     
   2486632362.0227675     
   2445001220.9257531     
   2726548883.7565122     
   2643735696.2205195     
   2568674954.0969586     
   2501888573.0291281     
   2443957404.8600707     
   2604969602.1625853     
   2590561557.4451852     
   2585985277.4501214     
   2591249904.8652596     
   2606365400.0823154     
   2527714307.1973882     
   2503244636.9027634     
   2488758658.3386045     
   2484441067.7186613     
   2490446306.4300752     
   2473559630.4793553     
   2435484071.1316676     
   2407362384.9781928     
   2389589237.1799040     
   2382525204.4947467     
   2445001220.9257531     
   2390145415.5398159     
   2344908647.9091415     
   2309910176.3922873     
   2285771612.5554876     
   2443957404.8600707     
   2369783648.2885842     
   2304485729.9585814     
   2248877433.9453144     
   2203860114.3545036     
   2606365400.0823154     
   2592791257.2775760     
   2590745493.7460546     
   2600318380.5465279     
   2621610053.0887446     
   2490446306.4300752     
   2469856825.1565533     
   2461485795.0836639     
   2465479753.0174851     
   2481980524.0779300     
   2382525204.4947467     
   2352824976.0286374     
   2336204704.0643373     
   2332919000.0626168     
   2343195650.0280871     
   2285771612.5554876     
   2244508114.4003949     
   2217298259.7650952     
   2204583464.5870862     
   2206751345.5760822     
   2203860114.3545036     
   2148289827.8477445     
   2107747883.9341350     
   2082971005.1093724     
   2074620691.9605906     
   2621610053.0887446     
   2583763325.7428913     
   2551628047.1388588     
   2525789213.7445960     
   2507061787.9313812     
   2481980524.0779300     
   2449757422.2916183     
   2425991624.3474717     
   2411630517.8753986     
   2408052536.8735552     
   2343195650.0280871     
   2318985188.0096188     
   2306277089.6278329     
   2306477961.5442429     
   2321671255.0589757     
   2206751345.5760822     
   2192250390.2331953     
   2192780857.6964722     
   2210314149.6941323     
   2247757725.8220458     
   2074620691.9605906     
   2070556751.4921515     
   2085836511.3897705     
   2123099531.0469580     
   2186139316.6796069     
   2507061787.9313812     
   2356654665.7716093     
   2214485257.8373771     
   2085509319.4715822     
   1976558790.7573378     
   2408052536.8735552     
   2282627060.4309340     
   2167746753.5645704     
   2070130679.8512847     
   1998513306.7327409     
   2321671255.0589757     
   2224769642.0503740     
   2141211169.7261429     
   2079348255.6779413     
   2049335435.5087922     
   2247757725.8220458     
   2182872221.9788156     
   2134408521.6595657     
   2112032080.5257657     
   2126680238.3292871     
   2186139316.6796069     
   2156640558.9426465     
   2146692846.5347283     
   2166832159.3860140     
   2228153252.2339082     
   3671444169.4894886     
   3542844747.4044180     
   3457566336.8297009     
   3396435407.7056623     
   3346934594.6447649     
   3932828670.7415128     
   3809811337.2565947     
   3700301263.6090956     
   3597447966.3814349     
   3496781710.0844207     
   4179553158.0410352     
   4052761047.4246712     
   3926867073.8402348     
   3800968083.8503871     
   3674483774.6917582     
   4416941874.6966906     
   4276108278.1364923     
   4138651414.1024184     
   4004202716.9895411     
   3872509859.0007181     
   4661058513.4075089     
   4490788451.1402102     
   4340910820.7576475     
   4206744802.4797230     
   4084857750.3215561     
   3346934594.6447649     
   3252778000.2988868     
   3166486273.1499367     
   3088382466.3651271     
   3018941051.3826580     
   3496781710.0844207     
   3391143444.6859922     
   3290727219.9401326     
   3195890946.4952016     
   3107114837.0179334     
   3674483774.6917582     
   3558151212.2516270     
   3445023594.8376579     
   3335419448.3320146     
   3229742380.2893109     
   3872509859.0007181     
   3747068453.8218117     
   3623443708.9585848     
   3501870436.0513954     
   3382631934.9174895     
   4084857750.3215561     
   3952334592.0385036     
   3820850736.4734564     
   3690535413.6658154     
   3561537854.0680385     
   3018941051.3826580     
   2935774435.2723851     
   2859010104.8648167     
   2789092354.5949717     
   2726548883.7565122     
   3107114837.0179334     
   3010123985.7440362     
   2918595956.0179672     
   2832994392.5858669     
   2753875997.9911203     
   3229742380.2893109     
   3119080966.3743410     
   3013033406.4672594     
   2912043934.2908235     
   2816655298.3244352     
   3382631934.9174895     
   3258718866.4594989     
   3138706657.7987800     
   3022992734.3526225     
   2912073531.7557378     
   3561537854.0680385     
   3424911470.5389218     
   3291636318.1978707     
   3162048378.6544695     
   3036579630.8120613     
   2726548883.7565122     
   2643735696.2205195     
   2568674954.0969586     
   2501888573.0291281     
   2443957404.8600707     
   2753875997.9911203     
   2658098426.3610268     
   2568786343.1104727     
   2486528395.9624524     
   2411999993.4988980     
   2816655298.3244352     
   2707106934.2447505     
   2602508969.2411671     
   2503450036.8301935     
   2410634739.7485967     
   2912073531.7557378     
   2788931532.5553255     
   2669105600.2855468     
   2553115295.8912816     
   2441614567.6536927     
   3036579630.8120613     
   2900817153.9613786     
   2766750135.5135417     
   2634782331.2302380     
   2505454892.4273262     
   2443957404.8600707     
   2369783648.2885842     
   2304485729.9585814     
   2248877433.9453144     
   2203860114.3545036     
   2411999993.4988980     
   2318848723.5500154     
   2233286696.4292698     
   2156183275.0136905     
   2088519734.4150991     
   2410634739.7485967     
   2300082173.6555119     
   2195760850.0906310     
   2098473171.7942369     
   2009160313.6255493     
   2441614567.6536927     
   2315943687.1335306     
   2195243099.1962323     
   2080133895.2482758     
   1971384968.4837201     
   2505454892.4273262     
   2367411473.4838457     
   2233361581.3856478     
   2103679458.2881715     
   1978876406.0542321     
   2203860114.3545036     
   2148289827.8477445     
   2107747883.9341350     
   2082971005.1093724     
   2074620691.9605906     
   2088519734.4150991     
   2013629231.1874571     
   1951158233.8301146     
   1902172059.9092991     
   1867686730.5918202     
   2009160313.6255493     
   1913274125.1173356     
   1826163417.5474250     
   1749028094.7763555     
   1683156868.7129951     
   1971384968.4837201     
   1855923230.1643074     
   1744730281.6092029     
   1638732152.1184981     
   1539068517.6939056     
   1978876406.0542321     
   1848900237.2699389     
   1718724214.6971118     
   1588696601.3921959     
   1459342052.4413531     
   2074620691.9605906     
   2070556751.4921515     
   2085836511.3897705     
   2123099531.0469580     
   2186139316.6796069     
   1867686730.5918202     
   1856573987.7757657     
   1868505792.6964488     
   1905705098.8023760     
   1971203861.8553457     
   1683156868.7129951     
   1654075963.6865158     
   1652765516.7761488     
   1681611234.4964290     
   1743238563.1132233     
   1539068517.6939056     
   1477682681.5322280     
   1449033449.2083199     
   1457101255.3080053     
   1505208901.8898559     
   1459342052.4413531     
   1349883626.9278738     
   1275474386.1844699     
   1244247038.5872269     
   1263274544.0686533     
   2186139316.6796069     
   2156640558.9426465     
   2146692846.5347283     
   2166832159.3860140     
   2228153252.2339082     
   1971203861.8553457     
   1969245953.1281981     
   2003786314.2668588     
   2093507799.3262143     
   2257091822.7317629     
   1743238563.1132233     
   1787982599.8390050     
   1884829305.2462323     
   2060693172.0226474     
   2340818126.2432132     
   1505208901.8898559     
   1613564794.4402246     
   1789078893.5477700     
   2066503461.0383074     
   2476046873.5268950     
   1263274544.0686533     
   1447031780.5220108     
   1715967722.1238542     
   2110664344.4629629     
   2663550919.6678638     
   4661058513.4075089     
   4490788451.1402102     
   4340910820.7576475     
   4206744802.4797230     
   4084857750.3215561     
   4862151954.5856543     
   4713916079.4237919     
   4575708734.2933817     
   4446610858.5484772     
   4326052360.5429745     
   5243420805.4107189     
   5078683175.1648979     
   4919554782.9153013     
   4765234341.8928242     
   4615391280.7122812     
   5810106460.2668619     
   5586251809.6444721     
   5371174428.4030170     
   5160643480.9991474     
   4951704663.1498508     
   6564504968.5813875     
   6237268583.2830143     
   5929461325.9004431     
   5630931586.7384129     
   5333655992.6943521     
   4084857750.3215561     
   3952334592.0385036     
   3820850736.4734564     
   3690535413.6658154     
   3561537854.0680385     
   4326052360.5429745     
   4181621244.5859356     
   4038589244.6027336     
   3897085094.7492723     
   3757287454.2300253     
   4615391280.7122812     
   4455336337.0819292     
   4296928742.4388742     
   4140165023.6758814     
   3985132207.0393190     
   4951704663.1498508     
   4771663217.4057293     
   4593418296.9615211     
   4416727763.2819786     
   4241485586.2096248     
   5333655992.6943521     
   5128693643.5077829     
   4925616181.4854832     
   4723862547.0709257     
   4523052564.0474625     
   3561537854.0680385     
   3424911470.5389218     
   3291636318.1978707     
   3162048378.6544695     
   3036579630.8120613     
   3757287454.2300253     
   3607551536.8460035     
   3460162784.0518141     
   3315381362.7964759     
   3173563941.3150191     
   3985132207.0393190     
   3822347450.3082428     
   3660943929.7352662     
   3501075071.2436390     
   3342985192.2080626     
   4241485586.2096248     
   4065688533.9025545     
   3890396319.7315531     
   3715638331.1534777     
   3541525412.9084420     
   4523052564.0474625     
   4334210142.0058222     
   4145118909.0823603     
   3955677743.3875747     
   3765856420.3883162     
   3036579630.8120613     
   2900817153.9613786     
   2766750135.5135417     
   2634782331.2302380     
   2505454892.4273262     
   3173563941.3150191     
   3025207283.7261138     
   2878284445.7577081     
   2733025080.6176810     
   2589749738.9408956     
   3342985192.2080626     
   3183822472.9867654     
   3025998033.0889273     
   2869609278.6326513     
   2714816701.6013970     
   3541525412.9084420     
   3372686831.0828705     
   3205206907.7379045     
   3039093390.5573721     
   2874410539.3856702     
   3765856420.3883162     
   3587837206.0218501     
   3411255811.0596981     
   3236066127.0782995     
   3062291005.3650208     
   2505454892.4273262     
   2367411473.4838457     
   2233361581.3856478     
   2103679458.2881715     
   1978876406.0542321     
   2589749738.9408956     
   2443057000.2739072     
   2298796188.3267870     
   2157258725.4704318     
   2018839881.5696273     
   2714816701.6013970     
   2560665337.4922938     
   2407493626.2830644     
   2255455992.9511514     
   2104774045.9248061     
   2874410539.3856702     
   2714299286.8741846     
   2553949535.8127437     
   2393373027.0105705     
   2232624241.0502234     
   3062291005.3650208     
   2897786988.8997202     
   2732113019.5048838     
   2565161667.8477659     
   2396867260.6889319     
   1978876406.0542321     
   1848900237.2699389     
   1718724214.6971118     
   1588696601.3921959     
   1459342052.4413531     
   2018839881.5696273     
   1882177675.3723254     
   1745726313.8131053     
   1609619641.7967091     
   1474042934.9924073     
   2104774045.9248061     
   1964110497.4261324     
   1824417135.5477960     
   1685728818.7421215     
   1548109205.8269558     
   2232624241.0502234     
   2088797991.3350406     
   1946733358.2130980     
   1806426559.5352862     
   1667957691.5599647     
   2396867260.6889319     
   2248975597.0578198     
   2103437760.1651545     
   1960238129.2779238     
   1819551853.1257424     
   1459342052.4413531     
   1349883626.9278738     
   1275474386.1844699     
   1244247038.5872269     
   1263274544.0686533     
   1474042934.9924073     
   1329542809.6536796     
   1199539095.2819433     
   1088517688.5519571     
   1002398150.4706923     
   1548109205.8269558     
   1398167874.0350204     
   1244655558.7753215     
   1085283341.9452364     
   918004681.08712745     
   1667957691.5599647     
   1552736825.7660286     
   1428348356.0227554     
   1295129266.1917980     
   1159216955.1712852     
   1819551853.1257424     
   1779435465.6826789     
   1735716917.3310244     
   1697036048.1993163     
   1681967865.4116151     
   1263274544.0686533     
   1447031780.5220108     
   1715967722.1238542     
   2110664344.4629629     
   2663550919.6678638     
   1002398150.4706923     
   1164995326.8155055     
   1425596166.3879836     
   1808819953.1145720     
   2334767898.0939393     
   918004681.08712745     
   963315532.68347871     
   1144997533.4649413     
   1476481510.4049823     
   1957500513.6973202     
   1159216955.1712852     
   1008623900.3997221     
   985234023.71085739     
   1161437627.9067831     
   1544243548.7328734     
   1681967865.4116151     
   1384157884.2007208     
   1129555997.3009546     
   1010013308.8789155     
   1153157468.1808684     
 </DataArray>
 <DataArray  type="Float64" Name="strain" NumberOfComponents="3" format="ascii">
  0.10946570739522099       -1.9487392110716817E-002   3.2189970122198153E-002
  0.10441427105967804       -2.1952828564863136E-002   2.3759576522458969E-002
   9.9362834724135207E-002  -2.3516954546609847E-002   1.7136242815036562E-002
   9.4311398388592260E-002  -2.4179770055956923E-002   1.2319968999930264E-002
   8.9259962053049313E-002  -2.3941275092904002E-002   9.3107550771398540E-003
   9.6367762090572850E-002  -2.2637703280746657E-002   2.6788073694104075E-002
   9.2860789570898883E-002  -2.3487284843768053E-002   2.1516327660939027E-002
   8.9353817051225082E-002  -2.3882630831809554E-002   1.7526449367196162E-002
   8.5846844531551253E-002  -2.3823741244871195E-002   1.4818438812875007E-002
   8.2339872011877369E-002  -2.3310616082952706E-002   1.3392295997975923E-002
   8.6013287405255878E-002  -2.5788014450776664E-002   2.3225569605844654E-002
   8.3525586548556852E-002  -2.5021741122673080E-002   2.0665396241834194E-002
   8.1037885691857769E-002  -2.4248307117009427E-002   1.8861898464351129E-002
   7.8550184835158673E-002  -2.3467712433785634E-002   1.7815076273395791E-002
   7.6062483978459633E-002  -2.2679957073001744E-002   1.7524929668967792E-002
   7.8402283339270643E-002  -2.8938325620806588E-002   2.1502457857420471E-002
   7.6408661992651949E-002  -2.6556197401577997E-002   2.1206782265144296E-002
   7.4415040646033215E-002  -2.4613983402209105E-002   2.1142590106501255E-002
   7.2421419299414494E-002  -2.3111683622699990E-002   2.1309881381491626E-002
   7.0427797952795759E-002  -2.2049298063050504E-002   2.1708656090115158E-002
   7.3534749892616713E-002  -3.2088636790836511E-002   2.1618738448830999E-002
   7.1510015903183954E-002  -2.8090653680482969E-002   2.3140485730869464E-002
   6.9485281913751334E-002  -2.4979659687408867E-002   2.4368524293646832E-002
   6.7460547924318701E-002  -2.2755654811614338E-002   2.5302854137163044E-002
   6.5435813934886067E-002  -2.1418639053099375E-002   2.5943475261418381E-002
   8.9259962053049313E-002  -2.3941275092904002E-002   9.3107550771398540E-003
   8.5859293854640695E-002  -2.3250336535386218E-002   7.2525673508002098E-003
   8.2458625656232076E-002  -2.2555821261338038E-002   5.7107231068065922E-003
   7.9057957457823402E-002  -2.1857729270759324E-002   4.6852223451593900E-003
   7.5657289259414839E-002  -2.1156060563650270E-002   4.1760650658581033E-003
   8.2339872011877369E-002  -2.3310616082952706E-002   1.3392295997975923E-002
   7.9396006751611792E-002  -2.2568949033553470E-002   1.1920482193443577E-002
   7.6452141491346132E-002  -2.1824433784171565E-002   1.0845930782851010E-002
   7.3508276231080485E-002  -2.1077070334807525E-002   1.0168641766197861E-002
   7.0564410970814839E-002  -2.0326858685461247E-002   9.8886151434847691E-003
   7.6062483978459633E-002  -2.2679957073001744E-002   1.7524929668967792E-002
   7.3456340567930475E-002  -2.1887561531720667E-002   1.6638761269694546E-002
   7.0850197157401401E-002  -2.1093046307005425E-002   1.6030774175954193E-002
   6.8244053746872285E-002  -2.0296411398855949E-002   1.5700968387747517E-002
   6.5637910336343169E-002  -1.9497656807272334E-002   1.5649343905074109E-002
   7.0427797952795759E-002  -2.2049298063050504E-002   2.1708656090115158E-002
   6.8040295303596843E-002  -2.1206174029888003E-002   2.1407404579552709E-002
   6.5652792654397857E-002  -2.0361658829839230E-002   2.1265253286117197E-002
   6.3265290005198899E-002  -1.9515752462904372E-002   2.1282202209808729E-002
   6.0877787355999947E-002  -1.8668454929083478E-002   2.1458251350626997E-002
   6.5435813934886067E-002  -2.1418639053099375E-002   2.5943475261418381E-002
   6.3147870958610824E-002  -2.0524786528055144E-002   2.6226412123018766E-002
   6.0859927982335582E-002  -1.9630271352672840E-002   2.6549368113339605E-002
   5.8571985006060340E-002  -1.8735093526952774E-002   2.6912343232381203E-002
   5.6284042029785097E-002  -1.7839253050894621E-002   2.7315337480142921E-002
   7.5657289259414839E-002  -2.1156060563650270E-002   4.1760650658581033E-003
   7.2479156222481023E-002  -2.0425236399395696E-002   3.4493699624985608E-003
   6.9301023185547206E-002  -1.9639678037380814E-002   2.9782451253442810E-003
   6.6122890148613361E-002  -1.8799385477605443E-002   2.7626905543944869E-003
   6.2944757111679572E-002  -1.7904358720069347E-002   2.8027062496505106E-003
   7.0564410970814839E-002  -2.0326858685461247E-002   9.8886151434847691E-003
   6.7630567286461885E-002  -1.9560826107534512E-002   9.3587807080989238E-003
   6.4696723602109041E-002  -1.8765999872428885E-002   9.0619547116694288E-003
   6.1762879917756114E-002  -1.7942379980144668E-002   8.9981371541970750E-003
   5.8829036233403242E-002  -1.7089966430681280E-002   9.1673280356812104E-003
   6.5637910336343169E-002  -1.9497656807272334E-002   1.5649343905074109E-002
   6.2925794177322719E-002  -1.8696415815673245E-002   1.5290429597080435E-002
   6.0213678018302283E-002  -1.7892321707476982E-002   1.5141961900794879E-002
   5.7501561859281812E-002  -1.7085374482683789E-002   1.5203940816217384E-002
   5.4789445700261369E-002  -1.6275574141293436E-002   1.5476366343348036E-002
   6.0877787355999947E-002  -1.8668454929083478E-002   2.1458251350626997E-002
   5.8364836895063450E-002  -1.7832005523812020E-002   2.1244316629443399E-002
   5.5851886434126960E-002  -1.7018643542525289E-002   2.1218266692719728E-002
   5.3338935973190435E-002  -1.6228368985222851E-002   2.1380101540455557E-002
   5.0825985512253966E-002  -1.5461181851905370E-002   2.1729821172651376E-002
   5.6284042029785097E-002  -1.7839253050894621E-002   2.7315337480142921E-002
   5.3947695439684057E-002  -1.6967595231950822E-002   2.7220441805188011E-002
   5.1611348849583044E-002  -1.6144965377573345E-002   2.7290869087444464E-002
   4.9275002259482059E-002  -1.5371363487762212E-002   2.7526619326912083E-002
   4.6938655669380991E-002  -1.4646789562517526E-002   2.7927692523590841E-002
   6.2944757111679572E-002  -1.7904358720069347E-002   2.8027062496505106E-003
   5.9983876616473197E-002  -1.7030434948677176E-002   2.2258542834581174E-003
   5.7022996121266711E-002  -1.6253451347332692E-002   1.8274376322904851E-003
   5.4062115626060225E-002  -1.5573407916037174E-002   1.6074562961475580E-003
   5.1101235130853850E-002  -1.4990304654789011E-002   1.5659102750289478E-003
   5.8829036233403242E-002  -1.7089966430681280E-002   9.1673280356812104E-003
   5.6040730364104063E-002  -1.6249982127666263E-002   8.5854495654446583E-003
   5.3252424494804940E-002  -1.5463649974724991E-002   8.1702850319982923E-003
   5.0464118625505705E-002  -1.4730969971857757E-002   7.9218344353412795E-003
   4.7675812756206581E-002  -1.4051942119065131E-002   7.8400977754748968E-003
   5.4789445700261369E-002  -1.6275574141293436E-002   1.5476366343348036E-002
   5.2161993078634700E-002  -1.5469529306654906E-002   1.4932749389041433E-002
   4.9534540457007975E-002  -1.4673848602116069E-002   1.4544124993289970E-002
   4.6907087835381223E-002  -1.3888532027678674E-002   1.4310493156093396E-002
   4.4279635213754581E-002  -1.3113579583340806E-002   1.4231853877452016E-002
   5.0825985512253966E-002  -1.5461181851905370E-002   2.1729821172651376E-002
   4.8347664760064954E-002  -1.4689076485643549E-002   2.1267753754248261E-002
   4.5869344007875991E-002  -1.3884047229508201E-002   2.0948957516165698E-002
   4.3391023255687000E-002  -1.3046094083499202E-002   2.0773432458403435E-002
   4.0912702503498009E-002  -1.2175217047616371E-002   2.0741178580961472E-002
   4.6938655669380991E-002  -1.4646789562517526E-002   2.7927692523590841E-002
   4.4597745408394895E-002  -1.3908623664632302E-002   2.7590462661065351E-002
   4.2256835147408883E-002  -1.3094245856899916E-002   2.7384782600625490E-002
   3.9915924886422857E-002  -1.2203656139320014E-002   2.7310652342271285E-002
   3.7575014625436831E-002  -1.1236854511892380E-002   2.7368071886002654E-002
   5.1101235130853850E-002  -1.4990304654789011E-002   1.5659102750289478E-003
   4.8311529111247697E-002  -1.4402879034724370E-002   1.0169163267722547E-003
   4.5521823091641433E-002  -1.3709868526977531E-002   5.8128715737459924E-004
   4.2732117072035197E-002  -1.2911273131548856E-002   2.5902276683559267E-004
   3.9942411052429017E-002  -1.2007092848438150E-002   5.0123155155956667E-005
   4.7675812756206581E-002  -1.4051942119065131E-002   7.8400977754748968E-003
   4.4996831815013572E-002  -1.3371854908167835E-002   7.3983868359499549E-003
   4.2317850873820617E-002  -1.2635996830988011E-002   7.0647612743925947E-003
   3.9638869932627691E-002  -1.1844367887525319E-002   6.8392210908030382E-003
   3.6959888991434597E-002  -1.0996968077780167E-002   6.7217662851809523E-003
   4.4279635213754581E-002  -1.3113579583340806E-002   1.4231853877452016E-002
   4.1706099950083508E-002  -1.2340830781611190E-002   1.3847611925260156E-002
   3.9132564686412366E-002  -1.1562125134998047E-002   1.3566175950144532E-002
   3.6559029422741314E-002  -1.0777462643501559E-002   1.3387545952104660E-002
   3.3985494159070179E-002  -9.9868433071214069E-003   1.3311721931141385E-002
   4.0912702503498009E-002  -1.2175217047616371E-002   2.0741178580961472E-002
   3.8439333516457369E-002  -1.1309806655055044E-002   2.0364591594703198E-002
   3.5965964529416694E-002  -1.0488253439008527E-002   2.0085531184629878E-002
   3.3492595542376033E-002  -9.7105573994779107E-003   1.9903997350740957E-002
   3.1019226555335386E-002  -8.9767185364625912E-003   1.9819990093037448E-002
   3.7575014625436831E-002  -1.1236854511892380E-002   2.7368071886002654E-002
   3.5196532514135181E-002  -1.0278782528498231E-002   2.6949325844279004E-002
   3.2818050402833560E-002  -9.4143817430188126E-003   2.6622826977849068E-002
   3.0439568291531924E-002  -8.6436521554542137E-003   2.6388575286712151E-002
   2.8061086180230288E-002  -7.9665937658041086E-003   2.6246570770868671E-002
   3.9942411052429017E-002  -1.2007092848438150E-002   5.0123155155956667E-005
   3.7507346127779062E-002  -1.1138414327958368E-002  -2.7037007067054475E-004
   3.5072281203128997E-002  -1.0446324220419911E-002  -4.8747427852369185E-004
   3.2637216278479042E-002  -9.9308225258260274E-003  -6.0118946840376219E-004
   3.0202151353828977E-002  -9.5919092441734133E-003  -6.1151564031214356E-004
   3.6959888991434597E-002  -1.0996968077780167E-002   6.7217662851809523E-003
   3.4608194437671103E-002  -1.0178292599820171E-002   6.2444776695000925E-003
   3.2256499883907469E-002  -9.4728366517151663E-003   5.8305407776194085E-003
   2.9904805330143933E-002  -8.8806002334630429E-003   5.4799556095389557E-003
   2.7553110776380396E-002  -8.4015833450659105E-003   5.1927221652585676E-003
   3.3985494159070179E-002  -9.9868433071214069E-003   1.3311721931141385E-002
   3.1677132682020437E-002  -9.2181708716822519E-003   1.2741006808693833E-002
   2.9368771204970667E-002  -8.4993490830081453E-003   1.2193606115874583E-002
   2.7060409727920953E-002  -7.8303779411007107E-003   1.1669519852682136E-002
   2.4752048250871156E-002  -7.2112574459585188E-003   1.1168748019117603E-002
   3.1019226555335386E-002  -8.9767185364625912E-003   1.9819990093037448E-002
   2.8714160860826871E-002  -8.2580491435437497E-003   1.9219217346911940E-002
   2.6409095166318466E-002  -7.5258615143024843E-003   1.8601721736241750E-002
   2.4104029471810038E-002  -6.7801556487382744E-003   1.7967503261026189E-002
   2.1798963777301610E-002  -6.0209315468510716E-003   1.7316561921265947E-002
   2.8061086180230288E-002  -7.9665937658041086E-003   2.6246570770868671E-002
   2.5719278974090654E-002  -7.2979274154056362E-003   2.5679109284153623E-002
   2.3377471767950964E-002  -6.5523739455965180E-003   2.5054887638721157E-002
   2.1035664561811246E-002  -5.7299333563754842E-003   2.4373905834571108E-002
   1.8693857355671584E-002  -4.8306056477436243E-003   2.3636163871703753E-002
   3.0202151353828977E-002  -9.5919092441734133E-003  -6.1151564031214356E-004
   2.9599176086186452E-002  -9.1351401231072327E-003  -3.5757429208849167E-004
   2.8996200818543760E-002  -8.2660709102719276E-003  -1.7904067227019205E-003
   2.8393225550901208E-002  -6.9847016056655969E-003  -4.9100129321521524E-003
   2.7790250283258544E-002  -5.2910322092896145E-003  -9.7163929204395760E-003
   2.7553110776380396E-002  -8.4015833450659105E-003   5.1927221652585676E-003
   2.5533514072115016E-002  -7.8726347874774616E-003   5.8774853876383260E-003
   2.3513917367849774E-002  -7.1306033616542752E-003   5.4157795156102861E-003
   2.1494320663584435E-002  -6.1754890675949636E-003   3.8076045491735599E-003
   1.9474723959319151E-002  -5.0072919053001375E-003   1.0529604883284804E-003
   2.4752048250871156E-002  -7.2112574459585188E-003   1.1168748019117603E-002
   2.1856134794411841E-002  -6.6101294518484677E-003   1.2085115892120357E-002
   1.8960221337952429E-002  -5.9951358130373167E-003   1.2395319355143236E-002
   1.6064307881493052E-002  -5.3662765295243373E-003   1.2099358408186045E-002
   1.3168394425033703E-002  -4.7235516013104384E-003   1.1197233051249422E-002
   2.1798963777301610E-002  -6.0209315468510716E-003   1.7316561921265947E-002
   1.8567038253076741E-002  -5.3476241162194182E-003   1.8265317221356978E-002
   1.5335112728851904E-002  -4.8596682644203443E-003   1.9148212795896465E-002
   1.2103187204627110E-002  -4.5570639914539295E-003   1.9965248644884730E-002
   8.8712616804023092E-003  -4.4398112973204062E-003   2.0716424768321917E-002
   1.8693857355671584E-002  -4.8306056477436243E-003   2.3636163871703753E-002
   1.5666224448109944E-002  -4.0851187805896472E-003   2.4418089375348173E-002
   1.2638591540548194E-002  -3.7242007158029833E-003   2.5674459837870256E-002
   9.6109586329865132E-003  -3.7478514533829249E-003   2.7405275259269724E-002
   6.5833257254248045E-003  -4.1560709933305962E-003   2.9610535639547075E-002
   2.7790250283258544E-002  -5.2910322092896145E-003  -9.7163929204395760E-003
   2.3359760781748173E-002  -4.2059180195508361E-003  -4.1910764358370489E-003
   1.8929271280237803E-002  -4.7502143348554515E-003   2.6009027132243290E-003
   1.4498781778727377E-002  -6.9239211552011848E-003   1.0659544526742781E-002
   1.0068292277217061E-002  -1.0727038480591311E-002   1.9984849004719862E-002
   1.9474723959319151E-002  -5.0072919053001375E-003   1.0529604883284804E-003
   1.6238160376682520E-002  -4.6896278614592113E-003   6.7429572119080960E-003
   1.3001596794045944E-002  -6.2861129227623214E-003   1.3554143108777450E-002
   9.7650332114093408E-003  -9.7967470892082603E-003   2.1486518178936209E-002
   6.5284696287726263E-003  -1.5221530360798319E-002   3.0540082422384707E-002
   1.3168394425033703E-002  -4.7235516013104384E-003   1.1197233051249422E-002
   1.0980283270102531E-002  -5.1733377033671424E-003   1.6767171413704429E-002
   8.7921721151714427E-003  -7.8220115106689692E-003   2.3312825458280839E-002
   6.6040609602403960E-003  -1.2669573023214781E-002   3.0834195184979180E-002
   4.4159498053092383E-003  -1.9716022241005327E-002   3.9331280593798201E-002
   8.8712616804023092E-003  -4.4398112973204062E-003   2.0716424768321917E-002
   7.5861294620083314E-003  -5.6570475452759617E-003   2.5881566169552575E-002
   6.3009972436143535E-003  -9.3579100985761721E-003   3.1876949761735898E-002
   5.0158650252203722E-003  -1.5542398957221579E-002   3.8702575544871998E-002
   3.7307328068265089E-003  -2.4210514121211890E-002   4.6358443518962067E-002
   6.5833257254248045E-003  -4.1560709933305962E-003   2.9610535639547075E-002
   6.0556989523996574E-003  -6.1407573871840038E-003   3.4086141479451881E-002
   5.5280721793744547E-003  -1.0893808686483097E-002   3.9246516019141531E-002
   5.0004454063494186E-003  -1.8415224891228307E-002   4.5091659258616301E-002
   4.4728186333241604E-003  -2.8705006001418898E-002   5.1621571197874694E-002
   7.3534749892616713E-002  -3.2088636790836511E-002   2.1618738448830999E-002
   7.1510015903183954E-002  -2.8090653680482969E-002   2.3140485730869464E-002
   6.9485281913751334E-002  -2.4979659687408867E-002   2.4368524293646832E-002
   6.7460547924318701E-002  -2.2755654811614338E-002   2.5302854137163044E-002
   6.5435813934886067E-002  -2.1418639053099375E-002   2.5943475261418381E-002
   6.9368588268360593E-002  -2.3146971356916568E-002   3.4584943170552884E-002
   6.7168476258626097E-002  -2.1607849911312677E-002   3.4314036234560141E-002
   6.4968364248891589E-002  -2.0322255233339054E-002   3.3986081977224691E-002
   6.2768252239157080E-002  -1.9290187322995971E-002   3.3601080398546826E-002
   6.0568140229422529E-002  -1.8511646180283031E-002   3.3159031498526059E-002
   6.3861699669568964E-002  -1.4205305922996680E-002   4.4775555052700589E-002
   6.1722871037451082E-002  -1.5125046142142357E-002   4.3345456248325615E-002
   5.9584042405333250E-002  -1.5664850779269310E-002   4.2094971520526589E-002
   5.7445213773215389E-002  -1.5824719834377440E-002   4.1024100869303450E-002
   5.5306385141097592E-002  -1.5604653307466743E-002   4.0132844294656411E-002
   5.7014084096241702E-002  -5.2636404890767652E-003   5.2190574095273855E-002
   5.5173200239659013E-002  -8.6422423729721060E-003   5.0234745772166030E-002
   5.3332316383076318E-002  -1.1007446325199503E-002   4.8695192923552566E-002
   5.1491432526493686E-002  -1.2359252345758963E-002   4.7571915549433554E-002
   4.9650548669910970E-002  -1.2697660434650426E-002   4.6864913649809041E-002
   4.8825741548378931E-002   3.6780249448431501E-003   5.6830000298273120E-002
   4.7519463865249911E-002  -2.1594386038017999E-003   5.4981904806081450E-002
   4.6213186182120891E-002  -6.3500418711296969E-003   5.3786746186302636E-002
   4.4906908498991899E-002  -8.8937848571405548E-003   5.3244524438936902E-002
   4.3600630815862879E-002  -9.7906675618341099E-003   5.3355239563984025E-002
   6.5435813934886067E-002  -2.1418639053099375E-002   2.5943475261418381E-002
   6.3147870958610824E-002  -2.0524786528055144E-002   2.6226412123018766E-002
   6.0859927982335582E-002  -1.9630271352672840E-002   2.6549368113339605E-002
   5.8571985006060340E-002  -1.8735093526952774E-002   2.6912343232381203E-002
   5.6284042029785097E-002  -1.7839253050894621E-002   2.7315337480142921E-002
   6.0568140229422529E-002  -1.8511646180283031E-002   3.3159031498526059E-002
   5.8354294409246915E-002  -1.7848357557604083E-002   3.3093807193594449E-002
   5.6140448589071301E-002  -1.7162047207362578E-002   3.3136758072141240E-002
   5.3926602768895701E-002  -1.6452715129558468E-002   3.3287884134166772E-002
   5.1712756948720018E-002  -1.5720361324191523E-002   3.3547185379671107E-002
   5.5306385141097592E-002  -1.5604653307466743E-002   4.0132844294656411E-002
   5.3234792531779714E-002  -1.5171928587153063E-002   3.9741817900417094E-002
   5.1163199922461863E-002  -1.4693823062052039E-002   3.9527122744414611E-002
   4.9091607313143971E-002  -1.4170336732163936E-002   3.9488758826649102E-002
   4.7020014703826121E-002  -1.3601469597488536E-002   3.9626726147120289E-002
   4.9650548669910970E-002  -1.2697660434650426E-002   4.6864913649809041E-002
   4.7789365326209067E-002  -1.2495499616701995E-002   4.6170444243486819E-002
   4.5928181982507157E-002  -1.2225598916741666E-002   4.5720462130159525E-002
   4.4066998638805296E-002  -1.1887958334769572E-002   4.5514967309827577E-002
   4.2205815295103359E-002  -1.1482577870785382E-002   4.5553959782490529E-002
   4.3600630815862879E-002  -9.7906675618341099E-003   5.3355239563984025E-002
   4.2018012792535114E-002  -9.8190706462509825E-003   5.2379686222803534E-002
   4.0435394769207322E-002  -9.7573747714312375E-003   5.1716776229376343E-002
   3.8852776745879565E-002  -9.6055799373750972E-003   5.1366509583702494E-002
   3.7270158722551766E-002  -9.3636861440823949E-003   5.1328886285781639E-002
   5.6284042029785097E-002  -1.7839253050894621E-002   2.7315337480142921E-002
   5.3947695439684057E-002  -1.6967595231950822E-002   2.7220441805188011E-002
   5.1611348849583044E-002  -1.6144965377573345E-002   2.7290869087444464E-002
   4.9275002259482059E-002  -1.5371363487762212E-002   2.7526619326912083E-002
   4.6938655669380991E-002  -1.4646789562517526E-002   2.7927692523590841E-002
   5.1712756948720018E-002  -1.5720361324191523E-002   3.3547185379671107E-002
   4.9547550888654313E-002  -1.4989007934976678E-002   3.3299624851495152E-002
   4.7382344828588621E-002  -1.4282677105627917E-002   3.3229022426178742E-002
   4.5217138768522923E-002  -1.3601368836145322E-002   3.3335378103721731E-002
   4.3051932708457252E-002  -1.2945083126529200E-002   3.3618691884123697E-002
   4.7020014703826121E-002  -1.3601469597488536E-002   3.9626726147120289E-002
   4.5037584319443956E-002  -1.3010420638002465E-002   3.9250506170423541E-002
   4.3055153935061749E-002  -1.2420388833682502E-002   3.9062879442234327E-002
   4.1072723550679591E-002  -1.1831374184528436E-002   3.9063845962552753E-002
   3.9090293166297391E-002  -1.1243376690540541E-002   3.9253405731378699E-002
   4.2205815295103359E-002  -1.1482577870785382E-002   4.5553959782490529E-002
   4.0417795732052918E-002  -1.1031833341028204E-002   4.5073085761972942E-002
   3.8629776169002469E-002  -1.0558100561737192E-002   4.4792440135611261E-002
   3.6841756605952042E-002  -1.0061379532911660E-002   4.4712022903405563E-002
   3.5053737042901587E-002  -9.5416702545519372E-003   4.4831834065355465E-002
   3.7270158722551766E-002  -9.3636861440823949E-003   5.1328886285781639E-002
   3.5688185126481253E-002  -9.0532460440540807E-003   5.0767363626143647E-002
   3.4106211530410740E-002  -8.6958122897916879E-003   5.0417704506309502E-002
   3.2524237934340255E-002  -8.2913848812946958E-003   5.0279908926279704E-002
   3.0942264338269715E-002  -7.8399638185635001E-003   5.0353976886053753E-002
   4.6938655669380991E-002  -1.4646789562517526E-002   2.7927692523590841E-002
   4.4597745408394895E-002  -1.3908623664632302E-002   2.7590462661065351E-002
   4.2256835147408883E-002  -1.3094245856899916E-002   2.7384782600625490E-002
   3.9915924886422857E-002  -1.2203656139320014E-002   2.7310652342271285E-002
   3.7575014625436831E-002  -1.1236854511892380E-002   2.7368071886002654E-002
   4.3051932708457252E-002  -1.2945083126529200E-002   3.3618691884123697E-002
   4.0850678273452373E-002  -1.2277771725815650E-002   3.3276294390212235E-002
   3.8649423838447591E-002  -1.1563386383041080E-002   3.3081658746177661E-002
   3.6448169403442705E-002  -1.0801927098206203E-002   3.3034784952019447E-002
   3.4246914968437903E-002  -9.9933938713104853E-003   3.3135673007738953E-002
   3.9090293166297391E-002  -1.1243376690540541E-002   3.9253405731378699E-002
   3.7044906605065098E-002  -1.0646919786998554E-002   3.8876702638294208E-002
   3.4999520043832867E-002  -1.0032526909182785E-002   3.8663973442877711E-002
   3.2954133482600526E-002  -9.4001980570926104E-003   3.8615218145129505E-002
   3.0908746921368288E-002  -8.7499332307284794E-003   3.8730436745049446E-002
   3.5053737042901587E-002  -9.5416702545519372E-003   4.4831834065355465E-002
   3.3180430403233152E-002  -9.0160678481817913E-003   4.4391687405311193E-002
   3.1307123763564794E-002  -8.5016674353242463E-003   4.4131726690726417E-002
   2.9433817123896356E-002  -7.9984690159791306E-003   4.4051951921601232E-002
   2.7560510484227998E-002  -7.5064725901465845E-003   4.4152363097935583E-002
   3.0942264338269715E-002  -7.8399638185635001E-003   5.0353976886053753E-002
   2.9257249667956509E-002  -7.3852159093648062E-003   4.9821248691263087E-002
   2.7572234997643316E-002  -6.9708079614655555E-003   4.9484918489723390E-002
   2.5887220327330145E-002  -6.5967399748654044E-003   4.9344986281434591E-002
   2.4202205657016973E-002  -6.2630119495646897E-003   4.9401452066396678E-002
   3.7575014625436831E-002  -1.1236854511892380E-002   2.7368071886002654E-002
   3.5196532514135181E-002  -1.0278782528498231E-002   2.6949325844279004E-002
   3.2818050402833560E-002  -9.4143817430188126E-003   2.6622826977849068E-002
   3.0439568291531924E-002  -8.6436521554542137E-003   2.6388575286712151E-002
   2.8061086180230288E-002  -7.9665937658041086E-003   2.6246570770868671E-002
   3.4246914968437903E-002  -9.9933938713104853E-003   3.3135673007738953E-002
   3.1974491496229884E-002  -9.1853308231870101E-003   3.2649827290984701E-002
   2.9702068024021908E-002  -8.4252820746694990E-003   3.2283851677124276E-002
   2.7429644551813882E-002  -7.7132476257574453E-003   3.2037746166157899E-002
   2.5157221079605829E-002  -7.0492274764510920E-003   3.1911510758085571E-002
   3.0908746921368288E-002  -8.7499332307284794E-003   3.8730436745049446E-002
   2.8770005015854472E-002  -8.0918791178756777E-003   3.8223148251573830E-002
   2.6631263110340607E-002  -7.4361824063197274E-003   3.7863352788592528E-002
   2.4492521204826780E-002  -6.7828430960605625E-003   3.7651050356105671E-002
   2.2353779299312912E-002  -6.1318611870980200E-003   3.7586240954113087E-002
   2.7560510484227998E-002  -7.5064725901465845E-003   4.4152363097935583E-002
   2.5583073073008857E-002  -6.9984274125644008E-003   4.3669288726047174E-002
   2.3605635661789699E-002  -6.4470827379699627E-003   4.3361330312253421E-002
   2.1628198250570531E-002  -5.8524385663634038E-003   4.3228487856554906E-002
   1.9650760839351397E-002  -5.2144948977450312E-003   4.3270761358951158E-002
   2.4202205657016973E-002  -6.2630119495646897E-003   4.9401452066396678E-002
   2.2413695667693051E-002  -5.9049757072532350E-003   4.8988248714404103E-002
   2.0625185678369157E-002  -5.4579830696205589E-003   4.8777784248107414E-002
   1.8836675689045262E-002  -4.9220340366667240E-003   4.8770058667505917E-002
   1.7048165699721424E-002  -4.2971286083919313E-003   4.8965071972600138E-002
   2.8061086180230288E-002  -7.9665937658041086E-003   2.6246570770868671E-002
   2.5719278974090654E-002  -7.2979274154056362E-003   2.5679109284153623E-002
   2.3377471767950964E-002  -6.5523739455965180E-003   2.5054887638721157E-002
   2.1035664561811246E-002  -5.7299333563754842E-003   2.4373905834571108E-002
   1.8693857355671584E-002  -4.8306056477436243E-003   2.3636163871703753E-002
   2.5157221079605829E-002  -7.0492274764510920E-003   3.1911510758085571E-002
   2.2797673378443906E-002  -6.3969597493506170E-003   3.1534190542699625E-002
   2.0438125677281899E-002  -5.7201825670571416E-003   3.1178149495986462E-002
   1.8078577976119996E-002  -5.0188959295696250E-003   3.0843387617946236E-002
   1.5719030274957968E-002  -4.2930998368888584E-003   3.0529904908579375E-002
   2.2353779299312912E-002  -6.1318611870980200E-003   3.7586240954113087E-002
   2.0054530430519107E-002  -5.4959920832959586E-003   3.7346684345838876E-002
   1.7755281561725234E-002  -4.8879911885180843E-003   3.7206446233627552E-002
   1.5456032692931422E-002  -4.3078585027638734E-003   3.7165526617479745E-002
   1.3156783824137555E-002  -3.7555940260340925E-003   3.7223925497395449E-002
   1.9650760839351397E-002  -5.2144948977450312E-003   4.3270761358951158E-002
   1.7489850130316183E-002  -4.5950244172411753E-003   4.3116590693570697E-002
   1.5328939421280913E-002  -4.0557998099789230E-003   4.3139777851644065E-002
   1.3168028712245726E-002  -3.5968210759581790E-003   4.3340322833170804E-002
   1.1007118003210487E-002  -3.2180882151795487E-003   4.3718225638151698E-002
   1.7048165699721424E-002  -4.2971286083919313E-003   4.8965071972600138E-002
   1.5103632477835194E-002  -3.6940567511862810E-003   4.8843909585895795E-002
   1.3159099255948978E-002  -3.2236084314397617E-003   4.8978144350035724E-002
   1.1214566034062755E-002  -2.8857836491522904E-003   4.9367776265019869E-002
   9.2700328121765319E-003  -2.6805824043244497E-003   5.0012805330848287E-002
   1.8693857355671584E-002  -4.8306056477436243E-003   2.3636163871703753E-002
   1.5666224448109944E-002  -4.0851187805896472E-003   2.4418089375348173E-002
   1.2638591540548194E-002  -3.7242007158029833E-003   2.5674459837870256E-002
   9.6109586329865132E-003  -3.7478514533829249E-003   2.7405275259269724E-002
   6.5833257254248045E-003  -4.1560709933305962E-003   2.9610535639547075E-002
   1.5719030274957968E-002  -4.2930998368888584E-003   3.0529904908579375E-002
   1.3147897374536199E-002  -3.7744873601417983E-003   3.1294743345666010E-002
   1.0576764474114417E-002  -3.6947515704548461E-003   3.2498136838154973E-002
   8.0056315736926134E-003  -4.0538924678289456E-003   3.4140085386046140E-002
   5.4344986732708656E-003  -4.8519100522634862E-003   3.6220588989339886E-002
   1.3156783824137555E-002  -3.7555940260340925E-003   3.7223925497395449E-002
   1.1006261027380629E-002  -3.4638559396933111E-003   3.7917368983230337E-002
   8.8557382306236956E-003  -3.6653024251067923E-003   3.9013477620992332E-002
   6.7052154338667520E-003  -4.3599334822745153E-003   4.0512251410681974E-002
   4.5546926371097807E-003  -5.5477491111964872E-003   4.2413690352298861E-002
   1.1007118003210487E-002  -3.2180882151795487E-003   4.3718225638151698E-002
   9.2413154066432780E-003  -3.1532245192452540E-003   4.4285966288041073E-002
   7.4755128100761226E-003  -3.6358532797586968E-003   4.5220482186382922E-002
   5.7097102135089681E-003  -4.6659744967204216E-003   4.6521773333176836E-002
   3.9439076169417581E-003  -6.2435881701294327E-003   4.8189839728423070E-002
   9.2700328121765319E-003  -2.6805824043244497E-003   5.0012805330848287E-002
   7.8530605123241226E-003  -2.8425930987968639E-003   5.0400535260098800E-002
   6.4360882124716579E-003  -3.6064041344104902E-003   5.1119150534326696E-002
   5.0191159126191653E-003  -4.9720155111660225E-003   5.2168651153531587E-002
   3.6021436127667283E-003  -6.9394272290624892E-003   5.3549037117713749E-002
   6.5833257254248045E-003  -4.1560709933305962E-003   2.9610535639547075E-002
   6.0556989523996574E-003  -6.1407573871840038E-003   3.4086141479451881E-002
   5.5280721793744547E-003  -1.0893808686483097E-002   3.9246516019141531E-002
   5.0004454063494186E-003  -1.8415224891228307E-002   4.5091659258616301E-002
   4.4728186333241604E-003  -2.8705006001418898E-002   5.1621571197874694E-002
   5.4344986732708656E-003  -4.8519100522634862E-003   3.6220588989339886E-002
   5.4878297790977582E-003  -6.9871647598664932E-003   3.8359423791944236E-002
   5.5411608849247201E-003  -1.1358017026746547E-002   4.0975405652467989E-002
   5.5944919907517585E-003  -1.7964466852902733E-002   4.4068534570911672E-002
   5.6478230965785747E-003  -2.6806514238335355E-002   4.7638810547274479E-002
   4.5546926371097807E-003  -5.5477491111964872E-003   4.2413690352298861E-002
   4.9813599799237995E-003  -7.8335721325493712E-003   4.2748521463771449E-002
   5.4080273227377629E-003  -1.1822225367009359E-002   4.3352877991298694E-002
   5.8346946655516291E-003  -1.7513708814576888E-002   4.4226759934879845E-002
   6.2613620083657451E-003  -2.4908022475251590E-002   4.5370167294516150E-002
   3.9439076169417581E-003  -6.2435881701294327E-003   4.8189839728423070E-002
   4.5362895548775942E-003  -8.6799795052318329E-003   4.7253434494933771E-002
   5.1286714928135413E-003  -1.2286433707272157E-002   4.6378933035633514E-002
   5.7210534307494641E-003  -1.7062950776251067E-002   4.5566335350522472E-002
   6.3134353686853245E-003  -2.3009530712167936E-002   4.4815641439601456E-002
   3.6021436127667283E-003  -6.9394272290624892E-003   5.3549037117713749E-002
   4.1526185039594266E-003  -9.5263868779146277E-003   5.1874162885430675E-002
   4.7030933951521525E-003  -1.2750642047535482E-002   5.0053570785472290E-002
   5.2535682863448230E-003  -1.6612192737925434E-002   4.8087260817838179E-002
   5.8040431775375767E-003  -2.1111038949084282E-002   4.5975232982528258E-002
   4.8825741548378931E-002   3.6780249448431501E-003   5.6830000298273120E-002
   4.7519463865249911E-002  -2.1594386038017999E-003   5.4981904806081450E-002
   4.6213186182120891E-002  -6.3500418711296969E-003   5.3786746186302636E-002
   4.4906908498991899E-002  -8.8937848571405548E-003   5.3244524438936902E-002
   4.3600630815862879E-002  -9.7906675618341099E-003   5.3355239563984025E-002
   4.0613670611406888E-002  -3.0995077278776484E-003   4.9495291097188310E-002
   3.9839013288364547E-002  -6.0913628443032275E-003   5.0088948148057089E-002
   3.9064355965322164E-002  -8.1904805239070705E-003   5.1092909046685980E-002
   3.8289698642279837E-002  -9.3968607666891461E-003   5.2507173793075415E-002
   3.7515041319237469E-002  -9.7105035726494648E-003   5.4331742387225157E-002
   3.3694869870752084E-002  -9.8770404005985024E-003   4.5383251750570619E-002
   3.3209199883143789E-002  -1.0023287084804655E-002   4.7664538500004308E-002
   3.2723529895535522E-002  -1.0030919176684389E-002   5.0113496072545782E-002
   3.2237859907927276E-002  -9.8999366762377930E-003   5.2730124468195083E-002
   3.1752189920319022E-002  -9.6303395834647088E-003   5.5514423686952155E-002
   2.8069339326414436E-002  -1.6654573073319356E-002   4.4493882258420089E-002
   2.7630023649587693E-002  -1.3955211325306013E-002   4.7708675861923219E-002
   2.7190707972760943E-002  -1.1871357829461734E-002   5.0848507263881911E-002
   2.6751392295934207E-002  -1.0403012585786412E-002   5.3913376464295712E-002
   2.6312076619107484E-002  -9.5501755942799249E-003   5.6903283463164811E-002
   2.3737078978393972E-002  -2.3432105746040155E-002   4.6827182620736596E-002
   2.3101484587696203E-002  -1.7887135565807455E-002   5.0221360233814183E-002
   2.2465890196998434E-002  -1.3711796482239080E-002   5.3297942620694372E-002
   2.1830295806300672E-002  -1.0906088495335031E-002   5.6056929781377329E-002
   2.1194701415602910E-002  -9.4700116050952521E-003   5.8498321715862944E-002
   4.3600630815862879E-002  -9.7906675618341099E-003   5.3355239563984025E-002
   4.2018012792535114E-002  -9.8190706462509825E-003   5.2379686222803534E-002
   4.0435394769207322E-002  -9.7573747714312375E-003   5.1716776229376343E-002
   3.8852776745879565E-002  -9.6055799373750972E-003   5.1366509583702494E-002
   3.7270158722551766E-002  -9.3636861440823949E-003   5.1328886285781639E-002
   3.7515041319237469E-002  -9.7105035726494648E-003   5.4331742387225157E-002
   3.6225457874707559E-002  -9.5527423975299564E-003   5.3729403117083685E-002
   3.4935874430177663E-002  -9.3449106970726614E-003   5.3400489656784483E-002
   3.3646290985647774E-002  -9.0870084712774690E-003   5.3345002006327885E-002
   3.2356707541117830E-002  -8.7790357201446567E-003   5.3562940165713807E-002
   3.1752189920319022E-002  -9.6303395834647088E-003   5.5514423686952155E-002
   3.0716423516676292E-002  -9.2864141488089302E-003   5.5245270053950565E-002
   2.9680657113033544E-002  -8.9324466227140298E-003   5.5210324692880744E-002
   2.8644890709390809E-002  -8.5684370051800074E-003   5.5409587603742830E-002
   2.7609124305748065E-002  -8.1943852962069463E-003   5.5843058786536726E-002
   2.6312076619107484E-002  -9.5501755942799249E-003   5.6903283463164811E-002
   2.5490909718441250E-002  -9.0200859000879041E-003   5.6927287033404467E-002
   2.4669742817775002E-002  -8.5199825483553704E-003   5.7146281337665375E-002
   2.3848575917108778E-002  -8.0498655390825458E-003   5.7560266375947328E-002
   2.3027409016442516E-002  -7.6097348722691943E-003   5.8169242148250595E-002
   2.1194701415602910E-002  -9.4700116050952521E-003   5.8498321715862944E-002
   2.0548916480002469E-002  -8.7537576513668502E-003   5.8775454055445292E-002
   1.9903131544402028E-002  -8.1075184739966832E-003   5.9208359591138127E-002
   1.9257346608801587E-002  -7.5312940729849384E-003   5.9797038322941476E-002
   1.8611561673201160E-002  -7.0250844483315533E-003   6.0541490250855146E-002
   3.7270158722551766E-002  -9.3636861440823949E-003   5.1328886285781639E-002
   3.5688185126481253E-002  -9.0532460440540807E-003   5.0767363626143647E-002
   3.4106211530410740E-002  -8.6958122897916879E-003   5.0417704506309502E-002
   3.2524237934340255E-002  -8.2913848812946958E-003   5.0279908926279704E-002
   3.0942264338269715E-002  -7.8399638185635001E-003   5.0353976886053753E-002
   3.2356707541117830E-002  -8.7790357201446567E-003   5.3562940165713807E-002
   3.0979045919722864E-002  -8.4315847421007617E-003   5.3197673678370638E-002
   2.9601384298327926E-002  -8.0552478355730983E-003   5.3029167600574426E-002
   2.8223722676932982E-002  -7.6500250005614168E-003   5.3057421932325273E-002
   2.6846061055538023E-002  -7.2159162370660224E-003   5.3282436673623423E-002
   2.7609124305748065E-002  -8.1943852962069463E-003   5.5843058786536726E-002
   2.6420671528771714E-002  -7.8099234401475121E-003   5.5655940745738097E-002
   2.5232218751795349E-002  -7.4146833813546614E-003   5.5650479984229326E-002
   2.4043765974818981E-002  -7.0086651198282453E-003   5.5826676502010807E-002
   2.2855313197842626E-002  -6.5918686555683503E-003   5.6184530299082366E-002
   2.3027409016442516E-002  -7.6097348722691943E-003   5.8169242148250595E-002
   2.2013061953627771E-002  -7.1882621381941722E-003   5.8142164828245718E-002
   2.0998714890813043E-002  -6.7741189271361760E-003   5.8281641657274189E-002
   1.9984367827998294E-002  -6.3673052390949645E-003   5.8587672635335604E-002
   1.8970020765183566E-002  -5.9678210740707199E-003   5.9060257762430263E-002
   1.8611561673201160E-002  -7.0250844483315533E-003   6.0541490250855146E-002
   1.7756217194291074E-002  -6.5666008362409711E-003   6.0656345925893917E-002
   1.6900872715380988E-002  -6.1335544729176489E-003   6.0922652619708945E-002
   1.6045528236470902E-002  -5.7259453583617982E-003   6.1340410332300185E-002
   1.5190183757560816E-002  -5.3437734925730895E-003   6.1909619063667432E-002
   3.0942264338269715E-002  -7.8399638185635001E-003   5.0353976886053753E-002
   2.9257249667956509E-002  -7.3852159093648062E-003   4.9821248691263087E-002
   2.7572234997643316E-002  -6.9708079614655555E-003   4.9484918489723390E-002
   2.5887220327330145E-002  -6.5967399748654044E-003   4.9344986281434591E-002
   2.4202205657016973E-002  -6.2630119495646897E-003   4.9401452066396678E-002
   2.6846061055538023E-002  -7.2159162370660224E-003   5.3282436673623423E-002
   2.5358052632033445E-002  -6.7756983150035477E-003   5.2827268371102160E-002
   2.3870044208528923E-002  -6.3521480042916662E-003   5.2569714568947157E-002
   2.2382035785024373E-002  -5.9452653049300135E-003   5.2509775267158970E-002
   2.0894027361519824E-002  -5.5550502169187110E-003   5.2647450465736823E-002
   2.2855313197842626E-002  -6.5918686555683503E-003   5.6184530299082366E-002
   2.1565527528262324E-002  -6.1661807206423447E-003   5.5830594238779244E-002
   2.0275741858682039E-002  -5.7334880471177699E-003   5.5675489185958195E-002
   1.8985956189101774E-002  -5.2937906349945652E-003   5.5719215140619172E-002
   1.7696170519521451E-002  -4.8470884842726769E-003   5.5961772102762208E-002
   1.8970020765183566E-002  -5.9678210740707199E-003   5.9060257762430263E-002
   1.7879674356643081E-002  -5.5566631262812249E-003   5.8831226294294436E-002
   1.6789327948102624E-002  -5.1148280899438771E-003   5.8802242340756233E-002
   1.5698981539562163E-002  -4.6423159650590901E-003   5.8973305901815716E-002
   1.4608635131021678E-002  -4.1391267516267261E-003   5.9344416977472676E-002
   1.5190183757560816E-002  -5.3437734925730895E-003   6.1909619063667432E-002
   1.4300493117175767E-002  -4.9471455319198832E-003   6.1829164537647696E-002
   1.3410802476790717E-002  -4.4961681327698177E-003   6.1949974033341348E-002
   1.2521111836405668E-002  -3.9908412951236288E-003   6.2272047550748139E-002
   1.1631421196020619E-002  -3.4311650189806642E-003   6.2795385089868261E-002
   2.4202205657016973E-002  -6.2630119495646897E-003   4.9401452066396678E-002
   2.2413695667693051E-002  -5.9049757072532350E-003   4.8988248714404103E-002
   2.0625185678369157E-002  -5.4579830696205589E-003   4.8777784248107414E-002
   1.8836675689045262E-002  -4.9220340366667240E-003   4.8770058667505917E-002
   1.7048165699721424E-002  -4.2971286083919313E-003   4.8965071972600138E-002
   2.0894027361519824E-002  -5.5550502169187110E-003   5.2647450465736823E-002
   1.9309147160878379E-002  -5.1509329667562831E-003   5.2412173635717096E-002
   1.7724266960236865E-002  -4.7023437809411428E-003   5.2381417497366217E-002
   1.6139386759595385E-002  -4.2092826594735400E-003   5.2555182050684657E-002
   1.4554506558953906E-002  -3.6717496023530583E-003   5.2933467295672443E-002
   1.7696170519521451E-002  -4.8470884842726769E-003   5.5961772102762208E-002
   1.6316701913536055E-002  -4.3968902262596088E-003   5.5859937335046128E-002
   1.4937233307550681E-002  -3.9467044922620459E-003   5.5964405064973036E-002
   1.3557764701565285E-002  -3.4965312822802415E-003   5.6275175292542910E-002
   1.2178296095579903E-002  -3.0463705963142962E-003   5.6792248017755731E-002
   1.4608635131021678E-002  -4.1391267516267261E-003   5.9344416977472676E-002
   1.3436359925666146E-002  -3.6428474857629622E-003   5.9331539812392337E-002
   1.2264084720310585E-002  -3.1910652035826784E-003   5.9526746950928383E-002
   1.1091809514955059E-002  -2.7837799050871113E-003   5.9930038393081288E-002
   9.9195343095994908E-003  -2.4209915902757007E-003   6.0541414138850780E-002
   1.1631421196020619E-002  -3.4311650189806642E-003   6.2795385089868261E-002
   1.0668121197268607E-002  -2.8888047452659271E-003   6.2826981067754528E-002
   9.7048211985166083E-003  -2.4354259149036717E-003   6.3068443155231857E-002
   8.7415211997645959E-003  -2.0710285278938492E-003   6.3519771352299276E-002
   7.7782212010125973E-003  -1.7956125842366610E-003   6.4180965658957034E-002
   1.7048165699721424E-002  -4.2971286083919313E-003   4.8965071972600138E-002
   1.5103632477835194E-002  -3.6940567511862810E-003   4.8843909585895795E-002
   1.3159099255948978E-002  -3.2236084314397617E-003   4.8978144350035724E-002
   1.1214566034062755E-002  -2.8857836491522904E-003   4.9367776265019869E-002
   9.2700328121765319E-003  -2.6805824043244497E-003   5.0012805330848287E-002
   1.4554506558953906E-002  -3.6717496023530583E-003   5.2933467295672443E-002
   1.2866046501653447E-002  -3.1744049777550631E-003   5.2801693431024532E-002
   1.1177586444353016E-002  -2.8019091538554475E-003   5.2926668744703809E-002
   9.4891263870525711E-003  -2.5542621306534827E-003   5.3308393236710550E-002
   7.8006663297521261E-003  -2.4314639081491896E-003   5.3946866907044644E-002
   1.2178296095579903E-002  -3.0463705963142962E-003   5.6792248017755731E-002
   1.0747261230348248E-002  -2.6547532043245115E-003   5.6657637411925921E-002
   9.3162263651166248E-003  -2.3802098762710222E-003   5.6781128011906240E-002
   7.8851914998850133E-003  -2.2227406121542309E-003   5.7162719817696855E-002
   6.4541566346533741E-003  -2.1823454119739849E-003   5.7802412829298044E-002
   9.9195343095994908E-003  -2.4209915902757007E-003   6.0541414138850780E-002
   8.7472766639196675E-003  -2.1351014308935157E-003   6.0411741528600009E-002
   7.5750190182398451E-003  -1.9585105986867635E-003   6.0541522151642546E-002
   6.4027613725600365E-003  -1.8912190936552012E-003   6.0930756007978489E-002
   5.2305037268802271E-003  -1.9332269157986970E-003   6.1579443097607739E-002
   7.7782212010125973E-003  -1.7956125842366610E-003   6.4180965658957034E-002
   6.8660928023676349E-003  -1.6154496574627975E-003   6.4064005781047095E-002
   5.9539644037226724E-003  -1.5368113211021439E-003   6.4207851163913199E-002
   5.0418360050777100E-003  -1.5596975751560813E-003   6.4612501807555844E-002
   4.1297076064327476E-003  -1.6841084196234091E-003   6.5277957711974866E-002
   9.2700328121765319E-003  -2.6805824043244497E-003   5.0012805330848287E-002
   7.8530605123241226E-003  -2.8425930987968639E-003   5.0400535260098800E-002
   6.4360882124716579E-003  -3.6064041344104902E-003   5.1119150534326696E-002
   5.0191159126191653E-003  -4.9720155111660225E-003   5.2168651153531587E-002
   3.6021436127667283E-003  -6.9394272290624892E-003   5.3549037117713749E-002
   7.8006663297521261E-003  -2.4314639081491896E-003   5.3946866907044644E-002
   6.6875395603013532E-003  -2.6260383975347246E-003   5.3874565326933910E-002
   5.5744127908506080E-003  -3.3305095100013282E-003   5.4079069462649620E-002
   4.4612860213998698E-003  -4.5448772455492434E-003   5.4560379314191387E-002
   3.3481592519490899E-003  -6.2691416041786852E-003   5.5318494881559932E-002
   6.4541566346533741E-003  -2.1823454119739849E-003   5.7802412829298044E-002
   5.5907957664533617E-003  -2.4094836962724187E-003   5.7361983457886206E-002
   4.7274348982533562E-003  -3.0546148855920552E-003   5.7144280173149764E-002
   3.8640740300533230E-003  -4.1177389799329084E-003   5.7149302975088773E-002
   3.0007131618533384E-003  -5.5988559792948256E-003   5.7377051863703038E-002
   5.2305037268802271E-003  -1.9332269157986970E-003   6.1579443097607739E-002
   4.5628291307800179E-003  -2.1929289950101960E-003   6.0862789652955031E-002
   3.8951545346798486E-003  -2.7787202611826711E-003   6.0314782665827113E-002
   3.2274799385796724E-003  -3.6906007143164624E-003   5.9935422136223222E-002
   2.5598053424794702E-003  -4.9285703544109938E-003   5.9724708064143713E-002
   4.1297076064327476E-003  -1.6841084196234091E-003   6.5277957711974866E-002
   3.6036396532814347E-003  -1.9763742937479734E-003   6.4376983912141417E-002
   3.0775717001301078E-003  -2.5028256367734814E-003   6.3590576940681376E-002
   2.5515037469788018E-003  -3.2634624486998706E-003   6.2918736797594937E-002
   2.0254357938274681E-003  -4.2582847295271620E-003   6.2361463482881518E-002
   3.6021436127667283E-003  -6.9394272290624892E-003   5.3549037117713749E-002
   4.1526185039594266E-003  -9.5263868779146277E-003   5.1874162885430675E-002
   4.7030933951521525E-003  -1.2750642047535482E-002   5.0053570785472290E-002
   5.2535682863448230E-003  -1.6612192737925434E-002   4.8087260817838179E-002
   5.8040431775375767E-003  -2.1111038949084282E-002   4.5975232982528258E-002
   3.3481592519490899E-003  -6.2691416041786852E-003   5.5318494881559932E-002
   3.7707101446811248E-003  -8.5360710442584642E-003   5.2961588258919889E-002
   4.1932610374132012E-003  -1.1378434024157280E-002   5.0494551507034080E-002
   4.6158119301452777E-003  -1.4796230543875105E-002   4.7917384625902809E-002
   5.0383628228772848E-003  -1.8789460603412245E-002   4.5230087615525827E-002
   3.0007131618533384E-003  -5.5988559792948256E-003   5.7377051863703038E-002
   3.3309277945547666E-003  -7.5457552106021342E-003   5.4399974831655457E-002
   3.6611424272562434E-003  -1.0006226000778870E-002   5.1348355408792498E-002
   3.9913570599576509E-003  -1.2980268349824780E-002   4.8222193595114378E-002
   4.3215716926591485E-003  -1.6467882257740207E-002   4.5021489390620006E-002
   2.5598053424794702E-003  -4.9285703544109938E-003   5.9724708064143713E-002
   2.8332714535804285E-003  -6.5554393769462205E-003   5.6189322603638750E-002
   3.1067375646813850E-003  -8.6340179774006751E-003   5.2614982490748349E-002
   3.3802036757823277E-003  -1.1164306155774564E-002   4.9001687725472858E-002
   3.6536697868832999E-003  -1.4146303912068170E-002   4.5349438307811157E-002
   2.0254357938274681E-003  -4.2582847295271620E-003   6.2361463482881518E-002
   2.2777411217579924E-003  -5.5651235432900847E-003   5.8329631574869034E-002
   2.5300464496885167E-003  -7.2618099540223691E-003   5.4294432752901134E-002
   2.7823517776190132E-003  -9.3483439617243203E-003   5.0255867016977707E-002
   3.0346571055495097E-003  -1.1824725566396133E-002   4.6213934367099085E-002
   2.3737078978393972E-002  -2.3432105746040155E-002   4.6827182620736596E-002
   2.3101484587696203E-002  -1.7887135565807455E-002   5.0221360233814183E-002
   2.2465890196998434E-002  -1.3711796482239080E-002   5.3297942620694372E-002
   2.1830295806300672E-002  -1.0906088495335031E-002   5.6056929781377329E-002
   2.1194701415602910E-002  -9.4700116050952521E-003   5.8498321715862944E-002
   1.9489292603782502E-002  -1.7574079300769818E-002   5.6937282471464234E-002
   1.8655226442985770E-002  -1.3415351667955239E-002   5.8127834081779933E-002
   1.7821160282189032E-002  -1.0283847357198062E-002   5.9239037378095188E-002
   1.6987094121392290E-002  -8.1795663684983977E-003   6.0270892360409611E-002
   1.6153027960595548E-002  -7.1025087018561084E-003   6.1223399028723563E-002
   1.4117183979671787E-002  -1.1716052855499454E-002   6.5489935887470263E-002
   1.3322892960972769E-002  -8.9435677701029948E-003   6.4819269269631108E-002
   1.2528601942273756E-002  -6.8558982321570983E-003   6.4307501249988130E-002
   1.1734310923574730E-002  -5.4530442416617086E-003   6.3954631828541178E-002
   1.0940019904875711E-002  -4.7350057986168814E-003   6.3760661005290320E-002
   7.6207531060618148E-003  -5.8580264102290891E-003   7.2485142868754682E-002
   7.1044841416572132E-003  -4.4717838722507647E-003   7.0295665797367679E-002
   6.5882151772526125E-003  -3.4279491071160795E-003   6.8503334236373253E-002
   6.0719462128480117E-003  -2.7265221148251029E-003   6.7108148185771668E-002
   5.5556772484434101E-003  -2.3675028953776683E-003   6.6110107645562993E-002
  -1.7047412093074144E-011   3.5041247681277810E-011   7.7922903415317601E-002
  -1.4960900573957048E-011   2.5601437636524338E-011   7.4557023664989452E-002
  -1.2874392524286904E-011   1.7924911555056156E-011   7.1826536337250668E-002
  -1.0787882739893284E-011   1.2011565353464704E-011   6.9731441432101415E-002
  -8.7013764249466163E-012   7.8614892373707335E-012   6.8271738949541583E-002
   2.1194701415602910E-002  -9.4700116050952521E-003   5.8498321715862944E-002
   2.0548916480002469E-002  -8.7537576513668502E-003   5.8775454055445292E-002
   1.9903131544402028E-002  -8.1075184739966832E-003   5.9208359591138127E-002
   1.9257346608801587E-002  -7.5312940729849384E-003   5.9797038322941476E-002
   1.8611561673201160E-002  -7.0250844483315533E-003   6.0541490250855146E-002
   1.6153027960595548E-002  -7.1025087018561084E-003   6.1223399028723563E-002
   1.5664434480612402E-002  -6.5653182373149876E-003   6.1269352097848728E-002
   1.5175841000629249E-002  -6.0806388549187809E-003   6.1473914882097871E-002
   1.4687247520646093E-002  -5.6484705546674830E-003   6.1837087381471208E-002
   1.4198654040662936E-002  -5.2688133365612622E-003   6.2358869595968619E-002
   1.0940019904875711E-002  -4.7350057986168814E-003   6.3760661005290320E-002
   1.0611454399523500E-002  -4.3768788232631389E-003   6.3592938498171464E-002
   1.0282888894171279E-002  -4.0537592358408231E-003   6.3586662225190396E-002
   9.9543233888190613E-003  -3.7656470363501941E-003   6.3741832186347075E-002
   9.6257578834668400E-003  -3.5125422247910543E-003   6.4058448381641472E-002
   5.5556772484434101E-003  -2.3675028953776683E-003   6.6110107645562993E-002
   5.3899762367357789E-003  -2.1884394092112833E-003   6.5746213256413569E-002
   5.2242752250281441E-003  -2.0268796167628930E-003   6.5546601620415618E-002
   5.0585742133205042E-003  -1.8828235180327665E-003   6.5511272737569098E-002
   4.8928732016128712E-003  -1.7562711130207492E-003   6.5640226607873900E-002
  -8.7013764249466163E-012   7.8614892373707335E-012   6.8271738949541583E-002
  -7.7507722462399897E-012   4.8405446317900669E-012   6.7729176372575084E-002
  -6.8001698022568391E-012   2.3150370509483764E-012   6.7353733067773647E-002
  -5.8495682256354264E-012   2.8463342793827451E-013   6.7145409035137327E-002
  -4.8989631795670618E-012  -1.2505552149377763E-012   6.7104204274666013E-002
   1.8611561673201160E-002  -7.0250844483315533E-003   6.0541490250855146E-002
   1.7756217194291074E-002  -6.5666008362409711E-003   6.0656345925893917E-002
   1.6900872715380988E-002  -6.1335544729176489E-003   6.0922652619708945E-002
   1.6045528236470902E-002  -5.7259453583617982E-003   6.1340410332300185E-002
   1.5190183757560816E-002  -5.3437734925730895E-003   6.1909619063667432E-002
   1.4198654040662936E-002  -5.2688133365612622E-003   6.2358869595968619E-002
   1.3510356855840629E-002  -4.9249506277941890E-003   6.2307075429010733E-002
   1.2822059671018328E-002  -4.6001658555604591E-003   6.2437924831452260E-002
   1.2133762486196017E-002  -4.2944590198602285E-003   6.2751417803293325E-002
   1.1445465301373720E-002  -4.0078301206935563E-003   6.3247554344533552E-002
   9.6257578834668400E-003  -3.5125422247910543E-003   6.4058448381641472E-002
   9.1357005433555551E-003  -3.2833004193475041E-003   6.3846363684921012E-002
   8.6456432032442562E-003  -3.0667772382033179E-003   6.3848115108222997E-002
   8.1555858631329539E-003  -2.8629726813588236E-003   6.4063702651547622E-002
   7.6655285230216585E-003  -2.6718867488137454E-003   6.4493126314894955E-002
   4.8928732016128712E-003  -1.7562711130207492E-003   6.5640226607873900E-002
   4.6322482568358046E-003  -1.6416502109006595E-003   6.5274210693624643E-002
   4.3716233120587363E-003  -1.5333886208462912E-003   6.5153223450021044E-002
   4.1109983672816645E-003  -1.4314863428573918E-003   6.5277264877063187E-002
   3.8503734225046014E-003  -1.3359433769342399E-003   6.5646334974751433E-002
  -4.8989631795670618E-012  -1.2505552149377763E-012   6.7104204274666013E-002
  -3.7185879375734032E-012  -2.4540092180558304E-012   6.6590616455121598E-002
  -2.5382092261327927E-012  -3.4890146327626326E-012   6.6353249856846402E-002
  -1.3578270452452301E-012  -4.3557726869813962E-012   6.6392104479840258E-002
  -1.7745527269852346E-013  -5.0544013419084877E-012   6.6707180324102944E-002
   1.5190183757560816E-002  -5.3437734925730895E-003   6.1909619063667432E-002
   1.4300493117175767E-002  -4.9471455319198832E-003   6.1829164537647696E-002
   1.3410802476790717E-002  -4.4961681327698177E-003   6.1949974033341348E-002
   1.2521111836405668E-002  -3.9908412951236288E-003   6.2272047550748139E-002
   1.1631421196020619E-002  -3.4311650189806642E-003   6.2795385089868261E-002
   1.1445465301373720E-002  -4.0078301206935563E-003   6.3247554344533552E-002
   1.0762328342330589E-002  -3.7103591503016009E-003   6.3184726914717659E-002
   1.0079191383287459E-002  -3.3721261009261178E-003   6.3333742825872480E-002
   9.3960544242443142E-003  -2.9931309725671866E-003   6.3694602077997819E-002
   8.7129174652011837E-003  -2.5733737652247068E-003   6.4267304671093650E-002
   7.6655285230216585E-003  -2.6718867488137454E-003   6.4493126314894955E-002
   7.1995245645778277E-003  -2.4735727686833187E-003   6.4434338621769741E-002
   6.7335206061339831E-003  -2.2480840690821957E-003   6.4597973588872620E-002
   6.2675166476901453E-003  -1.9954206500105223E-003   6.4984031216203594E-002
   5.8015126892463076E-003  -1.7155825114684164E-003   6.5592511503762274E-002
   3.8503734225046014E-003  -1.3359433769342399E-003   6.5646334974751433E-002
   3.6120817839174688E-003  -1.2367863870649254E-003   6.5577999658804023E-002
   3.3737901453303326E-003  -1.1240420372383292E-003   6.5742666322342019E-002
   3.1354985067431982E-003  -9.9771032745391355E-004   6.6140334965365505E-002
   2.8972068681560638E-003  -8.5779125771229259E-004   6.6771005587874355E-002
  -1.7745527269852346E-013  -5.0544013419084877E-012   6.6707180324102944E-002
   3.4951208593980709E-013  -5.4466986476597867E-012   6.6615710025820452E-002
   8.7647944457813765E-013  -5.3944904099267887E-012   6.6767821026280649E-002
   1.4034415990460403E-012  -4.8973949895447788E-012   6.7163513325483454E-002
   1.9304141618547987E-012  -3.9560577036468203E-012   6.7802786923429226E-002
   1.1631421196020619E-002  -3.4311650189806642E-003   6.2795385089868261E-002
   1.0668121197268607E-002  -2.8888047452659271E-003   6.2826981067754528E-002
   9.7048211985166083E-003  -2.4354259149036717E-003   6.3068443155231857E-002
   8.7415211997645959E-003  -2.0710285278938492E-003   6.3519771352299276E-002
   7.7782212010125973E-003  -1.7956125842366610E-003   6.4180965658957034E-002
   8.7129174652011837E-003  -2.5733737652247068E-003   6.4267304671093650E-002
   7.9672232985341998E-003  -2.1666035596734634E-003   6.4235880563380143E-002
   7.2215291318672020E-003  -1.8265694366889629E-003   6.4429802010246034E-002
   6.4758349652002181E-003  -1.5532713962706085E-003   6.4849069011691754E-002
   5.7301407985332203E-003  -1.3467094384187472E-003   6.5493681567716899E-002
   5.8015126892463076E-003  -1.7155825114684164E-003   6.5592511503762274E-002
   5.2889037996535875E-003  -1.4444023740810275E-003   6.5520312671234593E-002
   4.7762949100608500E-003  -1.2177129584740182E-003   6.5688938838275715E-002
   4.2636860204681125E-003  -1.0355142646473643E-003   6.6098390004885571E-002
   3.7510771308753785E-003  -8.9780629260094447E-004   6.6748666171064480E-002
   2.8972068681560638E-003  -8.5779125771229259E-004   6.6771005587874355E-002
   2.6331627006268140E-003  -7.2220118848857762E-004   6.6680277391318529E-002
   2.3691185330975426E-003  -6.0885648025913591E-004   6.6845853639320829E-002
   2.1050743655682885E-003  -5.1775713302412187E-004   6.7267734331881060E-002
   1.8410301980390214E-003  -4.4890314678319720E-004   6.7945919468999527E-002
   1.9304141618547987E-012  -3.9560577036468203E-012   6.7802786923429226E-002
   1.4538509285344503E-012  -2.8962943154908771E-012   6.7715774723631772E-002
   9.7729463410800577E-013  -2.0446144777253039E-012   6.7900546413381224E-002
   5.0073833968156123E-013  -1.4009973736683889E-012   6.8357101992678138E-002
   2.4175106361212784E-014  -9.6522789760911110E-013   6.9085441461522401E-002
   7.7782212010125973E-003  -1.7956125842366610E-003   6.4180965658957034E-002
   6.8660928023676349E-003  -1.6154496574627975E-003   6.4064005781047095E-002
   5.9539644037226724E-003  -1.5368113211021439E-003   6.4207851163913199E-002
   5.0418360050777100E-003  -1.5596975751560813E-003   6.4612501807555844E-002
   4.1297076064327476E-003  -1.6841084196234091E-003   6.5277957711974866E-002
   5.7301407985332203E-003  -1.3467094384187472E-003   6.5493681567716899E-002
   5.0706243703818182E-003  -1.2115872432610919E-003   6.5348711117727554E-002
   4.4111079422304092E-003  -1.1526084909254108E-003   6.5448159347949258E-002
   3.7515915140790071E-003  -1.1697731814113016E-003   6.5792026258381361E-002
   3.0920750859275981E-003  -1.2630813147188613E-003   6.6380311849024709E-002
   3.7510771308753785E-003  -8.9780629260094447E-004   6.6748666171064480E-002
   3.3277860926519097E-003  -8.0772482905958065E-004   6.6601066296588074E-002
   2.9044950544284409E-003  -7.6840566074802552E-004   6.6681498521756935E-002
   2.4812040162049583E-003  -7.7984878766641438E-004   6.6989962846570827E-002
   2.0579129779814895E-003  -8.4205420981448009E-004   6.7526459271029987E-002
   1.8410301980390214E-003  -4.4890314678319720E-004   6.7945919468999527E-002
   1.6375779691778624E-003  -4.0386241485836083E-004   6.7821071317628198E-002
   1.4341257403167051E-003  -3.8420283057118837E-004   6.7907868685336228E-002
   1.2306735114555574E-003  -3.8992439392158094E-004   6.8206311572123757E-002
   1.0272212825943889E-003  -4.2102710490984907E-004   6.8716399977990672E-002
   2.4175106361212784E-014  -9.6522789760911110E-013   6.9085441461522401E-002
  -4.0273340218277554E-014  -6.5647487446085506E-013   6.9008726180847857E-002
  -1.0473913403252766E-013  -3.9385161798577428E-013   6.9127269838687000E-002
  -1.6918584588854202E-013  -1.7673362773251711E-013   6.9441072435040219E-002
  -2.3365337442626810E-013  -5.6621374255882984E-015   6.9950133969907347E-002
   4.1297076064327476E-003  -1.6841084196234091E-003   6.5277957711974866E-002
   3.6036396532814347E-003  -1.9763742937479734E-003   6.4376983912141417E-002
   3.0775717001301078E-003  -2.5028256367734814E-003   6.3590576940681376E-002
   2.5515037469788018E-003  -3.2634624486998706E-003   6.2918736797594937E-002
   2.0254357938274681E-003  -4.2582847295271620E-003   6.2361463482881518E-002
   3.0920750859275981E-003  -1.2630813147188613E-003   6.6380311849024709E-002
   2.6848115011286200E-003  -1.4822807202772292E-003   6.5282133716438928E-002
   2.2775479163296489E-003  -1.8771192275151005E-003   6.4306997492184714E-002
   1.8702843315306708E-003  -2.4475968364316980E-003   6.3454903176261679E-002
   1.4630207467316997E-003  -3.1937135470283540E-003   6.2725850768669988E-002
   2.0579129779814895E-003  -8.4205420981448009E-004   6.7526459271029987E-002
   1.7779288414927277E-003  -9.8818714680648512E-004   6.6289623172913703E-002
   1.4979447050039695E-003  -1.2514128182561784E-003   6.5184304063086687E-002
   1.2179605685152060E-003  -1.6317312241638619E-003   6.4210501941548620E-002
   9.3797643202644942E-004  -2.1291423645295460E-003   6.3368216808299904E-002
   1.0272212825943889E-003  -4.2102710490984907E-004   6.8716399977990672E-002
   8.8299167437371970E-004  -4.9409357333590753E-004   6.7399452281565464E-002
   7.3876206615305657E-004  -6.2570640899774904E-004   6.6222496653387045E-002
   5.9453245793239040E-004  -8.1586561189596861E-004   6.5185533093455955E-002
   4.5030284971172424E-004  -1.0645711820302939E-003   6.4288561601771294E-002
  -2.3365337442626810E-013  -5.6621374255882984E-015   6.9950133969907347E-002
  -2.2836593727149079E-013   1.3489209749195652E-013   6.8611621042394377E-002
  -2.2307850011671349E-013   2.6101343308937430E-013   6.7421575263086231E-002
  -2.1779626713236411E-013   3.7223002458119936E-013   6.6379996631983296E-002
  -2.1250362580715887E-013   4.6818104948442851E-013   6.5486885149084739E-002
   2.0254357938274681E-003  -4.2582847295271620E-003   6.2361463482881518E-002
   2.2777411217579924E-003  -5.5651235432900847E-003   5.8329631574869034E-002
   2.5300464496885167E-003  -7.2618099540223691E-003   5.4294432752901134E-002
   2.7823517776190132E-003  -9.3483439617243203E-003   5.0255867016977707E-002
   3.0346571055495097E-003  -1.1824725566396133E-002   4.6213934367099085E-002
   1.4630207467316997E-003  -3.1937135470283540E-003   6.2725850768669988E-002
   1.6970318061990119E-003  -4.1738426573247334E-003   5.8375345591194894E-002
   1.9310428656663242E-003  -5.4463574653424163E-003   5.3991618790748597E-002
   2.1650539251336226E-003  -7.0112579710806880E-003   4.9574670367331125E-002
   2.3990649846009626E-003  -8.8685441745397497E-003   4.5124500320943284E-002
   9.3797643202644942E-004  -2.1291423645295460E-003   6.3368216808299904E-002
   1.1238385140149368E-003  -2.7825617713599371E-003   5.8796500260611284E-002
   1.3097005960034172E-003  -3.6309049766623525E-003   5.4161707380935564E-002
   1.4955626779919184E-003  -4.6741719804369447E-003   4.9463838169273661E-002
   1.6814247599803989E-003  -5.9123627826833669E-003   4.4702892625624435E-002
   4.5030284971172424E-004  -1.0645711820302939E-003   6.4288561601771294E-002
   5.5816124520576861E-004  -1.3912808853951963E-003   5.9593095583117990E-002
   6.6601964069982686E-004  -1.8154524879822331E-003   5.4804698523461745E-002
   7.7387803619385388E-004  -2.3370859897930349E-003   4.9923370422803544E-002
   8.8173643168791560E-004  -2.9561813908269841E-003   4.4949111281143039E-002
  -2.1250362580715887E-013   4.6818104948442851E-013   6.5486885149084739E-002
  -2.2852553183128066E-013   5.7021054544748040E-013   6.0765131558714880E-002
  -2.4453356006759464E-013   6.9752537079637023E-013   5.5920592218327292E-002
  -2.6054505775086056E-013   8.5034063124211912E-013   5.0953267127921836E-002
  -2.7655655543412649E-013   1.0293987884324451E-012   4.5863156287498708E-002
  -1.7047412093074144E-011   3.5041247681277810E-011   7.7922903415317601E-002
  -1.4960900573957048E-011   2.5601437636524338E-011   7.4557023664989452E-002
  -1.2874392524286904E-011   1.7924911555056156E-011   7.1826536337250668E-002
  -1.0787882739893284E-011   1.2011565353464704E-011   6.9731441432101415E-002
  -8.7013764249466163E-012   7.8614892373707335E-012   6.8271738949541583E-002
  -7.6207531393621374E-003   5.8580264665984427E-003   7.2485142854613216E-002
  -7.1044841710476789E-003   4.4717839131479808E-003   7.0295665787815764E-002
  -6.5882152027332205E-003   3.4279491355421188E-003   6.8503334230884477E-002
  -6.0719462344187534E-003   2.7265221337806830E-003   6.7108148183819910E-002
  -5.5556772661042968E-003   2.3675029078638055E-003   6.6110107646621646E-002
  -1.4117184010588590E-002   1.1716052898155610E-002   6.5489935862857701E-002
  -1.3322892988769189E-002   8.9435678006945518E-003   6.4819269253671985E-002
  -1.2528601966949802E-002   6.8558982531593121E-003   6.4307501241629858E-002
  -1.1734310945130406E-002   5.4530442555498528E-003   6.3954631826731057E-002
  -1.0940019923311010E-002   4.7350058078661772E-003   6.3760661008975678E-002
  -1.9489292630726789E-002   1.7574079329712777E-002   5.6937282440050703E-002
  -1.8655226468125459E-002   1.3415351688241178E-002   5.8127834062558316E-002
  -1.7821160305524154E-002   1.0283847370776540E-002   5.9239037369486269E-002
  -1.6987094142922838E-002   8.1795663773189965E-003   6.0270892360834771E-002
  -1.6153027980321519E-002   7.1025087078684934E-003   6.1223399036603524E-002
  -2.3737078999776694E-002   2.3432105761269972E-002   4.6827182586192673E-002
  -2.3101484609116485E-002   1.7887135575787722E-002   5.0221360214474708E-002
  -2.2465890218456259E-002   1.3711796488393754E-002   5.3297942614454169E-002
  -2.1830295827796047E-002   1.0906088499088151E-002   5.6056929786131013E-002
  -2.1194701437135824E-002   9.4700116078708652E-003   5.8498321729505254E-002
  -8.7013764249466163E-012   7.8614892373707335E-012   6.8271738949541583E-002
  -7.7507722462399897E-012   4.8405446317900669E-012   6.7729176372575084E-002
  -6.8001698022568391E-012   2.3150370509483764E-012   6.7353733067773647E-002
  -5.8495682256354264E-012   2.8463342793827451E-013   6.7145409035137327E-002
  -4.8989631795670618E-012  -1.2505552149377763E-012   6.7104204274666013E-002
  -5.5556772661042968E-003   2.3675029078638055E-003   6.6110107646621646E-002
  -5.3899762525025114E-003   2.1884394170722521E-003   6.5746213257788205E-002
  -5.2242752389007243E-003   2.0268796206867334E-003   6.5546601622092013E-002
  -5.0585742252989346E-003   1.8828235187071732E-003   6.5511272739533111E-002
  -4.8928732116971518E-003   1.7562711111335227E-003   6.5640226610111457E-002
  -1.0940019923311010E-002   4.7350058078661772E-003   6.3760661008975678E-002
  -1.0611454416085804E-002   4.3768788293038069E-003   6.3592938502185906E-002
  -1.0282888908860588E-002   4.0537592390582633E-003   6.3586662229505680E-002
  -9.9543234016353805E-003   3.7656470371295464E-003   6.3741832190934974E-002
  -9.6257578944101575E-003   3.5125422235176007E-003   6.4058448386473815E-002
  -1.6153027980321519E-002   7.1025087078684934E-003   6.1223399036603524E-002
  -1.5664434498500641E-002   6.5653182415354380E-003   6.1269352105768261E-002
  -1.5175841016679757E-002   6.0806388574298209E-003   6.1473914890014816E-002
  -1.4687247534858866E-002   5.6484705555520584E-003   6.1837087389343175E-002
  -1.4198654053037978E-002   5.2688133359015954E-003   6.2358869603753329E-002
  -2.1194701437135824E-002   9.4700116078708652E-003   5.8498321729505254E-002
  -2.0548916499747039E-002   8.7537576537670414E-003   5.8775454068535293E-002
  -1.9903131562358234E-002   8.1075184758014757E-003   5.9208359603619365E-002
  -1.9257346624969442E-002   7.5312940739744559E-003   5.9797038334757482E-002
  -1.8611561687580644E-002   7.0250844482857011E-003   6.0541490261949604E-002
  -4.8989631795670618E-012  -1.2505552149377763E-012   6.7104204274666013E-002
  -3.7185879375734032E-012  -2.4540092180558304E-012   6.6590616455121598E-002
  -2.5382092261327927E-012  -3.4890146327626326E-012   6.6353249856846402E-002
  -1.3578270452452301E-012  -4.3557726869813962E-012   6.6392104479840258E-002
  -1.7745527269852346E-013  -5.0544013419084877E-012   6.6707180324102944E-002
  -4.8928732116971518E-003   1.7562711111335227E-003   6.5640226610111457E-002
  -4.6322482645502656E-003   1.6416502069472594E-003   6.5274210695618173E-002
  -4.3716233174033812E-003   1.5333886151295273E-003   6.5153223451788880E-002
  -4.1109983702565002E-003   1.4314863356805207E-003   6.5277264878623453E-002
  -3.8503734231096105E-003   1.3359433685999900E-003   6.5646334976122156E-002
  -9.6257578944101575E-003   3.5125422235176007E-003   6.4058448386473815E-002
  -9.1357005519018663E-003   3.2833004163484586E-003   6.3846363689231883E-002
  -8.6456432093935751E-003   3.0667772337483051E-003   6.3848115112048853E-002
  -8.1555858668852718E-003   2.8629726757170397E-003   6.4063702654924781E-002
  -7.6655285243769859E-003   2.6718867422546033E-003   6.4493126317859362E-002
  -1.4198654053037978E-002   5.2688133359015954E-003   6.2358869603753329E-002
  -1.3510356865773392E-002   4.9249506257496370E-003   6.2307075435963033E-002
  -1.2822059678508788E-002   4.6001658523669373E-003   6.2437924837626627E-002
  -1.2133762491244182E-002   4.2944590157535014E-003   6.2751417808743964E-002
  -1.1445465303979588E-002   4.0078301159092722E-003   6.3247554349314949E-002
  -1.8611561687580644E-002   7.0250844482857011E-003   6.0541490261949604E-002
  -1.7756217206164826E-002   6.5666008351508709E-003   6.0656345935811484E-002
  -1.6900872724749022E-002   6.1335544709856665E-003   6.0922652628521839E-002
  -1.6045528243333204E-002   5.7259453557899458E-003   6.1340410340080961E-002
  -1.5190183761917393E-002   5.3437734895637190E-003   6.1909619070488864E-002
  -1.7745527269852346E-013  -5.0544013419084877E-012   6.6707180324102944E-002
   3.4951208593980709E-013  -5.4466986476597867E-012   6.6615710025820452E-002
   8.7647944457813765E-013  -5.3944904099267887E-012   6.6767821026280649E-002
   1.4034415990460403E-012  -4.8973949895447788E-012   6.7163513325483454E-002
   1.9304141618547987E-012  -3.9560577036468203E-012   6.7802786923429226E-002
  -3.8503734231096105E-003   1.3359433685999900E-003   6.5646334976122156E-002
  -3.6120817834523478E-003   1.2367863780827493E-003   6.5577999660492797E-002
  -3.3737901437950815E-003   1.1240420283228914E-003   6.5742666324381416E-002
  -3.1354985041378083E-003   9.9771031932101295E-004   6.6140334967787748E-002
  -2.8972068644805456E-003   8.5779125107665610E-004   6.6771005590711863E-002
  -7.6655285243769859E-003   2.6718867422546033E-003   6.4493126317859362E-002
  -7.1995245648144163E-003   2.4735727616121139E-003   6.4434338625196541E-002
  -6.7335206052518588E-003   2.2480840620402870E-003   6.4597973592826680E-002
  -6.2675166456892927E-003   1.9954206435394244E-003   6.4984031220749583E-002
  -5.8015126861267457E-003   1.7155825061093144E-003   6.5592511508965279E-002
  -1.1445465303979588E-002   4.0078301159092722E-003   6.3247554349314949E-002
  -1.0762328343736719E-002   3.7103591451414647E-003   6.3184726919931947E-002
  -1.0079191383493856E-002   3.3721260957578422E-003   6.3333742831616607E-002
  -9.3960544232509872E-003   2.9931309677579451E-003   6.3694602084369070E-002
  -8.7129174630081255E-003   2.5733737611420560E-003   6.4267304678189446E-002
  -1.5190183761917393E-002   5.3437734895637190E-003   6.1909619070488864E-002
  -1.4300493120219231E-002   4.9471455286708155E-003   6.1829164544698445E-002
  -1.3410802478521069E-002   4.4961681294750644E-003   6.1949974040750977E-002
  -1.2521111836822904E-002   3.9908412919762437E-003   6.2272047558646376E-002
  -1.1631421195124746E-002   3.4311650161746865E-003   6.2795385098384449E-002
   1.9304141618547987E-012  -3.9560577036468203E-012   6.7802786923429226E-002
   1.4538509285344503E-012  -2.8962943154908771E-012   6.7715774723631772E-002
   9.7729463410800577E-013  -2.0446144777253039E-012   6.7900546413381224E-002
   5.0073833968156123E-013  -1.4009973736683889E-012   6.8357101992678138E-002
   2.4175106361212784E-014  -9.6522789760911110E-013   6.9085441461522401E-002
  -2.8972068644805456E-003   8.5779125107665610E-004   6.6771005590711863E-002
  -2.6331626978695968E-003   7.2220118355448282E-004   6.6680277393458331E-002
  -2.3691185312586481E-003   6.0885647671835019E-004   6.6845853640832592E-002
  -2.1050743646476950E-003   5.1775713056916722E-004   6.7267734332834547E-002
  -1.8410301980367368E-003   4.4890314510637186E-004   6.7945919469464156E-002
  -5.8015126861267457E-003   1.7155825061093144E-003   6.5592511508965279E-002
  -5.2889037973478763E-003   1.4444023700051212E-003   6.5520312675150377E-002
  -4.7762949085690181E-003   1.2177129554819949E-003   6.5688938841043806E-002
  -4.2636860197901548E-003   1.0355142625396128E-003   6.6098390006645164E-002
  -3.7510771310112906E-003   8.9780629117808264E-004   6.6748666171954768E-002
  -8.7129174630081255E-003   2.5733737611420560E-003   6.4267304678189446E-002
  -7.9672232969809666E-003   2.1666035564557734E-003   6.4235880568707909E-002
  -7.2215291309538059E-003   1.8265694342451885E-003   6.4429802014014728E-002
  -6.4758349649266566E-003   1.5532713945098069E-003   6.4849069014109945E-002
  -5.7301407988994864E-003   1.3467094372499044E-003   6.5493681568994128E-002
  -1.1631421195124746E-002   3.4311650161746865E-003   6.2795385098384449E-002
  -1.0668121196768882E-002   2.8888047429066477E-003   6.2826981074130539E-002
  -9.7048211984130349E-003   2.4354259130086320E-003   6.3068443159745413E-002
  -8.7415212000571691E-003   2.0710285264800635E-003   6.3519771355229154E-002
  -7.7782212017013241E-003   1.7956125833215042E-003   6.4180965660581846E-002
   2.4175106361212784E-014  -9.6522789760911110E-013   6.9085441461522401E-002
  -4.0273340218277554E-014  -6.5647487446085506E-013   6.9008726180847857E-002
  -1.0473913403252766E-013  -3.9385161798577428E-013   6.9127269838687000E-002
  -1.6918584588854202E-013  -1.7673362773251711E-013   6.9441072435040219E-002
  -2.3365337442626810E-013  -5.6621374255882984E-015   6.9950133969907347E-002
  -1.8410301980367368E-003   4.4890314510637186E-004   6.7945919469464156E-002
  -1.6375779692940629E-003   4.0386241375883758E-004   6.7821071317918313E-002
  -1.4341257405513647E-003   3.8420282995504929E-004   6.7907868685472772E-002
  -1.2306735118086699E-003   3.8992439369574250E-004   6.8206311572127420E-002
  -1.0272212830659926E-003   4.2102710497993190E-004   6.8716399977882703E-002
  -3.7510771310112906E-003   8.9780629117808264E-004   6.6748666171954768E-002
  -3.3277860928749535E-003   8.0772482817409452E-004   6.6601066297127309E-002
  -2.9044950547385965E-003   7.6840566030403346E-004   6.6681498521986987E-002
  -2.4812040166022589E-003   7.7984878756787862E-004   6.6989962846533427E-002
  -2.0579129784659023E-003   8.4205420996558145E-004   6.7526459270766892E-002
  -5.7301407988994864E-003   1.3467094372499044E-003   6.5493681568994128E-002
  -5.0706243707829739E-003   1.2115872425895458E-003   6.5348711118475081E-002
  -4.4111079426664545E-003   1.1526084906528650E-003   6.5448159348229534E-002
  -3.7515915145499390E-003   1.1697731814400182E-003   6.5792026258257350E-002
  -3.0920750864334230E-003   1.2630813149510922E-003   6.6380311848558776E-002
  -7.7782212017013241E-003   1.7956125833215042E-003   6.4180965660581846E-002
  -6.8660928030181284E-003   1.6154496570047749E-003   6.4064005781961253E-002
  -5.9539644043349188E-003   1.5368113210019463E-003   6.4207851164200636E-002
  -5.0418360056517196E-003   1.5596975753123313E-003   6.4612501807300021E-002
  -4.1297076069685135E-003   1.6841084199368250E-003   6.5277957711259105E-002
  -2.3365337442626810E-013  -5.6621374255882984E-015   6.9950133969907347E-002
  -2.2836593727149079E-013   1.3489209749195652E-013   6.8611621042394377E-002
  -2.2307850011671349E-013   2.6101343308937430E-013   6.7421575263086231E-002
  -2.1779626713236411E-013   3.7223002458119936E-013   6.6379996631983296E-002
  -2.1250362580715887E-013   4.6818104948442851E-013   6.5486885149084739E-002
  -1.0272212830659926E-003   4.2102710497993190E-004   6.8716399977882703E-002
  -8.8299167483328611E-004   4.9409357364538220E-004   6.7399452281426464E-002
  -7.3876206660057793E-004   6.2570640952899770E-004   6.6222496653220053E-002
  -5.9453245836787755E-004   8.1586561263097962E-004   6.5185533093263637E-002
  -4.5030285013516330E-004   1.0645711829506688E-003   6.4288561601557159E-002
  -2.0579129784659023E-003   8.4205420996558145E-004   6.7526459270766892E-002
  -1.7779288419607388E-003   9.8818714715570577E-004   6.6289623172600121E-002
  -1.4979447054555900E-003   1.2514128187972040E-003   6.5184304062728127E-002
  -1.2179605689504338E-003   1.6317312248895072E-003   6.4210501941151230E-002
  -9.3797643244529147E-004   2.1291423654333230E-003   6.3368216807869221E-002
  -3.0920750864334230E-003   1.2630813149510922E-003   6.6380311848558776E-002
  -2.6848115016107543E-003   1.4822807206661126E-003   6.5282133715914625E-002
  -2.2775479167881068E-003   1.8771192280651328E-003   6.4306997491610410E-002
  -1.8702843319654519E-003   2.4475968371482568E-003   6.3454903175646088E-002
  -1.4630207471427901E-003   3.1937135479155609E-003   6.2725850768021868E-002
  -4.1297076069685135E-003   1.6841084199368250E-003   6.5277957711259105E-002
  -3.6036396537833318E-003   1.9763742941765194E-003   6.4376983911370478E-002
  -3.0775717005981328E-003   2.5028256373332836E-003   6.3590576939866750E-002
  -2.5515037474129441E-003   3.2634624494069786E-003   6.2918736796748198E-002
  -2.0254357942277521E-003   4.2582847303982430E-003   6.2361463482014878E-002
  -2.1250362580715887E-013   4.6818104948442851E-013   6.5486885149084739E-002
  -2.2852553183128066E-013   5.7021054544748040E-013   6.0765131558714880E-002
  -2.4453356006759464E-013   6.9752537079637023E-013   5.5920592218327292E-002
  -2.6054505775086056E-013   8.5034063124211912E-013   5.0953267127921836E-002
  -2.7655655543412649E-013   1.0293987884324451E-012   4.5863156287498708E-002
  -4.5030285013516330E-004   1.0645711829506688E-003   6.4288561601557159E-002
  -5.5816124566053157E-004   1.3912808865143567E-003   5.9593095582955724E-002
  -6.6601964118588250E-004   1.8154524893468360E-003   5.4804698523353346E-002
  -7.7387803671123516E-004   2.3370859914478986E-003   4.9923370422750496E-002
  -8.8173643223660170E-004   2.9561813928182801E-003   4.4949111281146648E-002
  -9.3797643244529147E-004   2.1291423654333230E-003   6.3368216807869221E-002
  -1.1238385144629118E-003   2.7825617724583918E-003   5.8796500260279577E-002
  -1.3097005964805512E-003   3.6309049779958275E-003   5.4161707380706067E-002
  -1.4955626784982018E-003   4.6741719820452936E-003   4.9463838169148615E-002
  -1.6814247605158247E-003   5.9123627846069393E-003   4.4702892625608115E-002
  -1.4630207471427901E-003   3.1937135479155609E-003   6.2725850768021868E-002
  -1.6970318066356609E-003   4.1738426584024824E-003   5.8375345590687078E-002
  -1.9310428661285313E-003   5.4463574666452005E-003   5.3991618790385415E-002
  -2.1650539256213922E-003   7.0112579726428811E-003   4.9574670367116720E-002
  -2.3990649851142586E-003   8.8685441763955986E-003   4.5124500320881805E-002
  -2.0254357942277521E-003   4.2582847303982430E-003   6.2361463482014878E-002
  -2.2777411221787808E-003   5.5651235443466840E-003   5.8329631574177809E-002
  -2.5300464501298130E-003   7.2618099552940740E-003   5.4294432752391097E-002
  -2.7823517780808694E-003   9.3483439632399551E-003   5.0255867016655020E-002
  -3.0346571060318739E-003   1.1824725568184480E-002   4.6213934366969411E-002
  -2.3737078999776694E-002   2.3432105761269972E-002   4.6827182586192673E-002
  -2.3101484609116485E-002   1.7887135575787722E-002   5.0221360214474708E-002
  -2.2465890218456259E-002   1.3711796488393754E-002   5.3297942614454169E-002
  -2.1830295827796047E-002   1.0906088499088151E-002   5.6056929786131013E-002
  -2.1194701437135824E-002   9.4700116078708652E-003   5.8498321729505254E-002
  -2.8069339344519811E-002   1.6654573072071355E-002   4.4493882235442234E-002
  -2.7630023669186602E-002   1.3955211325329647E-002   4.7708675849243626E-002
  -2.7190707993853439E-002   1.1871357830536139E-002   5.0848507260693412E-002
  -2.6751392318520251E-002   1.0403012587690975E-002   5.3913376469791795E-002
  -2.6312076643187073E-002   9.5501755967940527E-003   5.6903283476538669E-002
  -3.3694869891737603E-002   9.8770403828727371E-003   4.5383251746502498E-002
  -3.3209199905780279E-002   1.0023287074871559E-002   4.7664538499682996E-002
  -3.2723529919822997E-002   1.0030919172678641E-002   5.0113496076463072E-002
  -3.2237859933865722E-002   9.8999366762938020E-003   5.2730124476842902E-002
  -3.1752189947908432E-002   9.6303395857172958E-003   5.5514423700822338E-002
  -4.0613670641429969E-002   3.0995076936741334E-003   4.9495291119373272E-002
  -3.9839013318897422E-002   6.0913628244134502E-003   5.0088948165792853E-002
  -3.9064355996364944E-002   8.1904805148209740E-003   5.1092909061763205E-002
  -3.8289698673832369E-002   9.3968607648967119E-003   5.2507173807284438E-002
  -3.7515041351299849E-002   9.7105035746404555E-003   5.4331742402356373E-002
  -4.8825741593597066E-002  -3.6780249955244981E-003   5.6830000354054666E-002
  -4.7519463908538145E-002   2.1594385739554522E-003   5.4981904847573315E-002
  -4.6213186223479211E-002   6.3500418569634870E-003   5.3786746216593823E-002
  -4.4906908538420297E-002   8.8937848534994986E-003   5.3244524461116258E-002
  -4.3600630853361355E-002   9.7906675635637264E-003   5.3355239581140856E-002
  -2.1194701437135824E-002   9.4700116078708652E-003   5.8498321729505254E-002
  -2.0548916499747039E-002   8.7537576537670414E-003   5.8775454068535293E-002
  -1.9903131562358234E-002   8.1075184758014757E-003   5.9208359603619365E-002
  -1.9257346624969442E-002   7.5312940739744559E-003   5.9797038334757482E-002
  -1.8611561687580644E-002   7.0250844482857011E-003   6.0541490261949604E-002
  -2.6312076643187073E-002   9.5501755967940527E-003   5.6903283476538669E-002
  -2.5490909740669886E-002   9.0200859029049563E-003   5.6927287045075825E-002
  -2.4669742838152674E-002   8.5199825510832022E-003   5.7146281347815811E-002
  -2.3848575935635472E-002   8.0498655413289676E-003   5.7560266384758606E-002
  -2.3027409033118274E-002   7.6097348736421377E-003   5.8169242155904022E-002
  -3.1752189947908432E-002   9.6303395857172958E-003   5.5514423700822338E-002
  -3.0716423542114062E-002   9.2864141520431071E-003   5.5245270064795723E-002
  -2.9680657136319753E-002   8.9324466263652133E-003   5.5210324701120660E-002
  -2.8644890730525407E-002   8.5684370086838140E-003   5.5409587609797084E-002
  -2.7609124324731074E-002   8.1943852989988242E-003   5.5843058790825031E-002
  -3.7515041351299849E-002   9.7105035746404555E-003   5.4331742402356373E-002
  -3.6225457904079640E-002   9.5527424011811399E-003   5.3729403127694961E-002
  -3.4935874456859424E-002   9.3449107016471654E-003   5.3400489663533779E-002
  -3.3646291009639208E-002   9.0870084760386327E-003   5.3345002009872848E-002
  -3.2356707562418985E-002   8.7790357243554412E-003   5.3562940166712092E-002
  -4.3600630853361355E-002   9.7906675635637264E-003   5.3355239581140856E-002
  -4.2018012826566545E-002   9.8190706503191449E-003   5.2379686233773565E-002
  -4.0435394799771734E-002   9.7573747769289787E-003   5.1716776235055273E-002
  -3.8852776772976938E-002   9.6055799433932068E-003   5.1366509584985995E-002
  -3.7270158746182114E-002   9.3636861497120027E-003   5.1328886283565578E-002
  -1.8611561687580644E-002   7.0250844482857011E-003   6.0541490261949604E-002
  -1.7756217206164826E-002   6.5666008351508709E-003   6.0656345935811484E-002
  -1.6900872724749022E-002   6.1335544709856665E-003   6.0922652628521839E-002
  -1.6045528243333204E-002   5.7259453557899458E-003   6.1340410340080961E-002
  -1.5190183761917393E-002   5.3437734895637190E-003   6.1909619070488864E-002
  -2.3027409033118274E-002   7.6097348736421377E-003   5.8169242155904022E-002
  -2.2013061967701919E-002   7.1882621385763179E-003   5.8142164834914550E-002
  -2.0998714902285560E-002   6.7741189266847246E-003   5.8281641663077532E-002
  -1.9984367836869233E-002   6.3673052379677325E-003   5.8587672640392927E-002
  -1.8970020771452878E-002   5.9678210724249947E-003   5.9060257766860746E-002
  -2.7609124324731074E-002   8.1943852989988242E-003   5.5843058790825031E-002
  -2.6420671545010408E-002   7.8099234420016816E-003   5.5655940749189073E-002
  -2.5232218765289759E-002   7.4146833823838451E-003   5.5650479987009359E-002
  -2.4043765985569111E-002   7.0086651201453545E-003   5.5826676504285869E-002
  -2.2855313205848448E-002   6.5918686552862149E-003   5.6184530301018526E-002
  -3.2356707562418985E-002   8.7790357243554412E-003   5.3562940166712092E-002
  -3.0979045938090276E-002   8.4315847454270870E-003   5.3197673678634733E-002
  -2.9601384313761574E-002   8.0552478380827401E-003   5.3029167600317333E-002
  -2.8223722689432861E-002   7.6500250023230588E-003   5.3057421931759947E-002
  -2.6846061065104163E-002   7.2159162381474629E-003   5.3282436672962452E-002
  -3.7270158746182114E-002   9.3636861497120027E-003   5.1328886283565578E-002
  -3.5688185146941567E-002   9.0532460488524646E-003   5.0767363623251793E-002
  -3.4106211547701035E-002   8.6958122937820514E-003   5.0417704503001565E-002
  -3.2524237948460495E-002   8.2913848845007979E-003   5.0279908922815003E-002
  -3.0942264349219956E-002   7.8399638210086553E-003   5.0353976882692220E-002
  -1.5190183761917393E-002   5.3437734895637190E-003   6.1909619070488864E-002
  -1.4300493120219231E-002   4.9471455286708155E-003   6.1829164544698445E-002
  -1.3410802478521069E-002   4.4961681294750644E-003   6.1949974040750977E-002
  -1.2521111836822904E-002   3.9908412919762437E-003   6.2272047558646376E-002
  -1.1631421195124746E-002   3.4311650161746865E-003   6.2795385098384449E-002
  -1.8970020771452878E-002   5.9678210724249947E-003   5.9060257766860746E-002
  -1.7879674361471011E-002   5.5566631242997266E-003   5.8831226299329936E-002
  -1.6789327951489137E-002   5.1148280878352548E-003   5.8802242346523981E-002
  -1.5698981541507256E-002   4.6423159630310240E-003   5.8973305908442547E-002
  -1.4608635131525421E-002   4.1391267498878115E-003   5.9344416985085635E-002
  -2.2855313205848448E-002   6.5918686552862149E-003   5.6184530301018526E-002
  -2.1565527534701066E-002   6.1661807199287488E-003   5.5830594241710996E-002
  -2.0275741863553652E-002   5.7334880461954452E-003   5.5675489190009864E-002
  -1.8985956192406259E-002   5.2937906340858598E-003   5.5719215145915074E-002
  -1.7696170521258867E-002   4.8470884836006034E-003   5.5961772109426849E-002
  -2.6846061065104163E-002   7.2159162381474629E-003   5.3282436672962452E-002
  -2.5358052639909423E-002   6.7756983155576600E-003   5.2827268371841180E-002
  -2.3870044214714670E-002   6.3521480045555800E-003   5.2569714571208542E-002
  -2.2382035789519937E-002   5.9452653051407789E-003   5.2509775271064062E-002
  -2.0894027364325201E-002   5.5550502173134508E-003   5.2647450471407821E-002
  -3.0942264349219956E-002   7.8399638210086553E-003   5.0353976882692220E-002
  -2.9257249677096059E-002   7.3852159111866822E-003   4.9821248689721098E-002
  -2.7572235004972134E-002   6.9708079629157566E-003   4.9484918490120239E-002
  -2.5887220332848203E-002   6.5967399761954031E-003   4.9344986283889378E-002
  -2.4202205660724313E-002   6.2630119510264093E-003   4.9401452071028529E-002
  -1.1631421195124746E-002   3.4311650161746865E-003   6.2795385098384449E-002
  -1.0668121196768882E-002   2.8888047429066477E-003   6.2826981074130539E-002
  -9.7048211984130349E-003   2.4354259130086320E-003   6.3068443159745413E-002
  -8.7415212000571691E-003   2.0710285264800635E-003   6.3519771355229154E-002
  -7.7782212017013241E-003   1.7956125833215042E-003   6.4180965660581846E-002
  -1.4608635131525421E-002   4.1391267498878115E-003   5.9344416985085635E-002
  -1.3436359926292347E-002   3.6428474844019676E-003   5.9331539818019641E-002
  -1.2264084721059309E-002   3.1910652025713693E-003   5.9526746954839088E-002
  -1.1091809515826265E-002   2.7837799043954822E-003   5.9930038395543977E-002
  -9.9195343105932011E-003   2.4209915898749657E-003   6.0541414140134420E-002
  -1.7696170521258867E-002   4.8470884836006034E-003   5.5961772109426849E-002
  -1.6316701915132032E-002   4.3968902258972320E-003   5.5859937339833826E-002
  -1.4937233309005222E-002   3.9467044921342037E-003   5.5964405068142917E-002
  -1.3557764702878400E-002   3.4965312823111196E-003   5.6275175294354073E-002
  -1.2178296096751577E-002   3.0463705964283716E-003   5.6792248018467134E-002
  -2.0894027364325201E-002   5.5550502173134508E-003   5.2647450471407821E-002
  -1.9309147163287983E-002   5.1509329673925797E-003   5.2412173639572977E-002
  -1.7724266962250820E-002   4.7023437816969896E-003   5.2381417499656857E-002
  -1.6139386761213629E-002   4.2092826602265366E-003   5.2555182051659349E-002
  -1.4554506560176442E-002   3.6717496029815277E-003   5.2933467295580412E-002
  -2.4202205660724313E-002   6.2630119510264093E-003   4.9401452071028529E-002
  -2.2413695670760181E-002   5.9049757088878163E-003   4.8988248717237060E-002
  -2.0625185680796063E-002   5.4579830712596644E-003   4.8777784249380840E-002
  -1.8836675690831930E-002   4.9220340381422034E-003   4.8770058667459870E-002
  -1.7048165700867812E-002   4.2971286095351280E-003   4.8965071971474150E-002
  -7.7782212017013241E-003   1.7956125833215042E-003   6.4180965660581846E-002
  -6.8660928030181284E-003   1.6154496570047749E-003   6.4064005781961253E-002
  -5.9539644043349188E-003   1.5368113210019463E-003   6.4207851164200636E-002
  -5.0418360056517196E-003   1.5596975753123313E-003   6.4612501807300021E-002
  -4.1297076069685135E-003   1.6841084199368250E-003   6.5277957711259105E-002
  -9.9195343105932011E-003   2.4209915898749657E-003   6.0541414140134420E-002
  -8.7472766648022532E-003   2.1351014307466887E-003   6.0411741529217022E-002
  -7.5750190190112792E-003   1.9585105987493800E-003   6.0541522151655258E-002
  -6.4027613732203113E-003   1.8912190938812842E-003   6.0930756007449044E-002
  -5.2305037274293607E-003   1.9332269161437265E-003   6.1579443096598574E-002
  -1.2178296096751577E-002   3.0463705964283716E-003   5.6792248018467134E-002
  -1.0747261231357198E-002   2.6547532044887689E-003   5.6657637412069667E-002
  -9.3162263659628576E-003   2.3802098764962448E-003   5.6781128011523227E-002
  -7.8851915005684753E-003   2.2227406124499006E-003   5.7162719816828113E-002
  -6.4541566351741103E-003   2.1823454123507391E-003   5.7802412827984095E-002
  -1.4554506560176442E-002   3.6717496029815277E-003   5.2933467295580412E-002
  -1.2866046502683028E-002   3.1744049782309880E-003   5.2801693430519013E-002
  -1.1177586445189588E-002   2.8019091542432276E-003   5.2926668743804667E-002
  -9.4891263876961535E-003   2.5542621310187964E-003   5.3308393235436860E-002
  -7.8006663302027353E-003   2.4314639085576961E-003   5.3946866905416224E-002
  -1.7048165700867812E-002   4.2971286095351280E-003   4.8965071971474150E-002
  -1.5103632478779688E-002   3.6940567519727630E-003   4.8843909584565415E-002
  -1.3159099256691537E-002   3.2236084319905156E-003   4.8978144348499397E-002
  -1.1214566034603420E-002   2.8857836495875186E-003   4.9367776263275737E-002
  -9.2700328125152609E-003   2.6805824047646531E-003   5.0012805328894738E-002
  -4.1297076069685135E-003   1.6841084199368250E-003   6.5277957711259105E-002
  -3.6036396537833318E-003   1.9763742941765194E-003   6.4376983911370478E-002
  -3.0775717005981328E-003   2.5028256373332836E-003   6.3590576939866750E-002
  -2.5515037474129441E-003   3.2634624494069786E-003   6.2918736796748198E-002
  -2.0254357942277521E-003   4.2582847303982430E-003   6.2361463482014878E-002
  -5.2305037274293607E-003   1.9332269161437265E-003   6.1579443096598574E-002
  -4.5628291312872458E-003   2.1929289954575326E-003   6.0862789651942528E-002
  -3.8951545351451570E-003   2.7787202617432227E-003   6.0314782664815214E-002
  -3.2274799390030412E-003   3.6906007150017475E-003   5.9935422135216604E-002
  -2.5598053428609532E-003   4.9285703552324200E-003   5.9724708063147003E-002
  -6.4541566351741103E-003   2.1823454123507391E-003   5.7802412827984095E-002
  -5.5907957669313908E-003   2.4094836967383237E-003   5.7361983456615973E-002
  -4.7274348986886695E-003   3.0546148861536060E-003   5.7144280171920442E-002
  -3.8640740304459230E-003   4.1177389805965164E-003   5.7149302973897448E-002
  -3.0007131622032009E-003   5.5988559800669302E-003   5.7377051862546546E-002
  -7.8006663302027353E-003   2.4314639085576961E-003   5.3946866905416224E-002
  -6.6875395607157093E-003   2.6260383980193369E-003   5.3874565325391401E-002
  -5.5744127912286424E-003   3.3305095105637117E-003   5.4079069461182711E-002
  -4.4612860217415765E-003   4.5448772461913964E-003   5.4560379312790001E-002
  -3.3481592522545513E-003   6.2691416049013848E-003   5.5318494880213870E-002
  -9.2700328125152609E-003   2.6805824047646531E-003   5.0012805328894738E-002
  -7.8530605126402031E-003   2.8425930993003501E-003   5.0400535258268264E-002
  -6.4360882127651037E-003   3.6064041349740394E-003   5.1119150532601632E-002
  -5.0191159128900389E-003   4.9720155117858600E-003   5.2168651151894785E-002
  -3.6021436130149465E-003   6.9394272297358395E-003   5.3549037116148224E-002
  -2.0254357942277521E-003   4.2582847303982430E-003   6.2361463482014878E-002
  -2.2777411221787808E-003   5.5651235443466840E-003   5.8329631574177809E-002
  -2.5300464501298130E-003   7.2618099552940740E-003   5.4294432752391097E-002
  -2.7823517780808694E-003   9.3483439632399551E-003   5.0255867016655020E-002
  -3.0346571060318739E-003   1.1824725568184480E-002   4.6213934366969411E-002
  -2.5598053428609532E-003   4.9285703552324200E-003   5.9724708063147003E-002
  -2.8332714539774963E-003   6.5554393779229114E-003   5.6189322602858194E-002
  -3.1067375650940081E-003   8.6340179785603377E-003   5.2614982490187534E-002
  -3.3802036762105494E-003   1.1164306157144449E-002   4.9001687725135995E-002
  -3.6536697873270560E-003   1.4146303913675995E-002   4.5349438307702439E-002
  -3.0007131622032009E-003   5.5988559800669302E-003   5.7377051862546546E-002
  -3.3309277949169942E-003   7.5457552114988613E-003   5.4399974830753928E-002
  -3.6611424276307997E-003   1.0006226001826296E-002   5.1348355408148028E-002
  -3.9913570603445853E-003   1.2980268351049228E-002   4.8222193594728707E-002
  -4.3215716930583362E-003   1.6467882259167288E-002   4.5021489390496772E-002
  -3.3481592522545513E-003   6.2691416049013848E-003   5.5318494880213870E-002
  -3.7707101449972998E-003   8.5360710450751720E-003   5.2961588257865663E-002
  -4.1932610377400474E-003   1.1378434025092518E-002   5.0494551506272654E-002
  -4.6158119304827942E-003   1.4796230544953420E-002   4.7917384625434614E-002
  -5.0383628232255435E-003   1.8789460604658803E-002   4.5230087615352021E-002
  -3.6021436130149465E-003   6.9394272297358395E-003   5.3549037116148224E-002
  -4.1526185042183861E-003   9.5263868786510386E-003   5.1874162884193109E-002
  -4.7030933954218951E-003   1.2750642048358296E-002   5.0053570784561741E-002
  -5.2535682866254249E-003   1.6612192738858611E-002   4.8087260817253341E-002
  -5.8040431778288437E-003   2.1111038950150096E-002   4.5975232982268910E-002
  -4.8825741593597066E-002  -3.6780249955244981E-003   5.6830000354054666E-002
  -4.7519463908538145E-002   2.1594385739554522E-003   5.4981904847573315E-002
  -4.6213186223479211E-002   6.3500418569634870E-003   5.3786746216593823E-002
  -4.4906908538420297E-002   8.8937848534994986E-003   5.3244524461116258E-002
  -4.3600630853361355E-002   9.7906675635637264E-003   5.3355239581140856E-002
  -5.7014084152754538E-002   5.2636404386516844E-003   5.2190574107882970E-002
  -5.5173200292253269E-002   8.6422423427056916E-003   5.0234745778339751E-002
  -5.3332316431752104E-002   1.1007446310239560E-002   4.8695192924179009E-002
  -5.1491432571250897E-002   1.2359252341253145E-002   4.7571915545400967E-002
  -4.9650548710749684E-002   1.2697660435746744E-002   4.6864913642005540E-002
  -6.3861699723418153E-002   1.4205305872827895E-002   4.4775555021309435E-002
  -6.1722871087594028E-002   1.5125046111455986E-002   4.3345456218655987E-002
  -5.9584042451769834E-002   1.5664850763515627E-002   4.2094971491265863E-002
  -5.7445213815945716E-002   1.5824719829006871E-002   4.1024100839139002E-002
  -5.5306385180121528E-002   1.5604653307929650E-002   4.0132844262275355E-002
  -6.9368588305587925E-002   2.3146971307004091E-002   3.4584943094334172E-002
  -6.7168476294560187E-002   2.1607849880206254E-002   3.4314036168522376E-002
  -6.4968364283532490E-002   2.0322255216791697E-002   3.3986081917854460E-002
  -6.2768252272504710E-002   1.9290187316760531E-002   3.3601080342330621E-002
  -6.0568140261476999E-002   1.8511646180112640E-002   3.3159031441950447E-002
  -7.3534749899263840E-002   3.2088636741180288E-002   2.1618738326957043E-002
  -7.1510015913151898E-002   2.8090653648956632E-002   2.3140485627938578E-002
  -6.9485281927039899E-002   2.4979659670067808E-002   2.4368524203944725E-002
  -6.7460547940927929E-002   2.2755654804514174E-002   2.5302854054975357E-002
  -6.5435813954815958E-002   2.1418639052295574E-002   2.5943475181030684E-002
  -4.3600630853361355E-002   9.7906675635637264E-003   5.3355239581140856E-002
  -4.2018012826566545E-002   9.8190706503191449E-003   5.2379686233773565E-002
  -4.0435394799771734E-002   9.7573747769289787E-003   5.1716776235055273E-002
  -3.8852776772976938E-002   9.6055799433932068E-003   5.1366509584985995E-002
  -3.7270158746182114E-002   9.3636861497120027E-003   5.1328886283565578E-002
  -4.9650548710749684E-002   1.2697660435746744E-002   4.6864913642005540E-002
  -4.7789365363059083E-002   1.2495499620494219E-002   4.6170444233342808E-002
  -4.5928182015368475E-002   1.2225598922269869E-002   4.5720462117822783E-002
  -4.4066998667677881E-002   1.1887958341073755E-002   4.5514967295445345E-002
  -4.2205815319987253E-002   1.1482577876905875E-002   4.5553959766210544E-002
  -5.5306385180121528E-002   1.5604653307929650E-002   4.0132844262275355E-002
  -5.3234792567041542E-002   1.5171928590669223E-002   3.9741817869491096E-002
  -5.1163199953961493E-002   1.4693823067610814E-002   3.9527122714343096E-002
  -4.9091607340881471E-002   1.4170336738754358E-002   3.9488758796831322E-002
  -4.7020014727801450E-002   1.3601469604099942E-002   3.9626726116955863E-002
  -6.0568140261476999E-002   1.8511646180112640E-002   3.3159031441950447E-002
  -5.8354294438513886E-002   1.7848357560844318E-002   3.3093807142218282E-002
  -5.6140448615550766E-002   1.7162047212951621E-002   3.3136758024616103E-002
  -5.3926602792587708E-002   1.6452715136434932E-002   3.3287884089143883E-002
  -5.1712756969624595E-002   1.5720361331293967E-002   3.3547185335801345E-002
  -6.5435813954815958E-002   2.1418639052295574E-002   2.5943475181030684E-002
  -6.3147870977476150E-002   2.0524786531019357E-002   2.6226412051524595E-002
  -6.0859928000136385E-002   1.9630271358292678E-002   2.6549368048641941E-002
  -5.8571985022796584E-002   1.8735093534115517E-002   2.6912343172382877E-002
  -5.6284042045456784E-002   1.7839253058487936E-002   2.7315337422747277E-002
  -3.7270158746182114E-002   9.3636861497120027E-003   5.1328886283565578E-002
  -3.5688185146941567E-002   9.0532460488524646E-003   5.0767363623251793E-002
  -3.4106211547701035E-002   8.6958122937820514E-003   5.0417704503001565E-002
  -3.2524237948460495E-002   8.2913848845007979E-003   5.0279908922815003E-002
  -3.0942264349219956E-002   7.8399638210086553E-003   5.0353976882692220E-002
  -4.2205815319987253E-002   1.1482577876905875E-002   4.5553959766210544E-002
  -4.0417795753639220E-002   1.1031833346488051E-002   4.5073085747061870E-002
  -3.8629776187291187E-002   1.0558100566541939E-002   4.4792440122064556E-002
  -3.6841756620943127E-002   1.0061379537067566E-002   4.4712022891218693E-002
  -3.5053737054595066E-002   9.5416702580650714E-003   4.4831834054523900E-002
  -4.7020014727801450E-002   1.3601469604099942E-002   3.9626726116955863E-002
  -4.5037584340258230E-002   1.3010420644123707E-002   3.9250506143654995E-002
  -4.3055153952715058E-002   1.2420388839301869E-002   3.9062879418593308E-002
  -4.1072723565171880E-002   1.1831374189634442E-002   3.9063845941770488E-002
  -3.9090293177628653E-002   1.1243376695121515E-002   3.9253405713186459E-002
  -5.1712756969624595E-002   1.5720361331293967E-002   3.3547185335801345E-002
  -4.9547550906798618E-002   1.4989007941759357E-002   3.3299624813031024E-002
  -4.7382344843972669E-002   1.4282677112061722E-002   3.3229022392587501E-002
  -4.5217138781146762E-002   1.3601368842201264E-002   3.3335378074470422E-002
  -4.3051932718320744E-002   1.2945083132177834E-002   3.3618691858679925E-002
  -5.6284042045456784E-002   1.7839253058487936E-002   2.7315337422747277E-002
  -5.3947695453260391E-002   1.6967595239394978E-002   2.7220441755190117E-002
  -5.1611348861064027E-002   1.6144965384821713E-002   2.7290869044047344E-002
  -4.9275002268867663E-002   1.5371363494768066E-002   2.7526619289318710E-002
  -4.6938655676671270E-002   1.4646789569234320E-002   2.7927692491004297E-002
  -3.0942264349219956E-002   7.8399638210086553E-003   5.0353976882692220E-002
  -2.9257249677096059E-002   7.3852159111866822E-003   4.9821248689721098E-002
  -2.7572235004972134E-002   6.9708079629157566E-003   4.9484918490120239E-002
  -2.5887220332848203E-002   6.5967399761954031E-003   4.9344986283889378E-002
  -2.4202205660724313E-002   6.2630119510264093E-003   4.9401452071028529E-002
  -3.5053737054595066E-002   9.5416702580650714E-003   4.4831834054523900E-002
  -3.3180430413019754E-002   9.0160678511101433E-003   4.4391687397563162E-002
  -3.1307123771444505E-002   8.5016674377793588E-003   4.4131726686135048E-002
  -2.9433817129869182E-002   7.9984690180722740E-003   4.4051951920239515E-002
  -2.7560510488293929E-002   7.5064725919889996E-003   4.4152363099876801E-002
  -3.9090293177628653E-002   1.1243376695121515E-002   3.9253405713186459E-002
  -3.7044906614439384E-002   1.0646919791033937E-002   3.8876702624308840E-002
  -3.4999520051250094E-002   1.0032526912643190E-002   3.8663973433126282E-002
  -3.2954133488060845E-002   9.4001980599491466E-003   3.8615218139639210E-002
  -3.0908746924871583E-002   8.7499332329517565E-003   3.8730436743847296E-002
  -4.3051932718320744E-002   1.2945083132177834E-002   3.3618691858679925E-002
  -4.0850678281354885E-002   1.2277771730957676E-002   3.3276294369958201E-002
  -3.8649423844389047E-002   1.1563386387506962E-002   3.3081658731094372E-002
  -3.6448169407423153E-002   1.0801927101826075E-002   3.3034784942088273E-002
  -3.4246914970457350E-002   9.9933938739143746E-003   3.3135673002940347E-002
  -4.6938655676671270E-002   1.4646789569234320E-002   2.7927692491004297E-002
  -4.4597745413766210E-002   1.3908623670881359E-002   2.7590462634511315E-002
  -4.2256835150861205E-002   1.3094245862370721E-002   2.7384782580038930E-002
  -3.9915924887956145E-002   1.2203656143702859E-002   2.7310652327586879E-002
  -3.7575014625051140E-002   1.1236854514877215E-002   2.7368071877155398E-002
  -2.4202205660724313E-002   6.2630119510264093E-003   4.9401452071028529E-002
  -2.2413695670760181E-002   5.9049757088878163E-003   4.8988248717237060E-002
  -2.0625185680796063E-002   5.4579830712596644E-003   4.8777784249380840E-002
  -1.8836675690831930E-002   4.9220340381422034E-003   4.8770058667459870E-002
  -1.7048165700867812E-002   4.2971286095351280E-003   4.8965071971474150E-002
  -2.7560510488293929E-002   7.5064725919889996E-003   4.4152363099876801E-002
  -2.5583073076287439E-002   6.9984274141984271E-003   4.3669288726920275E-002
  -2.3605635664280998E-002   6.4470827393694197E-003   4.3361330312113255E-002
  -2.1628198252274543E-002   5.8524385675018040E-003   4.3228487855455661E-002
  -1.9650760840268067E-002   5.2144948985959338E-003   4.3270761356947296E-002
  -3.0908746924871583E-002   8.7499332329517565E-003   3.8730436743847296E-002
  -2.8770005018608623E-002   8.0918791195090378E-003   3.8223148250176836E-002
  -2.6631263112345677E-002   7.4361824074790639E-003   3.7863352786870225E-002
  -2.4492521206082772E-002   6.7828430968617376E-003   3.7651050353927004E-002
  -2.2353779299819826E-002   6.1318611876570173E-003   3.7586240951347577E-002
  -3.4246914970457350E-002   9.9933938739143746E-003   3.3135673002940347E-002
  -3.1974491497723696E-002   9.1853308248199816E-003   3.2649827287007126E-002
  -2.9702068024990067E-002   8.4252820755887636E-003   3.2283851673651706E-002
  -2.7429644552256452E-002   7.7132476262215602E-003   3.2037746162874157E-002
  -2.5157221079522847E-002   7.0492274767179064E-003   3.1911510754674056E-002
  -3.7575014625051140E-002   1.1236854514877215E-002   2.7368071877155398E-002
  -3.5196532513632667E-002   1.0278782530130148E-002   2.6949325837410720E-002
  -3.2818050402214222E-002   9.4143817436983523E-003   2.6622826972457769E-002
  -3.0439568290795777E-002   8.6436521555811885E-003   2.6388575282296906E-002
  -2.8061086179377304E-002   7.9665937657790176E-003   2.6246570766927824E-002
  -1.7048165700867812E-002   4.2971286095351280E-003   4.8965071971474150E-002
  -1.5103632478779688E-002   3.6940567519727630E-003   4.8843909584565415E-002
  -1.3159099256691537E-002   3.2236084319905156E-003   4.8978144348499397E-002
  -1.1214566034603420E-002   2.8857836495875186E-003   4.9367776263275737E-002
  -9.2700328125152609E-003   2.6805824047646531E-003   5.0012805328894738E-002
  -1.9650760840268067E-002   5.2144948985959338E-003   4.3270761356947296E-002
  -1.7489850131051976E-002   4.5950244178351030E-003   4.3116590691627099E-002
  -1.5328939421835740E-002   4.0557998104030768E-003   4.3139777849720368E-002
  -1.3168028712619583E-002   3.5968210762998068E-003   4.3340322831227268E-002
  -1.1007118003403357E-002   3.2180882155253832E-003   4.3718225636147690E-002
  -2.2353779299819826E-002   6.1318611876570173E-003   3.7586240951347577E-002
  -2.0054530430904528E-002   5.4959920836975540E-003   3.7346684343364633E-002
  -1.7755281561989304E-002   4.8879911888159849E-003   3.7206446231366333E-002
  -1.5456032693074063E-002   4.3078585030123205E-003   3.7165526615352683E-002
  -1.3156783824158788E-002   3.7555940262863352E-003   3.7223925495323551E-002
  -2.5157221079522847E-002   7.0492274767179064E-003   3.1911510754674056E-002
  -2.2797673378337539E-002   6.3969597495597830E-003   3.1534190539778052E-002
  -2.0438125677152121E-002   5.7201825672288306E-003   3.1178149493437345E-002
  -1.8078577975966775E-002   5.0188959297247770E-003   3.0843387615652210E-002
  -1.5719030274781394E-002   4.2930998370472873E-003   3.0529904906423044E-002
  -2.8061086179377304E-002   7.9665937657790176E-003   2.6246570766927824E-002
  -2.5719278973350856E-002   7.2979274154222895E-003   2.5679109280867363E-002
  -2.3377471767324326E-002   6.5523739456414820E-003   2.5054887635933221E-002
  -2.1035664561297865E-002   5.7299333564370183E-003   2.4373905832125925E-002
  -1.8693857355271348E-002   4.8306056478081283E-003   2.3636163869445115E-002
  -9.2700328125152609E-003   2.6805824047646531E-003   5.0012805328894738E-002
  -7.8530605126402031E-003   2.8425930993003501E-003   5.0400535258268264E-002
  -6.4360882127651037E-003   3.6064041349740394E-003   5.1119150532601632E-002
  -5.0191159128900389E-003   4.9720155117858600E-003   5.2168651151894785E-002
  -3.6021436130149465E-003   6.9394272297358395E-003   5.3549037116148224E-002
  -1.1007118003403357E-002   3.2180882155253832E-003   4.3718225636147690E-002
  -9.2413154068321651E-003   3.1532245196399522E-003   4.4285966286183753E-002
  -7.4755128102609314E-003   3.6358532802039656E-003   4.5220482184652300E-002
  -5.7097102136897011E-003   4.6659744972169168E-003   4.6521773331553218E-002
  -3.9439076171184501E-003   6.2435881706792706E-003   4.8189839726886508E-002
  -1.3156783824158788E-002   3.7555940262863352E-003   3.7223925495323551E-002
  -1.1006261027418897E-002   3.4638559399797764E-003   3.7917368981333494E-002
  -8.8557382306790576E-003   3.6653024254334476E-003   3.9013477619248366E-002
  -6.7052154339391681E-003   4.3599334826475294E-003   4.0512251409068223E-002
  -4.5546926371993271E-003   5.5477491116223687E-003   4.2413690350792788E-002
  -1.5719030274781394E-002   4.2930998370472873E-003   3.0529904906423044E-002
  -1.3147897374400426E-002   3.7744873603193785E-003   3.1294743343717714E-002
  -1.0576764474019375E-002   3.6947515706632628E-003   3.2498136836390204E-002
  -8.0056315736383912E-003   4.0538924680783642E-003   3.4140085384439946E-002
  -5.4344986732573503E-003   4.8519100525653003E-003   3.6220588987867064E-002
  -1.8693857355271348E-002   4.8306056478081283E-003   2.3636163869445115E-002
  -1.5666224447776655E-002   4.0851187806592582E-003   2.4418089373336338E-002
  -1.2638591540282018E-002   3.7242007158928558E-003   2.5674459836077412E-002
  -9.6109586327873808E-003   3.7478514535090324E-003   2.7405275257668588E-002
  -6.5833257252926880E-003   4.1560709935087869E-003   2.9610535638109448E-002
  -3.6021436130149465E-003   6.9394272297358395E-003   5.3549037116148224E-002
  -4.1526185042183861E-003   9.5263868786510386E-003   5.1874162884193109E-002
  -4.7030933954218951E-003   1.2750642048358296E-002   5.0053570784561741E-002
  -5.2535682866254249E-003   1.6612192738858611E-002   4.8087260817253341E-002
  -5.8040431778288437E-003   2.1111038950150096E-002   4.5975232982268910E-002
  -3.9439076171184501E-003   6.2435881706792706E-003   4.8189839726886508E-002
  -4.5362895550688093E-003   8.6799795058403739E-003   4.7253434493754298E-002
  -5.1286714930192587E-003   1.2286433707949351E-002   4.6378933034804837E-002
  -5.7210534309695762E-003   1.7062950777007313E-002   4.5566335350038178E-002
  -6.3134353689200118E-003   2.3009530713013593E-002   4.4815641439454046E-002
  -4.5546926371993271E-003   5.5477491116223687E-003   4.2413690350792788E-002
  -4.9813599800371811E-003   7.8335721330295982E-003   4.2748521462639466E-002
  -5.4080273228750385E-003   1.1822225367540740E-002   4.3352877990528338E-002
  -5.8346946657129011E-003   1.7513708815156515E-002   4.4226759934458973E-002
  -6.2613620085507499E-003   2.4908022475876646E-002   4.5370167294432440E-002
  -5.4344986732573503E-003   4.8519100525653003E-003   3.6220588987867064E-002
  -5.4878297791233332E-003   6.9871647602185449E-003   3.8359423790848696E-002
  -5.5411608849893481E-003   1.1358017027131739E-002   4.0975405651731370E-002
  -5.5944919908553492E-003   1.7964466853306021E-002   4.4068534570516148E-002
  -5.6478230967214015E-003   2.6806514238740031E-002   4.7638810547201899E-002
  -6.5833257252926880E-003   4.1560709935087869E-003   2.9610535638109448E-002
  -6.0556989523273264E-003   6.1407573874079358E-003   3.4086141478381626E-002
  -5.5280721793620757E-003   1.0893808686723211E-002   3.9246516018414834E-002
  -5.0004454063968667E-003   1.8415224891454703E-002   4.5091659258209321E-002
  -4.4728186334315190E-003   2.8705006001603195E-002   5.1621571197764116E-002
  -7.3534749899263840E-002   3.2088636741180288E-002   2.1618738326957043E-002
  -7.1510015913151898E-002   2.8090653648956632E-002   2.3140485627938578E-002
  -6.9485281927039899E-002   2.4979659670067808E-002   2.4368524203944725E-002
  -6.7460547940927929E-002   2.2755654804514174E-002   2.5302854054975357E-002
  -6.5435813954815958E-002   2.1418639052295574E-002   2.5943475181030684E-002
  -7.8402283318539184E-002   2.8938325601368386E-002   2.1502457816394316E-002
  -7.6408661978776105E-002   2.6556197386637892E-002   2.1206782222828541E-002
  -7.4415040639013150E-002   2.4613983391609917E-002   2.1142590061540206E-002
  -7.2421419299250112E-002   2.3111683616284281E-002   2.1309881332529437E-002
  -7.0427797959487143E-002   2.2049298060661110E-002   2.1708656035795970E-002
  -8.6013287377506825E-002   2.5788014461556513E-002   2.3225569630141149E-002
  -8.3525586526839946E-002   2.5021741124319347E-002   2.0665396248395515E-002
  -8.1037885676173080E-002   2.4248307113152033E-002   1.8861898456180227E-002
  -7.8550184825506186E-002   2.3467712428054364E-002   1.7815076253495179E-002
  -7.6062483974839334E-002   2.2679957069026591E-002   1.7524929640340373E-002
  -9.6367762076166957E-002   2.2637703321744571E-002   2.6788073768197414E-002
  -9.2860789557343379E-002   2.3487284862000732E-002   2.1516327704639328E-002
  -8.9353817038519759E-002   2.3882630834693924E-002   1.7526449387864247E-002
  -8.5846844519696042E-002   2.3823741239824513E-002   1.4818438817872506E-002
  -8.2339872000872408E-002   2.3310616077392043E-002   1.3392295994664023E-002
 -0.10946570741451955        1.9487392181932739E-002   3.2189970230563580E-002
 -0.10441427107028634        2.1952828599681951E-002   2.3759576591560361E-002
  -9.9362834726053006E-002   2.3516954556236147E-002   1.7136242856592959E-002
  -9.4311398381819733E-002   2.4179770051594773E-002   1.2319969025661674E-002
  -8.9259962037586460E-002   2.3941275085757718E-002   9.3107550987666099E-003
  -6.5435813954815958E-002   2.1418639052295574E-002   2.5943475181030684E-002
  -6.3147870977476150E-002   2.0524786531019357E-002   2.6226412051524595E-002
  -6.0859928000136385E-002   1.9630271358292678E-002   2.6549368048641941E-002
  -5.8571985022796584E-002   1.8735093534115517E-002   2.6912343172382877E-002
  -5.6284042045456784E-002   1.7839253058487936E-002   2.7315337422747277E-002
  -7.0427797959487143E-002   2.2049298060661110E-002   2.1708656035795970E-002
  -6.8040295311108084E-002   2.1206174030950084E-002   2.1407404530360483E-002
  -6.5652792662729068E-002   2.0361658833361128E-002   2.1265253240379894E-002
  -6.3265290014349995E-002   1.9515752467894228E-002   2.1282202165854448E-002
  -6.0877787365970992E-002   1.8668454934549217E-002   2.1458251306783860E-002
  -7.6062483974839334E-002   2.2679957069026591E-002   1.7524929640340373E-002
  -7.3456340566589534E-002   2.1887561530881033E-002   1.6638761242547838E-002
  -7.0850197158339720E-002   2.1093046308429800E-002   1.6030774149041943E-002
  -6.8244053750089906E-002   2.0296411401672935E-002   1.5700968359822223E-002
  -6.5637910341840050E-002   1.9497656810610359E-002   1.5649343874889241E-002
  -8.2339872000872408E-002   2.3310616077392043E-002   1.3392295994664023E-002
  -7.9396006743920444E-002   2.2568949030811788E-002   1.1920482188086995E-002
  -7.6452141486968384E-002   2.1824433783498166E-002   1.0845930774627695E-002
  -7.3508276230016323E-002   2.1077070335451809E-002   1.0168641754286716E-002
  -7.0564410973064345E-002   2.0326858686671848E-002   9.8886151270633840E-003
  -8.9259962037586460E-002   2.3941275085757718E-002   9.3107550987666099E-003
  -8.5859293843100759E-002   2.3250336530742599E-002   7.2525673669774915E-003
  -8.2458625648615003E-002   2.2555821258566838E-002   5.7107231171375089E-003
  -7.9057957454129246E-002   2.1857729269230304E-002   4.6852223492472901E-003
  -7.5657289259643545E-002   2.1156060562732892E-002   4.1760650633062557E-003
  -5.6284042045456784E-002   1.7839253058487936E-002   2.7315337422747277E-002
  -5.3947695453260391E-002   1.6967595239394978E-002   2.7220441755190117E-002
  -5.1611348861064027E-002   1.6144965384821713E-002   2.7290869044047344E-002
  -4.9275002268867663E-002   1.5371363494768066E-002   2.7526619289318710E-002
  -4.6938655676671270E-002   1.4646789569234320E-002   2.7927692491004297E-002
  -6.0877787365970992E-002   1.8668454934549217E-002   2.1458251306783860E-002
  -5.8364836903746525E-002   1.7832005529214240E-002   2.1244316591694373E-002
  -5.5851886441522072E-002   1.7018643547777101E-002   2.1218266660246746E-002
  -5.3338935979297619E-002   1.6228368990237482E-002   2.1380101512441178E-002
  -5.0825985517073166E-002   1.5461181856595896E-002   2.1729821148277484E-002
  -6.5637910341840050E-002   1.9497656810610359E-002   1.5649343874889241E-002
  -6.2925794182359912E-002   1.8696415819033432E-002   1.5290429571645475E-002
  -6.0213678022879649E-002   1.7892321710732143E-002   1.5141961879271360E-002
  -5.7501561863399421E-002   1.7085374485706895E-002   1.5203940797766734E-002
  -5.4789445703919248E-002   1.6275574143957500E-002   1.5476366327131827E-002
  -7.0564410973064345E-002   2.0326858686671848E-002   9.8886151270633840E-003
  -6.7630567289100593E-002   1.9560826108852410E-002   9.3587806950434782E-003
  -6.4696723605136897E-002   1.8765999873687135E-002   9.0619547011208910E-003
  -6.1762879921173200E-002   1.7942379981176197E-002   8.9981371452957631E-003
  -5.8829036237209462E-002   1.7089966431319312E-002   9.1673280275680856E-003
  -7.5657289259643545E-002   2.1156060562732892E-002   4.1760650633062557E-003
  -7.2479156223968666E-002   2.0425236398671609E-002   3.4493699618883822E-003
  -6.9301023188293731E-002   1.9639678036642488E-002   2.9782451257958642E-003
  -6.6122890152618852E-002   1.8799385476645371E-002   2.7626905550280773E-003
  -6.2944757116943917E-002   1.7904358718680902E-002   2.8027062495853405E-003
  -4.6938655676671270E-002   1.4646789569234320E-002   2.7927692491004297E-002
  -4.4597745413766210E-002   1.3908623670881359E-002   2.7590462634511315E-002
  -4.2256835150861205E-002   1.3094245862370721E-002   2.7384782580038930E-002
  -3.9915924887956145E-002   1.2203656143702859E-002   2.7310652327586879E-002
  -3.7575014625051140E-002   1.1236854514877215E-002   2.7368071877155398E-002
  -5.0825985517073166E-002   1.5461181856595896E-002   2.1729821148277484E-002
  -4.8347664763008669E-002   1.4689076489871444E-002   2.1267753734368733E-002
  -4.5869344008944206E-002   1.3884047233083577E-002   2.0948957500758453E-002
  -4.3391023254879785E-002   1.3046094086232394E-002   2.0773432447446519E-002
  -4.0912702500815301E-002   1.2175217049317677E-002   2.0741178574433028E-002
  -5.4789445703919248E-002   1.6275574143957500E-002   1.5476366327131827E-002
  -5.2161993080417399E-002   1.5469529308861779E-002   1.4932749375901652E-002
  -4.9534540456915688E-002   1.4673848603796662E-002   1.4544124983247607E-002
  -4.6907087833413907E-002   1.3888532028762042E-002   1.4310493149170090E-002
  -4.4279635209912113E-002   1.3113579583757973E-002   1.4231853873668598E-002
  -5.8829036237209462E-002   1.7089966431319312E-002   9.1673280275680856E-003
  -5.6040730365992497E-002   1.6249982127851545E-002   8.5854495591103641E-003
  -5.3252424494775470E-002   1.5463649974509632E-002   8.1702850275063837E-003
  -5.0464118623558485E-002   1.4730969971291190E-002   7.9218344327572320E-003
  -4.7675812752341479E-002   1.4051942118198296E-002   7.8400977748618386E-003
  -6.2944757116943917E-002   1.7904358718680902E-002   2.8027062495853405E-003
  -5.9983876619733811E-002   1.7030434946841977E-002   2.2258542839943551E-003
  -5.7022996122523706E-002   1.6253451345222214E-002   1.8274376335352671E-003
  -5.4062115625313573E-002   1.5573407913821294E-002   1.6074562982083679E-003
  -5.1101235128103495E-002   1.4990304652638731E-002   1.5659102780134493E-003
  -3.7575014625051140E-002   1.1236854514877215E-002   2.7368071877155398E-002
  -3.5196532513632667E-002   1.0278782530130148E-002   2.6949325837410720E-002
  -3.2818050402214222E-002   9.4143817436983523E-003   2.6622826972457769E-002
  -3.0439568290795777E-002   8.6436521555811885E-003   2.6388575282296906E-002
  -2.8061086179377304E-002   7.9665937657790176E-003   2.6246570766927824E-002
  -4.0912702500815301E-002   1.2175217049317677E-002   2.0741178574433028E-002
  -3.8439333514045021E-002   1.1309806655784960E-002   2.0364591589486558E-002
  -3.5965964527274741E-002   1.0488253439079526E-002   2.0085531180451810E-002
  -3.3492595540504481E-002   9.7105573992013125E-003   1.9903997347328672E-002
  -3.1019226553734236E-002   8.9767185361503410E-003   1.9819990090117312E-002
  -4.4279635209912113E-002   1.3113579583757973E-002   1.4231853873668598E-002
  -4.1706099946670294E-002   1.2340830781439494E-002   1.3847611922033015E-002
  -3.9132564683428434E-002   1.1562125134460588E-002   1.3566175947428594E-002
  -3.6559029420186621E-002   1.0777462642821159E-002   1.3387545949855473E-002
  -3.3985494156944754E-002   9.9868433065217199E-003   1.3311721929314180E-002
  -4.7675812752341479E-002   1.4051942118198296E-002   7.8400977748618386E-003
  -4.4996831811508334E-002   1.3371854907093944E-002   7.3983868350497653E-003
  -4.2317850870675217E-002   1.2635996829841484E-002   7.0647612733883702E-003
  -3.9638869929842085E-002   1.1844367886441366E-002   6.8392210898782536E-003
  -3.6959888989008954E-002   1.0996968076893127E-002   6.7217662845190304E-003
  -5.1101235128103495E-002   1.4990304652638731E-002   1.5659102780134493E-003
  -4.8311529108559292E-002   1.4402879032748950E-002   1.0169163285363991E-003
  -4.5521823089015090E-002   1.3709868525222824E-002   5.8128715833019595E-004
  -4.2732117069470915E-002   1.2911273130061240E-002   2.5902276739470792E-004
  -3.9942411049926685E-002   1.2007092847264422E-002   5.0123155730941171E-005
  -2.8061086179377304E-002   7.9665937657790176E-003   2.6246570766927824E-002
  -2.5719278973350856E-002   7.2979274154222895E-003   2.5679109280867363E-002
  -2.3377471767324326E-002   6.5523739456414820E-003   2.5054887635933221E-002
  -2.1035664561297865E-002   5.7299333564370183E-003   2.4373905832125925E-002
  -1.8693857355271348E-002   4.8306056478081283E-003   2.3636163869445115E-002
  -3.1019226553734236E-002   8.9767185361503410E-003   1.9819990090117312E-002
  -2.8714160859469554E-002   8.2580491433378311E-003   1.9219217344427775E-002
  -2.6409095165204857E-002   7.5258615141758078E-003   1.8601721734087889E-002
  -2.4104029470940182E-002   6.7801556486638340E-003   1.7967503259097822E-002
  -2.1798963776675478E-002   6.0209315468019442E-003   1.7316561919457574E-002
  -3.3985494156944754E-002   9.9868433065217199E-003   1.3311721929314180E-002
  -3.1677132680218739E-002   9.2181708712542887E-003   1.2741006807069716E-002
  -2.9368771203492752E-002   8.4993490827101198E-003   1.2193606114398084E-002
  -2.7060409726766755E-002   7.8303779408910902E-003   1.1669519851299472E-002
  -2.4752048250040695E-002   7.2112574457954826E-003   1.1168748017773455E-002
  -3.6959888989008954E-002   1.0996968076893127E-002   6.7217662845190304E-003
  -3.4608194435598483E-002   1.0178292599170233E-002   6.2444776687933939E-003
  -3.2256499882188018E-002   9.4728366512449383E-003   5.8305407768637768E-003
  -2.9904805328777539E-002   8.8806002331184037E-003   5.4799556087304722E-003
  -2.7553110775367082E-002   8.4015833447888266E-003   5.1927221643928781E-003
  -3.9942411049926685E-002   1.2007092847264422E-002   5.0123155730941171E-005
  -3.7507346125608687E-002   1.1138414327085733E-002  -2.7037007040120464E-004
  -3.5072281201290634E-002   1.0446324219779091E-002  -4.8747427851483782E-004
  -3.2637216276972664E-002   9.9308225253450788E-003  -6.0118946860882733E-004
  -3.0202151352654583E-002   9.5919092437826148E-003  -6.1151564068406827E-004
  -1.8693857355271348E-002   4.8306056478081283E-003   2.3636163869445115E-002
  -1.5666224447776655E-002   4.0851187806592582E-003   2.4418089373336338E-002
  -1.2638591540282018E-002   3.7242007158928558E-003   2.5674459836077412E-002
  -9.6109586327873808E-003   3.7478514535090324E-003   2.7405275257668588E-002
  -6.5833257252926880E-003   4.1560709935087869E-003   2.9610535638109448E-002
  -2.1798963776675478E-002   6.0209315468019442E-003   1.7316561919457574E-002
  -1.8567038252550322E-002   5.3476241161878324E-003   1.8265317219782640E-002
  -1.5335112728425096E-002   4.8596682644199141E-003   1.9148212794518754E-002
  -1.2103187204299877E-002   4.5570639914974537E-003   1.9965248643666209E-002
  -8.8712616801747135E-003   4.4398112974216586E-003   2.0716424767224684E-002
  -2.4752048250040695E-002   7.2112574457954826E-003   1.1168748017773455E-002
  -2.1856134793723753E-002   6.6101294517163789E-003   1.2085115890995535E-002
  -1.8960221337406831E-002   5.9951358129468613E-003   1.2395319354189832E-002
  -1.6064307881089847E-002   5.3662765294858750E-003   1.2099358407356681E-002
  -1.3168394424772967E-002   4.7235516013341416E-003   1.1197233050495831E-002
  -2.7553110775367082E-002   8.4015833447888266E-003   5.1927221643928781E-003
  -2.5533514071297135E-002   7.8726347872450503E-003   5.8774853869751759E-003
  -2.3513917367227161E-002   7.1306033614738640E-003   5.4157795150906185E-003
  -2.1494320663157263E-002   6.1754890674741852E-003   3.8076045487401393E-003
  -1.9474723959087236E-002   5.0072919052471521E-003   1.0529604879231588E-003
  -3.0202151352654583E-002   9.5919092437826148E-003  -6.1151564068406827E-004
  -2.9599176085270407E-002   9.1351401227736106E-003  -3.5757429227872839E-004
  -2.8996200817886231E-002   8.2660709100005891E-003  -1.7904067227784703E-003
  -2.8393225550502027E-002   6.9847016054625372E-003  -4.9100129321835578E-003
  -2.7790250283117879E-002   5.2910322091594963E-003  -9.7163929204936439E-003
  -6.5833257252926880E-003   4.1560709935087869E-003   2.9610535638109448E-002
  -6.0556989523273264E-003   6.1407573874079358E-003   3.4086141478381626E-002
  -5.5280721793620757E-003   1.0893808686723211E-002   3.9246516018414834E-002
  -5.0004454063968667E-003   1.8415224891454703E-002   4.5091659258209321E-002
  -4.4728186334315190E-003   2.8705006001603195E-002   5.1621571197764116E-002
  -8.8712616801747135E-003   4.4398112974216586E-003   2.0716424767224684E-002
  -7.5861294618582154E-003   5.6570475454257863E-003   2.5881566168736658E-002
  -6.3009972435416339E-003   9.3579100987453978E-003   3.1876949761190487E-002
  -5.0158650252250803E-003   1.5542398957380431E-002   3.8702575544585532E-002
  -3.7307328069085544E-003   2.4210514121330462E-002   4.6358443518921932E-002
  -1.3168394424772967E-002   4.7235516013341416E-003   1.1197233050495831E-002
  -1.0980283269924604E-002   5.1733377034438588E-003   1.6767171413146792E-002
  -8.7921721150763105E-003   7.8220115107679039E-003   2.3312825457919698E-002
  -6.6040609602279858E-003   1.2669573023305878E-002   3.0834195184814610E-002
  -4.4159498053797652E-003   1.9716022241058173E-002   3.9331280593831841E-002
  -1.9474723959087236E-002   5.0072919052471521E-003   1.0529604879231588E-003
  -1.6238160376526711E-002   4.6896278614621534E-003   6.7429572116116457E-003
  -1.3001596793966187E-002   6.2861129227906945E-003   1.3554143108602718E-002
  -9.7650332114056215E-003   9.7967470892319098E-003   2.1486518178896512E-002
  -6.5284696288451308E-003   1.5221530360785773E-002   3.0540082422492620E-002
  -2.7790250283117879E-002   5.2910322091594963E-003  -9.7163929204936439E-003
  -2.3359760781664352E-002   4.2059180194802259E-003  -4.1910764358685793E-003
  -1.8929271280210991E-002   4.7502143348130410E-003   2.6009027132395945E-003
  -1.4498781778757575E-002   6.9239211551567204E-003   1.0659544526830503E-002
  -1.0068292277304103E-002   1.0727038480513151E-002   1.9984849004904603E-002
 </DataArray>
 </PointData>
 </Piece>
 </UnstructuredGrid>
 </VTKFile>
